<?xml version="1.0"?>
<VTKFile type="UnstructuredGrid" version="0.1" byte_order="LittleEndian">
<UnstructuredGrid>
<Piece NumberOfPoints="31460" NumberOfCells="11032">
<Points>
<DataArray type="Float64" NumberOfComponents="3" format="ascii">
-0.5 -0.5 0 -0.45826379443595727 -0.49240595043268048 0 -0.46642144748582659 -0.46827107884399732 0 -0.5 -0.5 0 -0.45826379443595727 -0.49240595043268048 0 -0.45848359805609501 -0.5 0 -0.5 -0.5 0 -0.46642144748582659 -0.46827107884399732 0 -0.47457910053569591 -0.44413620725531422 0 -0.5 -0.5 0 -0.47457910053569591 -0.44413620725531422 0 -0.5 -0.41751269325046653 0 -0.45826379443595727 -0.49240595043268048 0 -0.45848359805609501 -0.5 0 -0.42679110151757371 -0.48004619837947488 0 -0.45826379443595727 -0.49240595043268048 0 -0.44201261089570698 -0.4714523331548211 0 -0.42679110151757371 -0.48004619837947488 0 -0.45826379443595727 -0.49240595043268048 0 -0.46642144748582659 -0.46827107884399732 0 -0.45826379443595727 -0.49240595043268048 0 -0.44201261089570698 -0.4714523331548211 0 -0.46642144748582659 -0.46827107884399732 0 -0.44240823633296938 -0.45229162232937098 0 -0.45670593271524501 -0.43994674796861938 0 -0.44031796922511218 -0.42850724856467381 0 -0.44201261089570698 -0.4714523331548211 0 -0.44240823633296938 -0.45229162232937098 0 -0.46642144748582659 -0.46827107884399732 0 -0.44240823633296938 -0.45229162232937098 0 -0.46642144748582659 -0.46827107884399732 0 -0.45670593271524501 -0.43994674796861938 0 -0.46642144748582659 -0.46827107884399732 0 -0.45670593271524501 -0.43994674796861938 0 -0.47457910053569591 -0.44413620725531422 0 -0.46642144748582659 -0.46827107884399732 0 -0.47457910053569591 -0.44413620725531422 0 -0.47457910053569591 -0.44413620725531422 0 -0.5 -0.41751269325046653 0 -0.48273675358556511 -0.42000133566663111 0 -0.5 -0.41751269325046653 0 -0.48273675358556511 -0.42000133566663111 0 -0.49089440663543438 -0.39586646407794801 0 -0.48273675358556511 -0.42000133566663111 0 -0.49089440663543438 -0.39586646407794801 0 -0.48273675358556511 -0.42000133566663111 0 -0.47239969127523262 -0.40464396238003442 0 -0.46060228419306642 -0.42088664922356989 0 -0.48273675358556511 -0.42000133566663111 0 -0.49089440663543438 -0.39586646407794801 0 -0.47239969127523262 -0.40464396238003442 0 -0.47457910053569591 -0.44413620725531422 0 -0.48273675358556511 -0.42000133566663111 0 -0.46060228419306642 -0.42088664922356989 0 -0.47457910053569591 -0.44413620725531422 0 -0.48273675358556511 -0.42000133566663111 0 -0.5 -0.41751269325046653 0 -0.49089440663543438 -0.39586646407794801 0 -0.5 -0.35718982066189531 0 -0.49089440663543438 -0.39586646407794801 0 -0.47239969127523262 -0.40464396238003442 0 -0.47015997070342119 -0.38996932702083759 0 -0.49089440663543438 -0.39586646407794801 0 -0.47015997070342119 -0.38996932702083759 0 -0.47429781889144779 -0.36869290898349849 0 -0.47015997070342119 -0.38996932702083759 0 -0.45406055381680549 -0.3790110336362707 0 -0.47429781889144779 -0.36869290898349849 0 -0.47015997070342119 -0.38996932702083759 0 -0.45406055381680549 -0.3790110336362707 0 -0.45692306129662602 -0.39916895556881221 0 -0.47239969127523262 -0.40464396238003442 0 -0.47015997070342119 -0.38996932702083759 0 -0.45692306129662602 -0.39916895556881221 0 -0.45406055381680549 -0.3790110336362707 0 -0.45692306129662602 -0.39916895556881221 0 -0.44355292439190502 -0.39507389339917143 0 -0.45692306129662602 -0.39916895556881221 0 -0.44355292439190502 -0.39507389339917143 0 -0.44688333252642382 -0.41058587036408029 0 -0.44355292439190502 -0.39507389339917143 0 -0.44688333252642382 -0.41058587036408029 0 -0.43210225647489492 -0.40762766561943192 0 -0.45406055381680549 -0.3790110336362707 0 -0.44355292439190502 -0.39507389339917143 0 -0.44065104410712241 -0.3826525541742411 0 -0.44355292439190502 -0.39507389339917143 0 -0.44065104410712241 -0.3826525541742411 0 -0.43069729812955759 -0.39139728103219218 0 -0.45670593271524501 -0.43994674796861938 0 -0.47457910053569591 -0.44413620725531422 0 -0.46060228419306642 -0.42088664922356989 0 -0.47239969127523262 -0.40464396238003442 0 -0.45692306129662602 -0.39916895556881221 0 -0.46060228419306642 -0.42088664922356989 0 -0.45692306129662602 -0.39916895556881221 0 -0.46060228419306642 -0.42088664922356989 0 -0.44688333252642382 -0.41058587036408029 0 -0.46060228419306642 -0.42088664922356989 0 -0.44688333252642382 -0.41058587036408029 0 -0.44031796922511218 -0.42850724856467381 0 -0.44688333252642382 -0.41058587036408029 0 -0.44031796922511218 -0.42850724856467381 0 -0.43210225647489492 -0.40762766561943192 0 -0.45670593271524501 -0.43994674796861938 0 -0.46060228419306642 -0.42088664922356989 0 -0.44031796922511218 -0.42850724856467381 0 -0.44031796922511218 -0.42850724856467381 0 -0.42101849629073163 -0.4240660635467729 0 -0.42333571139453008 -0.44444857464324627 0 -0.43210225647489492 -0.40762766561943192 0 -0.42101849629073163 -0.4240660635467729 0 -0.41813940108592951 -0.4002994084223529 0 -0.44031796922511218 -0.42850724856467381 0 -0.43210225647489492 -0.40762766561943192 0 -0.42101849629073163 -0.4240660635467729 0 -0.40688855083469172 -0.41211063442899998 0 -0.42101849629073163 -0.4240660635467729 0 -0.41813940108592951 -0.4002994084223529 0 -0.40688855083469172 -0.41211063442899998 0 -0.42101849629073163 -0.4240660635467729 0 -0.4016048111967645 -0.43978488499474971 0 -0.42101849629073163 -0.4240660635467729 0 -0.4016048111967645 -0.43978488499474971 0 -0.42333571139453008 -0.44444857464324627 0 -0.43069932187709958 -0.37879002033441939 0 -0.42063656841534353 -0.38461657006784372 0 -0.42385265753588541 -0.3725179346807968 0 -0.44065104410712241 -0.3826525541742411 0 -0.43069932187709958 -0.37879002033441939 0 -0.43069729812955759 -0.39139728103219218 0 -0.43069932187709958 -0.37879002033441939 0 -0.43069729812955759 -0.39139728103219218 0 -0.42063656841534353 -0.38461657006784372 0 -0.43069729812955759 -0.39139728103219218 0 -0.41813940108592951 -0.4002994084223529 0 -0.42063656841534353 -0.38461657006784372 0 -0.43210225647489492 -0.40762766561943192 0 -0.43069729812955759 -0.39139728103219218 0 -0.41813940108592951 -0.4002994084223529 0 -0.44355292439190502 -0.39507389339917143 0 -0.43210225647489492 -0.40762766561943192 0 -0.43069729812955759 -0.39139728103219218 0 -0.40688855083469172 -0.41211063442899998 0 -0.41813940108592951 -0.4002994084223529 0 -0.41217229047262077 -0.38443638386325091 0 -0.40688855083469172 -0.41211063442899998 0 -0.41217229047262077 -0.38443638386325091 0 -0.41813940108592951 -0.4002994084223529 0 -0.42063656841534353 -0.38461657006784372 0 -0.41217229047262077 -0.38443638386325091 0 -0.42063656841534353 -0.38461657006784372 0 -0.41217229047262077 -0.38443638386325091 0 -0.42063656841534353 -0.38461657006784372 0 -0.41217229047262077 -0.38443638386325091 0 -0.42385265753588541 -0.3725179346807968 0 -0.41217229047262077 -0.38443638386325091 0 -0.39638845942390522 -0.39754947296885251 0 -0.39027020230279269 -0.38397013568871091 0 -0.41217229047262077 -0.38443638386325091 0 -0.39027020230279269 -0.38397013568871091 0 -0.39866833408116109 -0.359484049848948 0 -0.41217229047262077 -0.38443638386325091 0 -0.39027020230279269 -0.38397013568871091 0 -0.40688855083469172 -0.41211063442899998 0 -0.41217229047262077 -0.38443638386325091 0 -0.39638845942390522 -0.39754947296885251 0 -0.40688855083469172 -0.41211063442899998 0 -0.39638845942390522 -0.39754947296885251 0 -0.39207740415033382 -0.40817179700541478 0 -0.39638845942390522 -0.39754947296885251 0 -0.38053384935908718 -0.39905841385788582 0 -0.39027020230279269 -0.38397013568871091 0 -0.39638845942390522 -0.39754947296885251 0 -0.38053384935908718 -0.39905841385788582 0 -0.39207740415033382 -0.40817179700541478 0 -0.38053384935908718 -0.39905841385788582 0 -0.38076443343398969 -0.4131052076953004 0 -0.37129162846163649 -0.40646668987925128 0 -0.38053384935908718 -0.39905841385788582 0 -0.39027020230279269 -0.38397013568871091 0 -0.36836811413296489 -0.38350388751415809 0 -0.39027020230279269 -0.38397013568871091 0 -0.37276014916928413 -0.36968874551325409 0 -0.36836811413296489 -0.38350388751415809 0 -0.39027020230279269 -0.38397013568871091 0 -0.36836811413296489 -0.38350388751415809 0 -0.39119617914405191 -0.42217665770588209 0 -0.38893306401390532 -0.43437150840034638 0 -0.4016048111967645 -0.43978488499474971 0 -0.40688855083469172 -0.41211063442899998 0 -0.39119617914405191 -0.42217665770588209 0 -0.4016048111967645 -0.43978488499474971 0 -0.40688855083469172 -0.41211063442899998 0 -0.4016048111967645 -0.43978488499474971 0 -0.40688855083469172 -0.41211063442899998 0 -0.39119617914405191 -0.42217665770588209 0 -0.39207740415033382 -0.40817179700541478 0 -0.39119617914405191 -0.42217665770588209 0 -0.39207740415033382 -0.40817179700541478 0 -0.38076443343398969 -0.4131052076953004 0 -0.39119617914405191 -0.42217665770588209 0 -0.38076443343398969 -0.4131052076953004 0 -0.37754063201758509 -0.42531469454045251 0 -0.38053384935908718 -0.39905841385788582 0 -0.39207740415033382 -0.40817179700541478 0 -0.38076443343398969 -0.4131052076953004 0 -0.38076443343398969 -0.4131052076953004 0 -0.37754063201758509 -0.42531469454045251 0 -0.36883198683104568 -0.41905626867772777 0 -0.37754063201758509 -0.42531469454045251 0 -0.38893306401390532 -0.43437150840034638 0 -0.38539063369721949 -0.45020979636030162 0 -0.39119617914405191 -0.42217665770588209 0 -0.37754063201758509 -0.42531469454045251 0 -0.38893306401390532 -0.43437150840034638 0 -0.37754063201758509 -0.42531469454045251 0 -0.38539063369721949 -0.45020979636030162 0 -0.37754063201758509 -0.42531469454045251 0 -0.38539063369721949 -0.45020979636030162 0 -0.3683365684192384 -0.44086890113562249 0 -0.38893306401390532 -0.43437150840034638 0 -0.38539063369721949 -0.45020979636030162 0 -0.4016048111967645 -0.43978488499474971 0 -0.38539063369721949 -0.45020979636030162 0 -0.4016048111967645 -0.43978488499474971 0 -0.40699761504363058 -0.45864100006030317 0 -0.38539063369721949 -0.45020979636030162 0 -0.39324063537685378 -0.47510489818015061 0 -0.40699761504363058 -0.45864100006030317 0 -0.38539063369721949 -0.45020979636030162 0 -0.39324063537685378 -0.47510489818015061 0 -0.38539063369721949 -0.45020979636030162 0 -0.38336291168111958 -0.46720898787430287 0 -0.39324063537685378 -0.47510489818015061 0 -0.38539063369721949 -0.45020979636030162 0 -0.38336291168111958 -0.46720898787430287 0 -0.37637167717206421 -0.46315756360206228 0 -0.38539063369721949 -0.45020979636030162 0 -0.37637167717206421 -0.46315756360206228 0 -0.37087628372248771 -0.45312649174698061 0 -0.38336291168111958 -0.46720898787430287 0 -0.37637167717206421 -0.46315756360206228 0 -0.37844870047834112 -0.48036369335469709 0 -0.38336291168111958 -0.46720898787430287 0 -0.37844870047834112 -0.48036369335469709 0 -0.39324063537685378 -0.47510489818015061 0 -0.37844870047834112 -0.48036369335469709 0 -0.39487403845899272 -0.50000000000000244 0 -0.37844870047834112 -0.48036369335469709 0 -0.37537080740044071 -0.48717709628316791 0 -0.39487403845899272 -0.50000000000000244 0 -0.37844870047834112 -0.48036369335469709 0 -0.39487403845899272 -0.50000000000000244 0 -0.39324063537685378 -0.47510489818015061 0 -0.37537080740044071 -0.48717709628316791 0 -0.39487403845899272 -0.50000000000000244 0 -0.36812109369960322 -0.5 0 -0.40109063705648801 -0.49999999999999961 0 -0.39324063537685378 -0.47510489818015061 0 -0.40109063705648801 -0.49999999999999961 0 -0.39487403845899272 -0.50000000000000244 0 -0.39324063537685378 -0.47510489818015061 0 -0.39324063537685378 -0.47510489818015061 0 -0.42679110151757371 -0.48004619837947488 0 -0.40699761504363058 -0.45864100006030317 0 -0.45848359805609501 -0.5 0 -0.40109063705648801 -0.49999999999999961 0 -0.42679110151757371 -0.48004619837947488 0 -0.40109063705648801 -0.49999999999999961 0 -0.39324063537685378 -0.47510489818015061 0 -0.42679110151757371 -0.48004619837947488 0 -0.44201261089570698 -0.4714523331548211 0 -0.42679110151757371 -0.48004619837947488 0 -0.42744881975828442 -0.46271920682836909 0 -0.44240823633296938 -0.45229162232937098 0 -0.42744881975828442 -0.46271920682836909 0 -0.42333571139453008 -0.44444857464324627 0 -0.44201261089570698 -0.4714523331548211 0 -0.44240823633296938 -0.45229162232937098 0 -0.42744881975828442 -0.46271920682836909 0 -0.44240823633296938 -0.45229162232937098 0 -0.44031796922511218 -0.42850724856467381 0 -0.42333571139453008 -0.44444857464324627 0 -0.4016048111967645 -0.43978488499474971 0 -0.42333571139453008 -0.44444857464324627 0 -0.40699761504363058 -0.45864100006030317 0 -0.42744881975828442 -0.46271920682836909 0 -0.42333571139453008 -0.44444857464324627 0 -0.40699761504363058 -0.45864100006030317 0 -0.42679110151757371 -0.48004619837947488 0 -0.42744881975828442 -0.46271920682836909 0 -0.40699761504363058 -0.45864100006030317 0 -0.43751304390905338 -0.25171100218643983 0 -0.44771011525143523 -0.26331328177383351 0 -0.45396786575014159 -0.2499289980016984 0 -0.43751304390905338 -0.25171100218643983 0 -0.44771011525143523 -0.26331328177383351 0 -0.43282870856519212 -0.27624579741167782 0 -0.44771011525143523 -0.26331328177383351 0 -0.44809741479406079 -0.27565526137140328 0 -0.43282870856519212 -0.27624579741167782 0 -0.44809741479406079 -0.27565526137140328 0 -0.44323332439988511 -0.28453985644780522 0 -0.43282870856519212 -0.27624579741167782 0 -0.44771011525143523 -0.26331328177383351 0 -0.44809741479406079 -0.27565526137140328 0 -0.46155187019882182 -0.26328341004398592 0 -0.46155187019882182 -0.26328341004398592 0 -0.47458862007145769 -0.26578738142994912 0 -0.4651829419705773 -0.29048702479280047 0 -0.46155187019882182 -0.26328341004398592 0 -0.45286721903501681 -0.29102299125273329 0 -0.44809741479406079 -0.27565526137140328 0 -0.46155187019882182 -0.26328341004398592 0 -0.45286721903501681 -0.29102299125273329 0 -0.44771011525143523 -0.26331328177383351 0 -0.46155187019882182 -0.26328341004398592 0 -0.45396786575014159 -0.2499289980016984 0 -0.48688722546503621 -0.2588449470791625 0 -0.47458862007145769 -0.26578738142994912 0 -0.48399429817233702 -0.2410877380670973 0 -0.47244310207800461 -0.25075377537078691 0 -0.47458862007145769 -0.26578738142994912 0 -0.48399429817233702 -0.2410877380670973 0 -0.47458862007145769 -0.26578738142994912 0 -0.48399429817233702 -0.2410877380670973 0 -0.46155187019882182 -0.26328341004398592 0 -0.47244310207800461 -0.25075377537078691 0 -0.47458862007145769 -0.26578738142994912 0 -0.48688722546503621 -0.2588449470791625 0 -0.48881346330435732 -0.26982504242244298 0 -0.47458862007145769 -0.26578738142994912 0 -0.48688722546503621 -0.2588449470791625 0 -0.5 -0.25803309959502541 0 -0.48399429817233702 -0.2410877380670973 0 -0.48688722546503621 -0.2588449470791625 0 -0.5 -0.25803309959502541 0 -0.48881346330435732 -0.26982504242244298 0 -0.50000000000000266 -0.28081084774111859 0 -0.48881346330435732 -0.26982504242244298 0 -0.48259147098528982 -0.28564893626695892 0 -0.5 -0.25803309959502541 0 -0.50000000000000266 -0.28081084774111859 0 -0.48881346330435732 -0.26982504242244298 0 -0.47458862007145769 -0.26578738142994912 0 -0.4651829419705773 -0.29048702479280047 0 -0.47458862007145769 -0.26578738142994912 0 -0.48259147098528982 -0.28564893626695892 0 -0.4651829419705773 -0.29048702479280047 0 -0.48881346330435732 -0.26982504242244298 0 -0.47458862007145769 -0.26578738142994912 0 -0.48259147098528982 -0.28564893626695892 0 -0.48259147098528982 -0.28564893626695892 0 -0.4793545387805751 -0.3105517803018949 0 -0.4651829419705773 -0.29048702479280047 0 -0.48259147098528982 -0.28564893626695892 0 -0.4651829419705773 -0.29048702479280047 0 -0.50000000000000266 -0.28081084774111859 0 -0.48259147098528982 -0.28564893626695892 0 -0.4793545387805751 -0.3105517803018949 0 -0.50000000000000266 -0.28081084774111859 0 -0.48259147098528982 -0.28564893626695892 0 -0.4651829419705773 -0.29048702479280047 0 -0.44666365759595422 -0.29563380871485728 0 -0.45600830837958201 -0.3145799371008749 0 -0.4651829419705773 -0.29048702479280047 0 -0.45600830837958201 -0.3145799371008749 0 -0.4793545387805751 -0.3105517803018949 0 -0.4651829419705773 -0.29048702479280047 0 -0.45600830837958201 -0.3145799371008749 0 -0.4651829419705773 -0.29048702479280047 0 -0.45286721903501681 -0.29102299125273329 0 -0.44666365759595422 -0.29563380871485728 0 -0.4651829419705773 -0.29048702479280047 0 -0.44666365759595422 -0.29563380871485728 0 -0.46155187019882182 -0.26328341004398592 0 -0.4651829419705773 -0.29048702479280047 0 -0.45286721903501681 -0.29102299125273329 0 -0.45286721903501681 -0.29102299125273329 0 -0.44666365759595422 -0.29563380871485728 0 -0.44323332439988511 -0.28453985644780522 0 -0.44666365759595422 -0.29563380871485728 0 -0.44323332439988511 -0.28453985644780522 0 -0.42814437322133159 -0.30078059263691592 0 -0.44809741479406079 -0.27565526137140328 0 -0.45286721903501681 -0.29102299125273329 0 -0.44323332439988511 -0.28453985644780522 0 -0.44666365759595422 -0.29563380871485728 0 -0.44214438417120699 -0.30703735509006341 0 -0.42814437322133159 -0.30078059263691592 0 -0.44666365759595422 -0.29563380871485728 0 -0.44214438417120699 -0.30703735509006341 0 -0.45600830837958201 -0.3145799371008749 0 -0.50000000000000266 -0.28081084774111859 0 -0.4793545387805751 -0.3105517803018949 0 -0.5 -0.35718982066189531 0 -0.44683367478858538 -0.33867284940894898 0 -0.45600830837958201 -0.3145799371008749 0 -0.4377611974879605 -0.31715508190760489 0 -0.44683367478858538 -0.33867284940894898 0 -0.45600830837958201 -0.3145799371008749 0 -0.44214438417120699 -0.30703735509006341 0 -0.4377611974879605 -0.31715508190760489 0 -0.45600830837958201 -0.3145799371008749 0 -0.44683367478858538 -0.33867284940894898 0 -0.46865258502026791 -0.34090393315223849 0 -0.45600830837958201 -0.3145799371008749 0 -0.4793545387805751 -0.3105517803018949 0 -0.46865258502026791 -0.34090393315223849 0 -0.45600830837958201 -0.3145799371008749 0 -0.4793545387805751 -0.3105517803018949 0 -0.46865258502026791 -0.34090393315223849 0 -0.5 -0.35718982066189531 0 -0.46865258502026791 -0.34090393315223849 0 -0.5 -0.35718982066189531 0 -0.47429781889144779 -0.36869290898349849 0 -0.49089440663543438 -0.39586646407794801 0 -0.5 -0.35718982066189531 0 -0.47429781889144779 -0.36869290898349849 0 -0.45406055381680549 -0.3790110336362707 0 -0.47429781889144779 -0.36869290898349849 0 -0.45630073474293908 -0.35800929737959603 0 -0.44683367478858538 -0.33867284940894898 0 -0.46865258502026791 -0.34090393315223849 0 -0.45630073474293908 -0.35800929737959603 0 -0.46865258502026791 -0.34090393315223849 0 -0.47429781889144779 -0.36869290898349849 0 -0.45630073474293908 -0.35800929737959603 0 -0.44683367478858538 -0.33867284940894898 0 -0.45630073474293908 -0.35800929737959603 0 -0.43765904119758881 -0.36276576171702302 0 -0.44683367478858538 -0.33867284940894898 0 -0.43765904119758881 -0.36276576171702302 0 -0.43029529694363711 -0.34454390052664191 0 -0.44683367478858538 -0.33867284940894898 0 -0.43765904119758881 -0.36276576171702302 0 -0.45406055381680549 -0.3790110336362707 0 -0.44065104410712241 -0.3826525541742411 0 -0.43765904119758881 -0.36276576171702302 0 -0.45406055381680549 -0.3790110336362707 0 -0.45630073474293908 -0.35800929737959603 0 -0.43765904119758881 -0.36276576171702302 0 -0.43765904119758881 -0.36276576171702302 0 -0.42385265753588541 -0.3725179346807968 0 -0.41749631805552279 -0.35655112012113888 0 -0.43069932187709958 -0.37879002033441939 0 -0.43765904119758881 -0.36276576171702302 0 -0.42385265753588541 -0.3725179346807968 0 -0.44065104410712241 -0.3826525541742411 0 -0.43069932187709958 -0.37879002033441939 0 -0.43765904119758881 -0.36276576171702302 0 -0.43765904119758881 -0.36276576171702302 0 -0.43029529694363711 -0.34454390052664191 0 -0.41749631805552279 -0.35655112012113888 0 -0.41749631805552279 -0.35655112012113888 0 -0.39866833408116109 -0.359484049848948 0 -0.40575234889667122 -0.33309670946439213 0 -0.41217229047262077 -0.38443638386325091 0 -0.41749631805552279 -0.35655112012113888 0 -0.41217229047262077 -0.38443638386325091 0 -0.41749631805552279 -0.35655112012113888 0 -0.39866833408116109 -0.359484049848948 0 -0.41217229047262077 -0.38443638386325091 0 -0.42385265753588541 -0.3725179346807968 0 -0.41749631805552279 -0.35655112012113888 0 -0.39027020230279269 -0.38397013568871091 0 -0.39866833408116109 -0.359484049848948 0 -0.38604582775584623 -0.36519931196448491 0 -0.39027020230279269 -0.38397013568871091 0 -0.38604582775584623 -0.36519931196448491 0 -0.37276014916928413 -0.36968874551325409 0 -0.38604582775584623 -0.36519931196448491 0 -0.37709915462052129 -0.35330995135625992 0 -0.37276014916928413 -0.36968874551325409 0 -0.37709915462052129 -0.35330995135625992 0 -0.39030381240506551 -0.34996338341312261 0 -0.39170779601273831 -0.33736825966297568 0 -0.38604582775584623 -0.36519931196448491 0 -0.37709915462052129 -0.35330995135625992 0 -0.39030381240506551 -0.34996338341312261 0 -0.39866833408116109 -0.359484049848948 0 -0.39030381240506551 -0.34996338341312261 0 -0.40575234889667122 -0.33309670946439213 0 -0.39866833408116109 -0.359484049848948 0 -0.40575234889667122 -0.33309670946439213 0 -0.39866833408116109 -0.359484049848948 0 -0.38604582775584623 -0.36519931196448491 0 -0.39030381240506551 -0.34996338341312261 0 -0.39030381240506551 -0.34996338341312261 0 -0.40575234889667122 -0.33309670946439213 0 -0.39170779601273831 -0.33736825966297568 0 -0.40575234889667122 -0.33309670946439213 0 -0.39170779601273831 -0.33736825966297568 0 -0.39312537117081431 -0.32336624974939149 0 -0.37709915462052129 -0.35330995135625992 0 -0.39170779601273831 -0.33736825966297568 0 -0.370535587673608 -0.33736067751263782 0 -0.39170779601273831 -0.33736825966297568 0 -0.37282940986846419 -0.31837505917586822 0 -0.370535587673608 -0.33736067751263782 0 -0.39312537117081431 -0.32336624974939149 0 -0.39274382019399251 -0.30988711581511857 0 -0.37282940986846419 -0.31837505917586822 0 -0.39170779601273831 -0.33736825966297568 0 -0.37282940986846419 -0.31837505917586822 0 -0.39170779601273831 -0.33736825966297568 0 -0.39312537117081431 -0.32336624974939149 0 -0.37282940986846419 -0.31837505917586822 0 -0.39312537117081431 -0.32336624974939149 0 -0.40259348088220509 -0.31810410462860272 0 -0.39274382019399251 -0.30988711581511857 0 -0.40575234889667122 -0.33309670946439213 0 -0.39312537117081431 -0.32336624974939149 0 -0.40259348088220509 -0.31810410462860272 0 -0.40575234889667122 -0.33309670946439213 0 -0.40259348088220509 -0.31810410462860272 0 -0.41283636371218141 -0.30670936907983631 0 -0.4228203456384268 -0.32866585637902729 0 -0.41581728305569499 -0.30420647390677841 0 -0.41283636371218141 -0.30670936907983631 0 -0.40575234889667122 -0.33309670946439213 0 -0.41283636371218141 -0.30670936907983631 0 -0.40575234889667122 -0.33309670946439213 0 -0.4228203456384268 -0.32866585637902729 0 -0.41283636371218141 -0.30670936907983631 0 -0.41749631805552279 -0.35655112012113888 0 -0.4228203456384268 -0.32866585637902729 0 -0.41749631805552279 -0.35655112012113888 0 -0.40575234889667122 -0.33309670946439213 0 -0.4228203456384268 -0.32866585637902729 0 -0.4377611974879605 -0.31715508190760489 0 -0.44683367478858538 -0.33867284940894898 0 -0.4228203456384268 -0.32866585637902729 0 -0.43029529694363711 -0.34454390052664191 0 -0.41749631805552279 -0.35655112012113888 0 -0.4228203456384268 -0.32866585637902729 0 -0.44683367478858538 -0.33867284940894898 0 -0.43029529694363711 -0.34454390052664191 0 -0.4228203456384268 -0.32866585637902729 0 -0.4377611974879605 -0.31715508190760489 0 -0.4228203456384268 -0.32866585637902729 0 -0.42814437322133159 -0.30078059263691592 0 -0.4228203456384268 -0.32866585637902729 0 -0.42814437322133159 -0.30078059263691592 0 -0.44214438417120699 -0.30703735509006341 0 -0.4377611974879605 -0.31715508190760489 0 -0.42814437322133159 -0.30078059263691592 0 -0.44666365759595422 -0.29563380871485728 0 -0.42814437322133159 -0.30078059263691592 0 -0.4228203456384268 -0.32866585637902729 0 -0.42814437322133159 -0.30078059263691592 0 -0.41581728305569499 -0.30420647390677841 0 -0.42814437322133159 -0.30078059263691592 0 -0.41581728305569499 -0.30420647390677841 0 -0.42814437322133159 -0.30078059263691592 0 -0.43282870856519212 -0.27624579741167782 0 -0.44323332439988511 -0.28453985644780522 0 -0.42814437322133159 -0.30078059263691592 0 -0.43282870856519212 -0.27624579741167782 0 -0.42814437322133159 -0.30078059263691592 0 -0.41992037852769148 -0.28032202869528061 0 -0.43282870856519212 -0.27624579741167782 0 -0.41283636371218141 -0.30670936907983631 0 -0.41992037852769148 -0.28032202869528061 0 -0.42814437322133159 -0.30078059263691592 0 -0.41581728305569499 -0.30420647390677841 0 -0.41992037852769148 -0.28032202869528061 0 -0.41116216196691469 -0.28932445271706558 0 -0.41283636371218141 -0.30670936907983631 0 -0.41992037852769148 -0.28032202869528061 0 -0.41116216196691469 -0.28932445271706558 0 -0.40673675598462983 -0.27630539850918479 0 -0.41992037852769148 -0.28032202869528061 0 -0.41116216196691469 -0.28932445271706558 0 -0.40311365154399731 -0.28885313284472741 0 -0.40673675598462983 -0.27630539850918479 0 -0.41116216196691469 -0.28932445271706558 0 -0.40860646088234109 -0.29740321819800952 0 -0.40311365154399731 -0.28885313284472741 0 -0.40860646088234109 -0.29740321819800952 0 -0.40685570905821211 -0.3033473525829401 0 -0.41283636371218141 -0.30670936907983631 0 -0.41581728305569499 -0.30420647390677841 0 -0.41283636371218141 -0.30670936907983631 0 -0.41992037852769148 -0.28032202869528061 0 -0.41116216196691469 -0.28932445271706558 0 -0.40860646088234109 -0.29740321819800952 0 -0.41283636371218141 -0.30670936907983631 0 -0.40259348088220509 -0.31810410462860272 0 -0.41283636371218141 -0.30670936907983631 0 -0.4039976292627826 -0.30833800501204761 0 -0.40685570905821211 -0.3033473525829401 0 -0.41283636371218141 -0.30670936907983631 0 -0.4039976292627826 -0.30833800501204761 0 -0.40259348088220509 -0.31810410462860272 0 -0.4039976292627826 -0.30833800501204761 0 -0.39274382019399251 -0.30988711581511857 0 -0.4039976292627826 -0.30833800501204761 0 -0.40198238237554351 -0.30093881804186701 0 -0.39274382019399251 -0.30988711581511857 0 -0.40198238237554351 -0.30093881804186701 0 -0.39274382019399251 -0.30988711581511857 0 -0.39226643191815552 -0.29325468499759622 0 -0.40860646088234109 -0.29740321819800952 0 -0.40685570905821211 -0.3033473525829401 0 -0.40198238237554351 -0.30093881804186701 0 -0.40685570905821211 -0.3033473525829401 0 -0.4039976292627826 -0.30833800501204761 0 -0.40198238237554351 -0.30093881804186701 0 -0.39274382019399251 -0.30988711581511857 0 -0.37774655200931578 -0.29923227280577341 0 -0.39226643191815552 -0.29325468499759622 0 -0.39274382019399251 -0.30988711581511857 0 -0.37774655200931578 -0.29923227280577341 0 -0.37282940986846419 -0.31837505917586822 0 -0.38432179755873203 -0.28503455885730761 0 -0.39226643191815552 -0.29325468499759622 0 -0.39413870049435168 -0.27727024870352829 0 -0.37774655200931578 -0.29923227280577341 0 -0.38432179755873203 -0.28503455885730761 0 -0.36921045431311739 -0.28394055350104441 0 -0.37774655200931578 -0.29923227280577341 0 -0.38432179755873203 -0.28503455885730761 0 -0.39226643191815552 -0.29325468499759622 0 -0.39226643191815552 -0.29325468499759622 0 -0.40311365154399731 -0.28885313284472741 0 -0.39413870049435168 -0.27727024870352829 0 -0.40198238237554351 -0.30093881804186701 0 -0.39226643191815552 -0.29325468499759622 0 -0.40311365154399731 -0.28885313284472741 0 -0.40860646088234109 -0.29740321819800952 0 -0.40198238237554351 -0.30093881804186701 0 -0.40311365154399731 -0.28885313284472741 0 -0.40311365154399731 -0.28885313284472741 0 -0.39413870049435168 -0.27727024870352829 0 -0.40673675598462983 -0.27630539850918479 0 -0.39413870049435168 -0.27727024870352829 0 -0.38317587946208043 -0.2687088021715523 0 -0.39779996746043539 -0.26118800843741402 0 -0.39413870049435168 -0.27727024870352829 0 -0.39779996746043539 -0.26118800843741402 0 -0.40673675598462983 -0.27630539850918479 0 -0.39779996746043539 -0.26118800843741402 0 -0.41243538898952181 -0.26404799861069378 0 -0.40673675598462983 -0.27630539850918479 0 -0.38432179755873203 -0.28503455885730761 0 -0.38317587946208043 -0.2687088021715523 0 -0.36921045431311739 -0.28394055350104441 0 -0.38432179755873203 -0.28503455885730761 0 -0.39413870049435168 -0.27727024870352829 0 -0.38317587946208043 -0.2687088021715523 0 -0.38317587946208043 -0.2687088021715523 0 -0.38049762921659952 -0.25021735770044617 0 -0.39779996746043539 -0.26118800843741402 0 -0.38317587946208043 -0.2687088021715523 0 -0.38049762921659952 -0.25021735770044617 0 -0.36659002409407088 -0.26688259394482711 0 -0.39779996746043539 -0.26118800843741402 0 -0.41118069241157817 -0.2485637714763447 0 -0.39616193795957338 -0.24440313672781319 0 -0.38049762921659952 -0.25021735770044617 0 -0.39779996746043539 -0.26118800843741402 0 -0.39616193795957338 -0.24440313672781319 0 -0.41243538898952181 -0.26404799861069378 0 -0.42700439334320162 -0.25393468831072469 0 -0.41118069241157817 -0.2485637714763447 0 -0.39779996746043539 -0.26118800843741402 0 -0.41243538898952181 -0.26404799861069378 0 -0.41118069241157817 -0.2485637714763447 0 -0.41243538898952181 -0.26404799861069378 0 -0.41992037852769148 -0.28032202869528061 0 -0.42700439334320162 -0.25393468831072469 0 -0.41243538898952181 -0.26404799861069378 0 -0.40673675598462983 -0.27630539850918479 0 -0.41992037852769148 -0.28032202869528061 0 -0.41992037852769148 -0.28032202869528061 0 -0.42700439334320162 -0.25393468831072469 0 -0.41992037852769148 -0.28032202869528061 0 -0.43282870856519212 -0.27624579741167782 0 -0.42700439334320162 -0.25393468831072469 0 -0.43751304390905338 -0.25171100218643983 0 -0.43282870856519212 -0.27624579741167782 0 -0.43751304390905338 -0.25171100218643983 0 -0.43282870856519212 -0.27624579741167782 0 -0.42700439334320162 -0.25393468831072469 0 -0.31994358486826752 -0.25582512977358962 0 -0.30624559577879279 -0.2625936730919165 0 -0.31587538925458419 -0.24307026029734491 0 -0.31994358486826752 -0.25582512977358962 0 -0.32117829512586249 -0.26592786709267879 0 -0.32834961528226753 -0.25760722193007402 0 -0.31994358486826752 -0.25582512977358962 0 -0.32834961528226753 -0.25760722193007402 0 -0.32772674009125052 -0.24786565639204999 0 -0.31994358486826752 -0.25582512977358962 0 -0.32117829512586249 -0.26592786709267879 0 -0.30624559577879279 -0.2625936730919165 0 -0.31972900505808077 -0.28115947625665549 0 -0.3364749571764134 -0.2655895040687859 0 -0.31993368036550079 -0.28505212826538512 0 -0.32117829512586249 -0.26592786709267879 0 -0.31188317497855511 -0.27272818958578687 0 -0.30624559577879279 -0.2625936730919165 0 -0.31972900505808077 -0.28115947625665549 0 -0.32117829512586249 -0.26592786709267879 0 -0.31188317497855511 -0.27272818958578687 0 -0.31972900505808077 -0.28115947625665549 0 -0.32117829512586249 -0.26592786709267879 0 -0.3364749571764134 -0.2655895040687859 0 -0.31972900505808077 -0.28115947625665549 0 -0.3364749571764134 -0.2655895040687859 0 -0.31972900505808077 -0.28115947625665549 0 -0.30976789980103642 -0.27978327277812348 0 -0.31188317497855511 -0.27272818958578687 0 -0.3364749571764134 -0.2655895040687859 0 -0.31993368036550079 -0.28505212826538512 0 -0.33507263757991618 -0.28038865820165348 0 -0.3364749571764134 -0.2655895040687859 0 -0.31993368036550079 -0.28505212826538512 0 -0.33507263757991618 -0.28038865820165348 0 -0.3364749571764134 -0.2655895040687859 0 -0.34432090568230411 -0.26901966045528319 0 -0.3364749571764134 -0.2655895040687859 0 -0.3364244991495437 -0.25282795232326549 0 -0.35131987670973169 -0.2481228300382099 0 -0.34228348826618482 -0.26018887549412839 0 -0.3364749571764134 -0.2655895040687859 0 -0.35131987670973169 -0.2481228300382099 0 -0.34228348826618482 -0.26018887549412839 0 -0.3364749571764134 -0.2655895040687859 0 -0.34432090568230411 -0.26901966045528319 0 -0.34228348826618482 -0.26018887549412839 0 -0.3364749571764134 -0.2655895040687859 0 -0.3364749571764134 -0.2655895040687859 0 -0.32834961528226753 -0.25760722193007402 0 -0.3364244991495437 -0.25282795232326549 0 -0.32117829512586249 -0.26592786709267879 0 -0.3364749571764134 -0.2655895040687859 0 -0.32834961528226753 -0.25760722193007402 0 -0.32834961528226753 -0.25760722193007402 0 -0.3364244991495437 -0.25282795232326549 0 -0.32772674009125052 -0.24786565639204999 0 -0.34228348826618482 -0.26018887549412839 0 -0.35394585854621918 -0.26182763857831748 0 -0.35131987670973169 -0.2481228300382099 0 -0.3364749571764134 -0.2655895040687859 0 -0.35131987670973169 -0.2481228300382099 0 -0.34228348826618482 -0.26018887549412839 0 -0.35394585854621918 -0.26182763857831748 0 -0.34432090568230411 -0.26901966045528319 0 -0.35394585854621918 -0.26182763857831748 0 -0.3652942889692089 -0.25042186949623613 0 -0.35131987670973169 -0.2481228300382099 0 -0.38049762921659952 -0.25021735770044617 0 -0.3652942889692089 -0.25042186949623613 0 -0.36659002409407088 -0.26688259394482711 0 -0.35394585854621918 -0.26182763857831748 0 -0.3652942889692089 -0.25042186949623613 0 -0.36659002409407088 -0.26688259394482711 0 -0.36659002409407088 -0.26688259394482711 0 -0.35382758684278659 -0.27710362593353061 0 -0.36921045431311739 -0.28394055350104441 0 -0.38317587946208043 -0.2687088021715523 0 -0.36659002409407088 -0.26688259394482711 0 -0.36921045431311739 -0.28394055350104441 0 -0.33507263757991618 -0.28038865820165348 0 -0.35382758684278659 -0.27710362593353061 0 -0.34432090568230411 -0.26901966045528319 0 -0.35394585854621918 -0.26182763857831748 0 -0.36659002409407088 -0.26688259394482711 0 -0.35382758684278659 -0.27710362593353061 0 -0.35394585854621918 -0.26182763857831748 0 -0.35382758684278659 -0.27710362593353061 0 -0.34432090568230411 -0.26901966045528319 0 -0.33507263757991618 -0.28038865820165348 0 -0.35382758684278659 -0.27710362593353061 0 -0.35395102372419007 -0.29938185868876083 0 -0.35382758684278659 -0.27710362593353061 0 -0.36921045431311739 -0.28394055350104441 0 -0.35395102372419007 -0.29938185868876083 0 -0.33507263757991618 -0.28038865820165348 0 -0.35395102372419007 -0.29938185868876083 0 -0.37774655200931578 -0.29923227280577341 0 -0.36921045431311739 -0.28394055350104441 0 -0.35395102372419007 -0.29938185868876083 0 -0.37774655200931578 -0.29923227280577341 0 -0.35395102372419007 -0.29938185868876083 0 -0.37282940986846419 -0.31837505917586822 0 -0.35395102372419007 -0.29938185868876083 0 -0.37282940986846419 -0.31837505917586822 0 -0.35395102372419007 -0.29938185868876083 0 -0.32863102983257497 -0.30920452672329152 0 -0.338798839675436 -0.31984855934083162 0 -0.35395102372419007 -0.29938185868876083 0 -0.32863102983257497 -0.30920452672329152 0 -0.33114673851172932 -0.29454849419583412 0 -0.33507263757991618 -0.28038865820165348 0 -0.35395102372419007 -0.29938185868876083 0 -0.33114673851172932 -0.29454849419583412 0 -0.33507263757991618 -0.28038865820165348 0 -0.33114673851172932 -0.29454849419583412 0 -0.31993368036550079 -0.28505212826538512 0 -0.33114673851172932 -0.29454849419583412 0 -0.31993368036550079 -0.28505212826538512 0 -0.31735653310169692 -0.29962233629278578 0 -0.31972900505808077 -0.28115947625665549 0 -0.31993368036550079 -0.28505212826538512 0 -0.30298305293974798 -0.2967294484445252 0 -0.31993368036550079 -0.28505212826538512 0 -0.31735653310169692 -0.29962233629278578 0 -0.30339240355458841 -0.30451475246198439 0 -0.31735653310169692 -0.29962233629278578 0 -0.3148001931040848 -0.31362709958530338 0 -0.31055964361726879 -0.30721133115868998 0 -0.32863102983257497 -0.30920452672329152 0 -0.31735653310169692 -0.29962233629278578 0 -0.3148001931040848 -0.31362709958530338 0 -0.32863102983257497 -0.30920452672329152 0 -0.33114673851172932 -0.29454849419583412 0 -0.31735653310169692 -0.29962233629278578 0 -0.32863102983257497 -0.30920452672329152 0 -0.3243083518625457 -0.32387088032201061 0 -0.3148001931040848 -0.31362709958530338 0 -0.3243083518625457 -0.32387088032201061 0 -0.3148001931040848 -0.31362709958530338 0 -0.31013596004931693 -0.32700662302497169 0 -0.3243083518625457 -0.32387088032201061 0 -0.31923948498301052 -0.33723026398065148 0 -0.31013596004931693 -0.32700662302497169 0 -0.31923948498301052 -0.33723026398065148 0 -0.3338563011266969 -0.33739023615067681 0 -0.32324545759623508 -0.34998483735420077 0 -0.3243083518625457 -0.32387088032201061 0 -0.31923948498301052 -0.33723026398065148 0 -0.3338563011266969 -0.33739023615067681 0 -0.3338563011266969 -0.33739023615067681 0 -0.338798839675436 -0.31984855934083162 0 -0.35324749183117249 -0.32939529481941843 0 -0.3243083518625457 -0.32387088032201061 0 -0.3338563011266969 -0.33739023615067681 0 -0.338798839675436 -0.31984855934083162 0 -0.32863102983257497 -0.30920452672329152 0 -0.3243083518625457 -0.32387088032201061 0 -0.338798839675436 -0.31984855934083162 0 -0.35395102372419007 -0.29938185868876083 0 -0.338798839675436 -0.31984855934083162 0 -0.35324749183117249 -0.32939529481941843 0 -0.35395102372419007 -0.29938185868876083 0 -0.37282940986846419 -0.31837505917586822 0 -0.35324749183117249 -0.32939529481941843 0 -0.370535587673608 -0.33736067751263782 0 -0.35324749183117249 -0.32939529481941843 0 -0.35779408603514368 -0.34835482254866662 0 -0.37282940986846419 -0.31837505917586822 0 -0.370535587673608 -0.33736067751263782 0 -0.35324749183117249 -0.32939529481941843 0 -0.3338563011266969 -0.33739023615067681 0 -0.35324749183117249 -0.32939529481941843 0 -0.34462079605222712 -0.34629921852363221 0 -0.35324749183117249 -0.32939529481941843 0 -0.34462079605222712 -0.34629921852363221 0 -0.35779408603514368 -0.34835482254866662 0 -0.34462079605222712 -0.34629921852363221 0 -0.35779408603514368 -0.34835482254866662 0 -0.34508372888693323 -0.36044144745231549 0 -0.35779408603514368 -0.34835482254866662 0 -0.3589234176013768 -0.36233688211669512 0 -0.34508372888693323 -0.36044144745231549 0 -0.37709915462052129 -0.35330995135625992 0 -0.35779408603514368 -0.34835482254866662 0 -0.3589234176013768 -0.36233688211669512 0 -0.37709915462052129 -0.35330995135625992 0 -0.370535587673608 -0.33736067751263782 0 -0.35779408603514368 -0.34835482254866662 0 -0.37709915462052129 -0.35330995135625992 0 -0.37276014916928413 -0.36968874551325409 0 -0.3589234176013768 -0.36233688211669512 0 -0.37276014916928413 -0.36968874551325409 0 -0.35824806362253647 -0.37377065864708331 0 -0.3589234176013768 -0.36233688211669512 0 -0.35824806362253647 -0.37377065864708331 0 -0.3589234176013768 -0.36233688211669512 0 -0.3471662148251049 -0.37050211097984159 0 -0.3589234176013768 -0.36233688211669512 0 -0.34508372888693323 -0.36044144745231549 0 -0.3471662148251049 -0.37050211097984159 0 -0.34508372888693323 -0.36044144745231549 0 -0.33449998817839111 -0.3525430839206557 0 -0.32721685314969001 -0.36756917325225108 0 -0.34508372888693323 -0.36044144745231549 0 -0.3471662148251049 -0.37050211097984159 0 -0.32721685314969001 -0.36756917325225108 0 -0.3471662148251049 -0.37050211097984159 0 -0.32721685314969001 -0.36756917325225108 0 -0.34646602596313703 -0.38303763933960522 0 -0.33449998817839111 -0.3525430839206557 0 -0.32324545759623508 -0.34998483735420077 0 -0.32721685314969001 -0.36756917325225108 0 -0.34462079605222712 -0.34629921852363221 0 -0.34508372888693323 -0.36044144745231549 0 -0.33449998817839111 -0.3525430839206557 0 -0.3338563011266969 -0.33739023615067681 0 -0.34462079605222712 -0.34629921852363221 0 -0.33449998817839111 -0.3525430839206557 0 -0.3338563011266969 -0.33739023615067681 0 -0.33449998817839111 -0.3525430839206557 0 -0.32324545759623508 -0.34998483735420077 0 -0.32324545759623508 -0.34998483735420077 0 -0.32721685314969001 -0.36756917325225108 0 -0.30796768033624289 -0.352100707164897 0 -0.31923948498301052 -0.33723026398065148 0 -0.32324545759623508 -0.34998483735420077 0 -0.30796768033624289 -0.352100707164897 0 -0.32721685314969001 -0.36756917325225108 0 -0.30671005576036697 -0.36862048684864651 0 -0.31851369388908679 -0.3752852129175071 0 -0.32721685314969001 -0.36756917325225108 0 -0.30796768033624289 -0.352100707164897 0 -0.32721685314969001 -0.36756917325225108 0 -0.30671005576036697 -0.36862048684864651 0 -0.30796768033624289 -0.352100707164897 0 -0.30671005576036697 -0.36862048684864651 0 -0.29290715828686381 -0.35113102750339392 0 -0.29121116600131242 -0.3690137260332218 0 -0.30671005576036697 -0.36862048684864651 0 -0.29121116600131242 -0.3690137260332218 0 -0.29586870978450941 -0.38164024413612552 0 -0.30796768033624289 -0.352100707164897 0 -0.28871850752279582 -0.33663224107754303 0 -0.30671005576036697 -0.36862048684864651 0 -0.30796768033624289 -0.352100707164897 0 -0.29290715828686381 -0.35113102750339392 0 -0.30796768033624289 -0.352100707164897 0 -0.29290715828686381 -0.35113102750339392 0 -0.28871850752279582 -0.33663224107754303 0 -0.29290715828686381 -0.35113102750339392 0 -0.27701166618613632 -0.36356236044978302 0 -0.28598606680900968 -0.33771990913836059 0 -0.27701166618613632 -0.36356236044978302 0 -0.28598606680900968 -0.33771990913836059 0 -0.29290715828686381 -0.35113102750339392 0 -0.29121116600131242 -0.3690137260332218 0 -0.27701166618613632 -0.36356236044978302 0 -0.29121116600131242 -0.3690137260332218 0 -0.27701166618613632 -0.36356236044978302 0 -0.28355823998868568 -0.38011451122816031 0 -0.27701166618613632 -0.36356236044978302 0 -0.26182794616138849 -0.37371714174773318 0 -0.25376857312185103 -0.36290262505178228 0 -0.26182794616138849 -0.37371714174773318 0 -0.25376857312185103 -0.36290262505178228 0 -0.25232805927103041 -0.37692263739255988 0 -0.25376857312185103 -0.36290262505178228 0 -0.27030984993276341 -0.34344000085518289 0 -0.25376857312185103 -0.36290262505178228 0 -0.27030984993276341 -0.34344000085518289 0 -0.24989579750610849 -0.34760382400854267 0 -0.27701166618613632 -0.36356236044978302 0 -0.25376857312185103 -0.36290262505178228 0 -0.27030984993276341 -0.34344000085518289 0 -0.27701166618613632 -0.36356236044978302 0 -0.27030984993276341 -0.34344000085518289 0 -0.28598606680900968 -0.33771990913836059 0 -0.2686947572401247 -0.32973985045312593 0 -0.27030984993276341 -0.34344000085518289 0 -0.28685112674367591 -0.32397737665858373 0 -0.27030984993276341 -0.34344000085518289 0 -0.28685112674367591 -0.32397737665858373 0 -0.27030984993276341 -0.34344000085518289 0 -0.28685112674367591 -0.32397737665858373 0 -0.28598606680900968 -0.33771990913836059 0 -0.2686947572401247 -0.32973985045312593 0 -0.27030984993276341 -0.34344000085518289 0 -0.25551182357448232 -0.33586001051792308 0 -0.27030984993276341 -0.34344000085518289 0 -0.25551182357448232 -0.33586001051792308 0 -0.24989579750610849 -0.34760382400854267 0 -0.2686947572401247 -0.32973985045312593 0 -0.25551182357448232 -0.33586001051792308 0 -0.25913618948314382 -0.32724993190865531 0 -0.25551182357448232 -0.33586001051792308 0 -0.25054650546405122 -0.32395998674240822 0 -0.25913618948314382 -0.32724993190865531 0 -0.25054650546405122 -0.32395998674240822 0 -0.26179167165391731 -0.31943987992116418 0 -0.25439597630510458 -0.30858987618539663 0 -0.25054650546405122 -0.32395998674240822 0 -0.25913618948314382 -0.32724993190865531 0 -0.26179167165391731 -0.31943987992116418 0 -0.2686947572401247 -0.32973985045312593 0 -0.25913618948314382 -0.32724993190865531 0 -0.26179167165391731 -0.31943987992116418 0 -0.2686947572401247 -0.32973985045312593 0 -0.27579018465820748 -0.31567323994473379 0 -0.28685112674367591 -0.32397737665858373 0 -0.26179167165391731 -0.31943987992116418 0 -0.27579018465820748 -0.31567323994473379 0 -0.26992636504264539 -0.30461556331938322 0 -0.2686947572401247 -0.32973985045312593 0 -0.26179167165391731 -0.31943987992116418 0 -0.27579018465820748 -0.31567323994473379 0 -0.28685112674367591 -0.32397737665858373 0 -0.30339240355458841 -0.30451475246198439 0 -0.28685112674367591 -0.32397737665858373 0 -0.2983286590752301 -0.32873197233131052 0 -0.30286538491549181 -0.31759288333364999 0 -0.28685112674367591 -0.32397737665858373 0 -0.30339240355458841 -0.30451475246198439 0 -0.28623710082141518 -0.3122994206323948 0 -0.27579018465820748 -0.31567323994473379 0 -0.28685112674367591 -0.32397737665858373 0 -0.28623710082141518 -0.3122994206323948 0 -0.28685112674367591 -0.32397737665858373 0 -0.28598606680900968 -0.33771990913836059 0 -0.29103000094474601 -0.33168526971854811 0 -0.28598606680900968 -0.33771990913836059 0 -0.28871850752279582 -0.33663224107754303 0 -0.29103000094474601 -0.33168526971854811 0 -0.29290715828686381 -0.35113102750339392 0 -0.28598606680900968 -0.33771990913836059 0 -0.28871850752279582 -0.33663224107754303 0 -0.29103000094474601 -0.33168526971854811 0 -0.2983286590752301 -0.32873197233131052 0 -0.29861986730500528 -0.33761311203405042 0 -0.28871850752279582 -0.33663224107754303 0 -0.29103000094474601 -0.33168526971854811 0 -0.29861986730500528 -0.33761311203405042 0 -0.28685112674367591 -0.32397737665858373 0 -0.29103000094474601 -0.33168526971854811 0 -0.2983286590752301 -0.32873197233131052 0 -0.30796768033624289 -0.352100707164897 0 -0.28871850752279582 -0.33663224107754303 0 -0.29861986730500528 -0.33761311203405042 0 -0.2983286590752301 -0.32873197233131052 0 -0.29861986730500528 -0.33761311203405042 0 -0.30705448864601192 -0.33891536987795368 0 -0.30796768033624289 -0.352100707164897 0 -0.29861986730500528 -0.33761311203405042 0 -0.30705448864601192 -0.33891536987795368 0 -0.31923948498301052 -0.33723026398065148 0 -0.30796768033624289 -0.352100707164897 0 -0.30705448864601192 -0.33891536987795368 0 -0.31923948498301052 -0.33723026398065148 0 -0.30705448864601192 -0.33891536987795368 0 -0.31013596004931693 -0.32700662302497169 0 -0.2983286590752301 -0.32873197233131052 0 -0.30705448864601192 -0.33891536987795368 0 -0.31013596004931693 -0.32700662302497169 0 -0.28685112674367591 -0.32397737665858373 0 -0.30286538491549181 -0.31759288333364999 0 -0.30339240355458841 -0.30451475246198439 0 -0.3148001931040848 -0.31362709958530338 0 -0.30286538491549181 -0.31759288333364999 0 -0.30790440629785848 -0.31073651663490698 0 -0.3148001931040848 -0.31362709958530338 0 -0.31013596004931693 -0.32700662302497169 0 -0.30286538491549181 -0.31759288333364999 0 -0.2983286590752301 -0.32873197233131052 0 -0.31013596004931693 -0.32700662302497169 0 -0.30286538491549181 -0.31759288333364999 0 -0.30339240355458841 -0.30451475246198439 0 -0.30298305293974798 -0.2967294484445252 0 -0.28623710082141518 -0.3122994206323948 0 -0.30286538491549181 -0.31759288333364999 0 -0.30339240355458841 -0.30451475246198439 0 -0.30790440629785848 -0.31073651663490698 0 -0.30339240355458841 -0.30451475246198439 0 -0.30790440629785848 -0.31073651663490698 0 -0.31055964361726879 -0.30721133115868998 0 -0.3148001931040848 -0.31362709958530338 0 -0.30790440629785848 -0.31073651663490698 0 -0.31055964361726879 -0.30721133115868998 0 -0.31735653310169692 -0.29962233629278578 0 -0.30339240355458841 -0.30451475246198439 0 -0.31055964361726879 -0.30721133115868998 0 -0.31972900505808077 -0.28115947625665549 0 -0.30298305293974798 -0.2967294484445252 0 -0.31993368036550079 -0.28505212826538512 0 -0.30339240355458841 -0.30451475246198439 0 -0.31993368036550079 -0.28505212826538512 0 -0.30339240355458841 -0.30451475246198439 0 -0.30298305293974798 -0.2967294484445252 0 -0.31972900505808077 -0.28115947625665549 0 -0.30556481144583209 -0.28565848863471449 0 -0.30298305293974798 -0.2967294484445252 0 -0.31972900505808077 -0.28115947625665549 0 -0.30556481144583209 -0.28565848863471449 0 -0.30976789980103642 -0.27978327277812348 0 -0.30556481144583209 -0.28565848863471449 0 -0.29395704779942028 -0.28865418408503418 0 -0.30240216381248042 -0.27720781166143987 0 -0.30556481144583209 -0.28565848863471449 0 -0.30298305293974798 -0.2967294484445252 0 -0.29395704779942028 -0.28865418408503418 0 -0.29395704779942028 -0.28865418408503418 0 -0.28849828439671299 -0.29848031588524482 0 -0.27831699643906688 -0.29049539414747311 0 -0.30298305293974798 -0.2967294484445252 0 -0.29395704779942028 -0.28865418408503418 0 -0.28849828439671299 -0.29848031588524482 0 -0.29395704779942028 -0.28865418408503418 0 -0.27831699643906688 -0.29049539414747311 0 -0.28667295763997402 -0.27116291159414968 0 -0.28849828439671299 -0.29848031588524482 0 -0.28068686647194252 -0.3035528951540134 0 -0.27831699643906688 -0.29049539414747311 0 -0.30298305293974798 -0.2967294484445252 0 -0.28849828439671299 -0.29848031588524482 0 -0.28623710082141518 -0.3122994206323948 0 -0.30298305293974798 -0.2967294484445252 0 -0.28623710082141518 -0.3122994206323948 0 -0.28849828439671299 -0.29848031588524482 0 -0.28623710082141518 -0.3122994206323948 0 -0.28068686647194252 -0.3035528951540134 0 -0.27579018465820748 -0.31567323994473379 0 -0.28623710082141518 -0.3122994206323948 0 -0.28068686647194252 -0.3035528951540134 0 -0.27579018465820748 -0.31567323994473379 0 -0.28068686647194252 -0.3035528951540134 0 -0.26992636504264539 -0.30461556331938322 0 -0.28068686647194252 -0.3035528951540134 0 -0.26992636504264539 -0.30461556331938322 0 -0.27831699643906688 -0.29049539414747311 0 -0.26992636504264539 -0.30461556331938322 0 -0.25439597630510458 -0.30858987618539663 0 -0.26002489615146268 -0.29163393889111838 0 -0.26179167165391731 -0.31943987992116418 0 -0.26992636504264539 -0.30461556331938322 0 -0.25439597630510458 -0.30858987618539663 0 -0.25439597630510458 -0.30858987618539663 0 -0.26002489615146268 -0.29163393889111838 0 -0.24182284751229011 -0.29664910485701462 0 -0.26002489615146268 -0.29163393889111838 0 -0.27831699643906688 -0.29049539414747311 0 -0.26728881426284218 -0.27530428681912028 0 -0.26992636504264539 -0.30461556331938322 0 -0.26002489615146268 -0.29163393889111838 0 -0.27831699643906688 -0.29049539414747311 0 -0.27831699643906688 -0.29049539414747311 0 -0.26728881426284218 -0.27530428681912028 0 -0.28667295763997402 -0.27116291159414968 0 -0.26728881426284218 -0.27530428681912028 0 -0.27296169138972359 -0.25846177992963199 0 -0.28667295763997402 -0.27116291159414968 0 -0.26728881426284218 -0.27530428681912028 0 -0.25606843302098309 -0.25636966241633519 0 -0.24477196931982659 -0.27565775886255373 0 -0.26002489615146268 -0.29163393889111838 0 -0.26728881426284218 -0.27530428681912028 0 -0.24477196931982659 -0.27565775886255373 0 -0.26728881426284218 -0.27530428681912028 0 -0.25606843302098309 -0.25636966241633519 0 -0.27296169138972359 -0.25846177992963199 0 -0.25606843302098309 -0.25636966241633519 0 -0.27296169138972359 -0.25846177992963199 0 -0.27059194761262051 -0.23894761412310589 0 -0.27296169138972359 -0.25846177992963199 0 -0.28671425380328991 -0.25080534032568302 0 -0.28667295763997402 -0.27116291159414968 0 -0.28671425380328991 -0.25080534032568302 0 -0.28667295763997402 -0.27116291159414968 0 -0.30624559577879279 -0.2625936730919165 0 -0.29395704779942028 -0.28865418408503418 0 -0.28667295763997402 -0.27116291159414968 0 -0.30240216381248042 -0.27720781166143987 0 -0.28667295763997402 -0.27116291159414968 0 -0.30240216381248042 -0.27720781166143987 0 -0.30624559577879279 -0.2625936730919165 0 -0.30240216381248042 -0.27720781166143987 0 -0.30976789980103642 -0.27978327277812348 0 -0.31188317497855511 -0.27272818958578687 0 -0.30556481144583209 -0.28565848863471449 0 -0.30240216381248042 -0.27720781166143987 0 -0.30976789980103642 -0.27978327277812348 0 -0.30240216381248042 -0.27720781166143987 0 -0.31188317497855511 -0.27272818958578687 0 -0.30624559577879279 -0.2625936730919165 0 -0.28671425380328991 -0.25080534032568302 0 -0.30624559577879279 -0.2625936730919165 0 -0.29768485334658651 -0.24139941593041811 0 -0.33144160294728092 -0.45175302013840701 0 -0.35340620517386079 -0.46946505821078738 0 -0.33144160294728092 -0.45175302013840701 0 -0.33197119024104382 -0.47199482387736652 0 -0.35340620517386079 -0.46946505821078738 0 -0.33144160294728092 -0.45175302013840701 0 -0.34559802451704008 -0.44109108006408437 0 -0.32626946674829482 -0.4350260528264035 0 -0.33144160294728092 -0.45175302013840701 0 -0.34813953087834187 -0.45565303600744139 0 -0.34559802451704008 -0.44109108006408437 0 -0.33144160294728092 -0.45175302013840701 0 -0.30947700072070078 -0.43404098206602648 0 -0.33144160294728092 -0.45175302013840701 0 -0.32626946674829482 -0.4350260528264035 0 -0.30947700072070078 -0.43404098206602648 0 -0.33144160294728092 -0.45175302013840701 0 -0.30947700072070078 -0.43404098206602648 0 -0.30743977574945519 -0.45193128090147472 0 -0.32000430923721818 -0.46266722288404971 0 -0.30743977574945519 -0.45193128090147472 0 -0.31102748996513963 -0.4759656404507388 0 -0.33144160294728092 -0.45175302013840701 0 -0.32000430923721818 -0.46266722288404971 0 -0.33197119024104382 -0.47199482387736652 0 -0.33144160294728092 -0.45175302013840701 0 -0.32000430923721818 -0.46266722288404971 0 -0.30743977574945519 -0.45193128090147472 0 -0.32915884116375033 -0.48692928145725628 0 -0.33197119024104382 -0.47199482387736652 0 -0.31102748996513963 -0.4759656404507388 0 -0.32000430923721818 -0.46266722288404971 0 -0.33197119024104382 -0.47199482387736652 0 -0.31102748996513963 -0.4759656404507388 0 -0.31461520418082439 -0.50000000000000289 0 -0.31102748996513963 -0.4759656404507388 0 -0.31461520418082439 -0.50000000000000289 0 -0.32915884116375033 -0.48692928145725628 0 -0.31102748996513963 -0.4759656404507388 0 -0.31461520418082439 -0.50000000000000289 0 -0.34136814894021372 -0.5 0 -0.32915884116375033 -0.48692928145725628 0 -0.34136814894021372 -0.5 0 -0.32915884116375033 -0.48692928145725628 0 -0.34288615556536828 -0.4835022807465591 0 -0.33197119024104382 -0.47199482387736652 0 -0.34288615556536828 -0.4835022807465591 0 -0.35340620517386079 -0.46946505821078738 0 -0.32915884116375033 -0.48692928145725628 0 -0.33197119024104382 -0.47199482387736652 0 -0.34288615556536828 -0.4835022807465591 0 -0.34288615556536828 -0.4835022807465591 0 -0.35340620517386079 -0.46946505821078738 0 -0.356563383844892 -0.48753040908157658 0 -0.34136814894021372 -0.5 0 -0.34288615556536828 -0.4835022807465591 0 -0.356563383844892 -0.48753040908157658 0 -0.34136814894021372 -0.5 0 -0.356563383844892 -0.48753040908157658 0 -0.36812109369960322 -0.5 0 -0.37537080740044071 -0.48717709628316791 0 -0.356563383844892 -0.48753040908157658 0 -0.36812109369960322 -0.5 0 -0.37537080740044071 -0.48717709628316791 0 -0.35340620517386079 -0.46946505821078738 0 -0.37537080740044071 -0.48717709628316791 0 -0.35340620517386079 -0.46946505821078738 0 -0.356563383844892 -0.48753040908157658 0 -0.37537080740044071 -0.48717709628316791 0 -0.35340620517386079 -0.46946505821078738 0 -0.36731226888758323 -0.47443330863951072 0 -0.37844870047834112 -0.48036369335469709 0 -0.36731226888758323 -0.47443330863951072 0 -0.36202336249769052 -0.46072738670939067 0 -0.37844870047834112 -0.48036369335469709 0 -0.36202336249769052 -0.46072738670939067 0 -0.37844870047834112 -0.48036369335469709 0 -0.37537080740044071 -0.48717709628316791 0 -0.36731226888758323 -0.47443330863951072 0 -0.37637167717206421 -0.46315756360206228 0 -0.37844870047834112 -0.48036369335469709 0 -0.36202336249769052 -0.46072738670939067 0 -0.37637167717206421 -0.46315756360206228 0 -0.37087628372248771 -0.45312649174698061 0 -0.36202336249769052 -0.46072738670939067 0 -0.37087628372248771 -0.45312649174698061 0 -0.36202336249769052 -0.46072738670939067 0 -0.36439333705081672 -0.44951800972986222 0 -0.35340620517386079 -0.46946505821078738 0 -0.36731226888758323 -0.47443330863951072 0 -0.36202336249769052 -0.46072738670939067 0 -0.33144160294728092 -0.45175302013840701 0 -0.35340620517386079 -0.46946505821078738 0 -0.34813953087834187 -0.45565303600744139 0 -0.35340620517386079 -0.46946505821078738 0 -0.36202336249769052 -0.46072738670939067 0 -0.34813953087834187 -0.45565303600744139 0 -0.36202336249769052 -0.46072738670939067 0 -0.34559802451704008 -0.44109108006408437 0 -0.36202336249769052 -0.46072738670939067 0 -0.34813953087834187 -0.45565303600744139 0 -0.34559802451704008 -0.44109108006408437 0 -0.36202336249769052 -0.46072738670939067 0 -0.34559802451704008 -0.44109108006408437 0 -0.35801803286680012 -0.44431168441372493 0 -0.34559802451704008 -0.44109108006408437 0 -0.35801803286680012 -0.44431168441372493 0 -0.35780718850337512 -0.4339726848437605 0 -0.38539063369721949 -0.45020979636030162 0 -0.37087628372248771 -0.45312649174698061 0 -0.3683365684192384 -0.44086890113562249 0 -0.35801803286680012 -0.44431168441372493 0 -0.36439333705081672 -0.44951800972986222 0 -0.3683365684192384 -0.44086890113562249 0 -0.36202336249769052 -0.46072738670939067 0 -0.35801803286680012 -0.44431168441372493 0 -0.36439333705081672 -0.44951800972986222 0 -0.35801803286680012 -0.44431168441372493 0 -0.3683365684192384 -0.44086890113562249 0 -0.35780718850337512 -0.4339726848437605 0 -0.37087628372248771 -0.45312649174698061 0 -0.36439333705081672 -0.44951800972986222 0 -0.3683365684192384 -0.44086890113562249 0 -0.37754063201758509 -0.42531469454045251 0 -0.3683365684192384 -0.44086890113562249 0 -0.36657316404127249 -0.42858567279043458 0 -0.3683365684192384 -0.44086890113562249 0 -0.36657316404127249 -0.42858567279043458 0 -0.35780718850337512 -0.4339726848437605 0 -0.36657316404127249 -0.42858567279043458 0 -0.35780718850337512 -0.4339726848437605 0 -0.35660776602871519 -0.42365558188868158 0 -0.36657316404127249 -0.42858567279043458 0 -0.36883198683104568 -0.41905626867772777 0 -0.35660776602871519 -0.42365558188868158 0 -0.37754063201758509 -0.42531469454045251 0 -0.36657316404127249 -0.42858567279043458 0 -0.36883198683104568 -0.41905626867772777 0 -0.36883198683104568 -0.41905626867772777 0 -0.36065040659924452 -0.40295735910704988 0 -0.35203305306849592 -0.40513647047139772 0 -0.36883198683104568 -0.41905626867772777 0 -0.37129162846163649 -0.40646668987925128 0 -0.36065040659924452 -0.40295735910704988 0 -0.38076443343398969 -0.4131052076953004 0 -0.36883198683104568 -0.41905626867772777 0 -0.37129162846163649 -0.40646668987925128 0 -0.36883198683104568 -0.41905626867772777 0 -0.35203305306849592 -0.40513647047139772 0 -0.34078966769339381 -0.41043736772559758 0 -0.3490368230744888 -0.42622591540588761 0 -0.35660776602871519 -0.42365558188868158 0 -0.34078966769339381 -0.41043736772559758 0 -0.36883198683104568 -0.41905626867772777 0 -0.34078966769339381 -0.41043736772559758 0 -0.36883198683104568 -0.41905626867772777 0 -0.35660776602871519 -0.42365558188868158 0 -0.34078966769339381 -0.41043736772559758 0 -0.34559802451704008 -0.44109108006408437 0 -0.3490368230744888 -0.42622591540588761 0 -0.34063979022351681 -0.42191262964138548 0 -0.34559802451704008 -0.44109108006408437 0 -0.3490368230744888 -0.42622591540588761 0 -0.35780718850337512 -0.4339726848437605 0 -0.3490368230744888 -0.42622591540588761 0 -0.35780718850337512 -0.4339726848437605 0 -0.35660776602871519 -0.42365558188868158 0 -0.37276014916928413 -0.36968874551325409 0 -0.35824806362253647 -0.37377065864708331 0 -0.36836811413296489 -0.38350388751415809 0 -0.36704065833014521 -0.39772404897624991 0 -0.36065040659924452 -0.40295735910704988 0 -0.35749329078673769 -0.39285724241851011 0 -0.36836811413296489 -0.38350388751415809 0 -0.36704065833014521 -0.39772404897624991 0 -0.35749329078673769 -0.39285724241851011 0 -0.38053384935908718 -0.39905841385788582 0 -0.36836811413296489 -0.38350388751415809 0 -0.36704065833014521 -0.39772404897624991 0 -0.38053384935908718 -0.39905841385788582 0 -0.37129162846163649 -0.40646668987925128 0 -0.36704065833014521 -0.39772404897624991 0 -0.37129162846163649 -0.40646668987925128 0 -0.36704065833014521 -0.39772404897624991 0 -0.36065040659924452 -0.40295735910704988 0 -0.36065040659924452 -0.40295735910704988 0 -0.35203305306849592 -0.40513647047139772 0 -0.35031363931482867 -0.39632101151927929 0 -0.35203305306849592 -0.40513647047139772 0 -0.35031363931482867 -0.39632101151927929 0 -0.33957956490396651 -0.39691034532733382 0 -0.35203305306849592 -0.40513647047139772 0 -0.33957956490396651 -0.39691034532733382 0 -0.34078966769339381 -0.41043736772559758 0 -0.35031363931482867 -0.39632101151927929 0 -0.34356298674334762 -0.3899266350522409 0 -0.33957956490396651 -0.39691034532733382 0 -0.35031363931482867 -0.39632101151927929 0 -0.34892128555021118 -0.39102832569958651 0 -0.34356298674334762 -0.3899266350522409 0 -0.35031363931482867 -0.39632101151927929 0 -0.34892128555021118 -0.39102832569958651 0 -0.35749329078673769 -0.39285724241851011 0 -0.36065040659924452 -0.40295735910704988 0 -0.35031363931482867 -0.39632101151927929 0 -0.35749329078673769 -0.39285724241851011 0 -0.36836811413296489 -0.38350388751415809 0 -0.35749329078673769 -0.39285724241851011 0 -0.3496656407930317 -0.38560882169473698 0 -0.36836811413296489 -0.38350388751415809 0 -0.34646602596313703 -0.38303763933960522 0 -0.3496656407930317 -0.38560882169473698 0 -0.35824806362253647 -0.37377065864708331 0 -0.36836811413296489 -0.38350388751415809 0 -0.34646602596313703 -0.38303763933960522 0 -0.36836811413296489 -0.38350388751415809 0 -0.34646602596313703 -0.38303763933960522 0 -0.34892128555021118 -0.39102832569958651 0 -0.35749329078673769 -0.39285724241851011 0 -0.3496656407930317 -0.38560882169473698 0 -0.34892128555021118 -0.39102832569958651 0 -0.3496656407930317 -0.38560882169473698 0 -0.34356298674334762 -0.3899266350522409 0 -0.34646602596313703 -0.38303763933960522 0 -0.3496656407930317 -0.38560882169473698 0 -0.34356298674334762 -0.3899266350522409 0 -0.34646602596313703 -0.38303763933960522 0 -0.3496656407930317 -0.38560882169473698 0 -0.35824806362253647 -0.37377065864708331 0 -0.3471662148251049 -0.37050211097984159 0 -0.34646602596313703 -0.38303763933960522 0 -0.32721685314969001 -0.36756917325225108 0 -0.34646602596313703 -0.38303763933960522 0 -0.32886463086980922 -0.38266294363624542 0 -0.32721685314969001 -0.36756917325225108 0 -0.34646602596313703 -0.38303763933960522 0 -0.34646602596313703 -0.38303763933960522 0 -0.32886463086980922 -0.38266294363624542 0 -0.34356298674334762 -0.3899266350522409 0 -0.34646602596313703 -0.38303763933960522 0 -0.32886463086980922 -0.38266294363624542 0 -0.32886463086980922 -0.38266294363624542 0 -0.34356298674334762 -0.3899266350522409 0 -0.33957956490396651 -0.39691034532733382 0 -0.32886463086980922 -0.38266294363624542 0 -0.33957956490396651 -0.39691034532733382 0 -0.32750852860504748 -0.39672244954817593 0 -0.33957956490396651 -0.39691034532733382 0 -0.32750852860504748 -0.39672244954817593 0 -0.34078966769339381 -0.41043736772559758 0 -0.3127473485557411 -0.40181846677347022 0 -0.34078966769339381 -0.41043736772559758 0 -0.3127473485557411 -0.40181846677347022 0 -0.32750852860504748 -0.39672244954817593 0 -0.34078966769339381 -0.41043736772559758 0 -0.3127473485557411 -0.40181846677347022 0 -0.31548049069516099 -0.39106554465701932 0 -0.32750852860504748 -0.39672244954817593 0 -0.32886463086980922 -0.38266294363624542 0 -0.31548049069516099 -0.39106554465701932 0 -0.31126323577648118 -0.38228824793288552 0 -0.32886463086980922 -0.38266294363624542 0 -0.31851369388908679 -0.3752852129175071 0 -0.31126323577648118 -0.38228824793288552 0 -0.32886463086980922 -0.38266294363624542 0 -0.31126323577648118 -0.38228824793288552 0 -0.32886463086980922 -0.38266294363624542 0 -0.31548049069516099 -0.39106554465701932 0 -0.32750852860504748 -0.39672244954817593 0 -0.32721685314969001 -0.36756917325225108 0 -0.32886463086980922 -0.38266294363624542 0 -0.31851369388908679 -0.3752852129175071 0 -0.34559802451704008 -0.44109108006408437 0 -0.34063979022351681 -0.42191262964138548 0 -0.32917268653638959 -0.42145477341877802 0 -0.34559802451704008 -0.44109108006408437 0 -0.32917268653638959 -0.42145477341877802 0 -0.34559802451704008 -0.44109108006408437 0 -0.32917268653638959 -0.42145477341877802 0 -0.32626946674829482 -0.4350260528264035 0 -0.3490368230744888 -0.42622591540588761 0 -0.34063979022351681 -0.42191262964138548 0 -0.34078966769339381 -0.41043736772559758 0 -0.34063979022351681 -0.42191262964138548 0 -0.34078966769339381 -0.41043736772559758 0 -0.32917268653638959 -0.42145477341877802 0 -0.32917268653638959 -0.42145477341877802 0 -0.31565801902006219 -0.42679040844472149 0 -0.3120149782299711 -0.41585015859073132 0 -0.3127473485557411 -0.40181846677347022 0 -0.32917268653638959 -0.42145477341877802 0 -0.3120149782299711 -0.41585015859073132 0 -0.3127473485557411 -0.40181846677347022 0 -0.32917268653638959 -0.42145477341877802 0 -0.3127473485557411 -0.40181846677347022 0 -0.34078966769339381 -0.41043736772559758 0 -0.32917268653638959 -0.42145477341877802 0 -0.31565801902006219 -0.42679040844472149 0 -0.32626946674829482 -0.4350260528264035 0 -0.30947700072070078 -0.43404098206602648 0 -0.32917268653638959 -0.42145477341877802 0 -0.31565801902006219 -0.42679040844472149 0 -0.32626946674829482 -0.4350260528264035 0 -0.30385206153377092 -0.42789692135221041 0 -0.29314389587875639 -0.42744859817606978 0 -0.29570266714267363 -0.44001388943097341 0 -0.30385206153377092 -0.42789692135221041 0 -0.29711482552990298 -0.4231116033896053 0 -0.29314389587875639 -0.42744859817606978 0 -0.30385206153377092 -0.42789692135221041 0 -0.29711482552990298 -0.4231116033896053 0 -0.2978234103625807 -0.41651188785259807 0 -0.31565801902006219 -0.42679040844472149 0 -0.30385206153377092 -0.42789692135221041 0 -0.3120149782299711 -0.41585015859073132 0 -0.31565801902006219 -0.42679040844472149 0 -0.30947700072070078 -0.43404098206602648 0 -0.30385206153377092 -0.42789692135221041 0 -0.30385206153377092 -0.42789692135221041 0 -0.30026434731808649 -0.40386256180294611 0 -0.30385206153377092 -0.42789692135221041 0 -0.3120149782299711 -0.41585015859073132 0 -0.30026434731808649 -0.40386256180294611 0 -0.30385206153377092 -0.42789692135221041 0 -0.2978234103625807 -0.41651188785259807 0 -0.30026434731808649 -0.40386256180294611 0 -0.3127473485557411 -0.40181846677347022 0 -0.3120149782299711 -0.41585015859073132 0 -0.30026434731808649 -0.40386256180294611 0 -0.2978234103625807 -0.41651188785259807 0 -0.29421779896595063 -0.40925593752682232 0 -0.30026434731808649 -0.40386256180294611 0 -0.29711482552990298 -0.4231116033896053 0 -0.2978234103625807 -0.41651188785259807 0 -0.2930499124934966 -0.42025016320412861 0 -0.2978234103625807 -0.41651188785259807 0 -0.2930499124934966 -0.42025016320412861 0 -0.29005945867777277 -0.4138288934632251 0 -0.2930499124934966 -0.42025016320412861 0 -0.29005945867777277 -0.4138288934632251 0 -0.28592792831645503 -0.41967214719231549 0 -0.29421779896595063 -0.40925593752682232 0 -0.29005945867777277 -0.4138288934632251 0 -0.28708330772965662 -0.4057571101070353 0 -0.2978234103625807 -0.41651188785259807 0 -0.29421779896595063 -0.40925593752682232 0 -0.29005945867777277 -0.4138288934632251 0 -0.28170507599070099 -0.4121933768870607 0 -0.28708330772965662 -0.4057571101070353 0 -0.27953703104731392 -0.40373031421480432 0 -0.29005945867777277 -0.4138288934632251 0 -0.28170507599070099 -0.4121933768870607 0 -0.28708330772965662 -0.4057571101070353 0 -0.29005945867777277 -0.4138288934632251 0 -0.28170507599070099 -0.4121933768870607 0 -0.28592792831645503 -0.41967214719231549 0 -0.28396953656801799 -0.42713459183812108 0 -0.28651205923072792 -0.43424410040618588 0 -0.29314389587875639 -0.42744859817606978 0 -0.28592792831645503 -0.41967214719231549 0 -0.28396953656801799 -0.42713459183812108 0 -0.27567730686781511 -0.42097216042040742 0 -0.28592792831645503 -0.41967214719231549 0 -0.28396953656801799 -0.42713459183812108 0 -0.29314389587875639 -0.42744859817606978 0 -0.28396953656801799 -0.42713459183812108 0 -0.28651205923072792 -0.43424410040618588 0 -0.27616848161394092 -0.43279925915669798 0 -0.28651205923072792 -0.43424410040618588 0 -0.27616848161394092 -0.43279925915669798 0 -0.28357571495025069 -0.44382416342906772 0 -0.28651205923072792 -0.43424410040618588 0 -0.29314389587875639 -0.42744859817606978 0 -0.29570266714267363 -0.44001388943097341 0 -0.29711482552990298 -0.4231116033896053 0 -0.2930499124934966 -0.42025016320412861 0 -0.29314389587875639 -0.42744859817606978 0 -0.2930499124934966 -0.42025016320412861 0 -0.28592792831645503 -0.41967214719231549 0 -0.29314389587875639 -0.42744859817606978 0 -0.31548049069516099 -0.39106554465701932 0 -0.31126323577648118 -0.38228824793288552 0 -0.29586870978450941 -0.38164024413612552 0 -0.30671005576036697 -0.36862048684864651 0 -0.31126323577648118 -0.38228824793288552 0 -0.29586870978450941 -0.38164024413612552 0 -0.30671005576036697 -0.36862048684864651 0 -0.31851369388908679 -0.3752852129175071 0 -0.31126323577648118 -0.38228824793288552 0 -0.3127473485557411 -0.40181846677347022 0 -0.29748466081531449 -0.39712742844485049 0 -0.29586870978450941 -0.38164024413612552 0 -0.3127473485557411 -0.40181846677347022 0 -0.29586870978450941 -0.38164024413612552 0 -0.3127473485557411 -0.40181846677347022 0 -0.31548049069516099 -0.39106554465701932 0 -0.29586870978450941 -0.38164024413612552 0 -0.3127473485557411 -0.40181846677347022 0 -0.29748466081531449 -0.39712742844485049 0 -0.3127473485557411 -0.40181846677347022 0 -0.29748466081531449 -0.39712742844485049 0 -0.30026434731808649 -0.40386256180294611 0 -0.29421779896595063 -0.40925593752682232 0 -0.30026434731808649 -0.40386256180294611 0 -0.29225441758077902 -0.40168788559957752 0 -0.29748466081531449 -0.39712742844485049 0 -0.30026434731808649 -0.40386256180294611 0 -0.29225441758077902 -0.40168788559957752 0 -0.29421779896595063 -0.40925593752682232 0 -0.29225441758077902 -0.40168788559957752 0 -0.28708330772965662 -0.4057571101070353 0 -0.28708330772965662 -0.4057571101070353 0 -0.28222197307488722 -0.39243639011623338 0 -0.27953703104731392 -0.40373031421480432 0 -0.29225441758077902 -0.40168788559957752 0 -0.28708330772965662 -0.4057571101070353 0 -0.28222197307488722 -0.39243639011623338 0 -0.29748466081531449 -0.39712742844485049 0 -0.28222197307488722 -0.39243639011623338 0 -0.28978339591584917 -0.38782964348134241 0 -0.29748466081531449 -0.39712742844485049 0 -0.29225441758077902 -0.40168788559957752 0 -0.28222197307488722 -0.39243639011623338 0 -0.29748466081531449 -0.39712742844485049 0 -0.28222197307488722 -0.39243639011623338 0 -0.29748466081531449 -0.39712742844485049 0 -0.28978339591584917 -0.38782964348134241 0 -0.29586870978450941 -0.38164024413612552 0 -0.28978339591584917 -0.38782964348134241 0 -0.28355823998868568 -0.38011451122816031 0 -0.29586870978450941 -0.38164024413612552 0 -0.28222197307488722 -0.39243639011623338 0 -0.28978339591584917 -0.38782964348134241 0 -0.28355823998868568 -0.38011451122816031 0 -0.29121116600131242 -0.3690137260332218 0 -0.28355823998868568 -0.38011451122816031 0 -0.29586870978450941 -0.38164024413612552 0 -0.27701166618613632 -0.36356236044978302 0 -0.28355823998868568 -0.38011451122816031 0 -0.26803726556326279 -0.38940481176120523 0 -0.27701166618613632 -0.36356236044978302 0 -0.26803726556326279 -0.38940481176120523 0 -0.27701166618613632 -0.36356236044978302 0 -0.26182794616138849 -0.37371714174773318 0 -0.26803726556326279 -0.38940481176120523 0 -0.28222197307488722 -0.39243639011623338 0 -0.28355823998868568 -0.38011451122816031 0 -0.26803726556326279 -0.38940481176120523 0 -0.26803726556326279 -0.38940481176120523 0 -0.27218044933495078 -0.40248661340062131 0 -0.25906286494038949 -0.41524726307262738 0 -0.28222197307488722 -0.39243639011623338 0 -0.26803726556326279 -0.38940481176120523 0 -0.27218044933495078 -0.40248661340062131 0 -0.27953703104731392 -0.40373031421480432 0 -0.27218044933495078 -0.40248661340062131 0 -0.27204311204890042 -0.41161428783823589 0 -0.28222197307488722 -0.39243639011623338 0 -0.27953703104731392 -0.40373031421480432 0 -0.27218044933495078 -0.40248661340062131 0 -0.26803726556326279 -0.38940481176120523 0 -0.25906286494038949 -0.41524726307262738 0 -0.26200263898397952 -0.39388305803323098 0 -0.25906286494038949 -0.41524726307262738 0 -0.245038587939852 -0.4013003724272578 0 -0.26200263898397952 -0.39388305803323098 0 -0.245038587939852 -0.4013003724272578 0 -0.26803726556326279 -0.38940481176120523 0 -0.26200263898397952 -0.39388305803323098 0 -0.25906286494038949 -0.41524726307262738 0 -0.2500437161492321 -0.39527344023300381 0 -0.26200263898397952 -0.39388305803323098 0 -0.245038587939852 -0.4013003724272578 0 -0.2500437161492321 -0.39527344023300381 0 -0.26200263898397952 -0.39388305803323098 0 -0.25552542181851873 -0.39016302053984769 0 -0.2500437161492321 -0.39527344023300381 0 -0.25552542181851873 -0.39016302053984769 0 -0.24920722146078561 -0.38750249992417568 0 -0.26182794616138849 -0.37371714174773318 0 -0.26803726556326279 -0.38940481176120523 0 -0.25822697610122219 -0.38444156623793829 0 -0.26200263898397952 -0.39388305803323098 0 -0.25822697610122219 -0.38444156623793829 0 -0.25552542181851873 -0.39016302053984769 0 -0.26803726556326279 -0.38940481176120523 0 -0.26200263898397952 -0.39388305803323098 0 -0.25822697610122219 -0.38444156623793829 0 -0.25822697610122219 -0.38444156623793829 0 -0.25232805927103041 -0.37692263739255988 0 -0.24920722146078561 -0.38750249992417568 0 -0.25822697610122219 -0.38444156623793829 0 -0.25552542181851873 -0.39016302053984769 0 -0.24920722146078561 -0.38750249992417568 0 -0.26182794616138849 -0.37371714174773318 0 -0.25822697610122219 -0.38444156623793829 0 -0.25232805927103041 -0.37692263739255988 0 -0.26977820906870048 -0.42665292519993431 0 -0.26413632402319648 -0.42029272666543549 0 -0.26313072376984969 -0.43254755455719629 0 -0.26977820906870048 -0.42665292519993431 0 -0.27567730686781511 -0.42097216042040742 0 -0.26413632402319648 -0.42029272666543549 0 -0.27616848161394092 -0.43279925915669798 0 -0.26313072376984969 -0.43254755455719629 0 -0.26920798522769102 -0.44609290629286602 0 -0.26977820906870048 -0.42665292519993431 0 -0.27616848161394092 -0.43279925915669798 0 -0.26313072376984969 -0.43254755455719629 0 -0.28396953656801799 -0.42713459183812108 0 -0.27616848161394092 -0.43279925915669798 0 -0.27567730686781511 -0.42097216042040742 0 -0.26977820906870048 -0.42665292519993431 0 -0.27616848161394092 -0.43279925915669798 0 -0.27567730686781511 -0.42097216042040742 0 -0.28170507599070099 -0.4121933768870607 0 -0.27567730686781511 -0.42097216042040742 0 -0.27204311204890042 -0.41161428783823589 0 -0.28170507599070099 -0.4121933768870607 0 -0.28592792831645503 -0.41967214719231549 0 -0.27567730686781511 -0.42097216042040742 0 -0.28170507599070099 -0.4121933768870607 0 -0.27953703104731392 -0.40373031421480432 0 -0.27204311204890042 -0.41161428783823589 0 -0.27218044933495078 -0.40248661340062131 0 -0.27204311204890042 -0.41161428783823589 0 -0.25906286494038949 -0.41524726307262738 0 -0.27567730686781511 -0.42097216042040742 0 -0.27204311204890042 -0.41161428783823589 0 -0.26413632402319648 -0.42029272666543549 0 -0.27204311204890042 -0.41161428783823589 0 -0.26413632402319648 -0.42029272666543549 0 -0.25906286494038949 -0.41524726307262738 0 -0.26413632402319648 -0.42029272666543549 0 -0.25906286494038949 -0.41524726307262738 0 -0.25906286494038949 -0.41524726307262738 0 -0.245038587939852 -0.4013003724272578 0 -0.25906286494038949 -0.41524726307262738 0 -0.24689695374805551 -0.40876130060916949 0 -0.245038587939852 -0.4013003724272578 0 -0.25906286494038949 -0.41524726307262738 0 -0.24689695374805551 -0.40876130060916949 0 -0.24619042706411781 -0.4220704466267769 0 -0.25906286494038949 -0.41524726307262738 0 -0.26313072376984969 -0.43254755455719629 0 -0.2491232337026161 -0.44386916743256061 0 -0.25906286494038949 -0.41524726307262738 0 -0.2491232337026161 -0.44386916743256061 0 -0.25906286494038949 -0.41524726307262738 0 -0.2491232337026161 -0.44386916743256061 0 -0.24619042706411781 -0.4220704466267769 0 -0.26413632402319648 -0.42029272666543549 0 -0.25906286494038949 -0.41524726307262738 0 -0.26313072376984969 -0.43254755455719629 0 -0.26313072376984969 -0.43254755455719629 0 -0.26920798522769102 -0.44609290629286602 0 -0.2491232337026161 -0.44386916743256061 0 -0.26567378381091161 -0.46793986896464029 0 -0.26920798522769102 -0.44609290629286602 0 -0.2491232337026161 -0.44386916743256061 0 -0.26567378381091161 -0.46793986896464029 0 -0.2491232337026161 -0.44386916743256061 0 -0.26567378381091161 -0.46793986896464029 0 -0.2398236558474823 -0.47064799066957891 0 -0.2491232337026161 -0.44386916743256061 0 -0.26567378381091161 -0.46793986896464029 0 -0.27739581541782737 -0.4549153419587294 0 -0.29083752472125929 -0.46074509753505782 0 -0.26567378381091161 -0.46793986896464029 0 -0.27739581541782737 -0.4549153419587294 0 -0.26920798522769102 -0.44609290629286602 0 -0.27739581541782737 -0.4549153419587294 0 -0.26920798522769102 -0.44609290629286602 0 -0.28357571495025069 -0.44382416342906772 0 -0.27616848161394092 -0.43279925915669798 0 -0.26920798522769102 -0.44609290629286602 0 -0.28357571495025069 -0.44382416342906772 0 -0.28651205923072792 -0.43424410040618588 0 -0.28357571495025069 -0.44382416342906772 0 -0.29570266714267363 -0.44001388943097341 0 -0.28357571495025069 -0.44382416342906772 0 -0.29570266714267363 -0.44001388943097341 0 -0.29083752472125929 -0.46074509753505782 0 -0.27739581541782737 -0.4549153419587294 0 -0.28357571495025069 -0.44382416342906772 0 -0.29083752472125929 -0.46074509753505782 0 -0.30743977574945519 -0.45193128090147472 0 -0.31102748996513963 -0.4759656404507388 0 -0.29083752472125929 -0.46074509753505782 0 -0.30743977574945519 -0.45193128090147472 0 -0.31102748996513963 -0.4759656404507388 0 -0.30385206153377092 -0.42789692135221041 0 -0.29570266714267363 -0.44001388943097341 0 -0.30743977574945519 -0.45193128090147472 0 -0.30947700072070078 -0.43404098206602648 0 -0.30385206153377092 -0.42789692135221041 0 -0.30743977574945519 -0.45193128090147472 0 -0.30385206153377092 -0.42789692135221041 0 -0.30743977574945519 -0.45193128090147472 0 -0.29570266714267363 -0.44001388943097341 0 -0.29083752472125929 -0.46074509753505782 0 -0.30743977574945519 -0.45193128090147472 0 -0.31461520418082439 -0.50000000000000289 0 -0.29361594053798212 -0.48002598497874521 0 -0.29077162578326388 -0.49631692155182999 0 -0.31461520418082439 -0.50000000000000289 0 -0.29077162578326388 -0.49631692155182999 0 -0.28771771154904791 -0.50000000000000266 0 -0.31461520418082439 -0.50000000000000289 0 -0.31102748996513963 -0.4759656404507388 0 -0.29361594053798212 -0.48002598497874521 0 -0.29083752472125929 -0.46074509753505782 0 -0.31102748996513963 -0.4759656404507388 0 -0.29361594053798212 -0.48002598497874521 0 -0.26567378381091161 -0.46793986896464029 0 -0.29083752472125929 -0.46074509753505782 0 -0.29361594053798212 -0.48002598497874521 0 -0.29361594053798212 -0.48002598497874521 0 -0.28222433391920992 -0.49201057049671809 0 -0.29077162578326388 -0.49631692155182999 0 -0.28222433391920992 -0.49201057049671809 0 -0.29077162578326388 -0.49631692155182999 0 -0.28771771154904791 -0.50000000000000266 0 -0.28222433391920992 -0.49201057049671809 0 -0.29077162578326388 -0.49631692155182999 0 -0.28222433391920992 -0.49201057049671809 0 -0.28771771154904791 -0.50000000000000266 0 -0.28222433391920992 -0.49201057049671809 0 -0.28771771154904791 -0.50000000000000266 0 -0.2586740949953753 -0.5 0 -0.28222433391920992 -0.49201057049671809 0 -0.26102399488334638 -0.48132928058314789 0 -0.28222433391920992 -0.49201057049671809 0 -0.26102399488334638 -0.48132928058314789 0 -0.2586740949953753 -0.5 0 -0.26567378381091161 -0.46793986896464029 0 -0.28222433391920992 -0.49201057049671809 0 -0.26102399488334638 -0.48132928058314789 0 -0.26567378381091161 -0.46793986896464029 0 -0.28222433391920992 -0.49201057049671809 0 -0.26567378381091161 -0.46793986896464029 0 -0.29361594053798212 -0.48002598497874521 0 -0.28222433391920992 -0.49201057049671809 0 -0.26102399488334638 -0.48132928058314789 0 -0.2398236558474823 -0.47064799066957891 0 -0.26567378381091161 -0.46793986896464029 0 -0.26102399488334638 -0.48132928058314789 0 -0.2398236558474823 -0.47064799066957891 0 -0.26102399488334638 -0.48132928058314789 0 -0.2586740949953753 -0.5 0 -0.24591949142757841 -0.48797769779789751 0 -0.24591949142757841 -0.48797769779789751 0 -0.23472706714459271 -0.48532399533479048 0 -0.22963047844170259 -0.50000000000000178 0 -0.2586740949953753 -0.5 0 -0.24591949142757841 -0.48797769779789751 0 -0.22963047844170259 -0.50000000000000178 0 -0.24591949142757841 -0.48797769779789751 0 -0.23472706714459271 -0.48532399533479048 0 -0.2398236558474823 -0.47064799066957891 0 -0.26102399488334638 -0.48132928058314789 0 -0.24591949142757841 -0.48797769779789751 0 -0.2398236558474823 -0.47064799066957891 0 -0.23472706714459271 -0.48532399533479048 0 -0.2398236558474823 -0.47064799066957891 0 -0.225198485850613 -0.47774010166010122 0 -0.22980099730474959 -0.46559831097254578 0 -0.2030987714368816 -0.47899566093487772 0 -0.23472706714459271 -0.48532399533479048 0 -0.225198485850613 -0.47774010166010122 0 -0.21854193751935819 -0.48813455038871362 0 -0.23472706714459271 -0.48532399533479048 0 -0.2398236558474823 -0.47064799066957891 0 -0.225198485850613 -0.47774010166010122 0 -0.2398236558474823 -0.47064799066957891 0 -0.225198485850613 -0.47774010166010122 0 -0.22980099730474959 -0.46559831097254578 0 -0.23472706714459271 -0.48532399533479048 0 -0.22963047844170259 -0.50000000000000178 0 -0.21854193751935819 -0.48813455038871362 0 -0.23472706714459271 -0.48532399533479048 0 -0.22963047844170259 -0.50000000000000178 0 -0.2491232337026161 -0.44386916743256061 0 -0.2308432700671284 -0.44863327888326782 0 -0.2293848728057081 -0.43656272829720139 0 -0.2491232337026161 -0.44386916743256061 0 -0.23776076022114481 -0.45734261003971088 0 -0.2308432700671284 -0.44863327888326782 0 -0.2398236558474823 -0.47064799066957891 0 -0.2491232337026161 -0.44386916743256061 0 -0.2398236558474823 -0.47064799066957891 0 -0.2491232337026161 -0.44386916743256061 0 -0.23776076022114481 -0.45734261003971088 0 -0.23776076022114481 -0.45734261003971088 0 -0.2349146843043998 -0.46323815571376847 0 -0.23190019161511369 -0.45955092339593079 0 -0.2398236558474823 -0.47064799066957891 0 -0.22980099730474959 -0.46559831097254578 0 -0.2398236558474823 -0.47064799066957891 0 -0.23776076022114481 -0.45734261003971088 0 -0.2349146843043998 -0.46323815571376847 0 -0.2398236558474823 -0.47064799066957891 0 -0.2349146843043998 -0.46323815571376847 0 -0.22980099730474959 -0.46559831097254578 0 -0.2349146843043998 -0.46323815571376847 0 -0.22980099730474959 -0.46559831097254578 0 -0.23190019161511369 -0.45955092339593079 0 -0.22980099730474959 -0.46559831097254578 0 -0.21705433798547111 -0.45917620784540208 0 -0.22980099730474959 -0.46559831097254578 0 -0.22572334214998391 -0.45615972233404328 0 -0.21705433798547111 -0.45917620784540208 0 -0.22572334214998391 -0.45615972233404328 0 -0.2198791919215746 -0.44788572763697648 0 -0.21705433798547111 -0.45917620784540208 0 -0.22572334214998391 -0.45615972233404328 0 -0.23190019161511369 -0.45955092339593079 0 -0.2308432700671284 -0.44863327888326782 0 -0.23776076022114481 -0.45734261003971088 0 -0.23190019161511369 -0.45955092339593079 0 -0.2308432700671284 -0.44863327888326782 0 -0.22980099730474959 -0.46559831097254578 0 -0.22572334214998391 -0.45615972233404328 0 -0.23190019161511369 -0.45955092339593079 0 -0.22572334214998391 -0.45615972233404328 0 -0.2308432700671284 -0.44863327888326782 0 -0.2198791919215746 -0.44788572763697648 0 -0.2198791919215746 -0.44788572763697648 0 -0.21565385882902791 -0.43707619785160112 0 -0.2293848728057081 -0.43656272829720139 0 -0.2308432700671284 -0.44863327888326782 0 -0.2198791919215746 -0.44788572763697648 0 -0.2293848728057081 -0.43656272829720139 0 -0.20696617327377781 -0.44884514537024112 0 -0.21565385882902791 -0.43707619785160112 0 -0.20475046332741861 -0.43652953449414361 0 -0.2198791919215746 -0.44788572763697648 0 -0.20696617327377781 -0.44884514537024112 0 -0.21565385882902791 -0.43707619785160112 0 -0.2198791919215746 -0.44788572763697648 0 -0.20696617327377781 -0.44884514537024112 0 -0.21705433798547111 -0.45917620784540208 0 -0.22980099730474959 -0.46559831097254578 0 -0.21705433798547111 -0.45917620784540208 0 -0.2030987714368816 -0.47899566093487772 0 -0.20696617327377781 -0.44884514537024112 0 -0.21705433798547111 -0.45917620784540208 0 -0.20012728008225009 -0.46162576495763918 0 -0.21705433798547111 -0.45917620784540208 0 -0.20012728008225009 -0.46162576495763918 0 -0.2030987714368816 -0.47899566093487772 0 -0.19214397575398359 -0.44578344946163773 0 -0.18427026066149921 -0.46908823017942403 0 -0.20012728008225009 -0.46162576495763918 0 -0.19214397575398359 -0.44578344946163773 0 -0.18427026066149921 -0.46908823017942403 0 -0.20696617327377781 -0.44884514537024112 0 -0.20012728008225009 -0.46162576495763918 0 -0.19214397575398359 -0.44578344946163773 0 -0.20696617327377781 -0.44884514537024112 0 -0.19214397575398359 -0.44578344946163773 0 -0.20475046332741861 -0.43652953449414361 0 -0.22963047844170259 -0.50000000000000178 0 -0.21854193751935819 -0.48813455038871362 0 -0.2017284695577953 -0.5 0 -0.21854193751935819 -0.48813455038871362 0 -0.2030987714368816 -0.47899566093487772 0 -0.2017284695577953 -0.5 0 -0.22980099730474959 -0.46559831097254578 0 -0.2030987714368816 -0.47899566093487772 0 -0.225198485850613 -0.47774010166010122 0 -0.21854193751935819 -0.48813455038871362 0 -0.2030987714368816 -0.47899566093487772 0 -0.2030987714368816 -0.47899566093487772 0 -0.17639654556901371 -0.49239301089720988 0 -0.18427026066149921 -0.46908823017942403 0 -0.20012728008225009 -0.46162576495763918 0 -0.2030987714368816 -0.47899566093487772 0 -0.18427026066149921 -0.46908823017942403 0 -0.2030987714368816 -0.47899566093487772 0 -0.17639654556901371 -0.49239301089720988 0 -0.2030987714368816 -0.47899566093487772 0 -0.2017284695577953 -0.5 0 -0.17639654556901371 -0.49239301089720988 0 -0.2017284695577953 -0.5 0 -0.17639654556901371 -0.49239301089720988 0 -0.17382646067388799 -0.50000000000000155 0 -0.17639654556901371 -0.49239301089720988 0 -0.17382646067388799 -0.50000000000000155 0 -0.17639654556901371 -0.49239301089720988 0 -0.16221075695562909 -0.50000000000000089 0 -0.17639654556901371 -0.49239301089720988 0 -0.17382646067388799 -0.50000000000000155 0 -0.16221075695562909 -0.50000000000000089 0 -0.17639654556901371 -0.49239301089720988 0 -0.1642542407371621 -0.48572913788752919 0 -0.1700939655564252 -0.4763849154522074 0 -0.17639654556901371 -0.49239301089720988 0 -0.1642542407371621 -0.48572913788752919 0 -0.16221075695562909 -0.50000000000000089 0 -0.1642542407371621 -0.48572913788752919 0 -0.16221075695562909 -0.50000000000000089 0 -0.15470729727515309 -0.48720860935837251 0 -0.15786263832958849 -0.47314868470441562 0 -0.1700939655564252 -0.4763849154522074 0 -0.1661736799200258 -0.45839239395997111 0 -0.1642542407371621 -0.48572913788752919 0 -0.15786263832958849 -0.47314868470441562 0 -0.15470729727515309 -0.48720860935837251 0 -0.1642542407371621 -0.48572913788752919 0 -0.15786263832958849 -0.47314868470441562 0 -0.1700939655564252 -0.4763849154522074 0 -0.17639654556901371 -0.49239301089720988 0 -0.18427026066149921 -0.46908823017942403 0 -0.17639654556901371 -0.49239301089720988 0 -0.1700939655564252 -0.4763849154522074 0 -0.18427026066149921 -0.46908823017942403 0 -0.1700939655564252 -0.4763849154522074 0 -0.18427026066149921 -0.46908823017942403 0 -0.1661736799200258 -0.45839239395997111 0 -0.19214397575398359 -0.44578344946163773 0 -0.18427026066149921 -0.46908823017942403 0 -0.1661736799200258 -0.45839239395997111 0 -0.19214397575398359 -0.44578344946163773 0 -0.1661736799200258 -0.45839239395997111 0 -0.1697158845179895 -0.43423426132176668 0 -0.14464721211569409 -0.44519521776813847 0 -0.1697158845179895 -0.43423426132176668 0 -0.1661736799200258 -0.45839239395997111 0 -0.14464721211569409 -0.44519521776813847 0 -0.1697158845179895 -0.43423426132176668 0 -0.15786263832958849 -0.47314868470441562 0 -0.1661736799200258 -0.45839239395997111 0 -0.14368247182686311 -0.4629492587317241 0 -0.1661736799200258 -0.45839239395997111 0 -0.14368247182686311 -0.4629492587317241 0 -0.14464721211569409 -0.44519521776813847 0 -0.14464721211569409 -0.44519521776813847 0 -0.1195785397133988 -0.45615617421451032 0 -0.1130772085521464 -0.43766298097986289 0 -0.14464721211569409 -0.44519521776813847 0 -0.1195785397133988 -0.45615617421451032 0 -0.14368247182686311 -0.4629492587317241 0 -0.14464721211569409 -0.44519521776813847 0 -0.1195785397133988 -0.45615617421451032 0 -0.14368247182686311 -0.4629492587317241 0 -0.13603472158864199 -0.48001898059572412 0 -0.1195785397133988 -0.45615617421451032 0 -0.13603472158864199 -0.48001898059572412 0 -0.14807269224560959 -0.5 0 -0.1223189238173311 -0.5 0 -0.13603472158864199 -0.48001898059572412 0 -0.14807269224560959 -0.5 0 -0.15470729727515309 -0.48720860935837251 0 -0.16221075695562909 -0.50000000000000089 0 -0.14807269224560959 -0.5 0 -0.15470729727515309 -0.48720860935837251 0 -0.15786263832958849 -0.47314868470441562 0 -0.14368247182686311 -0.4629492587317241 0 -0.13603472158864199 -0.48001898059572412 0 -0.15786263832958849 -0.47314868470441562 0 -0.13603472158864199 -0.48001898059572412 0 -0.15470729727515309 -0.48720860935837251 0 -0.14682123538076611 -0.38879446859826788 0 -0.13953032480614219 -0.4065366508835706 0 -0.15848101257854019 -0.41038597936223198 0 -0.14682123538076611 -0.38879446859826788 0 -0.16408149570558539 -0.38390439229673601 0 -0.15715566735953521 -0.36974080373051049 0 -0.14682123538076611 -0.38879446859826788 0 -0.12245845528947689 -0.37721081897995212 0 -0.14682123538076611 -0.38879446859826788 0 -0.1217783424510834 -0.39824608269263362 0 -0.12245845528947689 -0.37721081897995212 0 -0.14682123538076611 -0.38879446859826788 0 -0.13953032480614219 -0.4065366508835706 0 -0.1217783424510834 -0.39824608269263362 0 -0.13953032480614219 -0.4065366508835706 0 -0.12426836426920559 -0.42242943770303321 0 -0.1217783424510834 -0.39824608269263362 0 -0.13953032480614219 -0.4065366508835706 0 -0.14722099617005191 -0.42199354576108511 0 -0.12426836426920559 -0.42242943770303321 0 -0.14464721211569409 -0.44519521776813847 0 -0.1130772085521464 -0.43766298097986289 0 -0.12426836426920559 -0.42242943770303321 0 -0.14464721211569409 -0.44519521776813847 0 -0.14722099617005191 -0.42199354576108511 0 -0.12426836426920559 -0.42242943770303321 0 -0.14722099617005191 -0.42199354576108511 0 -0.12426836426920559 -0.42242943770303321 0 -0.14464721211569409 -0.44519521776813847 0 -0.14722099617005191 -0.42199354576108511 0 -0.1697158845179895 -0.43423426132176668 0 -0.13953032480614219 -0.4065366508835706 0 -0.14722099617005191 -0.42199354576108511 0 -0.15848101257854019 -0.41038597936223198 0 -0.14722099617005191 -0.42199354576108511 0 -0.17017362807089831 -0.42155765381913701 0 -0.14722099617005191 -0.42199354576108511 0 -0.15848101257854019 -0.41038597936223198 0 -0.17017362807089831 -0.42155765381913701 0 -0.15848101257854019 -0.41038597936223198 0 -0.17017362807089831 -0.42155765381913701 0 -0.1704957579709673 -0.41076543060101689 0 -0.15848101257854019 -0.41038597936223198 0 -0.1704957579709673 -0.41076543060101689 0 -0.1711840154720552 -0.40037811821658381 0 -0.14722099617005191 -0.42199354576108511 0 -0.17017362807089831 -0.42155765381913701 0 -0.1697158845179895 -0.43423426132176668 0 -0.1697158845179895 -0.43423426132176668 0 -0.1947845569202849 -0.42327330487539488 0 -0.19312625997174479 -0.4211217618771888 0 -0.1697158845179895 -0.43423426132176668 0 -0.1947845569202849 -0.42327330487539488 0 -0.19214397575398359 -0.44578344946163773 0 -0.1697158845179895 -0.43423426132176668 0 -0.1947845569202849 -0.42327330487539488 0 -0.17017362807089831 -0.42155765381913701 0 -0.1697158845179895 -0.43423426132176668 0 -0.19312625997174479 -0.4211217618771888 0 -0.17017362807089831 -0.42155765381913701 0 -0.19312625997174479 -0.4211217618771888 0 -0.17017362807089831 -0.42155765381913701 0 -0.18070257142306759 -0.40992729525856819 0 -0.19312625997174479 -0.4211217618771888 0 -0.1704957579709673 -0.41076543060101689 0 -0.18070257142306759 -0.40992729525856819 0 -0.1711840154720552 -0.40037811821658381 0 -0.17017362807089831 -0.42155765381913701 0 -0.1704957579709673 -0.41076543060101689 0 -0.18070257142306759 -0.40992729525856819 0 -0.18070257142306759 -0.40992729525856819 0 -0.18661463975974671 -0.38927830867645441 0 -0.19042124460492729 -0.41251875189663523 0 -0.18070257142306759 -0.40992729525856819 0 -0.1711840154720552 -0.40037811821658381 0 -0.18661463975974671 -0.38927830867645441 0 -0.1711840154720552 -0.40037811821658381 0 -0.16408149570558539 -0.38390439229673601 0 -0.18661463975974671 -0.38927830867645441 0 -0.14682123538076611 -0.38879446859826788 0 -0.15848101257854019 -0.41038597936223198 0 -0.1711840154720552 -0.40037811821658381 0 -0.14682123538076611 -0.38879446859826788 0 -0.1711840154720552 -0.40037811821658381 0 -0.16408149570558539 -0.38390439229673601 0 -0.14682123538076611 -0.38879446859826788 0 -0.1711840154720552 -0.40037811821658381 0 -0.18661463975974671 -0.38927830867645441 0 -0.17436381335051601 -0.36920393731860379 0 -0.16408149570558539 -0.38390439229673601 0 -0.18661463975974671 -0.38927830867645441 0 -0.17436381335051601 -0.36920393731860379 0 -0.18661463975974671 -0.38927830867645441 0 -0.19498298012446841 -0.37381376166100272 0 -0.17436381335051601 -0.36920393731860379 0 -0.18661463975974671 -0.38927830867645441 0 -0.20459189378062989 -0.38827295472266149 0 -0.19498298012446841 -0.37381376166100272 0 -0.18661463975974671 -0.38927830867645441 0 -0.19042124460492729 -0.41251875189663523 0 -0.19886546616897721 -0.40935268003430503 0 -0.18661463975974671 -0.38927830867645441 0 -0.19959911876630329 -0.39677138098475678 0 -0.19886546616897721 -0.40935268003430503 0 -0.18661463975974671 -0.38927830867645441 0 -0.19959911876630329 -0.39677138098475678 0 -0.20459189378062989 -0.38827295472266149 0 -0.18661463975974671 -0.38927830867645441 0 -0.19886546616897721 -0.40935268003430503 0 -0.19959911876630329 -0.39677138098475678 0 -0.2083244753558596 -0.40018158050560643 0 -0.19886546616897721 -0.40935268003430503 0 -0.19959911876630329 -0.39677138098475678 0 -0.2083244753558596 -0.40018158050560643 0 -0.20459189378062989 -0.38827295472266149 0 -0.2083244753558596 -0.40018158050560643 0 -0.21800526320487651 -0.39275229174050041 0 -0.20459189378062989 -0.38827295472266149 0 -0.2083244753558596 -0.40018158050560643 0 -0.21800526320487651 -0.39275229174050041 0 -0.21985322932258031 -0.41231234842902309 0 -0.21800526320487651 -0.39275229174050041 0 -0.20459189378062989 -0.38827295472266149 0 -0.21271008392445939 -0.36915025800682738 0 -0.20459189378062989 -0.38827295472266149 0 -0.19498298012446841 -0.37381376166100272 0 -0.21271008392445939 -0.36915025800682738 0 -0.19214397575398359 -0.44578344946163773 0 -0.200017690846468 -0.42247866874385148 0 -0.19214397575398359 -0.44578344946163773 0 -0.200017690846468 -0.42247866874385148 0 -0.20475046332741861 -0.43652953449414361 0 -0.19214397575398359 -0.44578344946163773 0 -0.1947845569202849 -0.42327330487539488 0 -0.200017690846468 -0.42247866874385148 0 -0.1947845569202849 -0.42327330487539488 0 -0.19312625997174479 -0.4211217618771888 0 -0.19886546616897721 -0.40935268003430503 0 -0.18070257142306759 -0.40992729525856819 0 -0.19312625997174479 -0.4211217618771888 0 -0.19042124460492729 -0.41251875189663523 0 -0.19312625997174479 -0.4211217618771888 0 -0.19042124460492729 -0.41251875189663523 0 -0.19886546616897721 -0.40935268003430503 0 -0.1947845569202849 -0.42327330487539488 0 -0.200017690846468 -0.42247866874385148 0 -0.21985322932258031 -0.41231234842902309 0 -0.1947845569202849 -0.42327330487539488 0 -0.21985322932258031 -0.41231234842902309 0 -0.1947845569202849 -0.42327330487539488 0 -0.19886546616897721 -0.40935268003430503 0 -0.21985322932258031 -0.41231234842902309 0 -0.200017690846468 -0.42247866874385148 0 -0.21258346236220799 -0.42677445176461221 0 -0.21985322932258031 -0.41231234842902309 0 -0.2083244753558596 -0.40018158050560643 0 -0.19886546616897721 -0.40935268003430503 0 -0.21985322932258031 -0.41231234842902309 0 -0.200017690846468 -0.42247866874385148 0 -0.21258346236220799 -0.42677445176461221 0 -0.20475046332741861 -0.43652953449414361 0 -0.21258346236220799 -0.42677445176461221 0 -0.21565385882902791 -0.43707619785160112 0 -0.20475046332741861 -0.43652953449414361 0 -0.21258346236220799 -0.42677445176461221 0 -0.21565385882902791 -0.43707619785160112 0 -0.22555741770817511 -0.42586670472699401 0 -0.2293848728057081 -0.43656272829720139 0 -0.22555741770817511 -0.42586670472699401 0 -0.2372850357534679 -0.42665199171048668 0 -0.21565385882902791 -0.43707619785160112 0 -0.2293848728057081 -0.43656272829720139 0 -0.22555741770817511 -0.42586670472699401 0 -0.22555741770817511 -0.42586670472699401 0 -0.23858404717605869 -0.41582251030903977 0 -0.2372850357534679 -0.42665199171048668 0 -0.22555741770817511 -0.42586670472699401 0 -0.21985322932258031 -0.41231234842902309 0 -0.23858404717605869 -0.41582251030903977 0 -0.21985322932258031 -0.41231234842902309 0 -0.245038587939852 -0.4013003724272578 0 -0.21258346236220799 -0.42677445176461221 0 -0.22555741770817511 -0.42586670472699401 0 -0.21985322932258031 -0.41231234842902309 0 -0.21985322932258031 -0.41231234842902309 0 -0.23858404717605869 -0.41582251030903977 0 -0.245038587939852 -0.4013003724272578 0 -0.24689695374805551 -0.40876130060916949 0 -0.23858404717605869 -0.41582251030903977 0 -0.245038587939852 -0.4013003724272578 0 -0.24689695374805551 -0.40876130060916949 0 -0.23858404717605869 -0.41582251030903977 0 -0.24619042706411781 -0.4220704466267769 0 -0.23858404717605869 -0.41582251030903977 0 -0.2372850357534679 -0.42665199171048668 0 -0.24619042706411781 -0.4220704466267769 0 -0.2491232337026161 -0.44386916743256061 0 -0.2372850357534679 -0.42665199171048668 0 -0.2491232337026161 -0.44386916743256061 0 -0.2293848728057081 -0.43656272829720139 0 -0.2372850357534679 -0.42665199171048668 0 -0.2491232337026161 -0.44386916743256061 0 -0.2372850357534679 -0.42665199171048668 0 -0.24619042706411781 -0.4220704466267769 0 -0.22878569804192911 -0.38513716643318863 0 -0.21271008392445939 -0.36915025800682738 0 -0.22878569804192911 -0.38513716643318863 0 -0.22635213556942849 -0.37150837166600459 0 -0.21271008392445939 -0.36915025800682738 0 -0.21800526320487651 -0.39275229174050041 0 -0.22878569804192911 -0.38513716643318863 0 -0.21271008392445939 -0.36915025800682738 0 -0.22878569804192911 -0.38513716643318863 0 -0.23865808147585479 -0.37785108153337932 0 -0.22635213556942849 -0.37150837166600459 0 -0.21800526320487651 -0.39275229174050041 0 -0.22878569804192911 -0.38513716643318863 0 -0.23162728082227529 -0.39863757738584182 0 -0.21985322932258031 -0.41231234842902309 0 -0.23162728082227529 -0.39863757738584182 0 -0.245038587939852 -0.4013003724272578 0 -0.21800526320487651 -0.39275229174050041 0 -0.21985322932258031 -0.41231234842902309 0 -0.23162728082227529 -0.39863757738584182 0 -0.22878569804192911 -0.38513716643318863 0 -0.245038587939852 -0.4013003724272578 0 -0.22878569804192911 -0.38513716643318863 0 -0.23162728082227529 -0.39863757738584182 0 -0.245038587939852 -0.4013003724272578 0 -0.24689695374805551 -0.40876130060916949 0 -0.245038587939852 -0.4013003724272578 0 -0.2500437161492321 -0.39527344023300381 0 -0.245038587939852 -0.4013003724272578 0 -0.24920722146078561 -0.38750249992417568 0 -0.245038587939852 -0.4013003724272578 0 -0.24920722146078561 -0.38750249992417568 0 -0.23865808147585479 -0.37785108153337932 0 -0.22878569804192911 -0.38513716643318863 0 -0.245038587939852 -0.4013003724272578 0 -0.23865808147585479 -0.37785108153337932 0 -0.245038587939852 -0.4013003724272578 0 -0.23865808147585479 -0.37785108153337932 0 -0.25232805927103041 -0.37692263739255988 0 -0.24920722146078561 -0.38750249992417568 0 -0.23865808147585479 -0.37785108153337932 0 -0.25376857312185103 -0.36290262505178228 0 -0.25232805927103041 -0.37692263739255988 0 -0.23865808147585479 -0.37785108153337932 0 -0.23865808147585479 -0.37785108153337932 0 -0.23245485079230829 -0.35457808820721037 0 -0.25376857312185103 -0.36290262505178228 0 -0.23865808147585479 -0.37785108153337932 0 -0.23245485079230829 -0.35457808820721037 0 -0.22635213556942849 -0.37150837166600459 0 -0.23245485079230829 -0.35457808820721037 0 -0.21271008392445939 -0.36915025800682738 0 -0.23865808147585479 -0.37785108153337932 0 -0.22635213556942849 -0.37150837166600459 0 -0.23245485079230829 -0.35457808820721037 0 -0.23245485079230829 -0.35457808820721037 0 -0.21271008392445939 -0.36915025800682738 0 -0.21483482909902191 -0.34846891163725791 0 -0.23245485079230829 -0.35457808820721037 0 -0.22625162010876179 -0.33130509488104137 0 -0.21483482909902191 -0.34846891163725791 0 -0.23245485079230829 -0.35457808820721037 0 -0.24989579750610849 -0.34760382400854267 0 -0.2414109067523551 -0.33670981635275599 0 -0.25376857312185103 -0.36290262505178228 0 -0.23245485079230829 -0.35457808820721037 0 -0.24989579750610849 -0.34760382400854267 0 -0.25551182357448232 -0.33586001051792308 0 -0.24989579750610849 -0.34760382400854267 0 -0.2414109067523551 -0.33670981635275599 0 -0.25551182357448232 -0.33586001051792308 0 -0.25054650546405122 -0.32395998674240822 0 -0.2414109067523551 -0.33670981635275599 0 -0.25054650546405122 -0.32395998674240822 0 -0.2414109067523551 -0.33670981635275599 0 -0.23674499114423969 -0.3249649135530005 0 -0.2414109067523551 -0.33670981635275599 0 -0.23674499114423969 -0.3249649135530005 0 -0.22625162010876179 -0.33130509488104137 0 -0.25054650546405122 -0.32395998674240822 0 -0.23674499114423969 -0.3249649135530005 0 -0.24136106976678079 -0.31123553463711268 0 -0.25054650546405122 -0.32395998674240822 0 -0.25439597630510458 -0.30858987618539663 0 -0.24136106976678079 -0.31123553463711268 0 -0.23674499114423969 -0.3249649135530005 0 -0.22329502840821849 -0.30201379184774357 0 -0.23674499114423969 -0.3249649135530005 0 -0.22625162010876179 -0.33130509488104137 0 -0.21495827037992141 -0.31892122608807549 0 -0.23674499114423969 -0.3249649135530005 0 -0.24136106976678079 -0.31123553463711268 0 -0.22329502840821849 -0.30201379184774357 0 -0.23674499114423969 -0.3249649135530005 0 -0.21495827037992141 -0.31892122608807549 0 -0.22329502840821849 -0.30201379184774357 0 -0.23245485079230829 -0.35457808820721037 0 -0.22625162010876179 -0.33130509488104137 0 -0.23245485079230829 -0.35457808820721037 0 -0.2414109067523551 -0.33670981635275599 0 -0.22625162010876179 -0.33130509488104137 0 -0.22625162010876179 -0.33130509488104137 0 -0.20612312086259019 -0.33414776751074438 0 -0.21483482909902191 -0.34846891163725791 0 -0.22625162010876179 -0.33130509488104137 0 -0.20612312086259019 -0.33414776751074438 0 -0.21495827037992141 -0.31892122608807549 0 -0.21495827037992141 -0.31892122608807549 0 -0.19263329763138359 -0.31902793267681251 0 -0.2050548817946822 -0.30236263247287609 0 -0.20612312086259019 -0.33414776751074438 0 -0.21495827037992141 -0.31892122608807549 0 -0.19263329763138359 -0.31902793267681251 0 -0.20612312086259019 -0.33414776751074438 0 -0.18983794162216269 -0.33795265309585348 0 -0.1966344698069897 -0.35316334958046619 0 -0.20612312086259019 -0.33414776751074438 0 -0.19263329763138359 -0.31902793267681251 0 -0.18983794162216269 -0.33795265309585348 0 -0.18983794162216269 -0.33795265309585348 0 -0.1966344698069897 -0.35316334958046619 0 -0.17948495516710511 -0.34825906283460029 0 -0.1966344698069897 -0.35316334958046619 0 -0.19498298012446841 -0.37381376166100272 0 -0.17436381335051601 -0.36920393731860379 0 -0.1966344698069897 -0.35316334958046619 0 -0.19498298012446841 -0.37381376166100272 0 -0.21271008392445939 -0.36915025800682738 0 -0.1966344698069897 -0.35316334958046619 0 -0.21271008392445939 -0.36915025800682738 0 -0.1966344698069897 -0.35316334958046619 0 -0.21271008392445939 -0.36915025800682738 0 -0.21483482909902191 -0.34846891163725791 0 -0.20612312086259019 -0.33414776751074438 0 -0.1966344698069897 -0.35316334958046619 0 -0.21483482909902191 -0.34846891163725791 0 -0.2345738197544574 -0.2535776733873526 0 -0.2157262119262304 -0.2584871452865905 0 -0.2169351205791176 -0.23928729075814181 0 -0.2345738197544574 -0.2535776733873526 0 -0.22702695668690509 -0.27010447627339379 0 -0.2157262119262304 -0.2584871452865905 0 -0.25606843302098309 -0.25636966241633519 0 -0.2345738197544574 -0.2535776733873526 0 -0.24477196931982659 -0.27565775886255373 0 -0.2345738197544574 -0.2535776733873526 0 -0.24477196931982659 -0.27565775886255373 0 -0.22702695668690509 -0.27010447627339379 0 -0.24477196931982659 -0.27565775886255373 0 -0.22702695668690509 -0.27010447627339379 0 -0.2293523735198876 -0.28469756039663852 0 -0.22702695668690509 -0.27010447627339379 0 -0.2293523735198876 -0.28469756039663852 0 -0.2098450656721973 -0.27906267014248659 0 -0.2293523735198876 -0.28469756039663852 0 -0.22329502840821849 -0.30201379184774357 0 -0.2098450656721973 -0.27906267014248659 0 -0.2293523735198876 -0.28469756039663852 0 -0.24182284751229011 -0.29664910485701462 0 -0.22329502840821849 -0.30201379184774357 0 -0.24477196931982659 -0.27565775886255373 0 -0.2293523735198876 -0.28469756039663852 0 -0.24182284751229011 -0.29664910485701462 0 -0.26002489615146268 -0.29163393889111838 0 -0.24477196931982659 -0.27565775886255373 0 -0.24182284751229011 -0.29664910485701462 0 -0.24182284751229011 -0.29664910485701462 0 -0.24136106976678079 -0.31123553463711268 0 -0.22329502840821849 -0.30201379184774357 0 -0.25439597630510458 -0.30858987618539663 0 -0.24182284751229011 -0.29664910485701462 0 -0.24136106976678079 -0.31123553463711268 0 -0.21495827037992141 -0.31892122608807549 0 -0.22329502840821849 -0.30201379184774357 0 -0.2050548817946822 -0.30236263247287609 0 -0.19263329763138359 -0.31902793267681251 0 -0.2050548817946822 -0.30236263247287609 0 -0.18762367696712201 -0.29535799193729712 0 -0.18762367696712201 -0.29535799193729712 0 -0.2098450656721973 -0.27906267014248659 0 -0.18915467320104101 -0.27402808097755249 0 -0.2050548817946822 -0.30236263247287609 0 -0.18762367696712201 -0.29535799193729712 0 -0.2098450656721973 -0.27906267014248659 0 -0.22329502840821849 -0.30201379184774357 0 -0.2098450656721973 -0.27906267014248659 0 -0.22329502840821849 -0.30201379184774357 0 -0.2050548817946822 -0.30236263247287609 0 -0.2098450656721973 -0.27906267014248659 0 -0.22702695668690509 -0.27010447627339379 0 -0.2098450656721973 -0.27906267014248659 0 -0.2157262119262304 -0.2584871452865905 0 -0.2098450656721973 -0.27906267014248659 0 -0.19639510293617601 -0.25611154843722972 0 -0.2098450656721973 -0.27906267014248659 0 -0.18915467320104101 -0.27402808097755249 0 -0.19639510293617601 -0.25611154843722972 0 -0.19639510293617601 -0.25611154843722972 0 -0.17894125144676101 -0.25938846464192622 0 -0.1927269721952623 -0.23802934634911169 0 -0.18915467320104101 -0.27402808097755249 0 -0.19639510293617601 -0.25611154843722972 0 -0.17894125144676101 -0.25938846464192622 0 -0.19639510293617601 -0.25611154843722972 0 -0.2157262119262304 -0.2584871452865905 0 -0.2169351205791176 -0.23928729075814181 0 -0.2098450656721973 -0.27906267014248659 0 -0.19639510293617601 -0.25611154843722972 0 -0.2157262119262304 -0.2584871452865905 0 -0.16213576413331901 -0.25364819393533983 0 -0.17894125144676101 -0.25938846464192622 0 -0.16298892681981669 -0.26747315361741791 0 -0.16213576413331901 -0.25364819393533983 0 -0.16298892681981669 -0.26747315361741791 0 -0.14710715992940279 -0.26255648642596507 0 -0.18915467320104101 -0.27402808097755249 0 -0.17894125144676101 -0.25938846464192622 0 -0.17296826898294859 -0.28021972972882297 0 -0.17296826898294859 -0.28021972972882297 0 -0.16298892681981669 -0.26747315361741791 0 -0.15379218960665181 -0.28155289335503542 0 -0.17894125144676101 -0.25938846464192622 0 -0.17296826898294859 -0.28021972972882297 0 -0.16298892681981669 -0.26747315361741791 0 -0.17296826898294859 -0.28021972972882297 0 -0.16377922796640279 -0.30156396911812361 0 -0.15379218960665181 -0.28155289335503542 0 -0.18762367696712201 -0.29535799193729712 0 -0.18915467320104101 -0.27402808097755249 0 -0.17296826898294859 -0.28021972972882297 0 -0.18762367696712201 -0.29535799193729712 0 -0.17296826898294859 -0.28021972972882297 0 -0.16377922796640279 -0.30156396911812361 0 -0.18762367696712201 -0.29535799193729712 0 -0.16377922796640279 -0.30156396911812361 0 -0.17611766919673261 -0.31374648551224782 0 -0.19263329763138359 -0.31902793267681251 0 -0.18762367696712201 -0.29535799193729712 0 -0.17611766919673261 -0.31374648551224782 0 -0.16377922796640279 -0.30156396911812361 0 -0.17611766919673261 -0.31374648551224782 0 -0.16207657930418301 -0.32093672561168157 0 -0.16377922796640279 -0.30156396911812361 0 -0.1451900588420664 -0.29932624794601193 0 -0.14735833977434859 -0.31757976917900099 0 -0.16377922796640279 -0.30156396911812361 0 -0.14735833977434859 -0.31757976917900099 0 -0.1451900588420664 -0.29932624794601193 0 -0.12648370928348551 -0.31104944339867441 0 -0.13027567592362391 -0.29430901659598813 0 -0.1451900588420664 -0.29932624794601193 0 -0.12648370928348551 -0.31104944339867441 0 -0.14735833977434859 -0.31757976917900099 0 -0.13027567592362391 -0.29430901659598813 0 -0.13615702443232869 -0.28003214896116752 0 -0.1169346354438304 -0.2794252909740268 0 -0.1451900588420664 -0.29932624794601193 0 -0.13027567592362391 -0.29430901659598813 0 -0.13615702443232869 -0.28003214896116752 0 -0.16377922796640279 -0.30156396911812361 0 -0.1451900588420664 -0.29932624794601193 0 -0.15379218960665181 -0.28155289335503542 0 -0.1451900588420664 -0.29932624794601193 0 -0.15379218960665181 -0.28155289335503542 0 -0.13615702443232869 -0.28003214896116752 0 -0.15379218960665181 -0.28155289335503542 0 -0.13615702443232869 -0.28003214896116752 0 -0.14710715992940279 -0.26255648642596507 0 -0.16298892681981669 -0.26747315361741791 0 -0.15379218960665181 -0.28155289335503542 0 -0.14710715992940279 -0.26255648642596507 0 -0.13615702443232869 -0.28003214896116752 0 -0.1298769943854616 -0.26544404850233227 0 -0.14710715992940279 -0.26255648642596507 0 -0.13615702443232869 -0.28003214896116752 0 -0.1298769943854616 -0.26544404850233227 0 -0.1169346354438304 -0.2794252909740268 0 -0.1298769943854616 -0.26544404850233227 0 -0.14710715992940279 -0.26255648642596507 0 -0.1396029791942078 -0.24239269199167149 0 -0.1298769943854616 -0.26544404850233227 0 -0.12328477412140371 -0.25011208707580329 0 -0.1396029791942078 -0.24239269199167149 0 -0.16213576413331901 -0.25364819393533983 0 -0.14710715992940279 -0.26255648642596507 0 -0.1396029791942078 -0.24239269199167149 0 -0.16211298694128551 -0.34912956596075329 0 -0.17436381335051601 -0.36920393731860379 0 -0.16211298694128551 -0.34912956596075329 0 -0.15715566735953521 -0.36974080373051049 0 -0.17436381335051601 -0.36920393731860379 0 -0.16408149570558539 -0.38390439229673601 0 -0.15715566735953521 -0.36974080373051049 0 -0.17436381335051601 -0.36920393731860379 0 -0.16211298694128551 -0.34912956596075329 0 -0.17436381335051601 -0.36920393731860379 0 -0.17948495516710511 -0.34825906283460029 0 -0.1966344698069897 -0.35316334958046619 0 -0.17436381335051601 -0.36920393731860379 0 -0.17948495516710511 -0.34825906283460029 0 -0.18983794162216269 -0.33795265309585348 0 -0.17948495516710511 -0.34825906283460029 0 -0.17447556411457141 -0.33184580821732429 0 -0.16211298694128551 -0.34912956596075329 0 -0.17948495516710511 -0.34825906283460029 0 -0.17447556411457141 -0.33184580821732429 0 -0.19263329763138359 -0.31902793267681251 0 -0.18983794162216269 -0.33795265309585348 0 -0.17447556411457141 -0.33184580821732429 0 -0.19263329763138359 -0.31902793267681251 0 -0.17447556411457141 -0.33184580821732429 0 -0.17611766919673261 -0.31374648551224782 0 -0.16377922796640279 -0.30156396911812361 0 -0.16207657930418301 -0.32093672561168157 0 -0.14735833977434859 -0.31757976917900099 0 -0.17447556411457141 -0.33184580821732429 0 -0.17611766919673261 -0.31374648551224782 0 -0.16207657930418301 -0.32093672561168157 0 -0.16207657930418301 -0.32093672561168157 0 -0.16213182272302371 -0.33274182359816551 0 -0.14986216053205489 -0.32905519460290278 0 -0.16211298694128551 -0.34912956596075329 0 -0.16213182272302371 -0.33274182359816551 0 -0.14986216053205489 -0.32905519460290278 0 -0.16211298694128551 -0.34912956596075329 0 -0.17447556411457141 -0.33184580821732429 0 -0.16213182272302371 -0.33274182359816551 0 -0.17447556411457141 -0.33184580821732429 0 -0.16207657930418301 -0.32093672561168157 0 -0.16213182272302371 -0.33274182359816551 0 -0.14428483646896231 -0.34267011483539722 0 -0.14986216053205489 -0.32905519460290278 0 -0.1309374515822945 -0.33359556923987838 0 -0.16211298694128551 -0.34912956596075329 0 -0.14428483646896231 -0.34267011483539722 0 -0.14986216053205489 -0.32905519460290278 0 -0.16211298694128551 -0.34912956596075329 0 -0.14986216053205489 -0.32905519460290278 0 -0.14986216053205489 -0.32905519460290278 0 -0.14735833977434859 -0.31757976917900099 0 -0.1309374515822945 -0.33359556923987838 0 -0.16207657930418301 -0.32093672561168157 0 -0.14986216053205489 -0.32905519460290278 0 -0.14735833977434859 -0.31757976917900099 0 -0.12648370928348551 -0.31104944339867441 0 -0.14735833977434859 -0.31757976917900099 0 -0.1309374515822945 -0.33359556923987838 0 -0.14735833977434859 -0.31757976917900099 0 -0.1309374515822945 -0.33359556923987838 0 -0.14428483646896231 -0.34267011483539722 0 -0.1309374515822945 -0.33359556923987838 0 -0.13839880541952321 -0.35767165447819149 0 -0.1309374515822945 -0.33359556923987838 0 -0.13839880541952321 -0.35767165447819149 0 -0.1145165633902403 -0.34961136930075581 0 -0.16211298694128551 -0.34912956596075329 0 -0.14428483646896231 -0.34267011483539722 0 -0.13839880541952321 -0.35767165447819149 0 -0.16211298694128551 -0.34912956596075329 0 -0.15715566735953521 -0.36974080373051049 0 -0.13839880541952321 -0.35767165447819149 0 -0.14682123538076611 -0.38879446859826788 0 -0.15715566735953521 -0.36974080373051049 0 -0.13839880541952321 -0.35767165447819149 0 -0.14682123538076611 -0.38879446859826788 0 -0.13839880541952321 -0.35767165447819149 0 -0.12245845528947689 -0.37721081897995212 0 -0.13839880541952321 -0.35767165447819149 0 -0.1145165633902403 -0.34961136930075581 0 -0.12245845528947689 -0.37721081897995212 0 -0.098095675198188237 -0.36562716936163542 0 -0.12245845528947689 -0.37721081897995212 0 -0.098095675198188237 -0.36562716936163542 0 -0.1145165633902403 -0.34961136930075581 0 -0.12245845528947689 -0.37721081897995212 0 -0.098095675198188237 -0.36562716936163542 0 -0.096651533106284299 -0.37216028955965691 0 -0.1080548520621018 -0.38235089945247053 0 -0.098095675198188237 -0.36562716936163542 0 -0.091830235083043443 -0.37173804686131029 0 -0.098095675198188237 -0.36562716936163542 0 -0.096651533106284299 -0.37216028955965691 0 -0.091830235083043443 -0.37173804686131029 0 -0.096651533106284299 -0.37216028955965691 0 -0.091830235083043443 -0.37173804686131029 0 -0.098095675198188237 -0.36562716936163542 0 -0.1145165633902403 -0.34961136930075581 0 -0.095680790957192424 -0.34367268614484042 0 -0.098095675198188237 -0.36562716936163542 0 -0.1145165633902403 -0.34961136930075581 0 -0.1309374515822945 -0.33359556923987838 0 -0.1145165633902403 -0.34961136930075581 0 -0.11140494971023281 -0.32939009980382811 0 -0.1309374515822945 -0.33359556923987838 0 -0.1145165633902403 -0.34961136930075581 0 -0.12648370928348551 -0.31104944339867441 0 -0.11140494971023281 -0.32939009980382811 0 -0.10502264397212289 -0.3082957856036298 0 -0.12648370928348551 -0.31104944339867441 0 -0.1309374515822945 -0.33359556923987838 0 -0.11140494971023281 -0.32939009980382811 0 -0.095788539076061469 -0.33011574513518982 0 -0.086209096638847377 -0.31955890705058698 0 -0.10502264397212289 -0.3082957856036298 0 -0.11140494971023281 -0.32939009980382811 0 -0.095788539076061469 -0.33011574513518982 0 -0.10502264397212289 -0.3082957856036298 0 -0.086209096638847377 -0.31955890705058698 0 -0.10502264397212289 -0.3082957856036298 0 -0.1145165633902403 -0.34961136930075581 0 -0.11140494971023281 -0.32939009980382811 0 -0.095680790957192424 -0.34367268614484042 0 -0.11140494971023281 -0.32939009980382811 0 -0.095788539076061469 -0.33011574513518982 0 -0.095680790957192424 -0.34367268614484042 0 -0.095788539076061469 -0.33011574513518982 0 -0.095680790957192424 -0.34367268614484042 0 -0.082657280295936275 -0.33457757914776259 0 -0.082657280295936275 -0.33457757914776259 0 -0.086209096638847377 -0.31955890705058698 0 -0.067395549305571831 -0.33082202849754422 0 -0.095788539076061469 -0.33011574513518982 0 -0.082657280295936275 -0.33457757914776259 0 -0.086209096638847377 -0.31955890705058698 0 -0.086209096638847377 -0.31955890705058698 0 -0.072564032893435007 -0.31930735653441411 0 -0.076639711326359827 -0.30469445889724223 0 -0.076639711326359827 -0.30469445889724223 0 -0.060011774302961007 -0.32215403169228329 0 -0.072564032893435007 -0.31930735653441411 0 -0.076639711326359827 -0.30469445889724223 0 -0.060011774302961007 -0.32215403169228329 0 -0.086209096638847377 -0.31955890705058698 0 -0.072564032893435007 -0.31930735653441411 0 -0.067395549305571831 -0.33082202849754422 0 -0.086209096638847377 -0.31955890705058698 0 -0.067395549305571831 -0.33082202849754422 0 -0.076639711326359827 -0.30469445889724223 0 -0.058805650447460389 -0.31310066310434281 0 -0.060011774302961007 -0.32215403169228329 0 -0.072564032893435007 -0.31930735653441411 0 -0.067395549305571831 -0.33082202849754422 0 -0.060011774302961007 -0.32215403169228329 0 -0.067395549305571831 -0.33082202849754422 0 -0.073338838585242053 -0.35385615965306888 0 -0.04858200197229641 -0.34208514994450151 0 -0.082657280295936275 -0.33457757914776259 0 -0.067395549305571831 -0.33082202849754422 0 -0.073338838585242053 -0.35385615965306888 0 -0.073338838585242053 -0.35385615965306888 0 -0.062539944435297992 -0.36917284319648369 0 -0.091830235083043443 -0.37173804686131029 0 -0.062539944435297992 -0.36917284319648369 0 -0.091830235083043443 -0.37173804686131029 0 -0.098095675198188237 -0.36562716936163542 0 -0.073338838585242053 -0.35385615965306888 0 -0.098095675198188237 -0.36562716936163542 0 -0.073338838585242053 -0.35385615965306888 0 -0.091830235083043443 -0.37173804686131029 0 -0.095680790957192424 -0.34367268614484042 0 -0.082657280295936275 -0.33457757914776259 0 -0.073338838585242053 -0.35385615965306888 0 -0.098095675198188237 -0.36562716936163542 0 -0.095680790957192424 -0.34367268614484042 0 -0.073338838585242053 -0.35385615965306888 0 -0.1034683851570302 -0.25081812964332789 0 -0.11446324398657549 -0.26362513070912608 0 -0.098751430825151532 -0.27232609735014057 0 -0.1034683851570302 -0.25081812964332789 0 -0.098751430825151532 -0.27232609735014057 0 -0.084425113954690906 -0.25926020895380841 0 -0.1034683851570302 -0.25081812964332789 0 -0.12328477412140371 -0.25011208707580329 0 -0.11446324398657549 -0.26362513070912608 0 -0.1298769943854616 -0.26544404850233227 0 -0.12328477412140371 -0.25011208707580329 0 -0.11446324398657549 -0.26362513070912608 0 -0.11446324398657549 -0.26362513070912608 0 -0.1169346354438304 -0.2794252909740268 0 -0.098751430825151532 -0.27232609735014057 0 -0.1298769943854616 -0.26544404850233227 0 -0.11446324398657549 -0.26362513070912608 0 -0.1169346354438304 -0.2794252909740268 0 -0.1169346354438304 -0.2794252909740268 0 -0.098751430825151532 -0.27232609735014057 0 -0.10288837352252719 -0.28960493133553328 0 -0.098751430825151532 -0.27232609735014057 0 -0.10288837352252719 -0.28960493133553328 0 -0.089402110110639588 -0.2862348075727395 0 -0.10288837352252719 -0.28960493133553328 0 -0.093763403920078758 -0.29742631509484041 0 -0.089402110110639588 -0.2862348075727395 0 -0.1169346354438304 -0.2794252909740268 0 -0.10288837352252719 -0.28960493133553328 0 -0.1156733204456077 -0.2955084106195674 0 -0.13027567592362391 -0.29430901659598813 0 -0.1169346354438304 -0.2794252909740268 0 -0.1156733204456077 -0.2955084106195674 0 -0.12648370928348551 -0.31104944339867441 0 -0.1156733204456077 -0.2955084106195674 0 -0.10502264397212289 -0.3082957856036298 0 -0.12648370928348551 -0.31104944339867441 0 -0.13027567592362391 -0.29430901659598813 0 -0.1156733204456077 -0.2955084106195674 0 -0.10502264397212289 -0.3082957856036298 0 -0.093763403920078758 -0.29742631509484041 0 -0.08899685101814403 -0.30667703820415582 0 -0.10288837352252719 -0.28960493133553328 0 -0.1156733204456077 -0.2955084106195674 0 -0.10502264397212289 -0.3082957856036298 0 -0.10288837352252719 -0.28960493133553328 0 -0.10502264397212289 -0.3082957856036298 0 -0.093763403920078758 -0.29742631509484041 0 -0.086209096638847377 -0.31955890705058698 0 -0.10502264397212289 -0.3082957856036298 0 -0.08899685101814403 -0.30667703820415582 0 -0.093763403920078758 -0.29742631509484041 0 -0.08899685101814403 -0.30667703820415582 0 -0.082507040976960072 -0.29631901275814382 0 -0.08899685101814403 -0.30667703820415582 0 -0.076639711326359827 -0.30469445889724223 0 -0.082507040976960072 -0.29631901275814382 0 -0.086209096638847377 -0.31955890705058698 0 -0.08899685101814403 -0.30667703820415582 0 -0.076639711326359827 -0.30469445889724223 0 -0.076639711326359827 -0.30469445889724223 0 -0.062509543349592148 -0.30508319577930187 0 -0.082507040976960072 -0.29631901275814382 0 -0.062509543349592148 -0.30508319577930187 0 -0.082507040976960072 -0.29631901275814382 0 -0.076639711326359827 -0.30469445889724223 0 -0.062509543349592148 -0.30508319577930187 0 -0.058805650447460389 -0.31310066310434281 0 -0.062509543349592148 -0.30508319577930187 0 -0.068260954466078133 -0.29066967611856082 0 -0.082507040976960072 -0.29631901275814382 0 -0.068260954466078133 -0.29066967611856082 0 -0.077548826560800824 -0.28613698239687352 0 -0.082507040976960072 -0.29631901275814382 0 -0.068260954466078133 -0.29066967611856082 0 -0.064734454358871679 -0.2789252861434518 0 -0.056411168136706748 -0.28961158313365609 0 -0.068260954466078133 -0.29066967611856082 0 -0.077548826560800824 -0.28613698239687352 0 -0.064734454358871679 -0.2789252861434518 0 -0.077548826560800824 -0.28613698239687352 0 -0.089402110110639588 -0.2862348075727395 0 -0.081308562812041407 -0.27494567914737561 0 -0.077548826560800824 -0.28613698239687352 0 -0.082507040976960072 -0.29631901275814382 0 -0.089402110110639588 -0.2862348075727395 0 -0.093763403920078758 -0.29742631509484041 0 -0.082507040976960072 -0.29631901275814382 0 -0.089402110110639588 -0.2862348075727395 0 -0.098751430825151532 -0.27232609735014057 0 -0.089402110110639588 -0.2862348075727395 0 -0.081308562812041407 -0.27494567914737561 0 -0.098751430825151532 -0.27232609735014057 0 -0.081308562812041407 -0.27494567914737561 0 -0.084425113954690906 -0.25926020895380841 0 -0.081308562812041407 -0.27494567914737561 0 -0.06986583199269418 -0.26484160315896271 0 -0.084425113954690906 -0.25926020895380841 0 -0.081308562812041407 -0.27494567914737561 0 -0.064734454358871679 -0.2789252861434518 0 -0.06986583199269418 -0.26484160315896271 0 -0.064734454358871679 -0.2789252861434518 0 -0.06986583199269418 -0.26484160315896271 0 -0.054199348714107851 -0.26350367731814422 0 -0.077548826560800824 -0.28613698239687352 0 -0.081308562812041407 -0.27494567914737561 0 -0.064734454358871679 -0.2789252861434518 0 -0.06986583199269418 -0.26484160315896271 0 -0.054199348714107851 -0.26350367731814422 0 -0.065966051164906045 -0.2483348353079719 0 -0.06986583199269418 -0.26484160315896271 0 -0.084425113954690906 -0.25926020895380841 0 -0.065966051164906045 -0.2483348353079719 0 -0.084425113954690906 -0.25926020895380841 0 -0.085099214246944763 -0.24380688298698661 0 -0.065966051164906045 -0.2483348353079719 0 -0.1034683851570302 -0.25081812964332789 0 -0.084425113954690906 -0.25926020895380841 0 -0.085099214246944763 -0.24380688298698661 0 -0.035482615388175313 -0.26120638803302199 0 -0.046799964515636311 -0.24920753124184811 0 -0.032006049370809683 -0.2414171829525375 0 -0.035482615388175313 -0.26120638803302199 0 -0.054199348714107851 -0.26350367731814422 0 -0.046799964515636311 -0.24920753124184811 0 -0.054199348714107851 -0.26350367731814422 0 -0.046799964515636311 -0.24920753124184811 0 -0.065966051164906045 -0.2483348353079719 0 -0.064734454358871679 -0.2789252861434518 0 -0.054199348714107851 -0.26350367731814422 0 -0.045477665363116392 -0.280334430605861 0 -0.035482615388175313 -0.26120638803302199 0 -0.045477665363116392 -0.280334430605861 0 -0.027189033676017101 -0.27567137982072959 0 -0.035482615388175313 -0.26120638803302199 0 -0.054199348714107851 -0.26350367731814422 0 -0.045477665363116392 -0.280334430605861 0 -0.045477665363116392 -0.280334430605861 0 -0.033473631731342803 -0.29306438742481578 0 -0.027189033676017101 -0.27567137982072959 0 -0.045477665363116392 -0.280334430605861 0 -0.033473631731342803 -0.29306438742481578 0 -0.047564393491497478 -0.29817893659286621 0 -0.045477665363116392 -0.280334430605861 0 -0.056411168136706748 -0.28961158313365609 0 -0.047564393491497478 -0.29817893659286621 0 -0.064734454358871679 -0.2789252861434518 0 -0.045477665363116392 -0.280334430605861 0 -0.056411168136706748 -0.28961158313365609 0 -0.062509543349592148 -0.30508319577930187 0 -0.068260954466078133 -0.29066967611856082 0 -0.056411168136706748 -0.28961158313365609 0 -0.062509543349592148 -0.30508319577930187 0 -0.042512045722224327 -0.31384737880045999 0 -0.062509543349592148 -0.30508319577930187 0 -0.047564393491497478 -0.29817893659286621 0 -0.042512045722224327 -0.31384737880045999 0 -0.062509543349592148 -0.30508319577930187 0 -0.058805650447460389 -0.31310066310434281 0 -0.042512045722224327 -0.31384737880045999 0 -0.062509543349592148 -0.30508319577930187 0 -0.056411168136706748 -0.28961158313365609 0 -0.047564393491497478 -0.29817893659286621 0 -0.047564393491497478 -0.29817893659286621 0 -0.038360679239479917 -0.30318780279647423 0 -0.042512045722224327 -0.31384737880045999 0 -0.033473631731342803 -0.29306438742481578 0 -0.047564393491497478 -0.29817893659286621 0 -0.038360679239479917 -0.30318780279647423 0 -0.033473631731342803 -0.29306438742481578 0 -0.038360679239479917 -0.30318780279647423 0 -0.02989264601285509 -0.30766050836775499 0 -0.038360679239479917 -0.30318780279647423 0 -0.02989264601285509 -0.30766050836775499 0 -0.042512045722224327 -0.31384737880045999 0 -0.033473631731342803 -0.29306438742481578 0 -0.02989264601285509 -0.30766050836775499 0 -0.01980039886366863 -0.29916952322172952 0 -0.02989264601285509 -0.30766050836775499 0 -0.01980039886366863 -0.29916952322172952 0 -0.020062307831917401 -0.31256145553851439 0 -0.01980039886366863 -0.29916952322172952 0 -0.0077929770141077753 -0.30510536924497561 0 -0.020062307831917401 -0.31256145553851439 0 -0.0077929770141077753 -0.30510536924497561 0 -0.01101761990230157 -0.27973399739982591 0 0.0080387197440938973 -0.29217093039849179 0 -0.0077929770141077753 -0.30510536924497561 0 -0.01101761990230157 -0.27973399739982591 0 -0.01980039886366863 -0.29916952322172952 0 -0.0077929770141077753 -0.30510536924497561 0 -0.01101761990230157 -0.27973399739982591 0 -0.033473631731342803 -0.29306438742481578 0 -0.02287017104333253 -0.28690982196677522 0 -0.027189033676017101 -0.27567137982072959 0 -0.01980039886366863 -0.29916952322172952 0 -0.02287017104333253 -0.28690982196677522 0 -0.01101761990230157 -0.27973399739982591 0 -0.033473631731342803 -0.29306438742481578 0 -0.01980039886366863 -0.29916952322172952 0 -0.02287017104333253 -0.28690982196677522 0 -0.02287017104333253 -0.28690982196677522 0 -0.027189033676017101 -0.27567137982072959 0 -0.01101761990230157 -0.27973399739982591 0 -0.027189033676017101 -0.27567137982072959 0 -0.01101761990230157 -0.27973399739982591 0 -0.014242262790494181 -0.25436262555467598 0 -0.01101761990230157 -0.27973399739982591 0 -0.014242262790494181 -0.25436262555467598 0 -0.01101761990230157 -0.27973399739982591 0 -0.00053764115848484954 -0.26240285167879379 0 0.0048942055376650917 -0.2741314967382914 0 -0.01101761990230157 -0.27973399739982591 0 -0.014242262790494181 -0.25436262555467598 0 -0.00053764115848484954 -0.26240285167879379 0 -0.014242262790494181 -0.25436262555467598 0 0.0054077402359684022 -0.24803128275829681 0 -0.014242262790494181 -0.25436262555467598 0 -0.00053764115848484954 -0.26240285167879379 0 0.0054077402359684022 -0.24803128275829681 0 -0.035482615388175313 -0.26120638803302199 0 -0.014242262790494181 -0.25436262555467598 0 -0.035482615388175313 -0.26120638803302199 0 -0.014242262790494181 -0.25436262555467598 0 -0.032006049370809683 -0.2414171829525375 0 -0.035482615388175313 -0.26120638803302199 0 -0.027189033676017101 -0.27567137982072959 0 -0.014242262790494181 -0.25436262555467598 0 -0.04858200197229641 -0.34208514994450151 0 -0.043383837279561341 -0.33961360448732358 0 -0.030073297605843079 -0.35358986239878609 0 -0.04858200197229641 -0.34208514994450151 0 -0.030073297605843079 -0.35358986239878609 0 -0.045828237498255008 -0.35741781105682668 0 -0.035041026705872058 -0.35755464013567911 0 -0.030073297605843079 -0.35358986239878609 0 -0.045828237498255008 -0.35741781105682668 0 -0.04858200197229641 -0.34208514994450151 0 -0.030073297605843079 -0.35358986239878609 0 -0.043383837279561341 -0.33961360448732358 0 -0.030073297605843079 -0.35358986239878609 0 -0.028580087402761131 -0.34747018421277182 0 -0.043383837279561341 -0.33961360448732358 0 -0.030073297605843079 -0.35358986239878609 0 -0.035041026705872058 -0.35755464013567911 0 -0.033249653787552583 -0.36660763953165532 0 -0.030073297605843079 -0.35358986239878609 0 -0.045828237498255008 -0.35741781105682668 0 -0.035041026705872058 -0.35755464013567911 0 -0.033249653787552583 -0.36660763953165532 0 -0.033249653787552583 -0.36660763953165532 0 -0.030073297605843079 -0.35358986239878609 0 -0.062539944435297992 -0.36917284319648369 0 -0.045828237498255008 -0.35741781105682668 0 -0.033249653787552583 -0.36660763953165532 0 -0.062539944435297992 -0.36917284319648369 0 -0.033249653787552583 -0.36660763953165532 0 -0.062539944435297992 -0.36917284319648369 0 -0.033249653787552583 -0.36660763953165532 0 -0.055594211468101007 -0.38521276736816301 0 -0.073338838585242053 -0.35385615965306888 0 -0.062539944435297992 -0.36917284319648369 0 -0.045828237498255008 -0.35741781105682668 0 -0.073338838585242053 -0.35385615965306888 0 -0.04858200197229641 -0.34208514994450151 0 -0.073338838585242053 -0.35385615965306888 0 -0.045828237498255008 -0.35741781105682668 0 -0.04858200197229641 -0.34208514994450151 0 -0.067395549305571831 -0.33082202849754422 0 -0.04858200197229641 -0.34208514994450151 0 -0.060011774302961007 -0.32215403169228329 0 -0.067395549305571831 -0.33082202849754422 0 -0.04858200197229641 -0.34208514994450151 0 -0.04858200197229641 -0.34208514994450151 0 -0.060011774302961007 -0.32215403169228329 0 -0.043383837279561341 -0.33961360448732358 0 -0.060011774302961007 -0.32215403169228329 0 -0.043383837279561341 -0.33961360448732358 0 -0.060011774302961007 -0.32215403169228329 0 -0.05229448610879734 -0.31939789224070791 0 -0.043383837279561341 -0.33961360448732358 0 -0.058805650447460389 -0.31310066310434281 0 -0.05229448610879734 -0.31939789224070791 0 -0.042512045722224327 -0.31384737880045999 0 -0.058805650447460389 -0.31310066310434281 0 -0.060011774302961007 -0.32215403169228329 0 -0.05229448610879734 -0.31939789224070791 0 -0.02989264601285509 -0.30766050836775499 0 -0.042512045722224327 -0.31384737880045999 0 -0.022514548094856531 -0.32261156182161838 0 -0.042512045722224327 -0.31384737880045999 0 -0.030256068126939421 -0.32546624082115622 0 -0.022514548094856531 -0.32261156182161838 0 -0.05229448610879734 -0.31939789224070791 0 -0.03755728670420018 -0.33684328352659682 0 -0.05229448610879734 -0.31939789224070791 0 -0.042449252995879108 -0.32366091294407151 0 -0.03755728670420018 -0.33684328352659682 0 -0.042512045722224327 -0.31384737880045999 0 -0.022514548094856531 -0.32261156182161838 0 -0.05229448610879734 -0.31939789224070791 0 -0.042512045722224327 -0.31384737880045999 0 -0.042449252995879108 -0.32366091294407151 0 -0.042512045722224327 -0.31384737880045999 0 -0.042449252995879108 -0.32366091294407151 0 -0.037433193448294669 -0.32455509720852099 0 -0.042512045722224327 -0.31384737880045999 0 -0.037433193448294669 -0.32455509720852099 0 -0.030256068126939421 -0.32546624082115622 0 -0.05229448610879734 -0.31939789224070791 0 -0.043383837279561341 -0.33961360448732358 0 -0.03755728670420018 -0.33684328352659682 0 -0.043383837279561341 -0.33961360448732358 0 -0.03755728670420018 -0.33684328352659682 0 -0.04858200197229641 -0.34208514994450151 0 -0.043383837279561341 -0.33961360448732358 0 -0.042449252995879108 -0.32366091294407151 0 -0.037433193448294669 -0.32455509720852099 0 -0.03755728670420018 -0.33684328352659682 0 -0.037433193448294669 -0.32455509720852099 0 -0.03755728670420018 -0.33684328352659682 0 -0.030256068126939421 -0.32546624082115622 0 -0.03755728670420018 -0.33684328352659682 0 -0.028580087402761131 -0.34747018421277182 0 -0.043383837279561341 -0.33961360448732358 0 -0.03755728670420018 -0.33684328352659682 0 -0.028580087402761131 -0.34747018421277182 0 -0.024468640417192721 -0.33062009011440691 0 -0.01779369205136817 -0.33578159943859143 0 -0.028580087402761131 -0.34747018421277182 0 -0.024468640417192721 -0.33062009011440691 0 -0.028580087402761131 -0.34747018421277182 0 -0.03755728670420018 -0.33684328352659682 0 -0.024468640417192721 -0.33062009011440691 0 -0.028580087402761131 -0.34747018421277182 0 -0.03755728670420018 -0.33684328352659682 0 -0.024468640417192721 -0.33062009011440691 0 -0.03755728670420018 -0.33684328352659682 0 -0.024468640417192721 -0.33062009011440691 0 -0.030256068126939421 -0.32546624082115622 0 -0.024468640417192721 -0.33062009011440691 0 -0.01779369205136817 -0.33578159943859143 0 -0.01738804930683167 -0.3272535167510357 0 -0.024468640417192721 -0.33062009011440691 0 -0.01738804930683167 -0.3272535167510357 0 -0.01779369205136817 -0.33578159943859143 0 -0.01396334900414258 -0.34308746502461718 0 -0.028580087402761131 -0.34747018421277182 0 -0.022514548094856531 -0.32261156182161838 0 -0.020062307831917401 -0.31256145553851439 0 -0.0045683341259116954 -0.33047674109012498 0 -0.02989264601285509 -0.30766050836775499 0 -0.022514548094856531 -0.32261156182161838 0 -0.020062307831917401 -0.31256145553851439 0 -0.024468640417192721 -0.33062009011440691 0 -0.022514548094856531 -0.32261156182161838 0 -0.024468640417192721 -0.33062009011440691 0 -0.030256068126939421 -0.32546624082115622 0 -0.022514548094856531 -0.32261156182161838 0 -0.024468640417192721 -0.33062009011440691 0 -0.022514548094856531 -0.32261156182161838 0 -0.01738804930683167 -0.3272535167510357 0 -0.022514548094856531 -0.32261156182161838 0 -0.020062307831917401 -0.31256145553851439 0 -0.0077929770141077753 -0.30510536924497561 0 -0.0045683341259116954 -0.33047674109012498 0 -0.022514548094856531 -0.32261156182161838 0 -0.01738804930683167 -0.3272535167510357 0 -0.0045683341259116954 -0.33047674109012498 0 -0.0077929770141077753 -0.30510536924497561 0 -0.0045683341259116954 -0.33047674109012498 0 0.0040981006955792022 -0.31953741139356839 0 -0.0077929770141077753 -0.30510536924497561 0 -0.020062307831917401 -0.31256145553851439 0 -0.0045683341259116954 -0.33047674109012498 0 -0.022514548094856531 -0.32261156182161838 0 -0.0045683341259116954 -0.33047674109012498 0 -0.0045683341259116954 -0.33047674109012498 0 -0.001957481232011143 -0.35101883579671062 0 -0.01396334900414258 -0.34308746502461718 0 -0.0045683341259116954 -0.33047674109012498 0 -0.001957481232011143 -0.35101883579671062 0 -0.01779369205136817 -0.33578159943859143 0 -0.01396334900414258 -0.34308746502461718 0 -0.0045683341259116954 -0.33047674109012498 0 -0.01779369205136817 -0.33578159943859143 0 -0.01738804930683167 -0.3272535167510357 0 -0.0045683341259116954 -0.33047674109012498 0 -0.001957481232011143 -0.35101883579671062 0 -0.0091271166321890522 -0.35688394691910769 0 -0.0050641191069524458 -0.36413918888610602 0 -0.001957481232011143 -0.35101883579671062 0 -0.01418915969599688 -0.35185251363087328 0 -0.0091271166321890522 -0.35688394691910769 0 -0.01418915969599688 -0.35185251363087328 0 -0.0091271166321890522 -0.35688394691910769 0 -0.017317764208880409 -0.36080213620115931 0 -0.01396334900414258 -0.34308746502461718 0 -0.001957481232011143 -0.35101883579671062 0 -0.01418915969599688 -0.35185251363087328 0 -0.01396334900414258 -0.34308746502461718 0 -0.01418915969599688 -0.35185251363087328 0 -0.028580087402761131 -0.34747018421277182 0 -0.028580087402761131 -0.34747018421277182 0 -0.017317764208880409 -0.36080213620115931 0 -0.01418915969599688 -0.35185251363087328 0 -0.028580087402761131 -0.34747018421277182 0 -0.017317764208880409 -0.36080213620115931 0 -0.030073297605843079 -0.35358986239878609 0 -0.017317764208880409 -0.36080213620115931 0 -0.030073297605843079 -0.35358986239878609 0 -0.028580087402761131 -0.34747018421277182 0 -0.017317764208880409 -0.36080213620115931 0 -0.030073297605843079 -0.35358986239878609 0 -0.028580087402761131 -0.34747018421277182 0 -0.033249653787552583 -0.36660763953165532 0 -0.018874568220174939 -0.36534868916400232 0 -0.024100325307879859 -0.37725443331372321 0 -0.030073297605843079 -0.35358986239878609 0 -0.018874568220174939 -0.36534868916400232 0 -0.033249653787552583 -0.36660763953165532 0 -0.030073297605843079 -0.35358986239878609 0 -0.018874568220174939 -0.36534868916400232 0 -0.033249653787552583 -0.36660763953165532 0 -0.018874568220174939 -0.36534868916400232 0 -0.030073297605843079 -0.35358986239878609 0 -0.017317764208880409 -0.36080213620115931 0 -0.018874568220174939 -0.36534868916400232 0 -0.018874568220174939 -0.36534868916400232 0 -0.01384882975484111 -0.36490854185086158 0 -0.017317764208880409 -0.36080213620115931 0 -0.018874568220174939 -0.36534868916400232 0 -0.01384882975484111 -0.36490854185086158 0 -0.018874568220174939 -0.36534868916400232 0 -0.016133033761401711 -0.38096201390050982 0 -0.024100325307879859 -0.37725443331372321 0 -0.018874568220174939 -0.36534868916400232 0 -0.01384882975484111 -0.36490854185086158 0 -0.0080624548927780045 -0.37670156351289219 0 -0.001957481232011143 -0.35101883579671062 0 0.00065337166189073257 -0.37156093050329603 0 -0.001957481232011143 -0.35101883579671062 0 -0.0050641191069524458 -0.36413918888610602 0 0.00065337166189073257 -0.37156093050329603 0 -0.01384882975484111 -0.36490854185086158 0 -0.010891223121570931 -0.36464951869994899 0 -0.0018100324986049449 -0.37915965720735212 0 -0.018874568220174939 -0.36534868916400232 0 -0.0080624548927780045 -0.37670156351289219 0 -0.01384882975484111 -0.36490854185086158 0 -0.0018100324986049449 -0.37915965720735212 0 -0.0080624548927780045 -0.37670156351289219 0 -0.018874568220174939 -0.36534868916400232 0 -0.0080624548927780045 -0.37670156351289219 0 -0.016133033761401711 -0.38096201390050982 0 -0.01384882975484111 -0.36490854185086158 0 -0.0018100324986049449 -0.37915965720735212 0 -0.0091271166321890522 -0.35688394691910769 0 -0.017317764208880409 -0.36080213620115931 0 -0.010891223121570931 -0.36464951869994899 0 -0.017317764208880409 -0.36080213620115931 0 -0.010891223121570931 -0.36464951869994899 0 -0.017317764208880409 -0.36080213620115931 0 -0.01384882975484111 -0.36490854185086158 0 -0.017317764208880409 -0.36080213620115931 0 -0.01384882975484111 -0.36490854185086158 0 -0.010891223121570931 -0.36464951869994899 0 -0.01384882975484111 -0.36490854185086158 0 -0.010891223121570931 -0.36464951869994899 0 -0.010891223121570931 -0.36464951869994899 0 -0.0050641191069524458 -0.36413918888610602 0 -0.0091271166321890522 -0.35688394691910769 0 -0.010891223121570931 -0.36464951869994899 0 -0.0050641191069524458 -0.36413918888610602 0 -0.010891223121570931 -0.36464951869994899 0 -0.0050641191069524458 -0.36413918888610602 0 0.00065337166189073257 -0.37156093050329603 0 -0.010891223121570931 -0.36464951869994899 0 0.00065337166189073257 -0.37156093050329603 0 -0.010891223121570931 -0.36464951869994899 0 -0.0018100324986049449 -0.37915965720735212 0 0.00065337166189073257 -0.37156093050329603 0 -0.0080624548927780045 -0.37670156351289219 0 0.0027496584346183182 -0.38805443786178262 0 -0.0018100324986049449 -0.37915965720735212 0 -0.0080624548927780045 -0.37670156351289219 0 0.0027496584346183182 -0.38805443786178262 0 -0.0085943900982866119 -0.38803315365160002 0 0.0041939554806844116 -0.38957097051270262 0 0.0027496584346183182 -0.38805443786178262 0 -0.0085943900982866119 -0.38803315365160002 0 -0.0080624548927780045 -0.37670156351289219 0 0.0027496584346183182 -0.38805443786178262 0 -0.0085943900982866119 -0.38803315365160002 0 -0.01542733458980651 -0.38796367281447292 0 -0.016133033761401711 -0.38096201390050982 0 -0.0085943900982866119 -0.38803315365160002 0 -0.0080624548927780045 -0.37670156351289219 0 -0.016133033761401711 -0.38096201390050982 0 -0.0047464050549406306 -0.40351715614234662 0 -0.018925898036094891 -0.39698198780943528 0 0.0041939554806844116 -0.38957097051270262 0 -0.0085943900982866119 -0.38803315365160002 0 -0.018925898036094891 -0.39698198780943528 0 0.0041939554806844116 -0.38957097051270262 0 -0.018925898036094891 -0.39698198780943528 0 0.0041939554806844116 -0.38957097051270262 0 -0.0085943900982866119 -0.38803315365160002 0 -0.01542733458980651 -0.38796367281447292 0 -0.018925898036094891 -0.39698198780943528 0 -0.0047464050549406306 -0.40351715614234662 0 -0.018925898036094891 -0.39698198780943528 0 -0.014023989021249329 -0.40923919877766712 0 -0.019535796501351909 -0.39102873640917568 0 -0.029120256341353311 -0.4006904959385002 0 -0.023282874004915521 -0.4129842518774044 0 -0.018925898036094891 -0.39698198780943528 0 -0.019535796501351909 -0.39102873640917568 0 -0.023282874004915521 -0.4129842518774044 0 -0.019535796501351909 -0.39102873640917568 0 -0.023282874004915521 -0.4129842518774044 0 -0.01542733458980651 -0.38796367281447292 0 -0.018925898036094891 -0.39698198780943528 0 -0.019535796501351909 -0.39102873640917568 0 -0.019535796501351909 -0.39102873640917568 0 -0.029120256341353311 -0.4006904959385002 0 -0.02846205260714087 -0.38599043754806711 0 -0.033249653787552583 -0.36660763953165532 0 -0.02846205260714087 -0.38599043754806711 0 -0.024100325307879859 -0.37725443331372321 0 -0.016133033761401711 -0.38096201390050982 0 -0.02158283196860384 -0.38464517765490269 0 -0.024100325307879859 -0.37725443331372321 0 -0.019535796501351909 -0.39102873640917568 0 -0.02158283196860384 -0.38464517765490269 0 -0.02846205260714087 -0.38599043754806711 0 -0.01542733458980651 -0.38796367281447292 0 -0.016133033761401711 -0.38096201390050982 0 -0.02158283196860384 -0.38464517765490269 0 -0.01542733458980651 -0.38796367281447292 0 -0.019535796501351909 -0.39102873640917568 0 -0.02158283196860384 -0.38464517765490269 0 -0.02158283196860384 -0.38464517765490269 0 -0.02846205260714087 -0.38599043754806711 0 -0.024100325307879859 -0.37725443331372321 0 -0.033249653787552583 -0.36660763953165532 0 -0.039385832225662512 -0.39175576486305203 0 -0.055594211468101007 -0.38521276736816301 0 -0.033249653787552583 -0.36660763953165532 0 -0.039385832225662512 -0.39175576486305203 0 -0.033249653787552583 -0.36660763953165532 0 -0.02846205260714087 -0.38599043754806711 0 -0.039385832225662512 -0.39175576486305203 0 -0.039385832225662512 -0.39175576486305203 0 -0.045522010663771727 -0.41690389019444901 0 -0.029120256341353311 -0.4006904959385002 0 -0.039385832225662512 -0.39175576486305203 0 -0.045522010663771727 -0.41690389019444901 0 -0.029120256341353311 -0.4006904959385002 0 -0.02846205260714087 -0.38599043754806711 0 -0.039385832225662512 -0.39175576486305203 0 -0.039385832225662512 -0.39175576486305203 0 -0.060958085470195197 -0.40184860908340242 0 -0.055594211468101007 -0.38521276736816301 0 -0.039385832225662512 -0.39175576486305203 0 -0.060958085470195197 -0.40184860908340242 0 -0.045522010663771727 -0.41690389019444901 0 -0.048753804842821463 -0.43114983807780211 0 -0.056294322335151817 -0.43023645691177631 0 -0.046512507284843477 -0.42096327885438861 0 -0.056294322335151817 -0.43023645691177631 0 -0.055477017075298819 -0.41868133532797142 0 -0.046512507284843477 -0.42096327885438861 0 -0.048753804842821463 -0.43114983807780211 0 -0.056294322335151817 -0.43023645691177631 0 -0.051742497972966373 -0.44240327379560418 0 -0.048753804842821463 -0.43114983807780211 0 -0.041404832018121507 -0.43394094853404819 0 -0.051742497972966373 -0.44240327379560418 0 -0.056294322335151817 -0.43023645691177631 0 -0.062936766708337949 -0.43794389984316379 0 -0.068098159622532392 -0.423454441595841 0 -0.056294322335151817 -0.43023645691177631 0 -0.051742497972966373 -0.44240327379560418 0 -0.062936766708337949 -0.43794389984316379 0 -0.056294322335151817 -0.43023645691177631 0 -0.055477017075298819 -0.41868133532797142 0 -0.068098159622532392 -0.423454441595841 0 -0.060958085470195197 -0.40184860908340242 0 -0.055477017075298819 -0.41868133532797142 0 -0.045522010663771727 -0.41690389019444901 0 -0.060958085470195197 -0.40184860908340242 0 -0.055477017075298819 -0.41868133532797142 0 -0.068098159622532392 -0.423454441595841 0 -0.060958085470195197 -0.40184860908340242 0 -0.045522010663771727 -0.41690389019444901 0 -0.055477017075298819 -0.41868133532797142 0 -0.046512507284843477 -0.42096327885438861 0 -0.045522010663771727 -0.41690389019444901 0 -0.046512507284843477 -0.42096327885438861 0 -0.045522010663771727 -0.41690389019444901 0 -0.045522010663771727 -0.41690389019444901 0 -0.02702995150847342 -0.43493976734563422 0 -0.023282874004915521 -0.4129842518774044 0 -0.029120256341353311 -0.4006904959385002 0 -0.045522010663771727 -0.41690389019444901 0 -0.023282874004915521 -0.4129842518774044 0 -0.045522010663771727 -0.41690389019444901 0 -0.02702995150847342 -0.43493976734563422 0 -0.046512507284843477 -0.42096327885438861 0 -0.045522010663771727 -0.41690389019444901 0 -0.02702995150847342 -0.43493976734563422 0 -0.046512507284843477 -0.42096327885438861 0 -0.041404832018121507 -0.43394094853404819 0 -0.02702995150847342 -0.43493976734563422 0 -0.048753804842821463 -0.43114983807780211 0 -0.046512507284843477 -0.42096327885438861 0 -0.041404832018121507 -0.43394094853404819 0 -0.02702995150847342 -0.43493976734563422 0 -0.023282874004915521 -0.4129842518774044 0 -0.02702995150847342 -0.43493976734563422 0 -0.023282874004915521 -0.4129842518774044 0 -0.0091407789890462932 -0.42347339928148231 0 -0.018925898036094891 -0.39698198780943528 0 -0.023282874004915521 -0.4129842518774044 0 -0.014023989021249329 -0.40923919877766712 0 -0.0047464050549406306 -0.40351715614234662 0 -0.014023989021249329 -0.40923919877766712 0 -0.0091407789890462932 -0.42347339928148231 0 -0.0047464050549406306 -0.40351715614234662 0 -0.0091407789890462932 -0.42347339928148231 0 0.0061376548268578923 -0.41471106907891653 0 -0.023282874004915521 -0.4129842518774044 0 -0.014023989021249329 -0.40923919877766712 0 -0.0091407789890462932 -0.42347339928148231 0 -0.02702995150847342 -0.43493976734563422 0 -0.0091407789890462932 -0.42347339928148231 0 -0.0095398701285203391 -0.45199838458689112 0 -0.0091407789890462932 -0.42347339928148231 0 -0.0095398701285203391 -0.45199838458689112 0 0.0092839102205797275 -0.43946569099571309 0 -0.0095398701285203391 -0.45199838458689112 0 0.0079502112514302607 -0.46905700182815052 0 -0.0095398701285203391 -0.45199838458689112 0 -0.021070329969178341 -0.46466568201132807 0 -0.0093133594171920693 -0.46978471257073939 0 -0.0095398701285203391 -0.45199838458689112 0 -0.0093133594171920693 -0.46978471257073939 0 0.0079502112514302607 -0.46905700182815052 0 -0.0095398701285203391 -0.45199838458689112 0 -0.030203929117153399 -0.4535372781835556 0 -0.021070329969178341 -0.46466568201132807 0 -0.030203929117153399 -0.4535372781835556 0 -0.021070329969178341 -0.46466568201132807 0 -0.033377906725827668 -0.4721347890214781 0 -0.02702995150847342 -0.43493976734563422 0 -0.0095398701285203391 -0.45199838458689112 0 -0.030203929117153399 -0.4535372781835556 0 -0.02702995150847342 -0.43493976734563422 0 -0.030203929117153399 -0.4535372781835556 0 -0.02702995150847342 -0.43493976734563422 0 -0.0095398701285203391 -0.45199838458689112 0 -0.0011630843612175921 -0.5 0 -0.0033431163747408531 -0.48124960651246851 0 -0.019303850104217379 -0.49999999999999878 0 -0.0033431163747408531 -0.48124960651246851 0 -0.020563691864951161 -0.48195288791485918 0 -0.019303850104217379 -0.49999999999999878 0 -0.0093133594171920693 -0.46978471257073939 0 -0.0033431163747408531 -0.48124960651246851 0 0.0079502112514302607 -0.46905700182815052 0 -0.0093133594171920693 -0.46978471257073939 0 -0.0033431163747408531 -0.48124960651246851 0 -0.020563691864951161 -0.48195288791485918 0 -0.021070329969178341 -0.46466568201132807 0 -0.0093133594171920693 -0.46978471257073939 0 -0.020563691864951161 -0.48195288791485918 0 -0.021070329969178341 -0.46466568201132807 0 -0.020563691864951161 -0.48195288791485918 0 -0.033377906725827668 -0.4721347890214781 0 -0.020563691864951161 -0.48195288791485918 0 -0.019303850104217379 -0.49999999999999878 0 -0.044372522506512371 -0.48903904355362582 0 -0.019303850104217379 -0.49999999999999878 0 -0.044372522506512371 -0.48903904355362582 0 -0.019303850104217379 -0.49999999999999878 0 -0.044372522506512371 -0.48903904355362582 0 -0.045057618532495958 -0.5 0 -0.020563691864951161 -0.48195288791485918 0 -0.044372522506512371 -0.48903904355362582 0 -0.033377906725827668 -0.4721347890214781 0 -0.044372522506512371 -0.48903904355362582 0 -0.033377906725827668 -0.4721347890214781 0 -0.047265568078032151 -0.46186585616568721 0 -0.044372522506512371 -0.48903904355362582 0 -0.069441194908807846 -0.47807808710725402 0 -0.044372522506512371 -0.48903904355362582 0 -0.047265568078032151 -0.46186585616568721 0 -0.069441194908807846 -0.47807808710725402 0 -0.044372522506512371 -0.48903904355362582 0 -0.070811386960774436 -0.5 0 -0.069441194908807846 -0.47807808710725402 0 -0.044372522506512371 -0.48903904355362582 0 -0.045057618532495958 -0.5 0 -0.070811386960774436 -0.5 0 -0.039328455957965837 -0.4453318405698013 0 -0.047265568078032151 -0.46186585616568721 0 -0.051742497972966373 -0.44240327379560418 0 -0.02702995150847342 -0.43493976734563422 0 -0.030203929117153399 -0.4535372781835556 0 -0.039328455957965837 -0.4453318405698013 0 -0.041404832018121507 -0.43394094853404819 0 -0.039328455957965837 -0.4453318405698013 0 -0.051742497972966373 -0.44240327379560418 0 -0.041404832018121507 -0.43394094853404819 0 -0.02702995150847342 -0.43493976734563422 0 -0.039328455957965837 -0.4453318405698013 0 -0.030203929117153399 -0.4535372781835556 0 -0.039328455957965837 -0.4453318405698013 0 -0.047265568078032151 -0.46186585616568721 0 -0.030203929117153399 -0.4535372781835556 0 -0.033377906725827668 -0.4721347890214781 0 -0.047265568078032151 -0.46186585616568721 0 -0.030203929117153399 -0.4535372781835556 0 -0.033377906725827668 -0.4721347890214781 0 -0.047265568078032151 -0.46186585616568721 0 -0.063368738347596459 -0.45292698017977301 0 -0.069441194908807846 -0.47807808710725402 0 -0.047265568078032151 -0.46186585616568721 0 -0.051742497972966373 -0.44240327379560418 0 -0.063368738347596459 -0.45292698017977301 0 -0.051742497972966373 -0.44240327379560418 0 -0.062936766708337949 -0.43794389984316379 0 -0.063368738347596459 -0.45292698017977301 0 -0.075180115263442662 -0.44069834673282482 0 -0.063368738347596459 -0.45292698017977301 0 -0.079720108949242127 -0.45731333391502033 0 -0.062936766708337949 -0.43794389984316379 0 -0.075180115263442662 -0.44069834673282482 0 -0.063368738347596459 -0.45292698017977301 0 -0.063368738347596459 -0.45292698017977301 0 -0.079720108949242127 -0.45731333391502033 0 -0.069441194908807846 -0.47807808710725402 0 -0.079720108949242127 -0.45731333391502033 0 -0.069441194908807846 -0.47807808710725402 0 -0.094509867311103307 -0.46711713066088212 0 -0.079720108949242127 -0.45731333391502033 0 -0.095501744285647699 -0.44462041318345402 0 -0.094509867311103307 -0.46711713066088212 0 -0.075180115263442662 -0.44069834673282482 0 -0.079720108949242127 -0.45731333391502033 0 -0.095501744285647699 -0.44462041318345402 0 -0.070811386960774436 -0.5 0 -0.069441194908807846 -0.47807808710725402 0 -0.085267631854766102 -0.4871820663729608 0 -0.069441194908807846 -0.47807808710725402 0 -0.085267631854766102 -0.4871820663729608 0 -0.094509867311103307 -0.46711713066088212 0 -0.069441194908807846 -0.47807808710725402 0 -0.094509867311103307 -0.46711713066088212 0 -0.070811386960774436 -0.5 0 -0.085267631854766102 -0.4871820663729608 0 -0.096565155389052748 -0.5 0 -0.085267631854766102 -0.4871820663729608 0 -0.096565155389052748 -0.5 0 -0.1087825798324069 -0.48191394340166949 0 -0.096565155389052748 -0.5 0 -0.1087825798324069 -0.48191394340166949 0 -0.1223189238173311 -0.5 0 -0.085267631854766102 -0.4871820663729608 0 -0.1087825798324069 -0.48191394340166949 0 -0.094509867311103307 -0.46711713066088212 0 -0.13603472158864199 -0.48001898059572412 0 -0.1087825798324069 -0.48191394340166949 0 -0.1195785397133988 -0.45615617421451032 0 -0.13603472158864199 -0.48001898059572412 0 -0.1087825798324069 -0.48191394340166949 0 -0.1223189238173311 -0.5 0 -0.094509867311103307 -0.46711713066088212 0 -0.1195785397133988 -0.45615617421451032 0 -0.1087825798324069 -0.48191394340166949 0 -0.094509867311103307 -0.46711713066088212 0 -0.1195785397133988 -0.45615617421451032 0 -0.095501744285647699 -0.44462041318345402 0 -0.094509867311103307 -0.46711713066088212 0 -0.1195785397133988 -0.45615617421451032 0 -0.095501744285647699 -0.44462041318345402 0 -0.1195785397133988 -0.45615617421451032 0 -0.1130772085521464 -0.43766298097986289 0 -0.1130772085521464 -0.43766298097986289 0 -0.12426836426920559 -0.42242943770303321 0 -0.1013157323683592 -0.4228653296449813 0 -0.12426836426920559 -0.42242943770303321 0 -0.1013157323683592 -0.4228653296449813 0 -0.095501744285647699 -0.44462041318345402 0 -0.1013157323683592 -0.4228653296449813 0 -0.084583529196584101 -0.4262919853887831 0 -0.095501744285647699 -0.44462041318345402 0 -0.1130772085521464 -0.43766298097986289 0 -0.1013157323683592 -0.4228653296449813 0 -0.1013157323683592 -0.4228653296449813 0 -0.09399768378797202 -0.41017808643803683 0 -0.1096254377518263 -0.40951203585235202 0 -0.12426836426920559 -0.42242943770303321 0 -0.1096254377518263 -0.40951203585235202 0 -0.1217783424510834 -0.39824608269263362 0 -0.12426836426920559 -0.42242943770303321 0 -0.1013157323683592 -0.4228653296449813 0 -0.1096254377518263 -0.40951203585235202 0 -0.1217783424510834 -0.39824608269263362 0 -0.1080548520621018 -0.38235089945247053 0 -0.1010261940212885 -0.39738524797016339 0 -0.1096254377518263 -0.40951203585235202 0 -0.1217783424510834 -0.39824608269263362 0 -0.1010261940212885 -0.39738524797016339 0 -0.098095675198188237 -0.36562716936163542 0 -0.12245845528947689 -0.37721081897995212 0 -0.1080548520621018 -0.38235089945247053 0 -0.1217783424510834 -0.39824608269263362 0 -0.12245845528947689 -0.37721081897995212 0 -0.1080548520621018 -0.38235089945247053 0 -0.1080548520621018 -0.38235089945247053 0 -0.1010261940212885 -0.39738524797016339 0 -0.09355875612264053 -0.38443310192799968 0 -0.096651533106284299 -0.37216028955965691 0 -0.091830235083043443 -0.37173804686131029 0 -0.09355875612264053 -0.38443310192799968 0 -0.096651533106284299 -0.37216028955965691 0 -0.1080548520621018 -0.38235089945247053 0 -0.09355875612264053 -0.38443310192799968 0 -0.09399768378797202 -0.41017808643803683 0 -0.1096254377518263 -0.40951203585235202 0 -0.1010261940212885 -0.39738524797016339 0 -0.1010261940212885 -0.39738524797016339 0 -0.088846234828024062 -0.3973662998782615 0 -0.09355875612264053 -0.38443310192799968 0 -0.09399768378797202 -0.41017808643803683 0 -0.1010261940212885 -0.39738524797016339 0 -0.088846234828024062 -0.3973662998782615 0 -0.088846234828024062 -0.3973662998782615 0 -0.076394160276619161 -0.38679332797235622 0 -0.078588974561749902 -0.40764761989367992 0 -0.09399768378797202 -0.41017808643803683 0 -0.088846234828024062 -0.3973662998782615 0 -0.078588974561749902 -0.40764761989367992 0 -0.091830235083043443 -0.37173804686131029 0 -0.09355875612264053 -0.38443310192799968 0 -0.076394160276619161 -0.38679332797235622 0 -0.088846234828024062 -0.3973662998782615 0 -0.09355875612264053 -0.38443310192799968 0 -0.076394160276619161 -0.38679332797235622 0 -0.091830235083043443 -0.37173804686131029 0 -0.076394160276619161 -0.38679332797235622 0 -0.062539944435297992 -0.36917284319648369 0 -0.055594211468101007 -0.38521276736816301 0 -0.076394160276619161 -0.38679332797235622 0 -0.062539944435297992 -0.36917284319648369 0 -0.091830235083043443 -0.37173804686131029 0 -0.076394160276619161 -0.38679332797235622 0 -0.060958085470195197 -0.40184860908340242 0 -0.055594211468101007 -0.38521276736816301 0 -0.076394160276619161 -0.38679332797235622 0 -0.060958085470195197 -0.40184860908340242 0 -0.076394160276619161 -0.38679332797235622 0 -0.078588974561749902 -0.40764761989367992 0 -0.060958085470195197 -0.40184860908340242 0 -0.076394160276619161 -0.38679332797235622 0 -0.068098159622532392 -0.423454441595841 0 -0.084583529196584101 -0.4262919853887831 0 -0.078588974561749902 -0.40764761989367992 0 -0.060958085470195197 -0.40184860908340242 0 -0.068098159622532392 -0.423454441595841 0 -0.078588974561749902 -0.40764761989367992 0 -0.075180115263442662 -0.44069834673282482 0 -0.068098159622532392 -0.423454441595841 0 -0.084583529196584101 -0.4262919853887831 0 -0.062936766708337949 -0.43794389984316379 0 -0.075180115263442662 -0.44069834673282482 0 -0.068098159622532392 -0.423454441595841 0 -0.075180115263442662 -0.44069834673282482 0 -0.095501744285647699 -0.44462041318345402 0 -0.084583529196584101 -0.4262919853887831 0 -0.09399768378797202 -0.41017808643803683 0 -0.084583529196584101 -0.4262919853887831 0 -0.078588974561749902 -0.40764761989367992 0 -0.1013157323683592 -0.4228653296449813 0 -0.09399768378797202 -0.41017808643803683 0 -0.084583529196584101 -0.4262919853887831 0 -0.08206042415203578 -0.073953563988589238 0 -0.091001326514902836 -0.094816536935228582 0 -0.10246532456861079 -0.078815063983625783 0 -0.08206042415203578 -0.073953563988589238 0 -0.070427380369511419 -0.085977071792472493 0 -0.091001326514902836 -0.094816536935228582 0 -0.08206042415203578 -0.073953563988589238 0 -0.094238863000140727 -0.063806997867017323 0 -0.079439553434863974 -0.05419188771562259 0 -0.08206042415203578 -0.073953563988589238 0 -0.10246532456861079 -0.078815063983625783 0 -0.094238863000140727 -0.063806997867017323 0 -0.08206042415203578 -0.073953563988589238 0 -0.079439553434863974 -0.05419188771562259 0 -0.064468264554541785 -0.060725450985857791 0 -0.08206042415203578 -0.073953563988589238 0 -0.063835131589644087 -0.075717807955200472 0 -0.064468264554541785 -0.060725450985857791 0 -0.070427380369511419 -0.085977071792472493 0 -0.06310439291707394 -0.099976928504534102 0 -0.091001326514902836 -0.094816536935228582 0 -0.08206042415203578 -0.073953563988589238 0 -0.063835131589644087 -0.075717807955200472 0 -0.070427380369511419 -0.085977071792472493 0 -0.06310439291707394 -0.099976928504534102 0 -0.091001326514902836 -0.094816536935228582 0 -0.06310439291707394 -0.099976928504534102 0 -0.079824491894017538 -0.12216580181545179 0 -0.091001326514902836 -0.094816536935228582 0 -0.060007406525312119 -0.1134014505963527 0 -0.061050978852012321 -0.1290213354191441 0 -0.07830581906928559 -0.12884272475078559 0 -0.060007406525312119 -0.1134014505963527 0 -0.07830581906928559 -0.12884272475078559 0 -0.06310439291707394 -0.099976928504534102 0 -0.079824491894017538 -0.12216580181545179 0 -0.060007406525312119 -0.1134014505963527 0 -0.06310439291707394 -0.099976928504534102 0 -0.079824491894017538 -0.12216580181545179 0 -0.079824491894017538 -0.12216580181545179 0 -0.060007406525312119 -0.1134014505963527 0 -0.07830581906928559 -0.12884272475078559 0 -0.079824491894017538 -0.12216580181545179 0 -0.091001326514902836 -0.094816536935228582 0 -0.10605473682518669 -0.1166633748805592 0 -0.091001326514902836 -0.094816536935228582 0 -0.10605473682518669 -0.1166633748805592 0 -0.1188982601127322 -0.089656145365925269 0 -0.10605473682518669 -0.1166633748805592 0 -0.11875687874594019 -0.1372593560808682 0 -0.12568953908620251 -0.1116801545194875 0 -0.10605473682518669 -0.1166633748805592 0 -0.1188982601127322 -0.089656145365925269 0 -0.12568953908620251 -0.1116801545194875 0 -0.1188982601127322 -0.089656145365925269 0 -0.10246532456861079 -0.078815063983625783 0 -0.12561467901087081 -0.074302752458958371 0 -0.091001326514902836 -0.094816536935228582 0 -0.1188982601127322 -0.089656145365925269 0 -0.091001326514902836 -0.094816536935228582 0 -0.1188982601127322 -0.089656145365925269 0 -0.10246532456861079 -0.078815063983625783 0 -0.10246532456861079 -0.078815063983625783 0 -0.094238863000140727 -0.063806997867017323 0 -0.1095555638537018 -0.063501532795649351 0 -0.1095555638537018 -0.063501532795649351 0 -0.12561467901087081 -0.074302752458958371 0 -0.13349983983805969 -0.056942535263725093 0 -0.10246532456861079 -0.078815063983625783 0 -0.1095555638537018 -0.063501532795649351 0 -0.12561467901087081 -0.074302752458958371 0 -0.1095555638537018 -0.063501532795649351 0 -0.1175603761250444 -0.039084570172323183 0 -0.13349983983805969 -0.056942535263725093 0 -0.1095555638537018 -0.063501532795649351 0 -0.1175603761250444 -0.039084570172323183 0 -0.1175603761250444 -0.039084570172323183 0 -0.09767344899149133 -0.048572940851599661 0 -0.092042099592736903 -0.030342871872578871 0 -0.1095555638537018 -0.063501532795649351 0 -0.1175603761250444 -0.039084570172323183 0 -0.09767344899149133 -0.048572940851599661 0 -0.094238863000140727 -0.063806997867017323 0 -0.1095555638537018 -0.063501532795649351 0 -0.09767344899149133 -0.048572940851599661 0 -0.1065280496128804 -0.018675503684700761 0 -0.1255651883963867 -0.01466760754899687 0 -0.1015133298770437 4.9595544974906723e-05 0 -0.1255651883963867 -0.01466760754899687 0 -0.13082697262089341 0.0013823364580261221 0 -0.1015133298770437 4.9595544974906723e-05 0 -0.1255651883963867 -0.01466760754899687 0 -0.1015133298770437 4.9595544974906723e-05 0 -0.1175603761250444 -0.039084570172323183 0 -0.1255651883963867 -0.01466760754899687 0 -0.1175603761250444 -0.039084570172323183 0 -0.1065280496128804 -0.018675503684700761 0 -0.1255651883963867 -0.01466760754899687 0 -0.1175603761250444 -0.039084570172323183 0 -0.1065280496128804 -0.018675503684700761 0 -0.092042099592736903 -0.030342871872578871 0 -0.1065280496128804 -0.018675503684700761 0 -0.091709336070603401 -0.014974699825805741 0 -0.092042099592736903 -0.030342871872578871 0 -0.1065280496128804 -0.018675503684700761 0 -0.091709336070603401 -0.014974699825805741 0 -0.1015133298770437 4.9595544974906723e-05 0 -0.080113023358067775 -0.0034963713414790428 0 -0.091709336070603401 -0.014974699825805741 0 -0.1015133298770437 4.9595544974906723e-05 0 -0.080113023358067775 -0.0034963713414790428 0 -0.091709336070603401 -0.014974699825805741 0 -0.076833281919627155 -0.02059932662751825 0 -0.092042099592736903 -0.030342871872578871 0 -0.076833281919627155 -0.02059932662751825 0 -0.079254101656316966 -0.038839596863020069 0 -0.091709336070603401 -0.014974699825805741 0 -0.092042099592736903 -0.030342871872578871 0 -0.076833281919627155 -0.02059932662751825 0 -0.076833281919627155 -0.02059932662751825 0 -0.065303587705170127 -0.033542036822940068 0 -0.058724649556778627 -0.01837471923928934 0 -0.076833281919627155 -0.02059932662751825 0 -0.079254101656316966 -0.038839596863020069 0 -0.065303587705170127 -0.033542036822940068 0 -0.080113023358067775 -0.0034963713414790428 0 -0.076833281919627155 -0.02059932662751825 0 -0.066910003298949472 -0.006380589779087396 0 -0.076833281919627155 -0.02059932662751825 0 -0.066910003298949472 -0.006380589779087396 0 -0.058724649556778627 -0.01837471923928934 0 -0.080113023358067775 -0.0034963713414790428 0 -0.066910003298949472 -0.006380589779087396 0 -0.067016117272491557 0.0064617448389865436 0 -0.094238863000140727 -0.063806997867017323 0 -0.09767344899149133 -0.048572940851599661 0 -0.079439553434863974 -0.05419188771562259 0 -0.09767344899149133 -0.048572940851599661 0 -0.079439553434863974 -0.05419188771562259 0 -0.079254101656316966 -0.038839596863020069 0 -0.09767344899149133 -0.048572940851599661 0 -0.092042099592736903 -0.030342871872578871 0 -0.079254101656316966 -0.038839596863020069 0 -0.079439553434863974 -0.05419188771562259 0 -0.079254101656316966 -0.038839596863020069 0 -0.069366778188196032 -0.046636298753570581 0 -0.079254101656316966 -0.038839596863020069 0 -0.065303587705170127 -0.033542036822940068 0 -0.069366778188196032 -0.046636298753570581 0 -0.065303587705170127 -0.033542036822940068 0 -0.069366778188196032 -0.046636298753570581 0 -0.057489345825814608 -0.045197007013554891 0 -0.069366778188196032 -0.046636298753570581 0 -0.064468264554541785 -0.060725450985857791 0 -0.057489345825814608 -0.045197007013554891 0 -0.079439553434863974 -0.05419188771562259 0 -0.069366778188196032 -0.046636298753570581 0 -0.064468264554541785 -0.060725450985857791 0 -0.079439553434863974 -0.05419188771562259 0 -0.064468264554541785 -0.060725450985857791 0 -0.053165090088771703 -0.053849044817045617 0 -0.057489345825814608 -0.045197007013554891 0 -0.041205774300509833 -0.042214707012676711 0 -0.064468264554541785 -0.060725450985857791 0 -0.053165090088771703 -0.053849044817045617 0 -0.049496975674219498 -0.067259014256092736 0 -0.053165090088771703 -0.053849044817045617 0 -0.041205774300509833 -0.042214707012676711 0 -0.049496975674219498 -0.067259014256092736 0 -0.064468264554541785 -0.060725450985857791 0 -0.053165090088771703 -0.053849044817045617 0 -0.057489345825814608 -0.045197007013554891 0 -0.057489345825814608 -0.045197007013554891 0 -0.053360649487572333 -0.031508274999117868 0 -0.041205774300509833 -0.042214707012676711 0 -0.065303587705170127 -0.033542036822940068 0 -0.057489345825814608 -0.045197007013554891 0 -0.053360649487572333 -0.031508274999117868 0 -0.041205774300509833 -0.042214707012676711 0 -0.029560731383513471 -0.030698354614048039 0 -0.029071288677197649 -0.041031931165279263 0 -0.041205774300509833 -0.042214707012676711 0 -0.035545428748514768 -0.049421198906023187 0 -0.029071288677197649 -0.041031931165279263 0 -0.041205774300509833 -0.042214707012676711 0 -0.035545428748514768 -0.049421198906023187 0 -0.039277333289250087 -0.05738761008273989 0 -0.041205774300509833 -0.042214707012676711 0 -0.039277333289250087 -0.05738761008273989 0 -0.049496975674219498 -0.067259014256092736 0 -0.035545428748514768 -0.049421198906023187 0 -0.032627318727100521 -0.057050547363396847 0 -0.029071288677197649 -0.041031931165279263 0 -0.041205774300509833 -0.042214707012676711 0 -0.049496975674219498 -0.067259014256092736 0 -0.035545428748514768 -0.049421198906023187 0 -0.032627318727100521 -0.057050547363396847 0 -0.039277333289250087 -0.05738761008273989 0 -0.041205774300509833 -0.042214707012676711 0 -0.039277333289250087 -0.05738761008273989 0 -0.066910003298949472 -0.006380589779087396 0 -0.058724649556778627 -0.01837471923928934 0 -0.047480093400365117 0.0071514052909069717 0 -0.058724649556778627 -0.01837471923928934 0 -0.044342933850437971 -0.017531650860884949 0 -0.047480093400365117 0.0071514052909069717 0 -0.053360649487572333 -0.031508274999117868 0 -0.058724649556778627 -0.01837471923928934 0 -0.044342933850437971 -0.017531650860884949 0 -0.065303587705170127 -0.033542036822940068 0 -0.053360649487572333 -0.031508274999117868 0 -0.058724649556778627 -0.01837471923928934 0 -0.041205774300509833 -0.042214707012676711 0 -0.03197940571368342 -0.014345644471004631 0 -0.053360649487572333 -0.031508274999117868 0 -0.041205774300509833 -0.042214707012676711 0 -0.044342933850437971 -0.017531650860884949 0 -0.041205774300509833 -0.042214707012676711 0 -0.044342933850437971 -0.017531650860884949 0 -0.03197940571368342 -0.014345644471004631 0 -0.041205774300509833 -0.042214707012676711 0 -0.044342933850437971 -0.017531650860884949 0 -0.041205774300509833 -0.042214707012676711 0 -0.03197940571368342 -0.014345644471004631 0 -0.029560731383513471 -0.030698354614048039 0 -0.044342933850437971 -0.017531650860884949 0 -0.03197940571368342 -0.014345644471004631 0 -0.047480093400365117 0.0071514052909069717 0 -0.044342933850437971 -0.017531650860884949 0 -0.047480093400365117 0.0071514052909069717 0 -0.03197940571368342 -0.014345644471004631 0 -0.015090251476702499 -0.003079934255059254 0 -0.022753037126858049 0.013523418070667899 0 -0.03197940571368342 -0.014345644471004631 0 -0.020564857339468119 -0.020481758501274941 0 -0.015090251476702499 -0.003079934255059254 0 -0.03197940571368342 -0.014345644471004631 0 -0.022753037126858049 0.013523418070667899 0 -0.020564857339468119 -0.020481758501274941 0 -0.0032704433637422889 -0.021708726878872899 0 -0.024982330886707361 -0.035417731920004573 0 -0.03197940571368342 -0.014345644471004631 0 -0.020564857339468119 -0.020481758501274941 0 -0.029560731383513471 -0.030698354614048039 0 -0.020564857339468119 -0.020481758501274941 0 -0.029560731383513471 -0.030698354614048039 0 -0.024982330886707361 -0.035417731920004573 0 -0.0032704433637422889 -0.021708726878872899 0 -0.015090251476702499 -0.003079934255059254 0 0.0064513957917756229 0.0050175021511877811 0 -0.020564857339468119 -0.020481758501274941 0 -0.0032704433637422889 -0.021708726878872899 0 -0.015090251476702499 -0.003079934255059254 0 -0.032627318727100521 -0.057050547363396847 0 -0.02308425262101951 -0.050503215701802419 0 -0.029071288677197649 -0.041031931165279263 0 -0.032627318727100521 -0.057050547363396847 0 -0.029071288677197649 -0.041031931165279263 0 -0.02308425262101951 -0.050503215701802419 0 -0.01304657834473286 -0.048584220121573297 0 -0.015614839606073841 -0.060504105130514678 0 -0.02308425262101951 -0.050503215701802419 0 -0.02449654445976816 -0.060278242785831597 0 -0.015614839606073841 -0.060504105130514678 0 -0.032627318727100521 -0.057050547363396847 0 -0.02449654445976816 -0.060278242785831597 0 -0.02820348437291878 -0.065157883414209278 0 -0.032627318727100521 -0.057050547363396847 0 -0.02308425262101951 -0.050503215701802419 0 -0.02449654445976816 -0.060278242785831597 0 -0.02308425262101951 -0.050503215701802419 0 -0.029071288677197649 -0.041031931165279263 0 -0.024982330886707361 -0.035417731920004573 0 -0.029560731383513471 -0.030698354614048039 0 -0.029071288677197649 -0.041031931165279263 0 -0.024982330886707361 -0.035417731920004573 0 -0.02308425262101951 -0.050503215701802419 0 -0.024982330886707361 -0.035417731920004573 0 -0.01304657834473286 -0.048584220121573297 0 -0.024982330886707361 -0.035417731920004573 0 -0.01304657834473286 -0.048584220121573297 0 -0.0032704433637422889 -0.021708726878872899 0 -0.024982330886707361 -0.035417731920004573 0 -0.01304657834473286 -0.048584220121573297 0 -0.0032704433637422889 -0.021708726878872899 0 -0.01304657834473286 -0.048584220121573297 0 0.006807656598899833 -0.044556533383483428 0 -0.0032704433637422889 -0.021708726878872899 0 -0.01304657834473286 -0.048584220121573297 0 -0.01304657834473286 -0.048584220121573297 0 -0.00013189539463332069 -0.062397079718219763 0 0.006807656598899833 -0.044556533383483428 0 -0.01304657834473286 -0.048584220121573297 0 -0.015614839606073841 -0.060504105130514678 0 -0.00013189539463332069 -0.062397079718219763 0 -0.01304657834473286 -0.048584220121573297 0 -0.00013189539463332069 -0.062397079718219763 0 -0.00013189539463332069 -0.062397079718219763 0 -0.0055933606100986404 -0.075178643524817665 0 -0.013506314765874281 -0.070878490704947769 0 -0.00013189539463332069 -0.062397079718219763 0 -0.0055933606100986404 -0.075178643524817665 0 0.002185648973446259 -0.076653208650150823 0 -0.0055933606100986404 -0.075178643524817665 0 -0.0029772157873130208 -0.081715700578056397 0 0.002185648973446259 -0.076653208650150823 0 -0.0055933606100986404 -0.075178643524817665 0 -0.013506314765874281 -0.070878490704947769 0 -0.017511967211902481 -0.081217470215234178 0 -0.015614839606073841 -0.060504105130514678 0 -0.00013189539463332069 -0.062397079718219763 0 -0.013506314765874281 -0.070878490704947769 0 -0.017511967211902481 -0.081217470215234178 0 0.0011594143531981141 -0.089365776868953806 0 -0.0098729550603256448 -0.089133197733310104 0 -0.017511967211902481 -0.081217470215234178 0 0.0011594143531981141 -0.089365776868953806 0 -0.0029772157873130208 -0.081715700578056397 0 -0.017511967211902481 -0.081217470215234178 0 0.0011594143531981141 -0.089365776868953806 0 -0.0056205606469964054 -0.093134027525927129 0 -0.0032681753368222072 -0.097396105460184401 0 0.0011594143531981141 -0.089365776868953806 0 -0.0056205606469964054 -0.093134027525927129 0 -0.0098729550603256448 -0.089133197733310104 0 0.0011594143531981141 -0.089365776868953806 0 -0.0055933606100986404 -0.075178643524817665 0 -0.0029772157873130208 -0.081715700578056397 0 -0.017511967211902481 -0.081217470215234178 0 -0.0098729550603256448 -0.089133197733310104 0 -0.019083369095817659 -0.092727292442805032 0 -0.01050052654403588 -0.096641030041260192 0 -0.0098729550603256448 -0.089133197733310104 0 -0.019083369095817659 -0.092727292442805032 0 -0.017511967211902481 -0.081217470215234178 0 -0.0056205606469964054 -0.093134027525927129 0 -0.0098729550603256448 -0.089133197733310104 0 -0.01050052654403588 -0.096641030041260192 0 -0.017511967211902481 -0.081217470215234178 0 -0.028370847935228191 -0.086704666199437716 0 -0.03618334877700316 -0.073069163561514563 0 -0.019083369095817659 -0.092727292442805032 0 -0.017511967211902481 -0.081217470215234178 0 -0.028370847935228191 -0.086704666199437716 0 -0.019083369095817659 -0.092727292442805032 0 -0.028370847935228191 -0.086704666199437716 0 -0.026569496083541019 -0.099011239532018069 0 -0.028370847935228191 -0.086704666199437716 0 -0.034855687785163271 -0.092176954559414839 0 -0.026569496083541019 -0.099011239532018069 0 -0.017511967211902481 -0.081217470215234178 0 -0.03618334877700316 -0.073069163561514563 0 -0.017511967211902481 -0.081217470215234178 0 -0.023069802994205229 -0.07326005077928846 0 -0.03618334877700316 -0.073069163561514563 0 -0.02449654445976816 -0.060278242785831597 0 -0.015614839606073841 -0.060504105130514678 0 -0.02213805773234015 -0.06742643696560327 0 -0.015614839606073841 -0.060504105130514678 0 -0.013506314765874281 -0.070878490704947769 0 -0.02213805773234015 -0.06742643696560327 0 -0.013506314765874281 -0.070878490704947769 0 -0.02213805773234015 -0.06742643696560327 0 -0.023069802994205229 -0.07326005077928846 0 -0.013506314765874281 -0.070878490704947769 0 -0.017511967211902481 -0.081217470215234178 0 -0.023069802994205229 -0.07326005077928846 0 -0.023069802994205229 -0.07326005077928846 0 -0.02828687065363485 -0.069959084079077402 0 -0.03618334877700316 -0.073069163561514563 0 -0.02828687065363485 -0.069959084079077402 0 -0.02820348437291878 -0.065157883414209278 0 -0.03132525563266432 -0.066309169604549495 0 -0.032627318727100521 -0.057050547363396847 0 -0.02820348437291878 -0.065157883414209278 0 -0.03132525563266432 -0.066309169604549495 0 -0.02213805773234015 -0.06742643696560327 0 -0.023069802994205229 -0.07326005077928846 0 -0.02828687065363485 -0.069959084079077402 0 -0.02213805773234015 -0.06742643696560327 0 -0.02828687065363485 -0.069959084079077402 0 -0.02820348437291878 -0.065157883414209278 0 -0.02449654445976816 -0.060278242785831597 0 -0.02213805773234015 -0.06742643696560327 0 -0.02820348437291878 -0.065157883414209278 0 -0.02828687065363485 -0.069959084079077402 0 -0.03132525563266432 -0.066309169604549495 0 -0.03618334877700316 -0.073069163561514563 0 -0.039277333289250087 -0.05738761008273989 0 -0.041166860430729438 -0.070864114653084259 0 -0.03618334877700316 -0.073069163561514563 0 -0.032627318727100521 -0.057050547363396847 0 -0.03132525563266432 -0.066309169604549495 0 -0.03618334877700316 -0.073069163561514563 0 -0.039277333289250087 -0.05738761008273989 0 -0.03618334877700316 -0.073069163561514563 0 -0.032627318727100521 -0.057050547363396847 0 -0.03618334877700316 -0.073069163561514563 0 -0.032627318727100521 -0.057050547363396847 0 -0.039277333289250087 -0.05738761008273989 0 -0.03618334877700316 -0.073069163561514563 0 -0.039277333289250087 -0.05738761008273989 0 -0.041166860430729438 -0.070864114653084259 0 -0.049496975674219498 -0.067259014256092736 0 -0.041166860430729438 -0.070864114653084259 0 -0.049496975674219498 -0.067259014256092736 0 -0.041166860430729438 -0.070864114653084259 0 -0.036883428348406591 -0.076222766260337471 0 -0.052135626673901293 -0.085420521578809472 0 -0.036883428348406591 -0.076222766260337471 0 -0.03618334877700316 -0.073069163561514563 0 -0.041166860430729438 -0.070864114653084259 0 -0.036883428348406591 -0.076222766260337471 0 -0.03618334877700316 -0.073069163561514563 0 -0.041166860430729438 -0.070864114653084259 0 -0.03618334877700316 -0.073069163561514563 0 -0.036883428348406591 -0.076222766260337471 0 -0.034855687785163271 -0.092176954559414839 0 -0.028370847935228191 -0.086704666199437716 0 -0.036883428348406591 -0.076222766260337471 0 -0.03618334877700316 -0.073069163561514563 0 -0.036883428348406591 -0.076222766260337471 0 -0.034855687785163271 -0.092176954559414839 0 -0.041708993981339107 -0.097960176441919206 0 -0.036883428348406591 -0.076222766260337471 0 -0.052135626673901293 -0.085420521578809472 0 -0.041708993981339107 -0.097960176441919206 0 -0.028370847935228191 -0.086704666199437716 0 -0.036883428348406591 -0.076222766260337471 0 -0.034855687785163271 -0.092176954559414839 0 -0.036883428348406591 -0.076222766260337471 0 -0.041708993981339107 -0.097960176441919206 0 -0.028370847935228191 -0.086704666199437716 0 -0.034855687785163271 -0.092176954559414839 0 -0.041166860430729438 -0.070864114653084259 0 -0.052135626673901293 -0.085420521578809472 0 -0.070427380369511419 -0.085977071792472493 0 -0.06310439291707394 -0.099976928504534102 0 -0.052135626673901293 -0.085420521578809472 0 -0.063835131589644087 -0.075717807955200472 0 -0.070427380369511419 -0.085977071792472493 0 -0.052135626673901293 -0.085420521578809472 0 -0.06310439291707394 -0.099976928504534102 0 -0.052135626673901293 -0.085420521578809472 0 -0.063835131589644087 -0.075717807955200472 0 -0.052135626673901293 -0.085420521578809472 0 -0.054045562282744652 -0.075810810483851687 0 -0.063835131589644087 -0.075717807955200472 0 -0.056385553288325348 -0.069707741847559554 0 -0.054045562282744652 -0.075810810483851687 0 -0.064468264554541785 -0.060725450985857791 0 -0.049496975674219498 -0.067259014256092736 0 -0.064468264554541785 -0.060725450985857791 0 -0.056385553288325348 -0.069707741847559554 0 -0.049496975674219498 -0.067259014256092736 0 -0.063835131589644087 -0.075717807955200472 0 -0.064468264554541785 -0.060725450985857791 0 -0.056385553288325348 -0.069707741847559554 0 -0.056385553288325348 -0.069707741847559554 0 -0.050081832340476723 -0.069025625556794881 0 -0.049496975674219498 -0.067259014256092736 0 -0.041166860430729438 -0.070864114653084259 0 -0.050081832340476723 -0.069025625556794881 0 -0.049496975674219498 -0.067259014256092736 0 -0.050081832340476723 -0.069025625556794881 0 -0.049496975674219498 -0.067259014256092736 0 -0.041166860430729438 -0.070864114653084259 0 -0.050081832340476723 -0.069025625556794881 0 -0.054045562282744652 -0.075810810483851687 0 -0.041166860430729438 -0.070864114653084259 0 -0.052135626673901293 -0.085420521578809472 0 -0.054045562282744652 -0.075810810483851687 0 -0.056385553288325348 -0.069707741847559554 0 -0.050081832340476723 -0.069025625556794881 0 -0.054045562282744652 -0.075810810483851687 0 -0.060007406525312119 -0.1134014505963527 0 -0.041708993981339107 -0.097960176441919206 0 -0.046323657263432932 -0.1187475485850229 0 -0.060007406525312119 -0.1134014505963527 0 -0.046323657263432932 -0.1187475485850229 0 -0.061050978852012321 -0.1290213354191441 0 -0.060007406525312119 -0.1134014505963527 0 -0.059657178600186427 -0.10061459628389779 0 -0.041708993981339107 -0.097960176441919206 0 -0.052135626673901293 -0.085420521578809472 0 -0.059657178600186427 -0.10061459628389779 0 -0.041708993981339107 -0.097960176441919206 0 -0.060007406525312119 -0.1134014505963527 0 -0.041708993981339107 -0.097960176441919206 0 -0.06310439291707394 -0.099976928504534102 0 -0.060007406525312119 -0.1134014505963527 0 -0.059657178600186427 -0.10061459628389779 0 -0.06310439291707394 -0.099976928504534102 0 -0.052135626673901293 -0.085420521578809472 0 -0.059657178600186427 -0.10061459628389779 0 -0.06310439291707394 -0.099976928504534102 0 -0.059657178600186427 -0.10061459628389779 0 -0.034855687785163271 -0.092176954559414839 0 -0.031420116952718208 -0.1192078997252916 0 -0.034855687785163271 -0.092176954559414839 0 -0.038577113995663298 -0.1070231448279122 0 -0.031420116952718208 -0.1192078997252916 0 -0.041708993981339107 -0.097960176441919206 0 -0.038577113995663298 -0.1070231448279122 0 -0.046323657263432932 -0.1187475485850229 0 -0.041708993981339107 -0.097960176441919206 0 -0.046323657263432932 -0.1187475485850229 0 -0.034855687785163271 -0.092176954559414839 0 -0.041708993981339107 -0.097960176441919206 0 -0.038577113995663298 -0.1070231448279122 0 -0.034855687785163271 -0.092176954559414839 0 -0.041708993981339107 -0.097960176441919206 0 -0.038577113995663298 -0.1070231448279122 0 -0.046323657263432932 -0.1187475485850229 0 -0.031420116952718208 -0.1192078997252916 0 -0.046323657263432932 -0.1187475485850229 0 -0.031420116952718208 -0.1192078997252916 0 -0.039370079749631998 -0.13381785723444389 0 -0.019172126162611491 -0.1159130583413457 0 -0.006255808653915158 -0.12961134133280849 0 -0.022070915447973079 -0.12507428175509869 0 -0.031420116952718208 -0.1192078997252916 0 -0.019172126162611491 -0.1159130583413457 0 -0.022070915447973079 -0.12507428175509869 0 -0.031420116952718208 -0.1192078997252916 0 -0.019172126162611491 -0.1159130583413457 0 -0.019117458648777581 -0.1042393847331413 0 -0.034855687785163271 -0.092176954559414839 0 -0.031420116952718208 -0.1192078997252916 0 -0.026569496083541019 -0.099011239532018069 0 -0.031420116952718208 -0.1192078997252916 0 -0.026569496083541019 -0.099011239532018069 0 -0.019117458648777581 -0.1042393847331413 0 -0.019083369095817659 -0.092727292442805032 0 -0.026569496083541019 -0.099011239532018069 0 -0.019117458648777581 -0.1042393847331413 0 -0.019083369095817659 -0.092727292442805032 0 -0.019117458648777581 -0.1042393847331413 0 -0.01050052654403588 -0.096641030041260192 0 -0.019117458648777581 -0.1042393847331413 0 -0.01050052654403588 -0.096641030041260192 0 -0.0071315204405777094 -0.1046314443299273 0 -0.019117458648777581 -0.1042393847331413 0 -0.0071315204405777094 -0.1046314443299273 0 -0.0065521411640195489 -0.1138300235372187 0 -0.0071315204405777094 -0.1046314443299273 0 -0.0032681753368222072 -0.097396105460184401 0 0.0055003327058907071 -0.1083906823608586 0 -0.0071315204405777094 -0.1046314443299273 0 -0.0065521411640195489 -0.1138300235372187 0 0.0055003327058907071 -0.1083906823608586 0 -0.01050052654403588 -0.096641030041260192 0 -0.0071315204405777094 -0.1046314443299273 0 -0.0032681753368222072 -0.097396105460184401 0 -0.0056205606469964054 -0.093134027525927129 0 -0.01050052654403588 -0.096641030041260192 0 -0.0032681753368222072 -0.097396105460184401 0 -0.019172126162611491 -0.1159130583413457 0 -0.0065521411640195489 -0.1138300235372187 0 -0.006255808653915158 -0.12961134133280849 0 -0.019172126162611491 -0.1159130583413457 0 -0.019117458648777581 -0.1042393847331413 0 -0.0065521411640195489 -0.1138300235372187 0 -0.006255808653915158 -0.12961134133280849 0 -0.013648663268692931 -0.14332862135090571 0 0.0094105755256839122 -0.1480926995065347 0 -0.006255808653915158 -0.12961134133280849 0 -0.026816307780583162 -0.1348854845939888 0 -0.013648663268692931 -0.14332862135090571 0 -0.006255808653915158 -0.12961134133280849 0 -0.022070915447973079 -0.12507428175509869 0 -0.026816307780583162 -0.1348854845939888 0 -0.031420116952718208 -0.1192078997252916 0 -0.026816307780583162 -0.1348854845939888 0 -0.027984546120273662 -0.1462388448911684 0 -0.031420116952718208 -0.1192078997252916 0 -0.027984546120273662 -0.1462388448911684 0 -0.006255808653915158 -0.12961134133280849 0 -0.026816307780583162 -0.1348854845939888 0 -0.031420116952718208 -0.1192078997252916 0 -0.022070915447973079 -0.12507428175509869 0 -0.026816307780583162 -0.1348854845939888 0 -0.026816307780583162 -0.1348854845939888 0 -0.027984546120273662 -0.1462388448911684 0 -0.013648663268692931 -0.14332862135090571 0 -0.027984546120273662 -0.1462388448911684 0 -0.018827256303632151 -0.1551846305544517 0 -0.013648663268692931 -0.14332862135090571 0 -0.013648663268692931 -0.14332862135090571 0 -0.0091268405377329317 -0.15790126591868739 0 0.0094105755256839122 -0.1480926995065347 0 -0.018827256303632151 -0.1551846305544517 0 -0.013648663268692931 -0.14332862135090571 0 -0.0091268405377329317 -0.15790126591868739 0 -0.0097505840828698218 -0.1712515658163829 0 -0.0091268405377329317 -0.15790126591868739 0 0.004516460578614578 -0.17184820094144029 0 -0.0097505840828698218 -0.1712515658163829 0 -0.0091268405377329317 -0.15790126591868739 0 -0.024548975287829081 -0.1732697900570454 0 -0.0098429810845318561 -0.18198700634835871 0 -0.00037765436845475011 -0.19560370237634589 0 0.004516460578614578 -0.17184820094144029 0 -0.0097505840828698218 -0.1712515658163829 0 -0.0098429810845318561 -0.18198700634835871 0 0.004516460578614578 -0.17184820094144029 0 -0.0097505840828698218 -0.1712515658163829 0 -0.0098429810845318561 -0.18198700634835871 0 -0.024548975287829081 -0.1732697900570454 0 -0.024548975287829081 -0.1732697900570454 0 -0.02111340445538451 -0.2003007352229223 0 -0.0098429810845318561 -0.18198700634835871 0 -0.024548975287829081 -0.1732697900570454 0 -0.02111340445538451 -0.2003007352229223 0 -0.027984546120273662 -0.1462388448911684 0 -0.024548975287829081 -0.1732697900570454 0 -0.03913446414276537 -0.16027223878554281 0 -0.027984546120273662 -0.1462388448911684 0 -0.018827256303632151 -0.1551846305544517 0 -0.024548975287829081 -0.1732697900570454 0 -0.018827256303632151 -0.1551846305544517 0 -0.0091268405377329317 -0.15790126591868739 0 -0.024548975287829081 -0.1732697900570454 0 -0.027984546120273662 -0.1462388448911684 0 -0.024548975287829081 -0.1732697900570454 0 -0.024548975287829081 -0.1732697900570454 0 -0.03913446414276537 -0.16027223878554281 0 -0.045883444665165363 -0.17409197101751081 0 -0.03913446414276537 -0.16027223878554281 0 -0.045883444665165363 -0.17409197101751081 0 -0.055552983827618647 -0.16032229287123059 0 -0.024548975287829081 -0.1732697900570454 0 -0.045883444665165363 -0.17409197101751081 0 -0.044696439928931443 -0.19502612847968129 0 -0.045883444665165363 -0.17409197101751081 0 -0.055552983827618647 -0.16032229287123059 0 -0.065484360138682265 -0.1815694048940539 0 -0.045883444665165363 -0.17409197101751081 0 -0.044696439928931443 -0.19502612847968129 0 -0.065484360138682265 -0.1815694048940539 0 -0.055552983827618647 -0.16032229287123059 0 -0.050938320545525793 -0.1395349207281267 0 -0.069679690856505189 -0.14458003243543241 0 -0.055552983827618647 -0.16032229287123059 0 -0.050938320545525793 -0.1395349207281267 0 -0.055552983827618647 -0.16032229287123059 0 -0.050938320545525793 -0.1395349207281267 0 -0.042596078877163088 -0.1480372309021025 0 -0.061050978852012321 -0.1290213354191441 0 -0.050938320545525793 -0.1395349207281267 0 -0.069679690856505189 -0.14458003243543241 0 -0.046323657263432932 -0.1187475485850229 0 -0.061050978852012321 -0.1290213354191441 0 -0.050938320545525793 -0.1395349207281267 0 -0.046323657263432932 -0.1187475485850229 0 -0.050938320545525793 -0.1395349207281267 0 -0.050938320545525793 -0.1395349207281267 0 -0.039370079749631998 -0.13381785723444389 0 -0.042596078877163088 -0.1480372309021025 0 -0.031420116952718208 -0.1192078997252916 0 -0.027984546120273662 -0.1462388448911684 0 -0.039370079749631998 -0.13381785723444389 0 -0.046323657263432932 -0.1187475485850229 0 -0.050938320545525793 -0.1395349207281267 0 -0.039370079749631998 -0.13381785723444389 0 -0.027984546120273662 -0.1462388448911684 0 -0.039370079749631998 -0.13381785723444389 0 -0.042596078877163088 -0.1480372309021025 0 -0.03913446414276537 -0.16027223878554281 0 -0.055552983827618647 -0.16032229287123059 0 -0.042596078877163088 -0.1480372309021025 0 -0.027984546120273662 -0.1462388448911684 0 -0.03913446414276537 -0.16027223878554281 0 -0.042596078877163088 -0.1480372309021025 0 -0.014242262790494181 -0.25436262555467598 0 -0.01767783362293994 -0.22733168038879931 0 -0.014242262790494181 -0.25436262555467598 0 -0.01767783362293994 -0.22733168038879931 0 -0.032006049370809683 -0.2414171829525375 0 -0.014242262790494181 -0.25436262555467598 0 -0.0040268346632878179 -0.23544582594765409 0 0.0054077402359684022 -0.24803128275829681 0 -0.014242262790494181 -0.25436262555467598 0 -0.0040268346632878179 -0.23544582594765409 0 -0.01767783362293994 -0.22733168038879931 0 -0.0040268346632878179 -0.23544582594765409 0 -0.0052717693155240868 -0.21935920381125151 0 -0.01767783362293994 -0.22733168038879931 0 -0.01767783362293994 -0.22733168038879931 0 -0.035770801484537922 -0.21589745575483399 0 -0.032596190888852947 -0.2289516049813223 0 -0.01767783362293994 -0.22733168038879931 0 -0.032596190888852947 -0.2289516049813223 0 -0.032006049370809683 -0.2414171829525375 0 -0.01767783362293994 -0.22733168038879931 0 -0.02111340445538451 -0.2003007352229223 0 -0.01767783362293994 -0.22733168038879931 0 -0.02111340445538451 -0.2003007352229223 0 -0.035770801484537922 -0.21589745575483399 0 -0.0052717693155240868 -0.21935920381125151 0 -0.00037765436845475011 -0.19560370237634589 0 -0.02111340445538451 -0.2003007352229223 0 -0.0052717693155240868 -0.21935920381125151 0 -0.00037765436845475011 -0.19560370237634589 0 -0.0052717693155240868 -0.21935920381125151 0 -0.01767783362293994 -0.22733168038879931 0 -0.02111340445538451 -0.2003007352229223 0 -0.0098429810845318561 -0.18198700634835871 0 -0.00037765436845475011 -0.19560370237634589 0 -0.02111340445538451 -0.2003007352229223 0 -0.024548975287829081 -0.1732697900570454 0 -0.02111340445538451 -0.2003007352229223 0 -0.044696439928931443 -0.19502612847968129 0 -0.044696439928931443 -0.19502612847968129 0 -0.065332895683858708 -0.20357050838494101 0 -0.065484360138682265 -0.1815694048940539 0 -0.044696439928931443 -0.19502612847968129 0 -0.052852580757208903 -0.21525152499313099 0 -0.065332895683858708 -0.20357050838494101 0 -0.044696439928931443 -0.19502612847968129 0 -0.052852580757208903 -0.21525152499313099 0 -0.035770801484537922 -0.21589745575483399 0 -0.02111340445538451 -0.2003007352229223 0 -0.044696439928931443 -0.19502612847968129 0 -0.035770801484537922 -0.21589745575483399 0 -0.035770801484537922 -0.21589745575483399 0 -0.032596190888852947 -0.2289516049813223 0 -0.047650128981329629 -0.23233724367350331 0 -0.052852580757208903 -0.21525152499313099 0 -0.035770801484537922 -0.21589745575483399 0 -0.047650128981329629 -0.23233724367350331 0 -0.032596190888852947 -0.2289516049813223 0 -0.047650128981329629 -0.23233724367350331 0 -0.032006049370809683 -0.2414171829525375 0 -0.052852580757208903 -0.21525152499313099 0 -0.047650128981329629 -0.23233724367350331 0 -0.072290514366763925 -0.2264671950666523 0 -0.047650128981329629 -0.23233724367350331 0 -0.065966051164906045 -0.2483348353079719 0 -0.072290514366763925 -0.2264671950666523 0 -0.047650128981329629 -0.23233724367350331 0 -0.046799964515636311 -0.24920753124184811 0 -0.065966051164906045 -0.2483348353079719 0 -0.047650128981329629 -0.23233724367350331 0 -0.046799964515636311 -0.24920753124184811 0 -0.032006049370809683 -0.2414171829525375 0 -0.085099214246944763 -0.24380688298698661 0 -0.065966051164906045 -0.2483348353079719 0 -0.072290514366763925 -0.2264671950666523 0 -0.072290514366763925 -0.2264671950666523 0 -0.091662591387593695 -0.21377586001299681 0 -0.098320394277497072 -0.2311064460740479 0 -0.085099214246944763 -0.24380688298698661 0 -0.072290514366763925 -0.2264671950666523 0 -0.098320394277497072 -0.2311064460740479 0 -0.091662591387593695 -0.21377586001299681 0 -0.065332895683858708 -0.20357050838494101 0 -0.083785919357256156 -0.19426515169319319 0 -0.052852580757208903 -0.21525152499313099 0 -0.072290514366763925 -0.2264671950666523 0 -0.065332895683858708 -0.20357050838494101 0 -0.072290514366763925 -0.2264671950666523 0 -0.091662591387593695 -0.21377586001299681 0 -0.065332895683858708 -0.20357050838494101 0 -0.065332895683858708 -0.20357050838494101 0 -0.083785919357256156 -0.19426515169319319 0 -0.065484360138682265 -0.1815694048940539 0 -0.091662591387593695 -0.21377586001299681 0 -0.083785919357256156 -0.19426515169319319 0 -0.1015890992290011 -0.19897460394336289 0 -0.1015890992290011 -0.19897460394336289 0 -0.097969849089404981 -0.1826333832679137 0 -0.1109916552247347 -0.18613106153322251 0 -0.083785919357256156 -0.19426515169319319 0 -0.1015890992290011 -0.19897460394336289 0 -0.097969849089404981 -0.1826333832679137 0 -0.1189044176714576 -0.20095678806107439 0 -0.125053449611397 -0.1757763260007012 0 -0.1189044176714576 -0.20095678806107439 0 -0.125053449611397 -0.1757763260007012 0 -0.13077023872427199 -0.18821095084207851 0 -0.1189044176714576 -0.20095678806107439 0 -0.1109916552247347 -0.18613106153322251 0 -0.125053449611397 -0.1757763260007012 0 -0.1015890992290011 -0.19897460394336289 0 -0.1189044176714576 -0.20095678806107439 0 -0.1109916552247347 -0.18613106153322251 0 -0.1015890992290011 -0.19897460394336289 0 -0.1189044176714576 -0.20095678806107439 0 -0.11046610995513501 -0.2167686491370299 0 -0.1189044176714576 -0.20095678806107439 0 -0.11046610995513501 -0.2167686491370299 0 -0.12980363706060791 -0.2180938268571638 0 -0.091662591387593695 -0.21377586001299681 0 -0.1015890992290011 -0.19897460394336289 0 -0.11046610995513501 -0.2167686491370299 0 -0.11046610995513501 -0.2167686491370299 0 -0.098320394277497072 -0.2311064460740479 0 -0.117963685465532 -0.23429398274213581 0 -0.091662591387593695 -0.21377586001299681 0 -0.11046610995513501 -0.2167686491370299 0 -0.098320394277497072 -0.2311064460740479 0 -0.11046610995513501 -0.2167686491370299 0 -0.117963685465532 -0.23429398274213581 0 -0.12980363706060791 -0.2180938268571638 0 -0.1034683851570302 -0.25081812964332789 0 -0.12328477412140371 -0.25011208707580329 0 -0.117963685465532 -0.23429398274213581 0 -0.1034683851570302 -0.25081812964332789 0 -0.098320394277497072 -0.2311064460740479 0 -0.117963685465532 -0.23429398274213581 0 -0.1034683851570302 -0.25081812964332789 0 -0.085099214246944763 -0.24380688298698661 0 -0.098320394277497072 -0.2311064460740479 0 -0.069679690856505189 -0.14458003243543241 0 -0.079541392476400852 -0.16281179123563311 0 -0.09654459087096183 -0.14435467512636879 0 -0.079824491894017538 -0.12216580181545179 0 -0.09654459087096183 -0.14435467512636879 0 -0.07830581906928559 -0.12884272475078559 0 -0.069679690856505189 -0.14458003243543241 0 -0.09654459087096183 -0.14435467512636879 0 -0.07830581906928559 -0.12884272475078559 0 -0.09654459087096183 -0.14435467512636879 0 -0.079824491894017538 -0.12216580181545179 0 -0.07830581906928559 -0.12884272475078559 0 -0.09654459087096183 -0.14435467512636879 0 -0.061050978852012321 -0.1290213354191441 0 -0.07830581906928559 -0.12884272475078559 0 -0.069679690856505189 -0.14458003243543241 0 -0.055552983827618647 -0.16032229287123059 0 -0.069679690856505189 -0.14458003243543241 0 -0.079541392476400852 -0.16281179123563311 0 -0.055552983827618647 -0.16032229287123059 0 -0.065484360138682265 -0.1815694048940539 0 -0.079541392476400852 -0.16281179123563311 0 -0.065484360138682265 -0.1815694048940539 0 -0.081126438528339229 -0.1783929530695231 0 -0.079541392476400852 -0.16281179123563311 0 -0.083785919357256156 -0.19426515169319319 0 -0.065484360138682265 -0.1815694048940539 0 -0.081126438528339229 -0.1783929530695231 0 -0.081126438528339229 -0.1783929530695231 0 -0.096573696365181122 -0.16400276755074669 0 -0.097969849089404981 -0.1826333832679137 0 -0.083785919357256156 -0.19426515169319319 0 -0.081126438528339229 -0.1783929530695231 0 -0.097969849089404981 -0.1826333832679137 0 -0.081126438528339229 -0.1783929530695231 0 -0.079541392476400852 -0.16281179123563311 0 -0.096573696365181122 -0.16400276755074669 0 -0.079541392476400852 -0.16281179123563311 0 -0.096573696365181122 -0.16400276755074669 0 -0.09654459087096183 -0.14435467512636879 0 -0.096573696365181122 -0.16400276755074669 0 -0.1116904955327109 -0.17235428182270371 0 -0.11113698875821421 -0.1565475920860899 0 -0.096573696365181122 -0.16400276755074669 0 -0.097969849089404981 -0.1826333832679137 0 -0.1116904955327109 -0.17235428182270371 0 -0.097969849089404981 -0.1826333832679137 0 -0.1109916552247347 -0.18613106153322251 0 -0.1116904955327109 -0.17235428182270371 0 -0.1109916552247347 -0.18613106153322251 0 -0.1116904955327109 -0.17235428182270371 0 -0.125053449611397 -0.1757763260007012 0 -0.1116904955327109 -0.17235428182270371 0 -0.12566974590316929 -0.1688111852669614 0 -0.125053449611397 -0.1757763260007012 0 -0.1116904955327109 -0.17235428182270371 0 -0.11113698875821421 -0.1565475920860899 0 -0.12566974590316929 -0.1688111852669614 0 -0.11113698875821421 -0.1565475920860899 0 -0.1220625944260179 -0.1555475155763848 0 -0.12566974590316929 -0.1688111852669614 0 -0.11113698875821421 -0.1565475920860899 0 -0.12566974590316929 -0.1688111852669614 0 -0.11113698875821421 -0.1565475920860899 0 -0.1220625944260179 -0.1555475155763848 0 -0.11875687874594019 -0.1372593560808682 0 -0.1220625944260179 -0.1555475155763848 0 -0.11875687874594019 -0.1372593560808682 0 -0.1312024815513364 -0.15059586394032801 0 -0.11113698875821421 -0.1565475920860899 0 -0.09654459087096183 -0.14435467512636879 0 -0.11875687874594019 -0.1372593560808682 0 -0.11113698875821421 -0.1565475920860899 0 -0.09654459087096183 -0.14435467512636879 0 -0.096573696365181122 -0.16400276755074669 0 -0.11113698875821421 -0.1565475920860899 0 -0.09654459087096183 -0.14435467512636879 0 -0.10605473682518669 -0.1166633748805592 0 -0.09654459087096183 -0.14435467512636879 0 -0.11875687874594019 -0.1372593560808682 0 -0.079824491894017538 -0.12216580181545179 0 -0.10605473682518669 -0.1166633748805592 0 -0.09654459087096183 -0.14435467512636879 0 -0.13735151349127581 -0.1254154018799547 0 -0.1312024815513364 -0.15059586394032801 0 -0.11875687874594019 -0.1372593560808682 0 -0.13735151349127581 -0.1254154018799547 0 -0.1312024815513364 -0.15059586394032801 0 -0.13735151349127581 -0.1254154018799547 0 -0.14800652857090349 -0.14767312795056831 0 -0.1560332016605003 -0.1231680344268509 0 -0.13735151349127581 -0.1254154018799547 0 -0.14800652857090349 -0.14767312795056831 0 -0.1312024815513364 -0.15059586394032801 0 -0.14800652857090349 -0.14767312795056831 0 -0.1312024815513364 -0.15059586394032801 0 -0.13795600753902459 -0.16335276397715651 0 -0.1312024815513364 -0.15059586394032801 0 -0.125053449611397 -0.1757763260007012 0 -0.1220625944260179 -0.1555475155763848 0 -0.1312024815513364 -0.15059586394032801 0 -0.12566974590316929 -0.1688111852669614 0 -0.1312024815513364 -0.15059586394032801 0 -0.12566974590316929 -0.1688111852669614 0 -0.125053449611397 -0.1757763260007012 0 -0.1312024815513364 -0.15059586394032801 0 -0.13795600753902459 -0.16335276397715651 0 -0.125053449611397 -0.1757763260007012 0 -0.125053449611397 -0.1757763260007012 0 -0.1384970065377028 -0.17727387122575669 0 -0.13077023872427199 -0.18821095084207851 0 -0.13795600753902459 -0.16335276397715651 0 -0.125053449611397 -0.1757763260007012 0 -0.1384970065377028 -0.17727387122575669 0 -0.1384970065377028 -0.17727387122575669 0 -0.15575366125178519 -0.18173754169600539 0 -0.1477683453935186 -0.16628019816272169 0 -0.1384970065377028 -0.17727387122575669 0 -0.15575366125178519 -0.18173754169600539 0 -0.14150504352553189 -0.19702882388976439 0 -0.14800652857090349 -0.14767312795056831 0 -0.13795600753902459 -0.16335276397715651 0 -0.1477683453935186 -0.16628019816272169 0 -0.14800652857090349 -0.14767312795056831 0 -0.1477683453935186 -0.16628019816272169 0 -0.16127919286468759 -0.16065896530092011 0 -0.15575366125178519 -0.18173754169600539 0 -0.1477683453935186 -0.16628019816272169 0 -0.16127919286468759 -0.16065896530092011 0 -0.13795600753902459 -0.16335276397715651 0 -0.1384970065377028 -0.17727387122575669 0 -0.1477683453935186 -0.16628019816272169 0 -0.16127919286468759 -0.16065896530092011 0 -0.16985593855773831 -0.1733760048302084 0 -0.18284421028580339 -0.15731778523749351 0 -0.15575366125178519 -0.18173754169600539 0 -0.16127919286468759 -0.16065896530092011 0 -0.16985593855773831 -0.1733760048302084 0 -0.15575366125178519 -0.18173754169600539 0 -0.16985593855773831 -0.1733760048302084 0 -0.16855634485042281 -0.19783999562748991 0 -0.16985593855773831 -0.1733760048302084 0 -0.19170683738853611 -0.19052255557805509 0 -0.19111323774934269 -0.17391133179527671 0 -0.16985593855773831 -0.1733760048302084 0 -0.16855634485042281 -0.19783999562748991 0 -0.19170683738853611 -0.19052255557805509 0 -0.16985593855773831 -0.1733760048302084 0 -0.18284421028580339 -0.15731778523749351 0 -0.19111323774934269 -0.17391133179527671 0 -0.18284421028580339 -0.15731778523749351 0 -0.1861077769716222 -0.13910116527453781 0 -0.1689321055301852 -0.1415089014386125 0 -0.1861077769716222 -0.13910116527453781 0 -0.1689321055301852 -0.1415089014386125 0 -0.1775948614377664 -0.1182258334164261 0 -0.1689321055301852 -0.1415089014386125 0 -0.1775948614377664 -0.1182258334164261 0 -0.1560332016605003 -0.1231680344268509 0 -0.14800652857090349 -0.14767312795056831 0 -0.1689321055301852 -0.1415089014386125 0 -0.1560332016605003 -0.1231680344268509 0 -0.16127919286468759 -0.16065896530092011 0 -0.18284421028580339 -0.15731778523749351 0 -0.1689321055301852 -0.1415089014386125 0 -0.14800652857090349 -0.14767312795056831 0 -0.16127919286468759 -0.16065896530092011 0 -0.1689321055301852 -0.1415089014386125 0 -0.16213576413331901 -0.25364819393533983 0 -0.15601206104061149 -0.23801114995441899 0 -0.1396029791942078 -0.24239269199167149 0 -0.12328477412140371 -0.25011208707580329 0 -0.117963685465532 -0.23429398274213581 0 -0.1396029791942078 -0.24239269199167149 0 -0.1396029791942078 -0.24239269199167149 0 -0.1503795865517831 -0.21712202532130681 0 -0.12980363706060791 -0.2180938268571638 0 -0.117963685465532 -0.23429398274213581 0 -0.1396029791942078 -0.24239269199167149 0 -0.12980363706060791 -0.2180938268571638 0 -0.15601206104061149 -0.23801114995441899 0 -0.1396029791942078 -0.24239269199167149 0 -0.1503795865517831 -0.21712202532130681 0 -0.1503795865517831 -0.21712202532130681 0 -0.14150504352553189 -0.19702882388976439 0 -0.16855634485042281 -0.19783999562748991 0 -0.1189044176714576 -0.20095678806107439 0 -0.12980363706060791 -0.2180938268571638 0 -0.14150504352553189 -0.19702882388976439 0 -0.1503795865517831 -0.21712202532130681 0 -0.12980363706060791 -0.2180938268571638 0 -0.14150504352553189 -0.19702882388976439 0 -0.1189044176714576 -0.20095678806107439 0 -0.13077023872427199 -0.18821095084207851 0 -0.14150504352553189 -0.19702882388976439 0 -0.1384970065377028 -0.17727387122575669 0 -0.13077023872427199 -0.18821095084207851 0 -0.14150504352553189 -0.19702882388976439 0 -0.15575366125178519 -0.18173754169600539 0 -0.14150504352553189 -0.19702882388976439 0 -0.16855634485042281 -0.19783999562748991 0 -0.16855634485042281 -0.19783999562748991 0 -0.19240368303710981 -0.20693450017179579 0 -0.19170683738853611 -0.19052255557805509 0 -0.16855634485042281 -0.19783999562748991 0 -0.1783080466822676 -0.21743944121185971 0 -0.19240368303710981 -0.20693450017179579 0 -0.1503795865517831 -0.21712202532130681 0 -0.16855634485042281 -0.19783999562748991 0 -0.1783080466822676 -0.21743944121185971 0 -0.1503795865517831 -0.21712202532130681 0 -0.1783080466822676 -0.21743944121185971 0 -0.1503795865517831 -0.21712202532130681 0 -0.1783080466822676 -0.21743944121185971 0 -0.17275209235147329 -0.2366739006357628 0 -0.15601206104061149 -0.23801114995441899 0 -0.1503795865517831 -0.21712202532130681 0 -0.17275209235147329 -0.2366739006357628 0 -0.1783080466822676 -0.21743944121185971 0 -0.17275209235147329 -0.2366739006357628 0 -0.1927269721952623 -0.23802934634911169 0 -0.17894125144676101 -0.25938846464192622 0 -0.17275209235147329 -0.2366739006357628 0 -0.1927269721952623 -0.23802934634911169 0 -0.16213576413331901 -0.25364819393533983 0 -0.15601206104061149 -0.23801114995441899 0 -0.17275209235147329 -0.2366739006357628 0 -0.16213576413331901 -0.25364819393533983 0 -0.17894125144676101 -0.25938846464192622 0 -0.17275209235147329 -0.2366739006357628 0 -0.19639510293617601 -0.25611154843722972 0 -0.2169351205791176 -0.23928729075814181 0 -0.1927269721952623 -0.23802934634911169 0 -0.1927269721952623 -0.23802934634911169 0 -0.2062365068127521 -0.2177568571024138 0 -0.1783080466822676 -0.21743944121185971 0 -0.1927269721952623 -0.23802934634911169 0 -0.2062365068127521 -0.2177568571024138 0 -0.2169351205791176 -0.23928729075814181 0 -0.1927269721952623 -0.23802934634911169 0 -0.2062365068127521 -0.2177568571024138 0 -0.2062365068127521 -0.2177568571024138 0 -0.21747186570935539 -0.20089700967885579 0 -0.2062365068127521 -0.2177568571024138 0 -0.19240368303710981 -0.20693450017179579 0 -0.21747186570935539 -0.20089700967885579 0 -0.1783080466822676 -0.21743944121185971 0 -0.2062365068127521 -0.2177568571024138 0 -0.1783080466822676 -0.21743944121185971 0 -0.2062365068127521 -0.2177568571024138 0 -0.19240368303710981 -0.20693450017179579 0 -0.19240368303710981 -0.20693450017179579 0 -0.19170683738853611 -0.19052255557805509 0 -0.21747186570935539 -0.20089700967885579 0 -0.21747186570935539 -0.20089700967885579 0 -0.20953273281970819 -0.18343286114378951 0 -0.22870722460595819 -0.1840371622552974 0 -0.19170683738853611 -0.19052255557805509 0 -0.21747186570935539 -0.20089700967885579 0 -0.20953273281970819 -0.18343286114378951 0 -0.21747186570935539 -0.20089700967885579 0 -0.24233895379904119 -0.19883865737118309 0 -0.22870722460595819 -0.1840371622552974 0 -0.21747186570935539 -0.20089700967885579 0 -0.22870722460595819 -0.1840371622552974 0 -0.24233895379904119 -0.19883865737118309 0 -0.22870722460595819 -0.1840371622552974 0 -0.25213976956776912 -0.17972188853128571 0 -0.24233895379904119 -0.19883865737118309 0 -0.23597594808743019 -0.21809485537344661 0 -0.25931235666459518 -0.21515005566809051 0 -0.2062365068127521 -0.2177568571024138 0 -0.21747186570935539 -0.20089700967885579 0 -0.23597594808743019 -0.21809485537344661 0 -0.2062365068127521 -0.2177568571024138 0 -0.23597594808743019 -0.21809485537344661 0 -0.21747186570935539 -0.20089700967885579 0 -0.24233895379904119 -0.19883865737118309 0 -0.23597594808743019 -0.21809485537344661 0 -0.2169351205791176 -0.23928729075814181 0 -0.2062365068127521 -0.2177568571024138 0 -0.23597594808743019 -0.21809485537344661 0 -0.2169351205791176 -0.23928729075814181 0 -0.23597594808743019 -0.21809485537344661 0 -0.24557627095320059 -0.23690452528774539 0 -0.23597594808743019 -0.21809485537344661 0 -0.24557627095320059 -0.23690452528774539 0 -0.25931235666459518 -0.21515005566809051 0 -0.25606843302098309 -0.25636966241633519 0 -0.2345738197544574 -0.2535776733873526 0 -0.24557627095320059 -0.23690452528774539 0 -0.2345738197544574 -0.2535776733873526 0 -0.2169351205791176 -0.23928729075814181 0 -0.24557627095320059 -0.23690452528774539 0 -0.2038423063621371 -0.1494861964795999 0 -0.20170654937518009 -0.13151814125817499 0 -0.2235688581138002 -0.14624382250616141 0 -0.2038423063621371 -0.1494861964795999 0 -0.21894243019015369 -0.1659596527112088 0 -0.2235688581138002 -0.14624382250616141 0 -0.20170654937518009 -0.13151814125817499 0 -0.2235688581138002 -0.14624382250616141 0 -0.22057226728629489 -0.122069136388385 0 -0.1861077769716222 -0.13910116527453781 0 -0.20170654937518009 -0.13151814125817499 0 -0.1775948614377664 -0.1182258334164261 0 -0.1861077769716222 -0.13910116527453781 0 -0.2038423063621371 -0.1494861964795999 0 -0.20170654937518009 -0.13151814125817499 0 -0.18284421028580339 -0.15731778523749351 0 -0.1861077769716222 -0.13910116527453781 0 -0.2038423063621371 -0.1494861964795999 0 -0.18284421028580339 -0.15731778523749351 0 -0.20162646969492751 -0.16490745218683669 0 -0.19111323774934269 -0.17391133179527671 0 -0.18284421028580339 -0.15731778523749351 0 -0.2038423063621371 -0.1494861964795999 0 -0.20162646969492751 -0.16490745218683669 0 -0.19170683738853611 -0.19052255557805509 0 -0.19111323774934269 -0.17391133179527671 0 -0.20953273281970819 -0.18343286114378951 0 -0.20162646969492751 -0.16490745218683669 0 -0.19111323774934269 -0.17391133179527671 0 -0.20953273281970819 -0.18343286114378951 0 -0.20162646969492751 -0.16490745218683669 0 -0.20953273281970819 -0.18343286114378951 0 -0.21894243019015369 -0.1659596527112088 0 -0.2038423063621371 -0.1494861964795999 0 -0.20162646969492751 -0.16490745218683669 0 -0.21894243019015369 -0.1659596527112088 0 -0.21894243019015369 -0.1659596527112088 0 -0.23994258350256101 -0.167177314831739 0 -0.2235688581138002 -0.14624382250616141 0 -0.20953273281970819 -0.18343286114378951 0 -0.21894243019015369 -0.1659596527112088 0 -0.22870722460595819 -0.1840371622552974 0 -0.22870722460595819 -0.1840371622552974 0 -0.23994258350256101 -0.167177314831739 0 -0.21894243019015369 -0.1659596527112088 0 -0.22870722460595819 -0.1840371622552974 0 -0.23994258350256101 -0.167177314831739 0 -0.22870722460595819 -0.1840371622552974 0 -0.23994258350256101 -0.167177314831739 0 -0.25213976956776912 -0.17972188853128571 0 -0.23994258350256101 -0.167177314831739 0 -0.24483425335123449 -0.1489253450313042 0 -0.25910388458026251 -0.16297733371699899 0 -0.24483425335123449 -0.1489253450313042 0 -0.2235688581138002 -0.14624382250616141 0 -0.24191771928431799 -0.12823304492456691 0 -0.23994258350256101 -0.167177314831739 0 -0.24483425335123449 -0.1489253450313042 0 -0.2235688581138002 -0.14624382250616141 0 -0.2235688581138002 -0.14624382250616141 0 -0.24191771928431799 -0.12823304492456691 0 -0.22057226728629489 -0.122069136388385 0 -0.24483425335123449 -0.1489253450313042 0 -0.24191771928431799 -0.12823304492456691 0 -0.25963822127523101 -0.1399952091770548 0 -0.24191771928431799 -0.12823304492456691 0 -0.24896736677396131 -0.110470745124257 0 -0.2334216025025278 -0.10906856233594529 0 -0.24896736677396131 -0.110470745124257 0 -0.24458770130138421 -0.096198659347011356 0 -0.2334216025025278 -0.10906856233594529 0 -0.24458770130138421 -0.096198659347011356 0 -0.2334216025025278 -0.10906856233594529 0 -0.2280902733408218 -0.095855085708708473 0 -0.2334216025025278 -0.10906856233594529 0 -0.2280902733408218 -0.095855085708708473 0 -0.21467626444562421 -0.1024117207182899 0 -0.2280902733408218 -0.095855085708708473 0 -0.21400777297599591 -0.09031122451116913 0 -0.21467626444562421 -0.1024117207182899 0 -0.2334216025025278 -0.10906856233594529 0 -0.22057226728629489 -0.122069136388385 0 -0.21467626444562421 -0.1024117207182899 0 -0.24191771928431799 -0.12823304492456691 0 -0.2334216025025278 -0.10906856233594529 0 -0.22057226728629489 -0.122069136388385 0 -0.24822306745508471 -0.073546667267469987 0 -0.2395799854963786 -0.074791947309699194 0 -0.24000929069603499 -0.082805528122219613 0 -0.2386960838138551 -0.0674958718261746 0 -0.2395799854963786 -0.074791947309699194 0 -0.23236750438056281 -0.077032323614342868 0 -0.2386960838138551 -0.0674958718261746 0 -0.24822306745508471 -0.073546667267469987 0 -0.2395799854963786 -0.074791947309699194 0 -0.24822306745508471 -0.073546667267469987 0 -0.24000929069603499 -0.082805528122219613 0 -0.25609121651680272 -0.080824474624059367 0 -0.24458770130138421 -0.096198659347011356 0 -0.24000929069603499 -0.082805528122219613 0 -0.25609121651680272 -0.080824474624059367 0 -0.24458770130138421 -0.096198659347011356 0 -0.2280902733408218 -0.095855085708708473 0 -0.24000929069603499 -0.082805528122219613 0 -0.2395799854963786 -0.074791947309699194 0 -0.24000929069603499 -0.082805528122219613 0 -0.23236750438056281 -0.077032323614342868 0 -0.2280902733408218 -0.095855085708708473 0 -0.24000929069603499 -0.082805528122219613 0 -0.2252970237093406 -0.083382551044912476 0 -0.2280902733408218 -0.095855085708708473 0 -0.2252970237093406 -0.083382551044912476 0 -0.21400777297599591 -0.09031122451116913 0 -0.2252970237093406 -0.083382551044912476 0 -0.22338890353044971 -0.076350692563550537 0 -0.21018466667522101 -0.081112477132933736 0 -0.2252970237093406 -0.083382551044912476 0 -0.23236750438056281 -0.077032323614342868 0 -0.22338890353044971 -0.076350692563550537 0 -0.24000929069603499 -0.082805528122219613 0 -0.2252970237093406 -0.083382551044912476 0 -0.23236750438056281 -0.077032323614342868 0 -0.2386960838138551 -0.0674958718261746 0 -0.22338890353044971 -0.076350692563550537 0 -0.2103992390732688 -0.07273023919938898 0 -0.2386960838138551 -0.0674958718261746 0 -0.2103992390732688 -0.07273023919938898 0 -0.23285573266224729 -0.063774905205547947 0 -0.2103992390732688 -0.07273023919938898 0 -0.2386960838138551 -0.0674958718261746 0 -0.23285573266224729 -0.063774905205547947 0 -0.2103992390732688 -0.07273023919938898 0 -0.21899459544886141 -0.062983878595794143 0 -0.23285573266224729 -0.063774905205547947 0 -0.2103992390732688 -0.07273023919938898 0 -0.2386960838138551 -0.0674958718261746 0 -0.23236750438056281 -0.077032323614342868 0 -0.22338890353044971 -0.076350692563550537 0 -0.21899459544886141 -0.062983878595794143 0 -0.2103992390732688 -0.07273023919938898 0 -0.20605187494492669 -0.058831579259914099 0 -0.22338890353044971 -0.076350692563550537 0 -0.2103992390732688 -0.07273023919938898 0 -0.21018466667522101 -0.081112477132933736 0 -0.2103992390732688 -0.07273023919938898 0 -0.21018466667522101 -0.081112477132933736 0 -0.19507230964110131 -0.078842403220955218 0 -0.2252970237093406 -0.083382551044912476 0 -0.21018466667522101 -0.081112477132933736 0 -0.2252970237093406 -0.083382551044912476 0 -0.21018466667522101 -0.081112477132933736 0 -0.21400777297599591 -0.09031122451116913 0 -0.21018466667522101 -0.081112477132933736 0 -0.21400777297599591 -0.09031122451116913 0 -0.20379002232792429 -0.086880947209857756 0 -0.21400777297599591 -0.09031122451116913 0 -0.20379002232792429 -0.086880947209857756 0 -0.203860371048041 -0.09453160534911699 0 -0.19582499129926209 -0.089607025835113471 0 -0.19332026218180709 -0.10720178491687229 0 -0.18493397498843411 -0.082885428575569423 0 -0.20379002232792429 -0.086880947209857756 0 -0.19582499129926209 -0.089607025835113471 0 -0.203860371048041 -0.09453160534911699 0 -0.19507230964110131 -0.078842403220955218 0 -0.18493397498843411 -0.082885428575569423 0 -0.18529593429106381 -0.077373863628770995 0 -0.19582499129926209 -0.089607025835113471 0 -0.19507230964110131 -0.078842403220955218 0 -0.18493397498843411 -0.082885428575569423 0 -0.19507230964110131 -0.078842403220955218 0 -0.18493397498843411 -0.082885428575569423 0 -0.21018466667522101 -0.081112477132933736 0 -0.19507230964110131 -0.078842403220955218 0 -0.20379002232792429 -0.086880947209857756 0 -0.19582499129926209 -0.089607025835113471 0 -0.19507230964110131 -0.078842403220955218 0 -0.21018466667522101 -0.081112477132933736 0 -0.20379002232792429 -0.086880947209857756 0 -0.19507230964110131 -0.078842403220955218 0 -0.18205038494476641 -0.074524350374062326 0 -0.20605187494492669 -0.058831579259914099 0 -0.2103992390732688 -0.07273023919938898 0 -0.18529593429106381 -0.077373863628770995 0 -0.18529593429106381 -0.077373863628770995 0 -0.18205038494476641 -0.074524350374062326 0 -0.20605187494492669 -0.058831579259914099 0 -0.18205038494476641 -0.074524350374062326 0 -0.1892827433445983 -0.0557116065585576 0 -0.20605187494492669 -0.058831579259914099 0 -0.2103992390732688 -0.07273023919938898 0 -0.19507230964110131 -0.078842403220955218 0 -0.18529593429106381 -0.077373863628770995 0 -0.2103992390732688 -0.07273023919938898 0 -0.18529593429106381 -0.077373863628770995 0 -0.20605187494492669 -0.058831579259914099 0 -0.2103992390732688 -0.07273023919938898 0 -0.19507230964110131 -0.078842403220955218 0 -0.19507230964110131 -0.078842403220955218 0 -0.18529593429106381 -0.077373863628770995 0 -0.20170654937518009 -0.13151814125817499 0 -0.22057226728629489 -0.122069136388385 0 -0.20756883582222649 -0.1158001958204305 0 -0.22057226728629489 -0.122069136388385 0 -0.20756883582222649 -0.1158001958204305 0 -0.21467626444562421 -0.1024117207182899 0 -0.21467626444562421 -0.1024117207182899 0 -0.203860371048041 -0.09453160534911699 0 -0.19332026218180709 -0.10720178491687229 0 -0.20756883582222649 -0.1158001958204305 0 -0.21467626444562421 -0.1024117207182899 0 -0.19332026218180709 -0.10720178491687229 0 -0.21400777297599591 -0.09031122451116913 0 -0.21467626444562421 -0.1024117207182899 0 -0.203860371048041 -0.09453160534911699 0 -0.19332026218180709 -0.10720178491687229 0 -0.18493397498843411 -0.082885428575569423 0 -0.19582499129926209 -0.089607025835113471 0 -0.203860371048041 -0.09453160534911699 0 -0.19332026218180709 -0.10720178491687229 0 -0.20170654937518009 -0.13151814125817499 0 -0.20756883582222649 -0.1158001958204305 0 -0.19332026218180709 -0.10720178491687229 0 -0.20170654937518009 -0.13151814125817499 0 -0.19332026218180709 -0.10720178491687229 0 -0.1775948614377664 -0.1182258334164261 0 -0.20170654937518009 -0.13151814125817499 0 -0.19332026218180709 -0.10720178491687229 0 -0.1775948614377664 -0.1182258334164261 0 -0.16081365550165591 -0.1059500020559624 0 -0.1560332016605003 -0.1231680344268509 0 -0.1775948614377664 -0.1182258334164261 0 -0.16081365550165591 -0.1059500020559624 0 -0.17085217410117681 -0.10030438371638591 0 -0.16346843359672319 -0.095185153576860485 0 -0.16081365550165591 -0.1059500020559624 0 -0.15436067030331141 -0.094805710280579936 0 -0.16346843359672319 -0.095185153576860485 0 -0.17085217410117681 -0.10030438371638591 0 -0.16843403659680509 -0.089465372082304553 0 -0.16346843359672319 -0.095185153576860485 0 -0.16081365550165591 -0.1059500020559624 0 -0.17085217410117681 -0.10030438371638591 0 -0.19332026218180709 -0.10720178491687229 0 -0.18129737965398771 -0.097743947142782811 0 -0.18493397498843411 -0.082885428575569423 0 -0.19332026218180709 -0.10720178491687229 0 -0.1775948614377664 -0.1182258334164261 0 -0.18129737965398771 -0.097743947142782811 0 -0.17085217410117681 -0.10030438371638591 0 -0.18129737965398771 -0.097743947142782811 0 -0.16843403659680509 -0.089465372082304553 0 -0.1775948614377664 -0.1182258334164261 0 -0.17085217410117681 -0.10030438371638591 0 -0.18129737965398771 -0.097743947142782811 0 -0.18493397498843411 -0.082885428575569423 0 -0.16843403659680509 -0.089465372082304553 0 -0.18493397498843411 -0.082885428575569423 0 -0.17780724324644781 -0.082363374697287856 0 -0.16843403659680509 -0.089465372082304553 0 -0.18129737965398771 -0.097743947142782811 0 -0.18493397498843411 -0.082885428575569423 0 -0.16843403659680509 -0.089465372082304553 0 -0.18493397498843411 -0.082885428575569423 0 -0.18529593429106381 -0.077373863628770995 0 -0.1829095011046403 -0.077015390115541427 0 -0.18493397498843411 -0.082885428575569423 0 -0.1829095011046403 -0.077015390115541427 0 -0.18493397498843411 -0.082885428575569423 0 -0.17780724324644781 -0.082363374697287856 0 -0.1829095011046403 -0.077015390115541427 0 -0.17780724324644781 -0.082363374697287856 0 -0.17469212730839059 -0.079335362227318851 0 -0.1829095011046403 -0.077015390115541427 0 -0.17469212730839059 -0.079335362227318851 0 -0.1829095011046403 -0.077015390115541427 0 -0.17780724324644781 -0.082363374697287856 0 -0.17469212730839059 -0.079335362227318851 0 -0.16843403659680509 -0.089465372082304553 0 -0.18529593429106381 -0.077373863628770995 0 -0.1829095011046403 -0.077015390115541427 0 -0.18529593429106381 -0.077373863628770995 0 -0.1829095011046403 -0.077015390115541427 0 -0.18205038494476641 -0.074524350374062326 0 -0.1829095011046403 -0.077015390115541427 0 -0.18205038494476641 -0.074524350374062326 0 -0.1829095011046403 -0.077015390115541427 0 -0.18205038494476641 -0.074524350374062326 0 -0.17911272609604881 -0.076445064793212086 0 -0.18205038494476641 -0.074524350374062326 0 -0.17911272609604881 -0.076445064793212086 0 -0.1829095011046403 -0.077015390115541427 0 -0.17911272609604881 -0.076445064793212086 0 -0.18205038494476641 -0.074524350374062326 0 -0.17911272609604881 -0.076445064793212086 0 -0.17248564552130599 -0.063102324544197189 0 -0.17469212730839059 -0.079335362227318851 0 -0.1829095011046403 -0.077015390115541427 0 -0.17911272609604881 -0.076445064793212086 0 -0.17469212730839059 -0.079335362227318851 0 -0.17911272609604881 -0.076445064793212086 0 -0.17911272609604881 -0.076445064793212086 0 -0.16099188046657451 -0.073723076500214951 0 -0.17469212730839059 -0.079335362227318851 0 -0.17911272609604881 -0.076445064793212086 0 -0.16099188046657451 -0.073723076500214951 0 -0.17911272609604881 -0.076445064793212086 0 -0.17248564552130599 -0.063102324544197189 0 -0.16099188046657451 -0.073723076500214951 0 -0.17248564552130599 -0.063102324544197189 0 -0.16099188046657451 -0.073723076500214951 0 -0.15990799954844079 -0.061020456497287129 0 -0.16099188046657451 -0.073723076500214951 0 -0.14900089496689781 -0.061933387898678791 0 -0.15990799954844079 -0.061020456497287129 0 -0.17469212730839059 -0.079335362227318851 0 -0.1615553796211939 -0.087924494595272989 0 -0.14679519371056141 -0.084495753796621983 0 -0.17469212730839059 -0.079335362227318851 0 -0.16099188046657451 -0.073723076500214951 0 -0.14679519371056141 -0.084495753796621983 0 -0.17469212730839059 -0.079335362227318851 0 -0.14679519371056141 -0.084495753796621983 0 -0.16346843359672319 -0.095185153576860485 0 -0.16843403659680509 -0.089465372082304553 0 -0.1615553796211939 -0.087924494595272989 0 -0.17469212730839059 -0.079335362227318851 0 -0.1615553796211939 -0.087924494595272989 0 -0.17469212730839059 -0.079335362227318851 0 -0.16843403659680509 -0.089465372082304553 0 -0.1615553796211939 -0.087924494595272989 0 -0.16346843359672319 -0.095185153576860485 0 -0.1615553796211939 -0.087924494595272989 0 -0.15436067030331141 -0.094805710280579936 0 -0.14679519371056141 -0.084495753796621983 0 -0.14350054543121521 -0.1002349398195815 0 -0.15436067030331141 -0.094805710280579936 0 -0.1615553796211939 -0.087924494595272989 0 -0.14679519371056141 -0.084495753796621983 0 -0.15436067030331141 -0.094805710280579936 0 -0.16099188046657451 -0.073723076500214951 0 -0.1428710348371002 -0.071001088207218024 0 -0.16099188046657451 -0.073723076500214951 0 -0.1428710348371002 -0.071001088207218024 0 -0.14900089496689781 -0.061933387898678791 0 -0.16099188046657451 -0.073723076500214951 0 -0.14679519371056141 -0.084495753796621983 0 -0.1428710348371002 -0.071001088207218024 0 -0.1428710348371002 -0.071001088207218024 0 -0.13349983983805969 -0.056942535263725093 0 -0.14900089496689781 -0.061933387898678791 0 -0.14679519371056141 -0.084495753796621983 0 -0.1428710348371002 -0.071001088207218024 0 -0.12561467901087081 -0.074302752458958371 0 -0.1428710348371002 -0.071001088207218024 0 -0.12561467901087081 -0.074302752458958371 0 -0.13349983983805969 -0.056942535263725093 0 -0.1188982601127322 -0.089656145365925269 0 -0.14679519371056141 -0.084495753796621983 0 -0.14350054543121521 -0.1002349398195815 0 -0.1188982601127322 -0.089656145365925269 0 -0.14679519371056141 -0.084495753796621983 0 -0.12561467901087081 -0.074302752458958371 0 -0.1188982601127322 -0.089656145365925269 0 -0.14679519371056141 -0.084495753796621983 0 -0.1188982601127322 -0.089656145365925269 0 -0.12568953908620251 -0.1116801545194875 0 -0.14350054543121521 -0.1002349398195815 0 -0.13735151349127581 -0.1254154018799547 0 -0.14350054543121521 -0.1002349398195815 0 -0.11875687874594019 -0.1372593560808682 0 -0.13735151349127581 -0.1254154018799547 0 -0.12568953908620251 -0.1116801545194875 0 -0.13735151349127581 -0.1254154018799547 0 -0.12568953908620251 -0.1116801545194875 0 -0.14350054543121521 -0.1002349398195815 0 -0.16081365550165591 -0.1059500020559624 0 -0.1560332016605003 -0.1231680344268509 0 -0.14350054543121521 -0.1002349398195815 0 -0.13735151349127581 -0.1254154018799547 0 -0.1560332016605003 -0.1231680344268509 0 -0.14350054543121521 -0.1002349398195815 0 -0.16081365550165591 -0.1059500020559624 0 -0.14350054543121521 -0.1002349398195815 0 -0.15436067030331141 -0.094805710280579936 0 -0.15029451426785159 -0.029799349278424599 0 -0.15501973835593311 -0.02184355620342375 0 -0.15035722511985949 -0.013453666351310831 0 -0.15029451426785159 -0.029799349278424599 0 -0.15035722511985949 -0.013453666351310831 0 -0.13828073203894151 -0.0085811645313545182 0 -0.15029451426785159 -0.029799349278424599 0 -0.15501973835593311 -0.02184355620342375 0 -0.15804205896822771 -0.02700560007574962 0 -0.15029451426785159 -0.029799349278424599 0 -0.15725206947002429 -0.032634072556092429 0 -0.15804205896822771 -0.02700560007574962 0 -0.15035722511985949 -0.013453666351310831 0 -0.14682546129531099 -0.0042659812654107041 0 -0.15559051571298349 0.0021970394553601428 0 -0.14682546129531099 -0.0042659812654107041 0 -0.13828073203894151 -0.0085811645313545182 0 -0.1430733723094596 0.0027738663656623908 0 -0.15035722511985949 -0.013453666351310831 0 -0.14682546129531099 -0.0042659812654107041 0 -0.13828073203894151 -0.0085811645313545182 0 -0.1255651883963867 -0.01466760754899687 0 -0.13828073203894151 -0.0085811645313545182 0 -0.13082697262089341 0.0013823364580261221 0 -0.1255651883963867 -0.01466760754899687 0 -0.13082697262089341 0.0013823364580261221 0 -0.13828073203894151 -0.0085811645313545182 0 -0.13082697262089341 0.0013823364580261221 0 -0.1430733723094596 0.0027738663656623908 0 -0.15029451426785159 -0.029799349278424599 0 -0.1255651883963867 -0.01466760754899687 0 -0.1175603761250444 -0.039084570172323183 0 -0.1255651883963867 -0.01466760754899687 0 -0.1323031206999582 -0.030717033232092451 0 -0.15029451426785159 -0.029799349278424599 0 -0.1255651883963867 -0.01466760754899687 0 -0.13828073203894151 -0.0085811645313545182 0 -0.15029451426785159 -0.029799349278424599 0 -0.1255651883963867 -0.01466760754899687 0 -0.1323031206999582 -0.030717033232092451 0 -0.1175603761250444 -0.039084570172323183 0 -0.1323031206999582 -0.030717033232092451 0 -0.13982986977504369 -0.04115200371081635 0 -0.1175603761250444 -0.039084570172323183 0 -0.13982986977504369 -0.04115200371081635 0 -0.13349983983805969 -0.056942535263725093 0 -0.13982986977504369 -0.04115200371081635 0 -0.13349983983805969 -0.056942535263725093 0 -0.15006386466539379 -0.051387351028221673 0 -0.13349983983805969 -0.056942535263725093 0 -0.15006386466539379 -0.051387351028221673 0 -0.14900089496689781 -0.061933387898678791 0 -0.15006386466539379 -0.051387351028221673 0 -0.14900089496689781 -0.061933387898678791 0 -0.15990799954844079 -0.061020456497287129 0 -0.13982986977504369 -0.04115200371081635 0 -0.15006386466539379 -0.051387351028221673 0 -0.15778091915676329 -0.040128306903980657 0 -0.15029451426785159 -0.029799349278424599 0 -0.1323031206999582 -0.030717033232092451 0 -0.13982986977504369 -0.04115200371081635 0 -0.15029451426785159 -0.029799349278424599 0 -0.13982986977504369 -0.04115200371081635 0 -0.15778091915676329 -0.040128306903980657 0 -0.15029451426785159 -0.029799349278424599 0 -0.15725206947002429 -0.032634072556092429 0 -0.15778091915676329 -0.040128306903980657 0 -0.17297589014304229 -0.04821251008908467 0 -0.17302289992543571 -0.02688872963305363 0 -0.16390139534131981 -0.02190066980410646 0 -0.17297589014304229 -0.04821251008908467 0 -0.16390139534131981 -0.02190066980410646 0 -0.17297589014304229 -0.04821251008908467 0 -0.16390139534131981 -0.02190066980410646 0 -0.16374257740600959 -0.028850352536700829 0 -0.15778091915676329 -0.040128306903980657 0 -0.17297589014304229 -0.04821251008908467 0 -0.16374257740600959 -0.028850352536700829 0 -0.15725206947002429 -0.032634072556092429 0 -0.15778091915676329 -0.040128306903980657 0 -0.16374257740600959 -0.028850352536700829 0 -0.15778091915676329 -0.040128306903980657 0 -0.1624897470490147 -0.051364227037821418 0 -0.17297589014304229 -0.04821251008908467 0 -0.15006386466539379 -0.051387351028221673 0 -0.15778091915676329 -0.040128306903980657 0 -0.1624897470490147 -0.051364227037821418 0 -0.15006386466539379 -0.051387351028221673 0 -0.15990799954844079 -0.061020456497287129 0 -0.1624897470490147 -0.051364227037821418 0 -0.17248564552130599 -0.063102324544197189 0 -0.1624897470490147 -0.051364227037821418 0 -0.17297589014304229 -0.04821251008908467 0 -0.17248564552130599 -0.063102324544197189 0 -0.15990799954844079 -0.061020456497287129 0 -0.1624897470490147 -0.051364227037821418 0 -0.17297589014304229 -0.04821251008908467 0 -0.1892827433445983 -0.0557116065585576 0 -0.18886050274951019 -0.041277992526776247 0 -0.18205038494476641 -0.074524350374062326 0 -0.17297589014304229 -0.04821251008908467 0 -0.1892827433445983 -0.0557116065585576 0 -0.18205038494476641 -0.074524350374062326 0 -0.17297589014304229 -0.04821251008908467 0 -0.18205038494476641 -0.074524350374062326 0 -0.17248564552130599 -0.063102324544197189 0 -0.17297589014304229 -0.04821251008908467 0 -0.17297589014304229 -0.04821251008908467 0 -0.17806956434070331 -0.035031524613221197 0 -0.17302289992543571 -0.02688872963305363 0 -0.17297589014304229 -0.04821251008908467 0 -0.17806956434070331 -0.035031524613221197 0 -0.18886050274951019 -0.041277992526776247 0 -0.17806956434070331 -0.035031524613221197 0 -0.18195263098960329 -0.025910394309482929 0 -0.18886050274951019 -0.041277992526776247 0 -0.18195263098960329 -0.025910394309482929 0 -0.1871679262034279 -0.014832847094228659 0 -0.19285949357592841 -0.023111532127107561 0 -0.18195263098960329 -0.025910394309482929 0 -0.17797245913242449 -0.016720022041080519 0 -0.1871679262034279 -0.014832847094228659 0 -0.17797245913242449 -0.016720022041080519 0 -0.17302289992543571 -0.02688872963305363 0 -0.17050797407893239 -0.017349559790410429 0 -0.18195263098960329 -0.025910394309482929 0 -0.17797245913242449 -0.016720022041080519 0 -0.17302289992543571 -0.02688872963305363 0 -0.17806956434070331 -0.035031524613221197 0 -0.18195263098960329 -0.025910394309482929 0 -0.17302289992543571 -0.02688872963305363 0 -0.17050797407893239 -0.017349559790410429 0 -0.16390139534131981 -0.02190066980410646 0 -0.16787562223468 -0.0099242110759791974 0 -0.17302289992543571 -0.02688872963305363 0 -0.17050797407893239 -0.017349559790410429 0 -0.16390139534131981 -0.02190066980410646 0 -0.15501973835593311 -0.02184355620342375 0 -0.15035722511985949 -0.013453666351310831 0 -0.16390139534131981 -0.02190066980410646 0 -0.15501973835593311 -0.02184355620342375 0 -0.16390139534131981 -0.02190066980410646 0 -0.15804205896822771 -0.02700560007574962 0 -0.15725206947002429 -0.032634072556092429 0 -0.15804205896822771 -0.02700560007574962 0 -0.16374257740600959 -0.028850352536700829 0 -0.16390139534131981 -0.02190066980410646 0 -0.16374257740600959 -0.028850352536700829 0 -0.16390139534131981 -0.02190066980410646 0 -0.15804205896822771 -0.02700560007574962 0 -0.16374257740600959 -0.028850352536700829 0 -0.16390139534131981 -0.02190066980410646 0 -0.1645132280666701 0.0048723978490777626 0 -0.16390139534131981 -0.02190066980410646 0 -0.15559051571298349 0.0021970394553601428 0 -0.1645132280666701 0.0048723978490777626 0 -0.16390139534131981 -0.02190066980410646 0 -0.16787562223468 -0.0099242110759791974 0 -0.1645132280666701 0.0048723978490777626 0 -0.15035722511985949 -0.013453666351310831 0 -0.16390139534131981 -0.02190066980410646 0 -0.15559051571298349 0.0021970394553601428 0 -0.16390139534131981 -0.02190066980410646 0 -0.15559051571298349 0.0021970394553601428 0 -0.17050797407893239 -0.017349559790410429 0 -0.16787562223468 -0.0099242110759791974 0 -0.17444419184024501 -0.008619040889985892 0 -0.16787562223468 -0.0099242110759791974 0 -0.17142969566451249 -0.002320172152788679 0 -0.17444419184024501 -0.008619040889985892 0 -0.16787562223468 -0.0099242110759791974 0 -0.17142969566451249 -0.002320172152788679 0 -0.1645132280666701 0.0048723978490777626 0 -0.17142969566451249 -0.002320172152788679 0 -0.17622003680225889 -0.0018283141660710069 0 -0.17409539937870841 0.0038983075190149349 0 -0.17142969566451249 -0.002320172152788679 0 -0.17622003680225889 -0.0018283141660710069 0 -0.17444419184024501 -0.008619040889985892 0 -0.17622003680225889 -0.0018283141660710069 0 -0.17444419184024501 -0.008619040889985892 0 -0.18141533781934341 -0.0094380149470248784 0 -0.17797245913242449 -0.016720022041080519 0 -0.17050797407893239 -0.017349559790410429 0 -0.17444419184024501 -0.008619040889985892 0 -0.17797245913242449 -0.016720022041080519 0 -0.17444419184024501 -0.008619040889985892 0 -0.18141533781934341 -0.0094380149470248784 0 -0.17797245913242449 -0.016720022041080519 0 -0.1871679262034279 -0.014832847094228659 0 -0.18141533781934341 -0.0094380149470248784 0 -0.1871679262034279 -0.014832847094228659 0 -0.18141533781934341 -0.0094380149470248784 0 -0.18889388088250469 -0.0064459530119784086 0 -0.18346386537279349 -0.001647984405783556 0 -0.18889388088250469 -0.0064459530119784086 0 -0.18806779659284831 0.0049700422461890943 0 -0.17622003680225889 -0.0018283141660710069 0 -0.18346386537279349 -0.001647984405783556 0 -0.179989761597835 0.003196499848222149 0 -0.17622003680225889 -0.0018283141660710069 0 -0.18141533781934341 -0.0094380149470248784 0 -0.18346386537279349 -0.001647984405783556 0 -0.18141533781934341 -0.0094380149470248784 0 -0.18346386537279349 -0.001647984405783556 0 -0.18889388088250469 -0.0064459530119784086 0 -0.18889388088250469 -0.0064459530119784086 0 -0.19685848440234599 -0.0049450717274387504 0 -0.18806779659284831 0.0049700422461890943 0 -0.19685848440234599 -0.0049450717274387504 0 -0.19285949357592841 -0.023111532127107561 0 -0.18889388088250469 -0.0064459530119784086 0 -0.18806779659284831 0.0049700422461890943 0 -0.1871679262034279 -0.014832847094228659 0 -0.19685848440234599 -0.0049450717274387504 0 -0.19285949357592841 -0.023111532127107561 0 -0.1871679262034279 -0.014832847094228659 0 -0.18889388088250469 -0.0064459530119784086 0 -0.19685848440234599 -0.0049450717274387504 0 -0.18195263098960329 -0.025910394309482929 0 -0.19285949357592841 -0.023111532127107561 0 -0.18886050274951019 -0.041277992526776247 0 -0.19685848440234599 -0.0049450717274387504 0 -0.19285949357592841 -0.023111532127107561 0 -0.20108265312294921 -0.019843344887548419 0 -0.19285949357592841 -0.023111532127107561 0 -0.20282024108335359 -0.029527582860565858 0 -0.20108265312294921 -0.019843344887548419 0 -0.2117923934301692 -0.02178919283508125 0 -0.21245146612027019 -0.032873253149423888 0 -0.22672630245799269 -0.038633313942723513 0 -0.20282024108335359 -0.029527582860565858 0 -0.2117923934301692 -0.02178919283508125 0 -0.21245146612027019 -0.032873253149423888 0 -0.20282024108335359 -0.029527582860565858 0 -0.20108265312294921 -0.019843344887548419 0 -0.2117923934301692 -0.02178919283508125 0 -0.2117923934301692 -0.02178919283508125 0 -0.22034012263555319 -0.021271977535389921 0 -0.22265013048358939 -0.02684977739837402 0 -0.2117923934301692 -0.02178919283508125 0 -0.21951947958089429 -0.01545704244013903 0 -0.22034012263555319 -0.021271977535389921 0 -0.19685848440234599 -0.0049450717274387504 0 -0.2117923934301692 -0.02178919283508125 0 -0.2120469589708838 -0.0066311205522630702 0 -0.19685848440234599 -0.0049450717274387504 0 -0.20108265312294921 -0.019843344887548419 0 -0.2117923934301692 -0.02178919283508125 0 -0.2120469589708838 -0.0066311205522630702 0 -0.21951947958089429 -0.01545704244013903 0 -0.22381138727050781 0.002909525995360538 0 -0.2117923934301692 -0.02178919283508125 0 -0.2120469589708838 -0.0066311205522630702 0 -0.21951947958089429 -0.01545704244013903 0 -0.19685848440234599 -0.0049450717274387504 0 -0.2117923934301692 -0.02178919283508125 0 -0.19685848440234599 -0.0049450717274387504 0 -0.2120469589708838 -0.0066311205522630702 0 -0.21019557575314421 0.006394909686725795 0 -0.19708883927297011 -0.049391743639764903 0 -0.20416023605284511 -0.041745796213811651 0 -0.20605187494492669 -0.058831579259914099 0 -0.1892827433445983 -0.0557116065585576 0 -0.19708883927297011 -0.049391743639764903 0 -0.20605187494492669 -0.058831579259914099 0 -0.1892827433445983 -0.0557116065585576 0 -0.19708883927297011 -0.049391743639764903 0 -0.18886050274951019 -0.041277992526776247 0 -0.19285949357592841 -0.023111532127107561 0 -0.20282024108335359 -0.029527582860565858 0 -0.18886050274951019 -0.041277992526776247 0 -0.19285949357592841 -0.023111532127107561 0 -0.18886050274951019 -0.041277992526776247 0 -0.19708883927297011 -0.049391743639764903 0 -0.18886050274951019 -0.041277992526776247 0 -0.20416023605284511 -0.041745796213811651 0 -0.20282024108335359 -0.029527582860565858 0 -0.18886050274951019 -0.041277992526776247 0 -0.20416023605284511 -0.041745796213811651 0 -0.20282024108335359 -0.029527582860565858 0 -0.21245146612027019 -0.032873253149423888 0 -0.20416023605284511 -0.041745796213811651 0 -0.21245146612027019 -0.032873253149423888 0 -0.21631304823255479 -0.041997994647288019 0 -0.22672630245799269 -0.038633313942723513 0 -0.21245146612027019 -0.032873253149423888 0 -0.21631304823255479 -0.041997994647288019 0 -0.20416023605284511 -0.041745796213811651 0 -0.21631304823255479 -0.041997994647288019 0 -0.20416023605284511 -0.041745796213811651 0 -0.20605187494492669 -0.058831579259914099 0 -0.20605187494492669 -0.058831579259914099 0 -0.23042708620373509 -0.042807468846864101 0 -0.21631304823255479 -0.041997994647288019 0 -0.20605187494492669 -0.058831579259914099 0 -0.23042708620373509 -0.042807468846864101 0 -0.21899459544886141 -0.062983878595794143 0 -0.20605187494492669 -0.058831579259914099 0 -0.22221052199831259 -0.056016671247121091 0 -0.20605187494492669 -0.058831579259914099 0 -0.22221052199831259 -0.056016671247121091 0 -0.23042708620373509 -0.042807468846864101 0 -0.22653057280075989 -0.059644064445095561 0 -0.22221052199831259 -0.056016671247121091 0 -0.2309596839695322 -0.053524058978084481 0 -0.23285573266224729 -0.063774905205547947 0 -0.23300155022958891 -0.058105115919773437 0 -0.22653057280075989 -0.059644064445095561 0 -0.23300155022958891 -0.058105115919773437 0 -0.22653057280075989 -0.059644064445095561 0 -0.2309596839695322 -0.053524058978084481 0 -0.21899459544886141 -0.062983878595794143 0 -0.23285573266224729 -0.063774905205547947 0 -0.22653057280075989 -0.059644064445095561 0 -0.21899459544886141 -0.062983878595794143 0 -0.22653057280075989 -0.059644064445095561 0 -0.22221052199831259 -0.056016671247121091 0 -0.22221052199831259 -0.056016671247121091 0 -0.2309596839695322 -0.053524058978084481 0 -0.23042708620373509 -0.042807468846864101 0 -0.2309596839695322 -0.053524058978084481 0 -0.23042708620373509 -0.042807468846864101 0 -0.24166021148581621 -0.05547743505036578 0 -0.22672630245799269 -0.038633313942723513 0 -0.23546826616295691 -0.035738523330740943 0 -0.2394051328623602 -0.043041491953147902 0 -0.23042708620373509 -0.042807468846864101 0 -0.22672630245799269 -0.038633313942723513 0 -0.2394051328623602 -0.043041491953147902 0 -0.23042708620373509 -0.042807468846864101 0 -0.22672630245799269 -0.038633313942723513 0 -0.21631304823255479 -0.041997994647288019 0 -0.23042708620373509 -0.042807468846864101 0 -0.22672630245799269 -0.038633313942723513 0 -0.22672630245799269 -0.038633313942723513 0 -0.22265013048358939 -0.02684977739837402 0 -0.22951151604962269 -0.03010603737211329 0 -0.22672630245799269 -0.038633313942723513 0 -0.23546826616295691 -0.035738523330740943 0 -0.22951151604962269 -0.03010603737211329 0 -0.23546826616295691 -0.035738523330740943 0 -0.2450099963415123 -0.036960965385889062 0 -0.23707244309720779 -0.027570307513105189 0 -0.23546826616295691 -0.035738523330740943 0 -0.2450099963415123 -0.036960965385889062 0 -0.2394051328623602 -0.043041491953147902 0 -0.2450099963415123 -0.036960965385889062 0 -0.2394051328623602 -0.043041491953147902 0 -0.24813924731967391 -0.047304803084769531 0 -0.23285573266224729 -0.063774905205547947 0 -0.25531222625122602 -0.054819571211706872 0 -0.2386960838138551 -0.0674958718261746 0 -0.23285573266224729 -0.063774905205547947 0 -0.25531222625122602 -0.054819571211706872 0 -0.23285573266224729 -0.063774905205547947 0 -0.24166021148581621 -0.05547743505036578 0 -0.25531222625122602 -0.054819571211706872 0 -0.23042708620373509 -0.042807468846864101 0 -0.2394051328623602 -0.043041491953147902 0 -0.24166021148581621 -0.05547743505036578 0 -0.23042708620373509 -0.042807468846864101 0 -0.24166021148581621 -0.05547743505036578 0 -0.2394051328623602 -0.043041491953147902 0 -0.24813924731967391 -0.047304803084769531 0 -0.24166021148581621 -0.05547743505036578 0 -0.24813924731967391 -0.047304803084769531 0 -0.24166021148581621 -0.05547743505036578 0 -0.25531222625122602 -0.054819571211706872 0 -0.23300155022958891 -0.058105115919773437 0 -0.2309596839695322 -0.053524058978084481 0 -0.24166021148581621 -0.05547743505036578 0 -0.23285573266224729 -0.063774905205547947 0 -0.23300155022958891 -0.058105115919773437 0 -0.24166021148581621 -0.05547743505036578 0 -0.22949647805534379 -0.0092425154972004715 0 -0.22381138727050781 0.002909525995360538 0 -0.24156246817162111 3.8901865961206428e-05 0 -0.21951947958089429 -0.01545704244013903 0 -0.22381138727050781 0.002909525995360538 0 -0.22949647805534379 -0.0092425154972004715 0 -0.21951947958089429 -0.01545704244013903 0 -0.22381138727050781 0.002909525995360538 0 -0.22949647805534379 -0.0092425154972004715 0 -0.22739848704755969 -0.02099189746796537 0 -0.237569813236752 -0.015545639180020649 0 -0.22949647805534379 -0.0092425154972004715 0 -0.21951947958089429 -0.01545704244013903 0 -0.22739848704755969 -0.02099189746796537 0 -0.2117923934301692 -0.02178919283508125 0 -0.22672630245799269 -0.038633313942723513 0 -0.21951947958089429 -0.01545704244013903 0 -0.22034012263555319 -0.021271977535389921 0 -0.22739848704755969 -0.02099189746796537 0 -0.2117923934301692 -0.02178919283508125 0 -0.22672630245799269 -0.038633313942723513 0 -0.22265013048358939 -0.02684977739837402 0 -0.22034012263555319 -0.021271977535389921 0 -0.22265013048358939 -0.02684977739837402 0 -0.22739848704755969 -0.02099189746796537 0 -0.22265013048358939 -0.02684977739837402 0 -0.22951151604962269 -0.03010603737211329 0 -0.22739848704755969 -0.02099189746796537 0 -0.23546826616295691 -0.035738523330740943 0 -0.22951151604962269 -0.03010603737211329 0 -0.23707244309720779 -0.027570307513105189 0 -0.22951151604962269 -0.03010603737211329 0 -0.22739848704755969 -0.02099189746796537 0 -0.23707244309720779 -0.027570307513105189 0 -0.22739848704755969 -0.02099189746796537 0 -0.23707244309720779 -0.027570307513105189 0 -0.237569813236752 -0.015545639180020649 0 -0.23707244309720779 -0.027570307513105189 0 -0.237569813236752 -0.015545639180020649 0 -0.25502164138312289 -0.021198290698937441 0 -0.2450099963415123 -0.036960965385889062 0 -0.23707244309720779 -0.027570307513105189 0 -0.25502164138312289 -0.021198290698937441 0 -0.25502164138312289 -0.021198290698937441 0 -0.24156246817162111 3.8901865961206428e-05 0 -0.237569813236752 -0.015545639180020649 0 -0.25502164138312289 -0.021198290698937441 0 -0.24156246817162111 3.8901865961206428e-05 0 -0.22949647805534379 -0.0092425154972004715 0 -0.237569813236752 -0.015545639180020649 0 -0.24156246817162111 3.8901865961206428e-05 0 -0.25502164138312289 -0.021198290698937441 0 -0.27008529692414812 -0.0016724996365426871 0 -0.24156246817162111 3.8901865961206428e-05 0 -0.25502164138312289 -0.021198290698937441 0 -0.27159611450508853 -0.02267253520771827 0 -0.27008529692414812 -0.0016724996365426871 0 -0.25502164138312289 -0.021198290698937441 0 -0.27159611450508853 -0.02267253520771827 0 -0.25920479504697908 -0.040980940760735003 0 -0.27159611450508853 -0.02267253520771827 0 -0.27008529692414812 -0.0016724996365426871 0 -0.28805288740465229 -0.02021058844253117 0 -0.27008529692414812 -0.0016724996365426871 0 -0.29313710650179581 -0.003376988243723194 0 -0.28805288740465229 -0.02021058844253117 0 -0.29313710650179581 -0.003376988243723194 0 -0.28805288740465229 -0.02021058844253117 0 -0.30118173831813189 -0.01308205908544741 0 -0.27159611450508853 -0.02267253520771827 0 -0.28805288740465229 -0.02021058844253117 0 -0.28674859067891051 -0.036273150696857319 0 -0.28805288740465229 -0.02021058844253117 0 -0.29922404346128728 -0.034298522595486561 0 -0.28674859067891051 -0.036273150696857319 0 -0.28805288740465229 -0.02021058844253117 0 -0.31284947532081242 -0.026460771025650819 0 -0.28805288740465229 -0.02021058844253117 0 -0.30118173831813189 -0.01308205908544741 0 -0.31284947532081242 -0.026460771025650819 0 -0.28805288740465229 -0.02021058844253117 0 -0.29922404346128728 -0.034298522595486561 0 -0.31284947532081242 -0.026460771025650819 0 -0.30118173831813189 -0.01308205908544741 0 -0.31068748404526708 -0.0022798886298844401 0 -0.31284947532081242 -0.026460771025650819 0 -0.31068748404526708 -0.0022798886298844401 0 -0.31284947532081242 -0.026460771025650819 0 -0.29313710650179581 -0.003376988243723194 0 -0.30118173831813189 -0.01308205908544741 0 -0.31068748404526708 -0.0022798886298844401 0 -0.30801956562010108 -0.055547277269801618 0 -0.29437191184692402 -0.048130401942291207 0 -0.29207964257026059 -0.069938357425674391 0 -0.30801956562010108 -0.055547277269801618 0 -0.29437191184692402 -0.048130401942291207 0 -0.31409735205513722 -0.040417700870102248 0 -0.29922404346128728 -0.034298522595486561 0 -0.29437191184692402 -0.048130401942291207 0 -0.31409735205513722 -0.040417700870102248 0 -0.29922404346128728 -0.034298522595486561 0 -0.31284947532081242 -0.026460771025650819 0 -0.31409735205513722 -0.040417700870102248 0 -0.29922404346128728 -0.034298522595486561 0 -0.28674859067891051 -0.036273150696857319 0 -0.29437191184692402 -0.048130401942291207 0 -0.28674859067891051 -0.036273150696857319 0 -0.29437191184692402 -0.048130401942291207 0 -0.27978381670594432 -0.05167880305238786 0 -0.29437191184692402 -0.048130401942291207 0 -0.27978381670594432 -0.05167880305238786 0 -0.29207964257026059 -0.069938357425674391 0 -0.27978381670594432 -0.05167880305238786 0 -0.26699292855444151 -0.062261504452960192 0 -0.29207964257026059 -0.069938357425674391 0 -0.27978381670594432 -0.05167880305238786 0 -0.26695285981077171 -0.049789470679091001 0 -0.26699292855444151 -0.062261504452960192 0 -0.27978381670594432 -0.05167880305238786 0 -0.26695285981077171 -0.049789470679091001 0 -0.27347053249526732 -0.039206533917665057 0 -0.27159611450508853 -0.02267253520771827 0 -0.28674859067891051 -0.036273150696857319 0 -0.27347053249526732 -0.039206533917665057 0 -0.27159611450508853 -0.02267253520771827 0 -0.27347053249526732 -0.039206533917665057 0 -0.25920479504697908 -0.040980940760735003 0 -0.28674859067891051 -0.036273150696857319 0 -0.27978381670594432 -0.05167880305238786 0 -0.27347053249526732 -0.039206533917665057 0 -0.26695285981077171 -0.049789470679091001 0 -0.27347053249526732 -0.039206533917665057 0 -0.25920479504697908 -0.040980940760735003 0 -0.2450099963415123 -0.036960965385889062 0 -0.25502164138312289 -0.021198290698937441 0 -0.25920479504697908 -0.040980940760735003 0 -0.2450099963415123 -0.036960965385889062 0 -0.24813924731967391 -0.047304803084769531 0 -0.25920479504697908 -0.040980940760735003 0 -0.2386960838138551 -0.0674958718261746 0 -0.26699292855444151 -0.062261504452960192 0 -0.25531222625122602 -0.054819571211706872 0 -0.26695285981077171 -0.049789470679091001 0 -0.26699292855444151 -0.062261504452960192 0 -0.25531222625122602 -0.054819571211706872 0 -0.26695285981077171 -0.049789470679091001 0 -0.25920479504697908 -0.040980940760735003 0 -0.25531222625122602 -0.054819571211706872 0 -0.24813924731967391 -0.047304803084769531 0 -0.25920479504697908 -0.040980940760735003 0 -0.25531222625122602 -0.054819571211706872 0 -0.2386960838138551 -0.0674958718261746 0 -0.24822306745508471 -0.073546667267469987 0 -0.26699292855444151 -0.062261504452960192 0 -0.24822306745508471 -0.073546667267469987 0 -0.26699292855444151 -0.062261504452960192 0 -0.25609121651680272 -0.080824474624059367 0 -0.2386960838138551 -0.0674958718261746 0 -0.26699292855444151 -0.062261504452960192 0 -0.26699292855444151 -0.062261504452960192 0 -0.25609121651680272 -0.080824474624059367 0 -0.27374533554110292 -0.081640777283714258 0 -0.24458770130138421 -0.096198659347011356 0 -0.25609121651680272 -0.080824474624059367 0 -0.25901297524903949 -0.09822526069951848 0 -0.25609121651680272 -0.080824474624059367 0 -0.26564635850269208 -0.089002421068691037 0 -0.27374533554110292 -0.081640777283714258 0 -0.25609121651680272 -0.080824474624059367 0 -0.26564635850269208 -0.089002421068691037 0 -0.25901297524903949 -0.09822526069951848 0 -0.26564635850269208 -0.089002421068691037 0 -0.27374533554110292 -0.081640777283714258 0 -0.27373590670382347 -0.095319171667472086 0 -0.27374533554110292 -0.081640777283714258 0 -0.27373590670382347 -0.095319171667472086 0 -0.28911794337029417 -0.094456443093391851 0 -0.26699292855444151 -0.062261504452960192 0 -0.27374533554110292 -0.081640777283714258 0 -0.29207964257026059 -0.069938357425674391 0 -0.24191771928431799 -0.12823304492456691 0 -0.24896736677396131 -0.110470745124257 0 -0.26154251711887128 -0.12041762727127971 0 -0.24896736677396131 -0.110470745124257 0 -0.26154251711887128 -0.12041762727127971 0 -0.25901297524903949 -0.09822526069951848 0 -0.24896736677396131 -0.110470745124257 0 -0.24458770130138421 -0.096198659347011356 0 -0.25901297524903949 -0.09822526069951848 0 -0.27373590670382347 -0.095319171667472086 0 -0.27957595838395349 -0.11316471695844429 0 -0.28911794337029417 -0.094456443093391851 0 -0.25901297524903949 -0.09822526069951848 0 -0.27373590670382347 -0.095319171667472086 0 -0.27957595838395349 -0.11316471695844429 0 -0.26564635850269208 -0.089002421068691037 0 -0.25901297524903949 -0.09822526069951848 0 -0.27373590670382347 -0.095319171667472086 0 -0.26154251711887128 -0.12041762727127971 0 -0.25901297524903949 -0.09822526069951848 0 -0.27957595838395349 -0.11316471695844429 0 -0.26154251711887128 -0.12041762727127971 0 -0.27957595838395349 -0.11316471695844429 0 -0.27975854580024112 -0.13276778112819559 0 -0.27957595838395349 -0.11316471695844429 0 -0.30122205703222749 -0.1088163539998557 0 -0.30161085778989238 -0.12506041681693489 0 -0.27957595838395349 -0.11316471695844429 0 -0.27975854580024112 -0.13276778112819559 0 -0.30161085778989238 -0.12506041681693489 0 -0.27957595838395349 -0.11316471695844429 0 -0.28911794337029417 -0.094456443093391851 0 -0.30122205703222749 -0.1088163539998557 0 -0.28911794337029417 -0.094456443093391851 0 -0.30122205703222749 -0.1088163539998557 0 -0.31564990731543269 -0.086866234909481629 0 -0.30122205703222749 -0.1088163539998557 0 -0.31564990731543269 -0.086866234909481629 0 -0.31998521116966222 -0.10854474752067141 0 -0.30122205703222749 -0.1088163539998557 0 -0.31646766509827562 -0.1234392920682638 0 -0.30161085778989238 -0.12506041681693489 0 -0.30801956562010108 -0.055547277269801618 0 -0.29207964257026059 -0.069938357425674391 0 -0.31564990731543269 -0.086866234909481629 0 -0.27374533554110292 -0.081640777283714258 0 -0.28911794337029417 -0.094456443093391851 0 -0.29207964257026059 -0.069938357425674391 0 -0.28911794337029417 -0.094456443093391851 0 -0.29207964257026059 -0.069938357425674391 0 -0.31564990731543269 -0.086866234909481629 0 -0.29207964257026059 -0.069938357425674391 0 -0.31564990731543269 -0.086866234909481629 0 -0.3224666035142113 -0.063105495715333929 0 -0.31564990731543269 -0.086866234909481629 0 -0.32794987492720951 -0.081392243101033615 0 -0.30801956562010108 -0.055547277269801618 0 -0.3224666035142113 -0.063105495715333929 0 -0.31564990731543269 -0.086866234909481629 0 -0.31564990731543269 -0.086866234909481629 0 -0.32794987492720951 -0.081392243101033615 0 -0.33791527535172111 -0.090444567882483451 0 -0.31564990731543269 -0.086866234909481629 0 -0.33791527535172111 -0.090444567882483451 0 -0.33922017206060479 -0.1037941123932889 0 -0.32794987492720951 -0.081392243101033615 0 -0.33791527535172111 -0.090444567882483451 0 -0.34133837881109153 -0.079977409781877867 0 -0.33791527535172111 -0.090444567882483451 0 -0.34133837881109153 -0.079977409781877867 0 -0.34769986971088351 -0.093108061762922731 0 -0.3224666035142113 -0.063105495715333929 0 -0.32794987492720951 -0.081392243101033615 0 -0.34133837881109153 -0.079977409781877867 0 -0.3224666035142113 -0.063105495715333929 0 -0.34133837881109153 -0.079977409781877867 0 -0.3224666035142113 -0.063105495715333929 0 -0.34133837881109153 -0.079977409781877867 0 -0.34061241906260747 -0.062066906209837493 0 -0.30122205703222749 -0.1088163539998557 0 -0.31646766509827562 -0.1234392920682638 0 -0.31998521116966222 -0.10854474752067141 0 -0.31646766509827562 -0.1234392920682638 0 -0.31998521116966222 -0.10854474752067141 0 -0.33115294485301261 -0.1184356283404827 0 -0.31564990731543269 -0.086866234909481629 0 -0.33922017206060479 -0.1037941123932889 0 -0.31564990731543269 -0.086866234909481629 0 -0.31998521116966222 -0.10854474752067141 0 -0.33922017206060479 -0.1037941123932889 0 -0.33791527535172111 -0.090444567882483451 0 -0.33922017206060479 -0.1037941123932889 0 -0.35133567057274928 -0.1051609455389077 0 -0.31998521116966222 -0.10854474752067141 0 -0.33922017206060479 -0.1037941123932889 0 -0.33115294485301261 -0.1184356283404827 0 -0.33922017206060479 -0.1037941123932889 0 -0.33115294485301261 -0.1184356283404827 0 -0.34395096494824351 -0.11808314993514921 0 -0.33115294485301261 -0.1184356283404827 0 -0.34395096494824351 -0.11808314993514921 0 -0.34264030607357959 -0.12938086912973051 0 -0.33922017206060479 -0.1037941123932889 0 -0.35133567057274928 -0.1051609455389077 0 -0.36279043680577733 -0.12072198987709561 0 -0.33922017206060479 -0.1037941123932889 0 -0.34395096494824351 -0.11808314993514921 0 -0.36279043680577733 -0.12072198987709561 0 -0.34395096494824351 -0.11808314993514921 0 -0.36279043680577733 -0.12072198987709561 0 -0.34264030607357959 -0.12938086912973051 0 -0.33922017206060479 -0.1037941123932889 0 -0.36279043680577733 -0.12072198987709561 0 -0.35133567057274928 -0.1051609455389077 0 -0.36163661180814288 -0.10869756791031331 0 -0.36475606579377678 -0.11987732319533261 0 -0.35133567057274928 -0.1051609455389077 0 -0.36475606579377678 -0.11987732319533261 0 -0.35133567057274928 -0.1051609455389077 0 -0.36021015410797191 -0.096849323848421917 0 -0.36163661180814288 -0.10869756791031331 0 -0.33791527535172111 -0.090444567882483451 0 -0.35133567057274928 -0.1051609455389077 0 -0.34769986971088351 -0.093108061762922731 0 -0.33791527535172111 -0.090444567882483451 0 -0.35133567057274928 -0.1051609455389077 0 -0.35133567057274928 -0.1051609455389077 0 -0.36021015410797191 -0.096849323848421917 0 -0.34769986971088351 -0.093108061762922731 0 -0.36021015410797191 -0.096849323848421917 0 -0.37908192940485258 -0.11372123791496561 0 -0.36021015410797191 -0.096849323848421917 0 -0.36751358070136803 -0.1106767391719246 0 -0.37908192940485258 -0.11372123791496561 0 -0.36021015410797191 -0.096849323848421917 0 -0.37436088789708721 -0.1011039431900262 0 -0.37908192940485258 -0.11372123791496561 0 -0.36021015410797191 -0.096849323848421917 0 -0.37399052753485651 -0.095074413185577189 0 -0.37436088789708721 -0.1011039431900262 0 -0.36021015410797191 -0.096849323848421917 0 -0.36163661180814288 -0.10869756791031331 0 -0.36751358070136803 -0.1106767391719246 0 -0.35133567057274928 -0.1051609455389077 0 -0.36475606579377678 -0.11987732319533261 0 -0.36279043680577733 -0.12072198987709561 0 -0.36163661180814288 -0.10869756791031331 0 -0.36751358070136803 -0.1106767391719246 0 -0.36475606579377678 -0.11987732319533261 0 -0.36475606579377678 -0.11987732319533261 0 -0.37908192940485258 -0.11372123791496561 0 -0.36751358070136803 -0.1106767391719246 0 -0.36475606579377678 -0.11987732319533261 0 -0.37908192940485258 -0.11372123791496561 0 -0.37456545992351081 -0.12153932669336311 0 -0.36475606579377678 -0.11987732319533261 0 -0.37086364155792689 -0.1265431919395642 0 -0.37456545992351081 -0.12153932669336311 0 -0.36475606579377678 -0.11987732319533261 0 -0.37908192940485258 -0.11372123791496561 0 -0.36475606579377678 -0.11987732319533261 0 -0.37086364155792689 -0.1265431919395642 0 -0.36279043680577733 -0.12072198987709561 0 -0.37086364155792689 -0.1265431919395642 0 -0.36475606579377678 -0.11987732319533261 0 -0.36279043680577733 -0.12072198987709561 0 -0.37086364155792689 -0.1265431919395642 0 -0.36475606579377678 -0.11987732319533261 0 -0.36279043680577733 -0.12072198987709561 0 -0.34133837881109153 -0.079977409781877867 0 -0.35126068269024779 -0.071611008018486827 0 -0.34061241906260747 -0.062066906209837493 0 -0.35126068269024779 -0.071611008018486827 0 -0.35739137402349042 -0.060390099399817002 0 -0.34061241906260747 -0.062066906209837493 0 -0.35126068269024779 -0.071611008018486827 0 -0.35695125867425792 -0.081499143512915706 0 -0.36287294244484802 -0.072986765830338168 0 -0.35126068269024779 -0.071611008018486827 0 -0.36287294244484802 -0.072986765830338168 0 -0.35739137402349042 -0.060390099399817002 0 -0.34133837881109153 -0.079977409781877867 0 -0.35126068269024779 -0.071611008018486827 0 -0.35695125867425792 -0.081499143512915706 0 -0.34133837881109153 -0.079977409781877867 0 -0.36021015410797191 -0.096849323848421917 0 -0.34133837881109153 -0.079977409781877867 0 -0.36021015410797191 -0.096849323848421917 0 -0.35695125867425792 -0.081499143512915706 0 -0.34133837881109153 -0.079977409781877867 0 -0.36021015410797191 -0.096849323848421917 0 -0.34769986971088351 -0.093108061762922731 0 -0.35695125867425792 -0.081499143512915706 0 -0.36987620287596668 -0.084754769908034683 0 -0.36287294244484802 -0.072986765830338168 0 -0.36021015410797191 -0.096849323848421917 0 -0.35695125867425792 -0.081499143512915706 0 -0.36987620287596668 -0.084754769908034683 0 -0.36021015410797191 -0.096849323848421917 0 -0.37399052753485651 -0.095074413185577189 0 -0.36987620287596668 -0.084754769908034683 0 -0.37399052753485651 -0.095074413185577189 0 -0.36987620287596668 -0.084754769908034683 0 -0.37974365793776149 -0.090047199299109523 0 -0.36987620287596668 -0.084754769908034683 0 -0.36287294244484802 -0.072986765830338168 0 -0.37647484402476228 -0.072677937837527018 0 -0.36287294244484802 -0.072986765830338168 0 -0.36947373707469872 -0.063985249966456478 0 -0.35739137402349042 -0.060390099399817002 0 -0.36287294244484802 -0.072986765830338168 0 -0.36947373707469872 -0.063985249966456478 0 -0.37647484402476228 -0.072677937837527018 0 -0.36947373707469872 -0.063985249966456478 0 -0.37018361451259613 -0.0523005454956997 0 -0.38044591036779662 -0.061570901268900517 0 -0.37018361451259613 -0.0523005454956997 0 -0.36002646482183431 -0.050450752763553763 0 -0.36148310747996409 -0.038719275369187151 0 -0.37018361451259613 -0.0523005454956997 0 -0.36002646482183431 -0.050450752763553763 0 -0.35739137402349042 -0.060390099399817002 0 -0.36947373707469872 -0.063985249966456478 0 -0.37018361451259613 -0.0523005454956997 0 -0.35739137402349042 -0.060390099399817002 0 -0.35739137402349042 -0.060390099399817002 0 -0.35104776327128612 -0.050393090789512547 0 -0.34061241906260747 -0.062066906209837493 0 -0.36002646482183431 -0.050450752763553763 0 -0.35739137402349042 -0.060390099399817002 0 -0.35104776327128612 -0.050393090789512547 0 -0.35104776327128612 -0.050393090789512547 0 -0.34061241906260747 -0.062066906209837493 0 -0.35104776327128612 -0.050393090789512547 0 -0.34061241906260747 -0.062066906209837493 0 -0.34024514424024699 -0.051695739479787221 0 -0.35104776327128612 -0.050393090789512547 0 -0.35656307937074011 -0.037479142085498622 0 -0.34024514424024699 -0.051695739479787221 0 -0.35656307937074011 -0.037479142085498622 0 -0.33470627734577618 -0.031969956555574788 0 -0.35656307937074011 -0.037479142085498622 0 -0.3508912263580462 -0.02798995751468265 0 -0.33470627734577618 -0.031969956555574788 0 -0.36002646482183431 -0.050450752763553763 0 -0.35104776327128612 -0.050393090789512547 0 -0.36148310747996409 -0.038719275369187151 0 -0.35104776327128612 -0.050393090789512547 0 -0.35656307937074011 -0.037479142085498622 0 -0.36148310747996409 -0.038719275369187151 0 -0.35104776327128612 -0.050393090789512547 0 -0.36148310747996409 -0.038719275369187151 0 -0.35656307937074011 -0.037479142085498622 0 -0.36609613794937518 -0.033558768427457177 0 -0.3508912263580462 -0.02798995751468265 0 -0.35656307937074011 -0.037479142085498622 0 -0.36148310747996409 -0.038719275369187151 0 -0.37018361451259613 -0.0523005454956997 0 -0.36148310747996409 -0.038719275369187151 0 -0.37822729992581983 -0.042939785882461369 0 -0.35656307937074011 -0.037479142085498622 0 -0.36609613794937518 -0.033558768427457177 0 -0.35656307937074011 -0.037479142085498622 0 -0.36148310747996409 -0.038719275369187151 0 -0.36609613794937518 -0.033558768427457177 0 -0.36148310747996409 -0.038719275369187151 0 -0.37822729992581983 -0.042939785882461369 0 -0.36148310747996409 -0.038719275369187151 0 -0.36759445675048202 -0.034107528875047463 0 -0.37822729992581983 -0.042939785882461369 0 -0.36148310747996409 -0.038719275369187151 0 -0.36609613794937518 -0.033558768427457177 0 -0.36759445675048202 -0.034107528875047463 0 -0.36148310747996409 -0.038719275369187151 0 -0.36609613794937518 -0.033558768427457177 0 -0.36609613794937518 -0.033558768427457177 0 -0.36759445675048202 -0.034107528875047463 0 -0.36609613794937518 -0.033558768427457177 0 -0.36469900198698629 -0.017635878389213891 0 -0.37936430061871951 -0.018715934413416849 0 -0.36609613794937518 -0.033558768427457177 0 -0.36759445675048202 -0.034107528875047463 0 -0.37936430061871951 -0.018715934413416849 0 -0.36609613794937518 -0.033558768427457177 0 -0.36469900198698629 -0.017635878389213891 0 -0.35899371095008781 -0.024822302721243542 0 -0.36609613794937518 -0.033558768427457177 0 -0.37936430061871951 -0.018715934413416849 0 -0.36469900198698629 -0.017635878389213891 0 -0.35899371095008781 -0.024822302721243542 0 -0.35448509653769661 -0.018058793221438569 0 -0.36933859948822412 -0.0004439302888986224 0 -0.37936430061871951 -0.018715934413416849 0 -0.36469900198698629 -0.017635878389213891 0 -0.36933859948822412 -0.0004439302888986224 0 -0.3587836281522806 -0.0070627832799181082 0 -0.36469900198698629 -0.017635878389213891 0 -0.36933859948822412 -0.0004439302888986224 0 -0.37936430061871951 -0.018715934413416849 0 -0.36933859948822412 -0.0004439302888986224 0 -0.3587836281522806 -0.0070627832799181082 0 -0.35379291907987859 0.0036531515146394689 0 -0.3587836281522806 -0.0070627832799181082 0 -0.34834756147487889 -0.0080863677750986872 0 -0.35379291907987859 0.0036531515146394689 0 -0.3587836281522806 -0.0070627832799181082 0 -0.34834756147487889 -0.0080863677750986872 0 -0.35448509653769661 -0.018058793221438569 0 -0.36469900198698629 -0.017635878389213891 0 -0.3587836281522806 -0.0070627832799181082 0 -0.35448509653769661 -0.018058793221438569 0 -0.34834756147487889 -0.0080863677750986872 0 -0.35448509653769661 -0.018058793221438569 0 -0.3456673359801069 -0.017845517651237909 0 -0.34834756147487889 -0.0080863677750986872 0 -0.33824337868228571 0.0027742543799208551 0 -0.35379291907987859 0.0036531515146394689 0 -0.36609613794937518 -0.033558768427457177 0 -0.35899371095008781 -0.024822302721243542 0 -0.3508912263580462 -0.02798995751468265 0 -0.36609613794937518 -0.033558768427457177 0 -0.3508912263580462 -0.02798995751468265 0 -0.35899371095008781 -0.024822302721243542 0 -0.35448509653769661 -0.018058793221438569 0 -0.3508912263580462 -0.02798995751468265 0 -0.3456673359801069 -0.017845517651237909 0 -0.3508912263580462 -0.02798995751468265 0 -0.33568631476671729 -0.022421146601908071 0 -0.35448509653769661 -0.018058793221438569 0 -0.3456673359801069 -0.017845517651237909 0 -0.3508912263580462 -0.02798995751468265 0 -0.3508912263580462 -0.02798995751468265 0 -0.33568631476671729 -0.022421146601908071 0 -0.3508912263580462 -0.02798995751468265 0 -0.33568631476671729 -0.022421146601908071 0 -0.33470627734577618 -0.031969956555574788 0 -0.3456673359801069 -0.017845517651237909 0 -0.33568631476671729 -0.022421146601908071 0 -0.33712374340610868 -0.01192926651653531 0 -0.33568631476671729 -0.022421146601908071 0 -0.33712374340610868 -0.01192926651653531 0 -0.32488827289429512 -0.017190907767110169 0 -0.33568631476671729 -0.022421146601908071 0 -0.32488827289429512 -0.017190907767110169 0 -0.33470627734577618 -0.031969956555574788 0 -0.34834756147487889 -0.0080863677750986872 0 -0.33712374340610868 -0.01192926651653531 0 -0.33824337868228571 0.0027742543799208551 0 -0.34834756147487889 -0.0080863677750986872 0 -0.3456673359801069 -0.017845517651237909 0 -0.33712374340610868 -0.01192926651653531 0 -0.33712374340610868 -0.01192926651653531 0 -0.32876637323156849 -0.0054254128446808037 0 -0.32488827289429512 -0.017190907767110169 0 -0.33712374340610868 -0.01192926651653531 0 -0.32876637323156849 -0.0054254128446808037 0 -0.33824337868228571 0.0027742543799208551 0 -0.31068748404526708 -0.0022798886298844401 0 -0.32876637323156849 -0.0054254128446808037 0 -0.32287077353134719 0.0073081144652285199 0 -0.31068748404526708 -0.0022798886298844401 0 -0.32488827289429512 -0.017190907767110169 0 -0.31284947532081242 -0.026460771025650819 0 -0.31068748404526708 -0.0022798886298844401 0 -0.32876637323156849 -0.0054254128446808037 0 -0.32488827289429512 -0.017190907767110169 0 -0.31284947532081242 -0.026460771025650819 0 -0.33470627734577618 -0.031969956555574788 0 -0.32488827289429512 -0.017190907767110169 0 -0.31284947532081242 -0.026460771025650819 0 -0.33470627734577618 -0.031969956555574788 0 -0.31284947532081242 -0.026460771025650819 0 -0.32296389645118873 -0.038255587182241188 0 -0.33470627734577618 -0.031969956555574788 0 -0.31284947532081242 -0.026460771025650819 0 -0.32296389645118873 -0.038255587182241188 0 -0.31409735205513722 -0.040417700870102248 0 -0.31284947532081242 -0.026460771025650819 0 -0.31409735205513722 -0.040417700870102248 0 -0.32296389645118873 -0.038255587182241188 0 -0.31979006833068341 -0.051205282040358693 0 -0.33053585598238971 -0.045434062598752392 0 -0.32296389645118873 -0.038255587182241188 0 -0.31409735205513722 -0.040417700870102248 0 -0.31979006833068341 -0.051205282040358693 0 -0.3224666035142113 -0.063105495715333929 0 -0.31979006833068341 -0.051205282040358693 0 -0.33053585598238971 -0.045434062598752392 0 -0.30801956562010108 -0.055547277269801618 0 -0.31409735205513722 -0.040417700870102248 0 -0.31979006833068341 -0.051205282040358693 0 -0.30801956562010108 -0.055547277269801618 0 -0.3224666035142113 -0.063105495715333929 0 -0.31979006833068341 -0.051205282040358693 0 -0.3224666035142113 -0.063105495715333929 0 -0.34061241906260747 -0.062066906209837493 0 -0.34024514424024699 -0.051695739479787221 0 -0.3224666035142113 -0.063105495715333929 0 -0.34024514424024699 -0.051695739479787221 0 -0.33053585598238971 -0.045434062598752392 0 -0.35656307937074011 -0.037479142085498622 0 -0.34024514424024699 -0.051695739479787221 0 -0.33053585598238971 -0.045434062598752392 0 -0.35656307937074011 -0.037479142085498622 0 -0.33470627734577618 -0.031969956555574788 0 -0.33053585598238971 -0.045434062598752392 0 -0.35656307937074011 -0.037479142085498622 0 -0.33053585598238971 -0.045434062598752392 0 -0.32296389645118873 -0.038255587182241188 0 -0.33470627734577618 -0.031969956555574788 0 -0.33053585598238971 -0.045434062598752392 0 -0.30624559577879279 -0.2625936730919165 0 -0.29768485334658651 -0.24139941593041811 0 -0.30526326541306292 -0.23344356918956369 0 -0.30624559577879279 -0.2625936730919165 0 -0.30526326541306292 -0.23344356918956369 0 -0.30624559577879279 -0.2625936730919165 0 -0.30526326541306292 -0.23344356918956369 0 -0.31587538925458419 -0.24307026029734491 0 -0.29768485334658651 -0.24139941593041811 0 -0.30526326541306292 -0.23344356918956369 0 -0.30381806044319848 -0.23350971503727111 0 -0.29768485334658651 -0.24139941593041811 0 -0.30381806044319848 -0.23350971503727111 0 -0.29657988040778499 -0.23381952962755809 0 -0.30526326541306292 -0.23344356918956369 0 -0.30431311966966951 -0.2052485259449042 0 -0.30526326541306292 -0.23344356918956369 0 -0.29671804937770302 -0.22654223623457501 0 -0.30431311966966951 -0.2052485259449042 0 -0.30526326541306292 -0.23344356918956369 0 -0.30381806044319848 -0.23350971503727111 0 -0.29671804937770302 -0.22654223623457501 0 -0.30526326541306292 -0.23344356918956369 0 -0.30381806044319848 -0.23350971503727111 0 -0.30381806044319848 -0.23350971503727111 0 -0.29657988040778499 -0.23381952962755809 0 -0.29671804937770302 -0.22654223623457501 0 -0.29657988040778499 -0.23381952962755809 0 -0.29671804937770302 -0.22654223623457501 0 -0.28809855846365212 -0.23382675130796851 0 -0.29671804937770302 -0.22654223623457501 0 -0.28284590609911192 -0.21900740929763671 0 -0.28809855846365212 -0.23382675130796851 0 -0.28671425380328991 -0.25080534032568302 0 -0.29768485334658651 -0.24139941593041811 0 -0.28809855846365212 -0.23382675130796851 0 -0.28671425380328991 -0.25080534032568302 0 -0.28809855846365212 -0.23382675130796851 0 -0.27059194761262051 -0.23894761412310589 0 -0.29768485334658651 -0.24139941593041811 0 -0.29657988040778499 -0.23381952962755809 0 -0.28809855846365212 -0.23382675130796851 0 -0.27296169138972359 -0.25846177992963199 0 -0.28671425380328991 -0.25080534032568302 0 -0.27059194761262051 -0.23894761412310589 0 -0.25606843302098309 -0.25636966241633519 0 -0.24557627095320059 -0.23690452528774539 0 -0.27059194761262051 -0.23894761412310589 0 -0.24557627095320059 -0.23690452528774539 0 -0.27059194761262051 -0.23894761412310589 0 -0.25931235666459518 -0.21515005566809051 0 -0.28284590609911192 -0.21900740929763671 0 -0.27059194761262051 -0.23894761412310589 0 -0.25931235666459518 -0.21515005566809051 0 -0.28284590609911192 -0.21900740929763671 0 -0.28809855846365212 -0.23382675130796851 0 -0.27059194761262051 -0.23894761412310589 0 -0.28284590609911192 -0.21900740929763671 0 -0.25931235666459518 -0.21515005566809051 0 -0.28110525415034993 -0.19846514050950789 0 -0.24233895379904119 -0.19883865737118309 0 -0.26042655815913912 -0.195130972720123 0 -0.25213976956776912 -0.17972188853128571 0 -0.24233895379904119 -0.19883865737118309 0 -0.25931235666459518 -0.21515005566809051 0 -0.26042655815913912 -0.195130972720123 0 -0.26042655815913912 -0.195130972720123 0 -0.28110525415034993 -0.19846514050950789 0 -0.27637061038330801 -0.17920039672604851 0 -0.25931235666459518 -0.21515005566809051 0 -0.26042655815913912 -0.195130972720123 0 -0.28110525415034993 -0.19846514050950789 0 -0.28110525415034993 -0.19846514050950789 0 -0.30431311966966951 -0.2052485259449042 0 -0.30336297392627598 -0.17705348270024471 0 -0.28284590609911192 -0.21900740929763671 0 -0.28110525415034993 -0.19846514050950789 0 -0.30431311966966951 -0.2052485259449042 0 -0.29671804937770302 -0.22654223623457501 0 -0.28284590609911192 -0.21900740929763671 0 -0.30431311966966951 -0.2052485259449042 0 -0.30431311966966951 -0.2052485259449042 0 -0.31472720824821648 -0.19441619817220221 0 -0.31507765915775671 -0.21589833531192229 0 -0.30526326541306292 -0.23344356918956369 0 -0.30431311966966951 -0.2052485259449042 0 -0.31507765915775671 -0.21589833531192229 0 -0.30431311966966951 -0.2052485259449042 0 -0.30336297392627598 -0.17705348270024471 0 -0.31472720824821648 -0.19441619817220221 0 -0.30431311966966951 -0.2052485259449042 0 -0.30336297392627598 -0.17705348270024471 0 -0.30336297392627598 -0.17705348270024471 0 -0.3024128281828844 -0.14885843945558511 0 -0.32104352310124051 -0.1638604622019546 0 -0.30336297392627598 -0.17705348270024471 0 -0.29028598154063939 -0.16648703249968619 0 -0.3024128281828844 -0.14885843945558511 0 -0.30336297392627598 -0.17705348270024471 0 -0.3024128281828844 -0.14885843945558511 0 -0.29028598154063939 -0.16648703249968619 0 -0.28075835638157348 -0.1559178865862923 0 -0.3024128281828844 -0.14885843945558511 0 -0.29028598154063939 -0.16648703249968619 0 -0.27637061038330801 -0.17920039672604851 0 -0.28075835638157348 -0.1559178865862923 0 -0.30336297392627598 -0.17705348270024471 0 -0.29028598154063939 -0.16648703249968619 0 -0.27637061038330801 -0.17920039672604851 0 -0.28110525415034993 -0.19846514050950789 0 -0.30336297392627598 -0.17705348270024471 0 -0.27637061038330801 -0.17920039672604851 0 -0.26042655815913912 -0.195130972720123 0 -0.27637061038330801 -0.17920039672604851 0 -0.25213976956776912 -0.17972188853128571 0 -0.27637061038330801 -0.17920039672604851 0 -0.25213976956776912 -0.17972188853128571 0 -0.25910388458026251 -0.16297733371699899 0 -0.23994258350256101 -0.167177314831739 0 -0.25213976956776912 -0.17972188853128571 0 -0.25910388458026251 -0.16297733371699899 0 -0.25910388458026251 -0.16297733371699899 0 -0.28075835638157348 -0.1559178865862923 0 -0.27637061038330801 -0.17920039672604851 0 -0.25910388458026251 -0.16297733371699899 0 -0.28075835638157348 -0.1559178865862923 0 -0.25910388458026251 -0.16297733371699899 0 -0.28075835638157348 -0.1559178865862923 0 -0.27206894264909331 -0.14653646438362569 0 -0.28075835638157348 -0.1559178865862923 0 -0.27206894264909331 -0.14653646438362569 0 -0.28442919201894412 -0.14445497649103081 0 -0.27206894264909331 -0.14653646438362569 0 -0.27975854580024112 -0.13276778112819559 0 -0.28442919201894412 -0.14445497649103081 0 -0.24483425335123449 -0.1489253450313042 0 -0.25910388458026251 -0.16297733371699899 0 -0.25963822127523101 -0.1399952091770548 0 -0.25910388458026251 -0.16297733371699899 0 -0.27206894264909331 -0.14653646438362569 0 -0.25963822127523101 -0.1399952091770548 0 -0.24191771928431799 -0.12823304492456691 0 -0.26154251711887128 -0.12041762727127971 0 -0.25963822127523101 -0.1399952091770548 0 -0.26154251711887128 -0.12041762727127971 0 -0.25963822127523101 -0.1399952091770548 0 -0.27975854580024112 -0.13276778112819559 0 -0.27206894264909331 -0.14653646438362569 0 -0.25963822127523101 -0.1399952091770548 0 -0.27975854580024112 -0.13276778112819559 0 -0.27975854580024112 -0.13276778112819559 0 -0.29335670431666672 -0.13794145208427519 0 -0.30161085778989238 -0.12506041681693489 0 -0.27975854580024112 -0.13276778112819559 0 -0.29335670431666672 -0.13794145208427519 0 -0.28442919201894412 -0.14445497649103081 0 -0.28075835638157348 -0.1559178865862923 0 -0.2957620507808506 -0.14952531174147959 0 -0.3024128281828844 -0.14885843945558511 0 -0.28075835638157348 -0.1559178865862923 0 -0.3024128281828844 -0.14885843945558511 0 -0.28075835638157348 -0.1559178865862923 0 -0.28442919201894412 -0.14445497649103081 0 -0.2957620507808506 -0.14952531174147959 0 -0.29335670431666672 -0.13794145208427519 0 -0.28442919201894412 -0.14445497649103081 0 -0.2957620507808506 -0.14952531174147959 0 -0.30234004460918612 -0.1466986276350041 0 -0.3024128281828844 -0.14885843945558511 0 -0.32522976597456521 -0.1414200236169115 0 -0.30234004460918612 -0.1466986276350041 0 -0.32249017534138252 -0.13803974838236649 0 -0.29335670431666672 -0.13794145208427519 0 -0.2957620507808506 -0.14952531174147959 0 -0.30234004460918612 -0.1466986276350041 0 -0.2957620507808506 -0.14952531174147959 0 -0.30234004460918612 -0.1466986276350041 0 -0.3024128281828844 -0.14885843945558511 0 -0.2957620507808506 -0.14952531174147959 0 -0.30234004460918612 -0.1466986276350041 0 -0.30234004460918612 -0.1466986276350041 0 -0.3024128281828844 -0.14885843945558511 0 -0.30234004460918612 -0.1466986276350041 0 -0.31013452482286852 -0.1344438162615906 0 -0.32249017534138252 -0.13803974838236649 0 -0.30234004460918612 -0.1466986276350041 0 -0.30161085778989238 -0.12506041681693489 0 -0.29335670431666672 -0.13794145208427519 0 -0.30234004460918612 -0.1466986276350041 0 -0.30161085778989238 -0.12506041681693489 0 -0.30234004460918612 -0.1466986276350041 0 -0.31013452482286852 -0.1344438162615906 0 -0.30161085778989238 -0.12506041681693489 0 -0.31646766509827562 -0.1234392920682638 0 -0.31013452482286852 -0.1344438162615906 0 -0.30161085778989238 -0.12506041681693489 0 -0.31646766509827562 -0.1234392920682638 0 -0.33115294485301261 -0.1184356283404827 0 -0.32249017534138252 -0.13803974838236649 0 -0.31646766509827562 -0.1234392920682638 0 -0.31013452482286852 -0.1344438162615906 0 -0.32249017534138252 -0.13803974838236649 0 -0.3024128281828844 -0.14885843945558511 0 -0.32522976597456521 -0.1414200236169115 0 -0.3024128281828844 -0.14885843945558511 0 -0.32522976597456521 -0.1414200236169115 0 -0.32104352310124051 -0.1638604622019546 0 -0.30234004460918612 -0.1466986276350041 0 -0.32249017534138252 -0.13803974838236649 0 -0.32522976597456521 -0.1414200236169115 0 -0.32522976597456521 -0.1414200236169115 0 -0.35061601333595432 -0.14781811543171361 0 -0.33822294767172473 -0.1569931376524217 0 -0.32522976597456521 -0.1414200236169115 0 -0.33822294767172473 -0.1569931376524217 0 -0.32104352310124051 -0.1638604622019546 0 -0.32522976597456521 -0.1414200236169115 0 -0.34804670376624591 -0.13398160777823731 0 -0.35061601333595432 -0.14781811543171361 0 -0.32249017534138252 -0.13803974838236649 0 -0.34264030607357959 -0.12938086912973051 0 -0.32522976597456521 -0.1414200236169115 0 -0.34264030607357959 -0.12938086912973051 0 -0.34804670376624591 -0.13398160777823731 0 -0.33115294485301261 -0.1184356283404827 0 -0.32249017534138252 -0.13803974838236649 0 -0.34264030607357959 -0.12938086912973051 0 -0.32249017534138252 -0.13803974838236649 0 -0.32522976597456521 -0.1414200236169115 0 -0.34264030607357959 -0.12938086912973051 0 -0.32522976597456521 -0.1414200236169115 0 -0.34804670376624591 -0.13398160777823731 0 -0.36279043680577733 -0.12072198987709561 0 -0.34264030607357959 -0.12938086912973051 0 -0.36279043680577733 -0.12072198987709561 0 -0.34264030607357959 -0.12938086912973051 0 -0.34804670376624591 -0.13398160777823731 0 -0.34804670376624591 -0.13398160777823731 0 -0.36316708944414761 -0.13804621465368969 0 -0.35061601333595432 -0.14781811543171361 0 -0.34804670376624591 -0.13398160777823731 0 -0.36316708944414761 -0.13804621465368969 0 -0.37086364155792689 -0.1265431919395642 0 -0.34804670376624591 -0.13398160777823731 0 -0.37086364155792689 -0.1265431919395642 0 -0.36279043680577733 -0.12072198987709561 0 -0.34804670376624591 -0.13398160777823731 0 -0.37086364155792689 -0.1265431919395642 0 -0.36316708944414761 -0.13804621465368969 0 -0.36818747372735511 -0.14735459984177601 0 -0.37812161483325563 -0.13453355827715829 0 -0.36316708944414761 -0.13804621465368969 0 -0.37086364155792689 -0.1265431919395642 0 -0.37812161483325563 -0.13453355827715829 0 -0.37086364155792689 -0.1265431919395642 0 -0.37812161483325563 -0.13453355827715829 0 -0.36316708944414761 -0.13804621465368969 0 -0.36818747372735511 -0.14735459984177601 0 -0.35061601333595432 -0.14781811543171361 0 -0.37028632845225251 -0.1496561370371301 0 -0.3690111511086428 -0.15365147065227111 0 -0.38034638008608129 -0.1504485127156148 0 -0.37028632845225251 -0.1496561370371301 0 -0.36818747372735511 -0.14735459984177601 0 -0.38231932428305082 -0.13913663266786711 0 -0.36818747372735511 -0.14735459984177601 0 -0.37812161483325563 -0.13453355827715829 0 -0.37028632845225251 -0.1496561370371301 0 -0.35825333262145431 -0.1601756414063934 0 -0.37028632845225251 -0.1496561370371301 0 -0.3690111511086428 -0.15365147065227111 0 -0.35825333262145431 -0.1601756414063934 0 -0.37028632845225251 -0.1496561370371301 0 -0.36818747372735511 -0.14735459984177601 0 -0.35825333262145431 -0.1601756414063934 0 -0.36818747372735511 -0.14735459984177601 0 -0.35825333262145431 -0.1601756414063934 0 -0.35061601333595432 -0.14781811543171361 0 -0.3476137553859136 -0.1572787451787506 0 -0.35825333262145431 -0.1601756414063934 0 -0.36818747372735511 -0.14735459984177601 0 -0.35061601333595432 -0.14781811543171361 0 -0.35825333262145431 -0.1601756414063934 0 -0.35061601333595432 -0.14781811543171361 0 -0.3476137553859136 -0.1572787451787506 0 -0.33822294767172473 -0.1569931376524217 0 -0.35825333262145431 -0.1601756414063934 0 -0.3602623718222232 -0.1697290827347824 0 -0.34386144146688857 -0.1787498727082365 0 -0.3476137553859136 -0.1572787451787506 0 -0.35825333262145431 -0.1601756414063934 0 -0.34336272791452083 -0.16412808622447339 0 -0.35825333262145431 -0.1601756414063934 0 -0.33870050144152858 -0.17726914795463261 0 -0.34336272791452083 -0.16412808622447339 0 -0.35825333262145431 -0.1601756414063934 0 -0.33870050144152858 -0.17726914795463261 0 -0.35825333262145431 -0.1601756414063934 0 -0.34386144146688857 -0.1787498727082365 0 -0.3690111511086428 -0.15365147065227111 0 -0.35825333262145431 -0.1601756414063934 0 -0.36565001044296819 -0.16181661477064349 0 -0.35825333262145431 -0.1601756414063934 0 -0.36565001044296819 -0.16181661477064349 0 -0.3602623718222232 -0.1697290827347824 0 -0.3602623718222232 -0.1697290827347824 0 -0.36951353869147829 -0.16661132852984889 0 -0.35692362799304528 -0.17890280986002 0 -0.36565001044296819 -0.16181661477064349 0 -0.3602623718222232 -0.1697290827347824 0 -0.36951353869147829 -0.16661132852984889 0 -0.3690111511086428 -0.15365147065227111 0 -0.36565001044296819 -0.16181661477064349 0 -0.37046745866572162 -0.1601292671416574 0 -0.36951353869147829 -0.16661132852984889 0 -0.37046745866572162 -0.1601292671416574 0 -0.37650761553128481 -0.1603796011926433 0 -0.3690111511086428 -0.15365147065227111 0 -0.37046745866572162 -0.1601292671416574 0 -0.37650761553128481 -0.1603796011926433 0 -0.36565001044296819 -0.16181661477064349 0 -0.36951353869147829 -0.16661132852984889 0 -0.37046745866572162 -0.1601292671416574 0 -0.36951353869147829 -0.16661132852984889 0 -0.35692362799304528 -0.17890280986002 0 -0.38135966416584027 -0.17189144412859131 0 -0.35692362799304528 -0.17890280986002 0 -0.36281807040910941 -0.18936662009603261 0 -0.38135966416584027 -0.17189144412859131 0 -0.36281807040910941 -0.18936662009603261 0 -0.37571965098959831 -0.1921848407989061 0 -0.38135966416584027 -0.17189144412859131 0 -0.35692362799304528 -0.17890280986002 0 -0.38135966416584027 -0.17189144412859131 0 -0.35692362799304528 -0.17890280986002 0 -0.34832195587157733 -0.1892795917774831 0 -0.36281807040910941 -0.18936662009603261 0 -0.3602623718222232 -0.1697290827347824 0 -0.35692362799304528 -0.17890280986002 0 -0.34386144146688857 -0.1787498727082365 0 -0.35825333262145431 -0.1601756414063934 0 -0.34386144146688857 -0.1787498727082365 0 -0.33870050144152858 -0.17726914795463261 0 -0.35692362799304528 -0.17890280986002 0 -0.34386144146688857 -0.1787498727082365 0 -0.34832195587157733 -0.1892795917774831 0 -0.33870050144152858 -0.17726914795463261 0 -0.32333969254272071 -0.17953157192565439 0 -0.32946955031232261 -0.19732410401007941 0 -0.34386144146688857 -0.1787498727082365 0 -0.33870050144152858 -0.17726914795463261 0 -0.32946955031232261 -0.19732410401007941 0 -0.33870050144152858 -0.17726914795463261 0 -0.33295944249599402 -0.16811413814610879 0 -0.32333969254272071 -0.17953157192565439 0 -0.33822294767172473 -0.1569931376524217 0 -0.33295944249599402 -0.16811413814610879 0 -0.32104352310124051 -0.1638604622019546 0 -0.33870050144152858 -0.17726914795463261 0 -0.34336272791452083 -0.16412808622447339 0 -0.33295944249599402 -0.16811413814610879 0 -0.34336272791452083 -0.16412808622447339 0 -0.33822294767172473 -0.1569931376524217 0 -0.33295944249599402 -0.16811413814610879 0 -0.3476137553859136 -0.1572787451787506 0 -0.34336272791452083 -0.16412808622447339 0 -0.33822294767172473 -0.1569931376524217 0 -0.33295944249599402 -0.16811413814610879 0 -0.32104352310124051 -0.1638604622019546 0 -0.32333969254272071 -0.17953157192565439 0 -0.30336297392627598 -0.17705348270024471 0 -0.32333969254272071 -0.17953157192565439 0 -0.31472720824821648 -0.19441619817220221 0 -0.30336297392627598 -0.17705348270024471 0 -0.32104352310124051 -0.1638604622019546 0 -0.32333969254272071 -0.17953157192565439 0 -0.31472720824821648 -0.19441619817220221 0 -0.31507765915775671 -0.21589833531192229 0 -0.32946955031232261 -0.19732410401007941 0 -0.32333969254272071 -0.17953157192565439 0 -0.31472720824821648 -0.19441619817220221 0 -0.32946955031232261 -0.19732410401007941 0 -0.31507765915775671 -0.21589833531192229 0 -0.32946955031232261 -0.19732410401007941 0 -0.31507765915775671 -0.21589833531192229 0 -0.33675717973519131 -0.2158317131984189 0 -0.32946955031232261 -0.19732410401007941 0 -0.33675717973519131 -0.2158317131984189 0 -0.32946955031232261 -0.19732410401007941 0 -0.34924581982300218 -0.2016788304129559 0 -0.34386144146688857 -0.1787498727082365 0 -0.32946955031232261 -0.19732410401007941 0 -0.34832195587157733 -0.1892795917774831 0 -0.34386144146688857 -0.1787498727082365 0 -0.32946955031232261 -0.19732410401007941 0 -0.32946955031232261 -0.19732410401007941 0 -0.34832195587157733 -0.1892795917774831 0 -0.34924581982300218 -0.2016788304129559 0 -0.34924581982300218 -0.2016788304129559 0 -0.36281807040910941 -0.18936662009603261 0 -0.36533770361159351 -0.20226220359823899 0 -0.34832195587157733 -0.1892795917774831 0 -0.34924581982300218 -0.2016788304129559 0 -0.36281807040910941 -0.18936662009603261 0 -0.36533770361159351 -0.20226220359823899 0 -0.38218261793032121 -0.21180943410634581 0 -0.37571965098959831 -0.1921848407989061 0 -0.36281807040910941 -0.18936662009603261 0 -0.36533770361159351 -0.20226220359823899 0 -0.37571965098959831 -0.1921848407989061 0 -0.36533770361159351 -0.20226220359823899 0 -0.35743108955241798 -0.21589557077686339 0 -0.38218261793032121 -0.21180943410634581 0 -0.33675717973519131 -0.2158317131984189 0 -0.34924581982300218 -0.2016788304129559 0 -0.35743108955241798 -0.21589557077686339 0 -0.34924581982300218 -0.2016788304129559 0 -0.36533770361159351 -0.20226220359823899 0 -0.35743108955241798 -0.21589557077686339 0 -0.35743108955241798 -0.21589557077686339 0 -0.34586428596638641 -0.23158529373494069 0 -0.36616479624304832 -0.23065615600763231 0 -0.33675717973519131 -0.2158317131984189 0 -0.35743108955241798 -0.21589557077686339 0 -0.34586428596638641 -0.23158529373494069 0 -0.34586428596638641 -0.23158529373494069 0 -0.36616479624304832 -0.23065615600763231 0 -0.36616479624304832 -0.23065615600763231 0 -0.38218261793032121 -0.21180943410634581 0 -0.35743108955241798 -0.21589557077686339 0 -0.36616479624304832 -0.23065615600763231 0 -0.38218261793032121 -0.21180943410634581 0 -0.3652942889692089 -0.25042186949623613 0 -0.36616479624304832 -0.23065615600763231 0 -0.35131987670973169 -0.2481228300382099 0 -0.38049762921659952 -0.25021735770044617 0 -0.3652942889692089 -0.25042186949623613 0 -0.36616479624304832 -0.23065615600763231 0 -0.34586428596638641 -0.23158529373494069 0 -0.35131987670973169 -0.2481228300382099 0 -0.33790901767947568 -0.24289357912332429 0 -0.36616479624304832 -0.23065615600763231 0 -0.35131987670973169 -0.2481228300382099 0 -0.34586428596638641 -0.23158529373494069 0 -0.36616479624304832 -0.23065615600763231 0 -0.35131987670973169 -0.2481228300382099 0 -0.34586428596638641 -0.23158529373494069 0 -0.33790901767947568 -0.24289357912332429 0 -0.32556377568972461 -0.2325144314622509 0 -0.3364244991495437 -0.25282795232326549 0 -0.35131987670973169 -0.2481228300382099 0 -0.33790901767947568 -0.24289357912332429 0 -0.3364244991495437 -0.25282795232326549 0 -0.33790901767947568 -0.24289357912332429 0 -0.32772674009125052 -0.24786565639204999 0 -0.33790901767947568 -0.24289357912332429 0 -0.32556377568972461 -0.2325144314622509 0 -0.32772674009125052 -0.24786565639204999 0 -0.33675717973519131 -0.2158317131984189 0 -0.34586428596638641 -0.23158529373494069 0 -0.32556377568972461 -0.2325144314622509 0 -0.34586428596638641 -0.23158529373494069 0 -0.32556377568972461 -0.2325144314622509 0 -0.30526326541306292 -0.23344356918956369 0 -0.31507765915775671 -0.21589833531192229 0 -0.32556377568972461 -0.2325144314622509 0 -0.30526326541306292 -0.23344356918956369 0 -0.32556377568972461 -0.2325144314622509 0 -0.31507765915775671 -0.21589833531192229 0 -0.33675717973519131 -0.2158317131984189 0 -0.32556377568972461 -0.2325144314622509 0 -0.30526326541306292 -0.23344356918956369 0 -0.32556377568972461 -0.2325144314622509 0 -0.31587538925458419 -0.24307026029734491 0 -0.31994358486826752 -0.25582512977358962 0 -0.31587538925458419 -0.24307026029734491 0 -0.32772674009125052 -0.24786565639204999 0 -0.32556377568972461 -0.2325144314622509 0 -0.31587538925458419 -0.24307026029734491 0 -0.32772674009125052 -0.24786565639204999 0 -0.42700439334320162 -0.25393468831072469 0 -0.43408840815871008 -0.22754734792616829 0 -0.42093017452507808 -0.23965735624997089 0 -0.43751304390905338 -0.25171100218643983 0 -0.42700439334320162 -0.25393468831072469 0 -0.43408840815871008 -0.22754734792616829 0 -0.42700439334320162 -0.25393468831072469 0 -0.43408840815871008 -0.22754734792616829 0 -0.43408840815871008 -0.22754734792616829 0 -0.41144720418682262 -0.2285836172866518 0 -0.43408840815871008 -0.22754734792616829 0 -0.41144720418682262 -0.2285836172866518 0 -0.42093017452507808 -0.23965735624997089 0 -0.43408840815871008 -0.22754734792616829 0 -0.41144720418682262 -0.2285836172866518 0 -0.41960846420435149 -0.20880193326852001 0 -0.41144720418682262 -0.2285836172866518 0 -0.41118069241157817 -0.2485637714763447 0 -0.39616193795957338 -0.24440313672781319 0 -0.41144720418682262 -0.2285836172866518 0 -0.42093017452507808 -0.23965735624997089 0 -0.41118069241157817 -0.2485637714763447 0 -0.42700439334320162 -0.25393468831072469 0 -0.42093017452507808 -0.23965735624997089 0 -0.41118069241157817 -0.2485637714763447 0 -0.38049762921659952 -0.25021735770044617 0 -0.36616479624304832 -0.23065615600763231 0 -0.38880600021493539 -0.2296198866471412 0 -0.38049762921659952 -0.25021735770044617 0 -0.39616193795957338 -0.24440313672781319 0 -0.38880600021493539 -0.2296198866471412 0 -0.36616479624304832 -0.23065615600763231 0 -0.38880600021493539 -0.2296198866471412 0 -0.38218261793032121 -0.21180943410634581 0 -0.36616479624304832 -0.23065615600763231 0 -0.38880600021493539 -0.2296198866471412 0 -0.41144720418682262 -0.2285836172866518 0 -0.38880600021493539 -0.2296198866471412 0 -0.41144720418682262 -0.2285836172866518 0 -0.39616193795957338 -0.24440313672781319 0 -0.38880600021493539 -0.2296198866471412 0 -0.41144720418682262 -0.2285836172866518 0 -0.38880600021493539 -0.2296198866471412 0 -0.40061820107719548 -0.2134597752659384 0 -0.40061820107719548 -0.2134597752659384 0 -0.39820043961759222 -0.1929627122050577 0 -0.41960846420435149 -0.20880193326852001 0 -0.40061820107719548 -0.2134597752659384 0 -0.38218261793032121 -0.21180943410634581 0 -0.39820043961759222 -0.1929627122050577 0 -0.38880600021493539 -0.2296198866471412 0 -0.40061820107719548 -0.2134597752659384 0 -0.38218261793032121 -0.21180943410634581 0 -0.37571965098959831 -0.1921848407989061 0 -0.39820043961759222 -0.1929627122050577 0 -0.38758481984173881 -0.18368885608706961 0 -0.38218261793032121 -0.21180943410634581 0 -0.39820043961759222 -0.1929627122050577 0 -0.38218261793032121 -0.21180943410634581 0 -0.37571965098959831 -0.1921848407989061 0 -0.39820043961759222 -0.1929627122050577 0 -0.39820043961759222 -0.1929627122050577 0 -0.41960846420435149 -0.20880193326852001 0 -0.42743473163706069 -0.18860875042672051 0 -0.41144720418682262 -0.2285836172866518 0 -0.40061820107719548 -0.2134597752659384 0 -0.41960846420435149 -0.20880193326852001 0 -0.43408840815871008 -0.22754734792616829 0 -0.41960846420435149 -0.20880193326852001 0 -0.44065120196926161 -0.2031015105496714 0 -0.43408840815871008 -0.22754734792616829 0 -0.44065120196926161 -0.2031015105496714 0 -0.42743473163706069 -0.18860875042672051 0 -0.43336024338209372 -0.17839712387414869 0 -0.44065120196926161 -0.2031015105496714 0 -0.42743473163706069 -0.18860875042672051 0 -0.44065120196926161 -0.2031015105496714 0 -0.41960846420435149 -0.20880193326852001 0 -0.42743473163706069 -0.18860875042672051 0 -0.44065120196926161 -0.2031015105496714 0 -0.42637562209842711 -0.1762261023025401 0 -0.4371201132985455 -0.17239518874738191 0 -0.41974476086957407 -0.1676134581606821 0 -0.42743473163706069 -0.18860875042672051 0 -0.42637562209842711 -0.1762261023025401 0 -0.41421826130486139 -0.1741159903037682 0 -0.42743473163706069 -0.18860875042672051 0 -0.42637562209842711 -0.1762261023025401 0 -0.43336024338209372 -0.17839712387414869 0 -0.42637562209842711 -0.1762261023025401 0 -0.43336024338209372 -0.17839712387414869 0 -0.4371201132985455 -0.17239518874738191 0 -0.43336024338209372 -0.17839712387414869 0 -0.4371201132985455 -0.17239518874738191 0 -0.4371201132985455 -0.17239518874738191 0 -0.42731571773431493 -0.15870539804226019 0 -0.41974476086957407 -0.1676134581606821 0 -0.4371201132985455 -0.17239518874738191 0 -0.41974476086957407 -0.1676134581606821 0 -0.42731571773431493 -0.15870539804226019 0 -0.41974476086957407 -0.1676134581606821 0 -0.42731571773431493 -0.15870539804226019 0 -0.41974476086957407 -0.1676134581606821 0 -0.40776220308106309 -0.16431583508693531 0 -0.42731571773431493 -0.15870539804226019 0 -0.40776220308106309 -0.16431583508693531 0 -0.41899126830346761 -0.1504527797196214 0 -0.42731571773431493 -0.15870539804226019 0 -0.40776220308106309 -0.16431583508693531 0 -0.41974476086957407 -0.1676134581606821 0 -0.41421826130486139 -0.1741159903037682 0 -0.40776220308106309 -0.16431583508693531 0 -0.40444985889061419 -0.16340427156073589 0 -0.40856248037929488 -0.15238598682744689 0 -0.41974476086957407 -0.1676134581606821 0 -0.40776220308106309 -0.16431583508693531 0 -0.41421826130486139 -0.1741159903037682 0 -0.41974476086957407 -0.1676134581606821 0 -0.40776220308106309 -0.16431583508693531 0 -0.40776220308106309 -0.16431583508693531 0 -0.41421826130486139 -0.1741159903037682 0 -0.40579570033863538 -0.1648800783971627 0 -0.41421826130486139 -0.1741159903037682 0 -0.40579570033863538 -0.1648800783971627 0 -0.40776220308106309 -0.16431583508693531 0 -0.40579570033863538 -0.1648800783971627 0 -0.41421826130486139 -0.1741159903037682 0 -0.4033184814637531 -0.17741880203042809 0 -0.40579570033863538 -0.1648800783971627 0 -0.39820043961759222 -0.1929627122050577 0 -0.42743473163706069 -0.18860875042672051 0 -0.41421826130486139 -0.1741159903037682 0 -0.42637562209842711 -0.1762261023025401 0 -0.41974476086957407 -0.1676134581606821 0 -0.41421826130486139 -0.1741159903037682 0 -0.42743473163706069 -0.18860875042672051 0 -0.41421826130486139 -0.1741159903037682 0 -0.39820043961759222 -0.1929627122050577 0 -0.41421826130486139 -0.1741159903037682 0 -0.39820043961759222 -0.1929627122050577 0 -0.4033184814637531 -0.17741880203042809 0 -0.39505952459392418 -0.1777164272157232 0 -0.39820043961759222 -0.1929627122050577 0 -0.41421826130486139 -0.1741159903037682 0 -0.4033184814637531 -0.17741880203042809 0 -0.4033184814637531 -0.17741880203042809 0 -0.39505952459392418 -0.1777164272157232 0 -0.40579570033863538 -0.1648800783971627 0 -0.39820043961759222 -0.1929627122050577 0 -0.39505952459392418 -0.1777164272157232 0 -0.38758481984173881 -0.18368885608706961 0 -0.37571965098959831 -0.1921848407989061 0 -0.38758481984173881 -0.18368885608706961 0 -0.38135966416584027 -0.17189144412859131 0 -0.39505952459392418 -0.1777164272157232 0 -0.38758481984173881 -0.18368885608706961 0 -0.38135966416584027 -0.17189144412859131 0 -0.3690111511086428 -0.15365147065227111 0 -0.37650761553128481 -0.1603796011926433 0 -0.38673050499962852 -0.1585278711065034 0 -0.38135966416584027 -0.17189144412859131 0 -0.37650761553128481 -0.1603796011926433 0 -0.38673050499962852 -0.1585278711065034 0 -0.36951353869147829 -0.16661132852984889 0 -0.38135966416584027 -0.17189144412859131 0 -0.37650761553128481 -0.1603796011926433 0 -0.38673050499962852 -0.1585278711065034 0 -0.40444985889061419 -0.16340427156073589 0 -0.39338459158683181 -0.1512704521143021 0 -0.38135966416584027 -0.17189144412859131 0 -0.40579570033863538 -0.1648800783971627 0 -0.39505952459392418 -0.1777164272157232 0 -0.38135966416584027 -0.17189144412859131 0 -0.40579570033863538 -0.1648800783971627 0 -0.38135966416584027 -0.17189144412859131 0 -0.38673050499962852 -0.1585278711065034 0 -0.40444985889061419 -0.16340427156073589 0 -0.38135966416584027 -0.17189144412859131 0 -0.40579570033863538 -0.1648800783971627 0 -0.40444985889061419 -0.16340427156073589 0 -0.38673050499962852 -0.1585278711065034 0 -0.40444985889061419 -0.16340427156073589 0 -0.40579570033863538 -0.1648800783971627 0 -0.40444985889061419 -0.16340427156073589 0 -0.40776220308106309 -0.16431583508693531 0 -0.40579570033863538 -0.1648800783971627 0 -0.40444985889061419 -0.16340427156073589 0 -0.40444985889061419 -0.16340427156073589 0 -0.39338459158683181 -0.1512704521143021 0 -0.40776220308106309 -0.16431583508693531 0 -0.40444985889061419 -0.16340427156073589 0 -0.40444985889061419 -0.16340427156073589 0 -0.39338459158683181 -0.1512704521143021 0 -0.40856248037929488 -0.15238598682744689 0 -0.403811443379887 -0.14412693733252921 0 -0.39338459158683181 -0.1512704521143021 0 -0.40856248037929488 -0.15238598682744689 0 -0.39338459158683181 -0.1512704521143021 0 -0.38231932428305082 -0.13913663266786711 0 -0.39736006081100261 -0.13923549274155819 0 -0.403811443379887 -0.14412693733252921 0 -0.39338459158683181 -0.1512704521143021 0 -0.39736006081100261 -0.13923549274155819 0 -0.3690111511086428 -0.15365147065227111 0 -0.38673050499962852 -0.1585278711065034 0 -0.38034638008608129 -0.1504485127156148 0 -0.3690111511086428 -0.15365147065227111 0 -0.38673050499962852 -0.1585278711065034 0 -0.38673050499962852 -0.1585278711065034 0 -0.39338459158683181 -0.1512704521143021 0 -0.38034638008608129 -0.1504485127156148 0 -0.39338459158683181 -0.1512704521143021 0 -0.38231932428305082 -0.13913663266786711 0 -0.39338459158683181 -0.1512704521143021 0 -0.38034638008608129 -0.1504485127156148 0 -0.38231932428305082 -0.13913663266786711 0 -0.37028632845225251 -0.1496561370371301 0 -0.38231932428305082 -0.13913663266786711 0 -0.37028632845225251 -0.1496561370371301 0 -0.38034638008608129 -0.1504485127156148 0 -0.38231932428305082 -0.13913663266786711 0 -0.37086364155792689 -0.1265431919395642 0 -0.37951593695145991 -0.1327340406700106 0 -0.38739544009950189 -0.1211537574222683 0 -0.37086364155792689 -0.1265431919395642 0 -0.37951593695145991 -0.1327340406700106 0 -0.37812161483325563 -0.13453355827715829 0 -0.37086364155792689 -0.1265431919395642 0 -0.37951593695145991 -0.1327340406700106 0 -0.36818747372735511 -0.14735459984177601 0 -0.37812161483325563 -0.13453355827715829 0 -0.38231932428305082 -0.13913663266786711 0 -0.37951593695145991 -0.1327340406700106 0 -0.37812161483325563 -0.13453355827715829 0 -0.37812161483325563 -0.13453355827715829 0 -0.38231932428305082 -0.13913663266786711 0 -0.37812161483325563 -0.13453355827715829 0 -0.38231932428305082 -0.13913663266786711 0 -0.38260547737258283 -0.1349529110261794 0 -0.37951593695145991 -0.1327340406700106 0 -0.37812161483325563 -0.13453355827715829 0 -0.38260547737258283 -0.1349529110261794 0 -0.37951593695145991 -0.1327340406700106 0 -0.38260547737258283 -0.1349529110261794 0 -0.38231932428305082 -0.13913663266786711 0 -0.38260547737258283 -0.1349529110261794 0 -0.39086993047885182 -0.12689081738553831 0 -0.37951593695145991 -0.1327340406700106 0 -0.38260547737258283 -0.1349529110261794 0 -0.38885818713676112 -0.12067689585437411 0 -0.37951593695145991 -0.1327340406700106 0 -0.38885818713676112 -0.12067689585437411 0 -0.38260547737258283 -0.1349529110261794 0 -0.39086993047885182 -0.12689081738553831 0 -0.38885818713676112 -0.12067689585437411 0 -0.38231932428305082 -0.13913663266786711 0 -0.39736006081100261 -0.13923549274155819 0 -0.39957252425331041 -0.1316566402584616 0 -0.38231932428305082 -0.13913663266786711 0 -0.39957252425331041 -0.1316566402584616 0 -0.40155420383366469 -0.1223210862885489 0 -0.38231932428305082 -0.13913663266786711 0 -0.39086993047885182 -0.12689081738553831 0 -0.40155420383366469 -0.1223210862885489 0 -0.38231932428305082 -0.13913663266786711 0 -0.40155420383366469 -0.1223210862885489 0 -0.39736006081100261 -0.13923549274155819 0 -0.39957252425331041 -0.1316566402584616 0 -0.40729374523523398 -0.13339493871188929 0 -0.403811443379887 -0.14412693733252921 0 -0.39736006081100261 -0.13923549274155819 0 -0.40729374523523398 -0.13339493871188929 0 -0.39957252425331041 -0.1316566402584616 0 -0.40155420383366469 -0.1223210862885489 0 -0.40933528710360068 -0.1241950508824432 0 -0.39957252425331041 -0.1316566402584616 0 -0.40729374523523398 -0.13339493871188929 0 -0.40933528710360068 -0.1241950508824432 0 -0.41858497058187871 -0.1265104183566792 0 -0.40729374523523398 -0.13339493871188929 0 -0.40933528710360068 -0.1241950508824432 0 -0.41858497058187871 -0.1265104183566792 0 -0.41473337947229189 -0.14011310018649251 0 -0.42641355146893489 -0.13952204595193141 0 -0.41858497058187871 -0.1265104183566792 0 -0.41473337947229189 -0.14011310018649251 0 -0.40729374523523398 -0.13339493871188929 0 -0.403811443379887 -0.14412693733252921 0 -0.41473337947229189 -0.14011310018649251 0 -0.40729374523523398 -0.13339493871188929 0 -0.403811443379887 -0.14412693733252921 0 -0.41473337947229189 -0.14011310018649251 0 -0.40856248037929488 -0.15238598682744689 0 -0.40776220308106309 -0.16431583508693531 0 -0.40856248037929488 -0.15238598682744689 0 -0.41899126830346761 -0.1504527797196214 0 -0.41473337947229189 -0.14011310018649251 0 -0.40856248037929488 -0.15238598682744689 0 -0.41899126830346761 -0.1504527797196214 0 -0.41473337947229189 -0.14011310018649251 0 -0.41899126830346761 -0.1504527797196214 0 -0.42641355146893489 -0.13952204595193141 0 -0.42731571773431493 -0.15870539804226019 0 -0.44534265680647211 -0.13749472944714031 0 -0.42731571773431493 -0.15870539804226019 0 -0.41899126830346761 -0.1504527797196214 0 -0.42641355146893489 -0.13952204595193141 0 -0.42731571773431493 -0.15870539804226019 0 -0.42641355146893489 -0.13952204595193141 0 -0.44534265680647211 -0.13749472944714031 0 -0.43127301825398939 -0.12551177574996891 0 -0.42641355146893489 -0.13952204595193141 0 -0.44534265680647211 -0.13749472944714031 0 -0.41858497058187871 -0.1265104183566792 0 -0.43127301825398939 -0.12551177574996891 0 -0.42641355146893489 -0.13952204595193141 0 -0.43127301825398939 -0.12551177574996891 0 -0.44534265680647211 -0.13749472944714031 0 -0.44198817408939339 -0.11308865940685089 0 -0.42731571773431493 -0.15870539804226019 0 -0.44972367200118862 -0.15227594436379771 0 -0.42731571773431493 -0.15870539804226019 0 -0.44534265680647211 -0.13749472944714031 0 -0.44972367200118862 -0.15227594436379771 0 -0.44972367200118862 -0.15227594436379771 0 -0.45467756160269518 -0.15085453822641329 0 -0.44534265680647211 -0.13749472944714031 0 -0.44972367200118862 -0.15227594436379771 0 -0.45772489982664122 -0.13950346781275921 0 -0.45467756160269518 -0.15085453822641329 0 -0.45772489982664122 -0.13950346781275921 0 -0.44972367200118862 -0.15227594436379771 0 -0.45467756160269518 -0.15085453822641329 0 -0.45772489982664122 -0.13950346781275921 0 -0.45689040995097269 -0.15021961163815181 0 -0.45946751339527359 -0.13672170838427619 0 -0.45689040995097269 -0.15021961163815181 0 -0.45772489982664122 -0.13950346781275921 0 -0.45946751339527359 -0.13672170838427619 0 -0.44972367200118862 -0.15227594436379771 0 -0.45772489982664122 -0.13950346781275921 0 -0.45467756160269518 -0.15085453822641329 0 -0.45689040995097269 -0.15021961163815181 0 -0.45772489982664122 -0.13950346781275921 0 -0.45467756160269518 -0.15085453822641329 0 -0.45689040995097269 -0.15021961163815181 0 -0.45689040995097269 -0.15021961163815181 0 -0.45946751339527359 -0.13672170838427619 0 -0.47307343807950991 -0.13292895081547429 0 -0.44534265680647211 -0.13749472944714031 0 -0.45772489982664122 -0.13950346781275921 0 -0.46191961509160318 -0.12387851749920301 0 -0.44534265680647211 -0.13749472944714031 0 -0.46423032691481653 -0.1152713164984131 0 -0.46191961509160318 -0.12387851749920301 0 -0.45946751339527359 -0.13672170838427619 0 -0.47307343807950991 -0.13292895081547429 0 -0.47054932777894559 -0.1190316466279922 0 -0.45946751339527359 -0.13672170838427619 0 -0.46191961509160318 -0.12387851749920301 0 -0.47054932777894559 -0.1190316466279922 0 -0.44534265680647211 -0.13749472944714031 0 -0.46423032691481653 -0.1152713164984131 0 -0.45946751339527359 -0.13672170838427619 0 -0.47054932777894559 -0.1190316466279922 0 -0.45772489982664122 -0.13950346781275921 0 -0.45946751339527359 -0.13672170838427619 0 -0.46191961509160318 -0.12387851749920301 0 -0.45772489982664122 -0.13950346781275921 0 -0.45946751339527359 -0.13672170838427619 0 -0.45772489982664122 -0.13950346781275921 0 -0.46191961509160318 -0.12387851749920301 0 -0.45946751339527359 -0.13672170838427619 0 -0.46191961509160318 -0.12387851749920301 0 -0.47307343807950991 -0.13292895081547429 0 -0.48282769070819631 -0.131746624010248 0 -0.47054932777894559 -0.1190316466279922 0 -0.47307343807950991 -0.13292895081547429 0 -0.48282769070819631 -0.131746624010248 0 -0.48333891750384778 -0.14263081293969029 0 -0.5 -0.1314421164252422 0 -0.4975741327315783 -0.14231394482148621 0 -0.48960263744709948 -0.12182776484659701 0 -0.48282769070819631 -0.131746624010248 0 -0.4975741327315783 -0.14231394482148621 0 -0.48960263744709948 -0.12182776484659701 0 -0.4975741327315783 -0.14231394482148621 0 -0.48960263744709948 -0.12182776484659701 0 -0.48282769070819631 -0.131746624010248 0 -0.4975741327315783 -0.14231394482148621 0 -0.48333891750384778 -0.14263081293969029 0 -0.5 -0.1314421164252422 0 -0.4975741327315783 -0.14231394482148621 0 -0.5 -0.1605709857909938 0 -0.4975741327315783 -0.14231394482148621 0 -0.48866244411988607 -0.1558248045200292 0 -0.5 -0.1605709857909938 0 -0.4975741327315783 -0.14231394482148621 0 -0.48866244411988607 -0.1558248045200292 0 -0.48333891750384778 -0.14263081293969029 0 -0.45689040995097269 -0.15021961163815181 0 -0.47307343807950991 -0.13292895081547429 0 -0.48333891750384778 -0.14263081293969029 0 -0.45689040995097269 -0.15021961163815181 0 -0.48333891750384778 -0.14263081293969029 0 -0.45689040995097269 -0.15021961163815181 0 -0.48333891750384778 -0.14263081293969029 0 -0.47456225926209872 -0.16192598767714991 0 -0.48866244411988607 -0.1558248045200292 0 -0.48333891750384778 -0.14263081293969029 0 -0.47456225926209872 -0.16192598767714991 0 -0.48866244411988607 -0.1558248045200292 0 -0.47456225926209872 -0.16192598767714991 0 -0.48783691110190608 -0.17168229137082591 0 -0.48866244411988607 -0.1558248045200292 0 -0.5 -0.1605709857909938 0 -0.48783691110190608 -0.17168229137082591 0 -0.48783691110190608 -0.17168229137082591 0 -0.47594046487034042 -0.1830786245657979 0 -0.49999999999999289 -0.18969985515674551 0 -0.5 -0.1605709857909938 0 -0.48783691110190608 -0.17168229137082591 0 -0.49999999999999289 -0.18969985515674551 0 -0.47594046487034042 -0.1830786245657979 0 -0.49999999999999289 -0.18969985515674551 0 -0.47456225926209872 -0.16192598767714991 0 -0.48783691110190608 -0.17168229137082591 0 -0.47594046487034042 -0.1830786245657979 0 -0.4608303048420791 -0.18735785681731701 0 -0.45188092974068828 -0.17645739397484889 0 -0.44880569403300719 -0.19256432757772571 0 -0.47456225926209872 -0.16192598767714991 0 -0.47594046487034042 -0.1830786245657979 0 -0.45188092974068828 -0.17645739397484889 0 -0.47594046487034042 -0.1830786245657979 0 -0.4608303048420791 -0.18735785681731701 0 -0.45188092974068828 -0.17645739397484889 0 -0.47594046487034042 -0.1830786245657979 0 -0.45188092974068828 -0.17645739397484889 0 -0.45467756160269518 -0.15085453822641329 0 -0.45689040995097269 -0.15021961163815181 0 -0.45188092974068828 -0.17645739397484889 0 -0.45689040995097269 -0.15021961163815181 0 -0.47456225926209872 -0.16192598767714991 0 -0.45188092974068828 -0.17645739397484889 0 -0.45689040995097269 -0.15021961163815181 0 -0.45188092974068828 -0.17645739397484889 0 -0.44972367200118862 -0.15227594436379771 0 -0.45467756160269518 -0.15085453822641329 0 -0.44808462782947428 -0.17541264434807791 0 -0.45467756160269518 -0.15085453822641329 0 -0.44808462782947428 -0.17541264434807791 0 -0.4371201132985455 -0.17239518874738191 0 -0.44972367200118862 -0.15227594436379771 0 -0.4371201132985455 -0.17239518874738191 0 -0.44972367200118862 -0.15227594436379771 0 -0.44808462782947428 -0.17541264434807791 0 -0.4371201132985455 -0.17239518874738191 0 -0.42731571773431493 -0.15870539804226019 0 -0.44972367200118862 -0.15227594436379771 0 -0.45467756160269518 -0.15085453822641329 0 -0.45188092974068828 -0.17645739397484889 0 -0.44808462782947428 -0.17541264434807791 0 -0.45188092974068828 -0.17645739397484889 0 -0.44808462782947428 -0.17541264434807791 0 -0.44880569403300719 -0.19256432757772571 0 -0.43336024338209372 -0.17839712387414869 0 -0.4371201132985455 -0.17239518874738191 0 -0.44808462782947428 -0.17541264434807791 0 -0.43336024338209372 -0.17839712387414869 0 -0.44808462782947428 -0.17541264434807791 0 -0.44065120196926161 -0.2031015105496714 0 -0.4371201132985455 -0.17239518874738191 0 -0.44808462782947428 -0.17541264434807791 0 -0.45188092974068828 -0.17645739397484889 0 -0.44880569403300719 -0.19256432757772571 0 -0.45188092974068828 -0.17645739397484889 0 -0.44808462782947428 -0.17541264434807791 0 -0.44808462782947428 -0.17541264434807791 0 -0.44065120196926161 -0.2031015105496714 0 -0.44808462782947428 -0.17541264434807791 0 -0.44880569403300719 -0.19256432757772571 0 -0.44065120196926161 -0.2031015105496714 0 -0.44880569403300719 -0.19256432757772571 0 -0.44065120196926161 -0.2031015105496714 0 -0.44573045832532798 -0.20867126118060281 0 -0.44880569403300719 -0.19256432757772571 0 -0.44573045832532798 -0.20867126118060281 0 -0.44880569403300719 -0.19256432757772571 0 -0.44573045832532798 -0.20867126118060281 0 -0.45893605170269941 -0.2083296529180686 0 -0.44573045832532798 -0.20867126118060281 0 -0.44219737925291308 -0.2271762069612013 0 -0.43408840815871008 -0.22754734792616829 0 -0.44065120196926161 -0.2031015105496714 0 -0.44573045832532798 -0.20867126118060281 0 -0.44065120196926161 -0.2031015105496714 0 -0.44573045832532798 -0.20867126118060281 0 -0.44573045832532798 -0.20867126118060281 0 -0.45798348984397608 -0.22210754500792149 0 -0.45893605170269941 -0.2083296529180686 0 -0.46669413072428029 -0.19733108115089601 0 -0.47683904782743819 -0.21445474700580819 0 -0.45893605170269941 -0.2083296529180686 0 -0.47683904782743819 -0.21445474700580819 0 -0.45798348984397608 -0.22210754500792149 0 -0.44573045832532798 -0.20867126118060281 0 -0.45893605170269941 -0.2083296529180686 0 -0.45798348984397608 -0.22210754500792149 0 -0.44880569403300719 -0.19256432757772571 0 -0.45893605170269941 -0.2083296529180686 0 -0.46669413072428029 -0.19733108115089601 0 -0.4608303048420791 -0.18735785681731701 0 -0.44880569403300719 -0.19256432757772571 0 -0.46669413072428029 -0.19733108115089601 0 -0.47594046487034042 -0.1830786245657979 0 -0.4608303048420791 -0.18735785681731701 0 -0.46669413072428029 -0.19733108115089601 0 -0.47594046487034042 -0.1830786245657979 0 -0.46669413072428029 -0.19733108115089601 0 -0.48344157429224971 -0.19336566517637779 0 -0.46669413072428029 -0.19733108115089601 0 -0.48344157429224971 -0.19336566517637779 0 -0.47683904782743819 -0.21445474700580819 0 -0.48344157429224971 -0.19336566517637779 0 -0.49999999999999289 -0.18969985515674551 0 -0.48780872097702471 -0.20631101613254979 0 -0.49999999999999289 -0.18969985515674551 0 -0.48780872097702471 -0.20631101613254979 0 -0.5 -0.2124776033028388 0 -0.47594046487034042 -0.1830786245657979 0 -0.48344157429224971 -0.19336566517637779 0 -0.49999999999999289 -0.18969985515674551 0 -0.48780872097702471 -0.20631101613254979 0 -0.5 -0.2124776033028388 0 -0.48277299782599448 -0.2250840614151054 0 -0.48344157429224971 -0.19336566517637779 0 -0.47683904782743819 -0.21445474700580819 0 -0.48780872097702471 -0.20631101613254979 0 -0.47683904782743819 -0.21445474700580819 0 -0.48277299782599448 -0.2250840614151054 0 -0.48344157429224971 -0.19336566517637779 0 -0.48780872097702471 -0.20631101613254979 0 -0.47683904782743819 -0.21445474700580819 0 -0.47683904782743819 -0.21445474700580819 0 -0.47023652136262623 -0.23554382883523831 0 -0.47683904782743819 -0.21445474700580819 0 -0.48277299782599448 -0.2250840614151054 0 -0.47023652136262623 -0.23554382883523831 0 -0.48277299782599448 -0.2250840614151054 0 -0.4806985303723581 -0.2353897470646418 0 -0.47023652136262623 -0.23554382883523831 0 -0.5 -0.2124776033028388 0 -0.48277299782599448 -0.2250840614151054 0 -0.48993198513493791 -0.23212904946361371 0 -0.5 -0.2124776033028388 0 -0.48993198513493791 -0.23212904946361371 0 -0.5 -0.23525535144893209 0 -0.48277299782599448 -0.2250840614151054 0 -0.48993198513493791 -0.23212904946361371 0 -0.4806985303723581 -0.2353897470646418 0 -0.5 -0.25803309959502541 0 -0.5 -0.23525535144893209 0 -0.48399429817233702 -0.2410877380670973 0 -0.48993198513493791 -0.23212904946361371 0 -0.5 -0.23525535144893209 0 -0.48399429817233702 -0.2410877380670973 0 -0.48993198513493791 -0.23212904946361371 0 -0.4806985303723581 -0.2353897470646418 0 -0.48399429817233702 -0.2410877380670973 0 -0.47244310207800461 -0.25075377537078691 0 -0.48399429817233702 -0.2410877380670973 0 -0.47640242233154778 -0.24230515931443361 0 -0.4806985303723581 -0.2353897470646418 0 -0.48399429817233702 -0.2410877380670973 0 -0.47640242233154778 -0.24230515931443361 0 -0.4806985303723581 -0.2353897470646418 0 -0.47023652136262623 -0.23554382883523831 0 -0.47640242233154778 -0.24230515931443361 0 -0.47023652136262623 -0.23554382883523831 0 -0.47640242233154778 -0.24230515931443361 0 -0.47244310207800461 -0.25075377537078691 0 -0.47023652136262623 -0.23554382883523831 0 -0.47640242233154778 -0.24230515931443361 0 -0.46155187019882182 -0.26328341004398592 0 -0.47244310207800461 -0.25075377537078691 0 -0.47023652136262623 -0.23554382883523831 0 -0.46155187019882182 -0.26328341004398592 0 -0.47023652136262623 -0.23554382883523831 0 -0.45396786575014159 -0.2499289980016984 0 -0.47023652136262623 -0.23554382883523831 0 -0.45396786575014159 -0.2499289980016984 0 -0.45053194150881848 -0.23592249724201311 0 -0.46155187019882182 -0.26328341004398592 0 -0.47023652136262623 -0.23554382883523831 0 -0.47023652136262623 -0.23554382883523831 0 -0.45798348984397608 -0.22210754500792149 0 -0.45053194150881848 -0.23592249724201311 0 -0.47683904782743819 -0.21445474700580819 0 -0.47023652136262623 -0.23554382883523831 0 -0.45798348984397608 -0.22210754500792149 0 -0.47023652136262623 -0.23554382883523831 0 -0.45798348984397608 -0.22210754500792149 0 -0.45798348984397608 -0.22210754500792149 0 -0.44219737925291308 -0.2271762069612013 0 -0.45053194150881848 -0.23592249724201311 0 -0.44573045832532798 -0.20867126118060281 0 -0.45798348984397608 -0.22210754500792149 0 -0.44219737925291308 -0.2271762069612013 0 -0.43408840815871008 -0.22754734792616829 0 -0.44573045832532798 -0.20867126118060281 0 -0.44219737925291308 -0.2271762069612013 0 -0.43408840815871008 -0.22754734792616829 0 -0.44219737925291308 -0.2271762069612013 0 -0.43751304390905338 -0.25171100218643983 0 -0.43408840815871008 -0.22754734792616829 0 -0.44219737925291308 -0.2271762069612013 0 -0.43751304390905338 -0.25171100218643983 0 -0.44219737925291308 -0.2271762069612013 0 -0.43751304390905338 -0.25171100218643983 0 -0.44219737925291308 -0.2271762069612013 0 -0.45053194150881848 -0.23592249724201311 0 -0.43751304390905338 -0.25171100218643983 0 -0.45396786575014159 -0.2499289980016984 0 -0.45053194150881848 -0.23592249724201311 0 -0.41491107973841168 -0.040703382945583171 0 -0.42396102105416622 -0.054467343957152178 0 -0.42520625017771019 -0.033834392471626423 0 -0.41491107973841168 -0.040703382945583171 0 -0.42520625017771019 -0.033834392471626423 0 -0.41306579633036361 -0.030506527531161291 0 -0.41491107973841168 -0.040703382945583171 0 -0.41306579633036361 -0.030506527531161291 0 -0.40415805205703331 -0.036635682720548103 0 -0.41491107973841168 -0.040703382945583171 0 -0.40769729738567939 -0.048795226019560663 0 -0.40415805205703331 -0.036635682720548103 0 -0.41479838493410082 -0.062110557627146679 0 -0.42396102105416622 -0.054467343957152178 0 -0.4229753066787364 -0.07080023924709257 0 -0.41479838493410082 -0.062110557627146679 0 -0.42396102105416622 -0.054467343957152178 0 -0.39497149237167523 -0.047160296395736753 0 -0.41491107973841168 -0.040703382945583171 0 -0.40769729738567939 -0.048795226019560663 0 -0.42396102105416622 -0.054467343957152178 0 -0.42396102105416622 -0.054467343957152178 0 -0.39497149237167523 -0.047160296395736753 0 -0.40769729738567939 -0.048795226019560663 0 -0.42396102105416622 -0.054467343957152178 0 -0.39497149237167523 -0.047160296395736753 0 -0.42396102105416622 -0.054467343957152178 0 -0.43008001049542671 -0.051508902097207182 0 -0.42978638747360481 -0.045501640212227051 0 -0.42396102105416622 -0.054467343957152178 0 -0.42693298363229643 -0.05521645140719026 0 -0.4229753066787364 -0.07080023924709257 0 -0.42396102105416622 -0.054467343957152178 0 -0.42693298363229643 -0.05521645140719026 0 -0.43008001049542671 -0.051508902097207182 0 -0.42693298363229643 -0.05521645140719026 0 -0.43089528669446958 -0.054463848780161833 0 -0.43008001049542671 -0.051508902097207182 0 -0.42396102105416622 -0.054467343957152178 0 -0.42693298363229643 -0.05521645140719026 0 -0.42693298363229643 -0.05521645140719026 0 -0.43289842097968062 -0.057913264098210959 0 -0.43096380618348051 -0.065269765600305354 0 -0.42693298363229643 -0.05521645140719026 0 -0.43289842097968062 -0.057913264098210959 0 -0.43089528669446958 -0.054463848780161833 0 -0.43289842097968062 -0.057913264098210959 0 -0.43089528669446958 -0.054463848780161833 0 -0.43509207210421069 -0.05295781863431772 0 -0.43652325505264228 -0.057032510808195103 0 -0.43509207210421069 -0.05295781863431772 0 -0.44039031255556171 -0.0558008911761185 0 -0.43289842097968062 -0.057913264098210959 0 -0.43652325505264228 -0.057032510808195103 0 -0.43509207210421069 -0.05295781863431772 0 -0.43289842097968062 -0.057913264098210959 0 -0.43096380618348051 -0.065269765600305354 0 -0.43771221457111631 -0.061458069324133217 0 -0.43289842097968062 -0.057913264098210959 0 -0.43652325505264228 -0.057032510808195103 0 -0.43771221457111631 -0.061458069324133217 0 -0.43008001049542671 -0.051508902097207182 0 -0.4341979212819328 -0.048214665209403623 0 -0.42978638747360481 -0.045501640212227051 0 -0.43089528669446958 -0.054463848780161833 0 -0.43008001049542671 -0.051508902097207182 0 -0.43509207210421069 -0.05295781863431772 0 -0.43008001049542671 -0.051508902097207182 0 -0.43509207210421069 -0.05295781863431772 0 -0.4341979212819328 -0.048214665209403623 0 -0.43509207210421069 -0.05295781863431772 0 -0.4341979212819328 -0.048214665209403623 0 -0.43950090740363379 -0.051322486629672461 0 -0.4341979212819328 -0.048214665209403623 0 -0.43872500735636488 -0.046391146798755223 0 -0.43950090740363379 -0.051322486629672461 0 -0.43568854239011451 -0.040186616888877293 0 -0.42978638747360481 -0.045501640212227051 0 -0.42520625017771019 -0.033834392471626423 0 -0.4341979212819328 -0.048214665209403623 0 -0.43568854239011451 -0.040186616888877293 0 -0.42978638747360481 -0.045501640212227051 0 -0.4341979212819328 -0.048214665209403623 0 -0.43568854239011451 -0.040186616888877293 0 -0.43872500735636488 -0.046391146798755223 0 -0.42396102105416622 -0.054467343957152178 0 -0.42520625017771019 -0.033834392471626423 0 -0.42396102105416622 -0.054467343957152178 0 -0.42978638747360481 -0.045501640212227051 0 -0.42520625017771019 -0.033834392471626423 0 -0.43568854239011451 -0.040186616888877293 0 -0.42520625017771019 -0.033834392471626423 0 -0.43941487492107612 -0.028408305423005639 0 -0.42520625017771019 -0.033834392471626423 0 -0.43307933665379761 -0.021152824348590959 0 -0.43941487492107612 -0.028408305423005639 0 -0.42520625017771019 -0.033834392471626423 0 -0.43307933665379761 -0.021152824348590959 0 -0.42645147930125421 -0.013201440986100731 0 -0.42520625017771019 -0.033834392471626423 0 -0.42645147930125421 -0.013201440986100731 0 -0.42520625017771019 -0.033834392471626423 0 -0.42645147930125421 -0.013201440986100731 0 -0.41799104492781758 -0.018704393200219761 0 -0.43307933665379761 -0.021152824348590959 0 -0.43449459786842631 -0.0127581595954342 0 -0.42645147930125421 -0.013201440986100731 0 -0.43307933665379761 -0.021152824348590959 0 -0.43449459786842631 -0.0127581595954342 0 -0.44001583351499057 -0.018069667058806201 0 -0.43347961392146023 -0.0028595802463400339 0 -0.43944672595062889 -0.0085072853373330815 0 -0.43921605888514031 0.0076621840151965513 0 -0.42645147930125421 -0.013201440986100731 0 -0.42769670842479812 0.0074315104994249342 0 -0.42645147930125421 -0.013201440986100731 0 -0.42066580394347891 -0.0030686677817414981 0 -0.42769670842479812 0.0074315104994249342 0 -0.43347961392146023 -0.0028595802463400339 0 -0.42645147930125421 -0.013201440986100731 0 -0.42769670842479812 0.0074315104994249342 0 -0.43347961392146023 -0.0028595802463400339 0 -0.43449459786842631 -0.0127581595954342 0 -0.43944672595062889 -0.0085072853373330815 0 -0.43347961392146023 -0.0028595802463400339 0 -0.43449459786842631 -0.0127581595954342 0 -0.42645147930125421 -0.013201440986100731 0 -0.42066580394347891 -0.0030686677817414981 0 -0.41324663300947129 -0.0039260215443408762 0 -0.41807960538904709 0.0045558752302702768 0 -0.42066580394347891 -0.0030686677817414981 0 -0.41785459359282379 -0.010203262107961091 0 -0.41324663300947129 -0.0039260215443408762 0 -0.42645147930125421 -0.013201440986100731 0 -0.42066580394347891 -0.0030686677817414981 0 -0.41785459359282379 -0.010203262107961091 0 -0.41785459359282379 -0.010203262107961091 0 -0.41086143681905168 -0.01128531700114295 0 -0.41799104492781758 -0.018704393200219761 0 -0.42645147930125421 -0.013201440986100731 0 -0.41785459359282379 -0.010203262107961091 0 -0.41799104492781758 -0.018704393200219761 0 -0.41086143681905168 -0.01128531700114295 0 -0.41799104492781758 -0.018704393200219761 0 -0.40611238101271752 -0.016164889810707132 0 -0.41086143681905168 -0.01128531700114295 0 -0.40611238101271752 -0.016164889810707132 0 -0.40325952327647557 -0.011057425641355881 0 -0.41086143681905168 -0.01128531700114295 0 -0.40809322875059961 -0.007452665224025639 0 -0.40325952327647557 -0.011057425641355881 0 -0.41785459359282379 -0.010203262107961091 0 -0.41086143681905168 -0.01128531700114295 0 -0.41324663300947129 -0.0039260215443408762 0 -0.41324663300947129 -0.0039260215443408762 0 -0.40809322875059961 -0.007452665224025639 0 -0.40500532189739991 -0.0035418967092628521 0 -0.41324663300947129 -0.0039260215443408762 0 -0.40500532189739991 -0.0035418967092628521 0 -0.41088443635769267 0.0024351128412023102 0 -0.41086143681905168 -0.01128531700114295 0 -0.41324663300947129 -0.0039260215443408762 0 -0.40809322875059961 -0.007452665224025639 0 -0.41799104492781758 -0.018704393200219761 0 -0.4014486830129117 -0.023760375245290039 0 -0.40611238101271752 -0.016164889810707132 0 -0.41799104492781758 -0.018704393200219761 0 -0.41306579633036361 -0.030506527531161291 0 -0.4014486830129117 -0.023760375245290039 0 -0.41799104492781758 -0.018704393200219761 0 -0.4014486830129117 -0.023760375245290039 0 -0.42520625017771019 -0.033834392471626423 0 -0.41799104492781758 -0.018704393200219761 0 -0.41306579633036361 -0.030506527531161291 0 -0.4014486830129117 -0.023760375245290039 0 -0.38490632109800571 -0.028816357290359921 0 -0.39535830444393172 -0.033169749486068968 0 -0.4014486830129117 -0.023760375245290039 0 -0.39535830444393172 -0.033169749486068968 0 -0.40415805205703331 -0.036635682720548103 0 -0.4014486830129117 -0.023760375245290039 0 -0.38490632109800571 -0.028816357290359921 0 -0.38921936398251872 -0.02074844418085612 0 -0.4014486830129117 -0.023760375245290039 0 -0.38490632109800571 -0.028816357290359921 0 -0.41306579633036361 -0.030506527531161291 0 -0.4014486830129117 -0.023760375245290039 0 -0.40415805205703331 -0.036635682720548103 0 -0.4014486830129117 -0.023760375245290039 0 -0.40611238101271752 -0.016164889810707132 0 -0.39700121702733049 -0.016016937965527021 0 -0.4014486830129117 -0.023760375245290039 0 -0.39700121702733049 -0.016016937965527021 0 -0.38921936398251872 -0.02074844418085612 0 -0.39700121702733049 -0.016016937965527021 0 -0.38940517544862402 -0.01486314185727154 0 -0.38921936398251872 -0.02074844418085612 0 -0.40500532189739991 -0.0035418967092628521 0 -0.39736802626032253 -0.008296188452792664 0 -0.40202812620624517 0.00663764390047911 0 -0.40809322875059961 -0.007452665224025639 0 -0.40500532189739991 -0.0035418967092628521 0 -0.40325952327647557 -0.011057425641355881 0 -0.40500532189739991 -0.0035418967092628521 0 -0.40325952327647557 -0.011057425641355881 0 -0.39736802626032253 -0.008296188452792664 0 -0.40611238101271752 -0.016164889810707132 0 -0.39700121702733049 -0.016016937965527021 0 -0.40325952327647557 -0.011057425641355881 0 -0.39700121702733049 -0.016016937965527021 0 -0.40325952327647557 -0.011057425641355881 0 -0.39736802626032253 -0.008296188452792664 0 -0.39736802626032253 -0.008296188452792664 0 -0.38821830950628222 -0.0088111278812710685 0 -0.38940517544862402 -0.01486314185727154 0 -0.39700121702733049 -0.016016937965527021 0 -0.39736802626032253 -0.008296188452792664 0 -0.38940517544862402 -0.01486314185727154 0 -0.38821830950628222 -0.0088111278812710685 0 -0.40202812620624517 0.00663764390047911 0 -0.39736802626032253 -0.008296188452792664 0 -0.38821830950628222 -0.0088111278812710685 0 -0.40202812620624517 0.00663764390047911 0 -0.36933859948822412 -0.0004439302888986224 0 -0.38821830950628222 -0.0088111278812710685 0 -0.37936430061871951 -0.018715934413416849 0 -0.38821830950628222 -0.0088111278812710685 0 -0.38940517544862402 -0.01486314185727154 0 -0.37936430061871951 -0.018715934413416849 0 -0.38821830950628222 -0.0088111278812710685 0 -0.37936430061871951 -0.018715934413416849 0 -0.38821830950628222 -0.0088111278812710685 0 -0.38940517544862402 -0.01486314185727154 0 -0.36759445675048202 -0.034107528875047463 0 -0.38490632109800571 -0.028816357290359921 0 -0.37936430061871951 -0.018715934413416849 0 -0.38940517544862402 -0.01486314185727154 0 -0.38921936398251872 -0.02074844418085612 0 -0.37936430061871951 -0.018715934413416849 0 -0.38490632109800571 -0.028816357290359921 0 -0.38921936398251872 -0.02074844418085612 0 -0.37936430061871951 -0.018715934413416849 0 -0.38490632109800571 -0.028816357290359921 0 -0.37936430061871951 -0.018715934413416849 0 -0.36759445675048202 -0.034107528875047463 0 -0.39289363881887129 -0.043373374344814628 0 -0.37822729992581983 -0.042939785882461369 0 -0.39497149237167523 -0.047160296395736753 0 -0.36759445675048202 -0.034107528875047463 0 -0.37822729992581983 -0.042939785882461369 0 -0.39289363881887129 -0.043373374344814628 0 -0.36759445675048202 -0.034107528875047463 0 -0.38490632109800571 -0.028816357290359921 0 -0.36759445675048202 -0.034107528875047463 0 -0.38490632109800571 -0.028816357290359921 0 -0.39289363881887129 -0.043373374344814628 0 -0.37822729992581983 -0.042939785882461369 0 -0.39289363881887129 -0.043373374344814628 0 -0.39497149237167523 -0.047160296395736753 0 -0.38490632109800571 -0.028816357290359921 0 -0.39289363881887129 -0.043373374344814628 0 -0.38490632109800571 -0.028816357290359921 0 -0.39535830444393172 -0.033169749486068968 0 -0.39289363881887129 -0.043373374344814628 0 -0.39535830444393172 -0.033169749486068968 0 -0.39289363881887129 -0.043373374344814628 0 -0.40415805205703331 -0.036635682720548103 0 -0.39289363881887129 -0.043373374344814628 0 -0.39497149237167523 -0.047160296395736753 0 -0.40769729738567939 -0.048795226019560663 0 -0.39289363881887129 -0.043373374344814628 0 -0.39497149237167523 -0.047160296395736753 0 -0.40769729738567939 -0.048795226019560663 0 -0.39289363881887129 -0.043373374344814628 0 -0.40415805205703331 -0.036635682720548103 0 -0.40769729738567939 -0.048795226019560663 0 -0.39289363881887129 -0.043373374344814628 0 -0.41479838493410082 -0.062110557627146679 0 -0.40287858604889759 -0.061571103819843813 0 -0.39497149237167523 -0.047160296395736753 0 -0.40287858604889759 -0.061571103819843813 0 -0.39497149237167523 -0.047160296395736753 0 -0.40287858604889759 -0.061571103819843813 0 -0.39497149237167523 -0.047160296395736753 0 -0.39104779187559091 -0.05848678819876249 0 -0.37822729992581983 -0.042939785882461369 0 -0.39497149237167523 -0.047160296395736753 0 -0.38297522181069582 -0.052491663448312159 0 -0.39104779187559091 -0.05848678819876249 0 -0.38297522181069582 -0.052491663448312159 0 -0.38044591036779662 -0.061570901268900517 0 -0.39497149237167523 -0.047160296395736753 0 -0.39104779187559091 -0.05848678819876249 0 -0.38297522181069582 -0.052491663448312159 0 -0.37018361451259613 -0.0523005454956997 0 -0.37822729992581983 -0.042939785882461369 0 -0.38297522181069582 -0.052491663448312159 0 -0.37018361451259613 -0.0523005454956997 0 -0.38297522181069582 -0.052491663448312159 0 -0.38044591036779662 -0.061570901268900517 0 -0.36947373707469872 -0.063985249966456478 0 -0.38044591036779662 -0.061570901268900517 0 -0.37647484402476228 -0.072677937837527018 0 -0.39104779187559091 -0.05848678819876249 0 -0.38044591036779662 -0.061570901268900517 0 -0.39173087979180032 -0.071577688901310721 0 -0.38044591036779662 -0.061570901268900517 0 -0.37647484402476228 -0.072677937837527018 0 -0.39173087979180032 -0.071577688901310721 0 -0.37647484402476228 -0.072677937837527018 0 -0.38363999066006932 -0.081744832760173664 0 -0.39173087979180032 -0.071577688901310721 0 -0.36987620287596668 -0.084754769908034683 0 -0.37647484402476228 -0.072677937837527018 0 -0.38363999066006932 -0.081744832760173664 0 -0.38363999066006932 -0.081744832760173664 0 -0.39646488843759442 -0.089320107305594754 0 -0.39173087979180032 -0.071577688901310721 0 -0.36987620287596668 -0.084754769908034683 0 -0.37974365793776149 -0.090047199299109523 0 -0.38363999066006932 -0.081744832760173664 0 -0.37974365793776149 -0.090047199299109523 0 -0.38705062807724733 -0.089891182830622141 0 -0.38363999066006932 -0.081744832760173664 0 -0.37974365793776149 -0.090047199299109523 0 -0.38705062807724733 -0.089891182830622141 0 -0.38416094054066802 -0.098770797811139927 0 -0.38705062807724733 -0.089891182830622141 0 -0.38363999066006932 -0.081744832760173664 0 -0.39646488843759442 -0.089320107305594754 0 -0.38705062807724733 -0.089891182830622141 0 -0.39646488843759442 -0.089320107305594754 0 -0.38416094054066802 -0.098770797811139927 0 -0.39646488843759442 -0.089320107305594754 0 -0.39173087979180032 -0.071577688901310721 0 -0.40781369414880903 -0.07731993238432934 0 -0.40287858604889759 -0.061571103819843813 0 -0.39173087979180032 -0.071577688901310721 0 -0.40781369414880903 -0.07731993238432934 0 -0.40287858604889759 -0.061571103819843813 0 -0.39104779187559091 -0.05848678819876249 0 -0.39173087979180032 -0.071577688901310721 0 -0.37908192940485258 -0.11372123791496561 0 -0.39825962679784982 -0.10548023103136039 0 -0.37086364155792689 -0.1265431919395642 0 -0.38739544009950189 -0.1211537574222683 0 -0.37908192940485258 -0.11372123791496561 0 -0.3870618917417426 -0.1143326311701983 0 -0.39825962679784982 -0.10548023103136039 0 -0.37456545992351081 -0.12153932669336311 0 -0.37086364155792689 -0.1265431919395642 0 -0.38739544009950189 -0.1211537574222683 0 -0.37951593695145991 -0.1327340406700106 0 -0.38739544009950189 -0.1211537574222683 0 -0.38885818713676112 -0.12067689585437411 0 -0.38739544009950189 -0.1211537574222683 0 -0.37908192940485258 -0.11372123791496561 0 -0.38739544009950189 -0.1211537574222683 0 -0.38885818713676112 -0.12067689585437411 0 -0.3870618917417426 -0.1143326311701983 0 -0.38739544009950189 -0.1211537574222683 0 -0.38885818713676112 -0.12067689585437411 0 -0.37456545992351081 -0.12153932669336311 0 -0.38739544009950189 -0.1211537574222683 0 -0.37908192940485258 -0.11372123791496561 0 -0.38739544009950189 -0.1211537574222683 0 -0.37908192940485258 -0.11372123791496561 0 -0.3870618917417426 -0.1143326311701983 0 -0.37908192940485258 -0.11372123791496561 0 -0.38416094054066802 -0.098770797811139927 0 -0.39825962679784982 -0.10548023103136039 0 -0.37436088789708721 -0.1011039431900262 0 -0.37908192940485258 -0.11372123791496561 0 -0.38416094054066802 -0.098770797811139927 0 -0.37399052753485651 -0.095074413185577189 0 -0.37974365793776149 -0.090047199299109523 0 -0.38416094054066802 -0.098770797811139927 0 -0.37399052753485651 -0.095074413185577189 0 -0.37436088789708721 -0.1011039431900262 0 -0.38416094054066802 -0.098770797811139927 0 -0.39646488843759442 -0.089320107305594754 0 -0.38416094054066802 -0.098770797811139927 0 -0.39825962679784982 -0.10548023103136039 0 -0.39646488843759442 -0.089320107305594754 0 -0.39825962679784982 -0.10548023103136039 0 -0.41743732419084739 -0.097239224147756279 0 -0.39825962679784982 -0.10548023103136039 0 -0.40214040049602318 -0.11245840106869399 0 -0.4101525699399689 -0.1100367409634788 0 -0.38885818713676112 -0.12067689585437411 0 -0.3870618917417426 -0.1143326311701983 0 -0.39694609915862272 -0.11023860480355931 0 -0.38885818713676112 -0.12067689585437411 0 -0.39694609915862272 -0.11023860480355931 0 -0.3870618917417426 -0.1143326311701983 0 -0.39825962679784982 -0.10548023103136039 0 -0.39694609915862272 -0.11023860480355931 0 -0.38885818713676112 -0.12067689585437411 0 -0.39694609915862272 -0.11023860480355931 0 -0.39901245976820032 -0.1173665610907207 0 -0.40214040049602318 -0.11245840106869399 0 -0.40611615914915211 -0.11727304098301521 0 -0.4101525699399689 -0.1100367409634788 0 -0.39825962679784982 -0.10548023103136039 0 -0.39694609915862272 -0.11023860480355931 0 -0.40214040049602318 -0.11245840106869399 0 -0.40214040049602318 -0.11245840106869399 0 -0.39901245976820032 -0.1173665610907207 0 -0.40611615914915211 -0.11727304098301521 0 -0.39694609915862272 -0.11023860480355931 0 -0.40214040049602318 -0.11245840106869399 0 -0.39901245976820032 -0.1173665610907207 0 -0.39901245976820032 -0.1173665610907207 0 -0.40611615914915211 -0.11727304098301521 0 -0.40155420383366469 -0.1223210862885489 0 -0.40611615914915211 -0.11727304098301521 0 -0.40155420383366469 -0.1223210862885489 0 -0.40933528710360068 -0.1241950508824432 0 -0.39086993047885182 -0.12689081738553831 0 -0.38885818713676112 -0.12067689585437411 0 -0.39901245976820032 -0.1173665610907207 0 -0.38885818713676112 -0.12067689585437411 0 -0.39901245976820032 -0.1173665610907207 0 -0.39086993047885182 -0.12689081738553831 0 -0.39901245976820032 -0.1173665610907207 0 -0.40155420383366469 -0.1223210862885489 0 -0.41858497058187871 -0.1265104183566792 0 -0.41364494501957372 -0.1177916553545718 0 -0.42403573832326807 -0.1109430255872428 0 -0.41858497058187871 -0.1265104183566792 0 -0.40933528710360068 -0.1241950508824432 0 -0.41364494501957372 -0.1177916553545718 0 -0.40611615914915211 -0.11727304098301521 0 -0.40933528710360068 -0.1241950508824432 0 -0.41364494501957372 -0.1177916553545718 0 -0.40611615914915211 -0.11727304098301521 0 -0.41364494501957372 -0.1177916553545718 0 -0.4101525699399689 -0.1100367409634788 0 -0.41364494501957372 -0.1177916553545718 0 -0.4101525699399689 -0.1100367409634788 0 -0.42403573832326807 -0.1109430255872428 0 -0.39825962679784982 -0.10548023103136039 0 -0.41743732419084739 -0.097239224147756279 0 -0.39825962679784982 -0.10548023103136039 0 -0.4101525699399689 -0.1100367409634788 0 -0.41743732419084739 -0.097239224147756279 0 -0.4101525699399689 -0.1100367409634788 0 -0.41743732419084739 -0.097239224147756279 0 -0.42403573832326807 -0.1109430255872428 0 -0.42403573832326807 -0.1109430255872428 0 -0.43661502158384502 -0.088998217264152191 0 -0.44198817408939339 -0.11308865940685089 0 -0.41743732419084739 -0.097239224147756279 0 -0.42403573832326807 -0.1109430255872428 0 -0.43661502158384502 -0.088998217264152191 0 -0.43127301825398939 -0.12551177574996891 0 -0.42403573832326807 -0.1109430255872428 0 -0.44198817408939339 -0.11308865940685089 0 -0.41858497058187871 -0.1265104183566792 0 -0.43127301825398939 -0.12551177574996891 0 -0.42403573832326807 -0.1109430255872428 0 -0.41479838493410082 -0.062110557627146679 0 -0.40287858604889759 -0.061571103819843813 0 -0.40781369414880903 -0.07731993238432934 0 -0.40781369414880903 -0.07731993238432934 0 -0.42192027867989029 -0.082828261205239298 0 -0.4229753066787364 -0.07080023924709257 0 -0.41479838493410082 -0.062110557627146679 0 -0.40781369414880903 -0.07731993238432934 0 -0.4229753066787364 -0.07080023924709257 0 -0.41743732419084739 -0.097239224147756279 0 -0.40781369414880903 -0.07731993238432934 0 -0.42192027867989029 -0.082828261205239298 0 -0.39646488843759442 -0.089320107305594754 0 -0.41743732419084739 -0.097239224147756279 0 -0.40781369414880903 -0.07731993238432934 0 -0.41743732419084739 -0.097239224147756279 0 -0.42192027867989029 -0.082828261205239298 0 -0.43661502158384502 -0.088998217264152191 0 -0.41743732419084739 -0.097239224147756279 0 -0.43661502158384502 -0.088998217264152191 0 -0.42192027867989029 -0.082828261205239298 0 -0.43661502158384502 -0.088998217264152191 0 -0.43577781035403751 -0.074649190691552375 0 -0.42396102105416622 -0.054467343957152178 0 -0.4229753066787364 -0.07080023924709257 0 -0.42192027867989029 -0.082828261205239298 0 -0.43577781035403751 -0.074649190691552375 0 -0.4229753066787364 -0.07080023924709257 0 -0.42693298363229643 -0.05521645140719026 0 -0.4229753066787364 -0.07080023924709257 0 -0.43096380618348051 -0.065269765600305354 0 -0.43577781035403751 -0.074649190691552375 0 -0.43096380618348051 -0.065269765600305354 0 -0.43771221457111631 -0.061458069324133217 0 -0.43577781035403751 -0.074649190691552375 0 -0.4229753066787364 -0.07080023924709257 0 -0.43096380618348051 -0.065269765600305354 0 -0.43577781035403751 -0.074649190691552375 0 -0.44774958503984669 -0.067414492045691693 0 -0.43771221457111631 -0.061458069324133217 0 -0.43577781035403751 -0.074649190691552375 0 -0.44774958503984669 -0.067414492045691693 0 -0.45293563009701793 -0.081484057809695296 0 -0.44774958503984669 -0.067414492045691693 0 -0.43771221457111631 -0.061458069324133217 0 -0.44546101795533788 -0.058791564158321603 0 -0.44774958503984669 -0.067414492045691693 0 -0.45293563009701793 -0.081484057809695296 0 -0.45780331253909212 -0.065089095927913551 0 -0.44774958503984669 -0.067414492045691693 0 -0.45780331253909212 -0.065089095927913551 0 -0.4525534630820921 -0.058361535651268677 0 -0.43661502158384502 -0.088998217264152191 0 -0.45293563009701793 -0.081484057809695296 0 -0.45244808411754078 -0.099077094409647237 0 -0.43661502158384502 -0.088998217264152191 0 -0.43577781035403751 -0.074649190691552375 0 -0.45293563009701793 -0.081484057809695296 0 -0.45293563009701793 -0.081484057809695296 0 -0.45244808411754078 -0.099077094409647237 0 -0.46733199893883393 -0.095530476715524698 0 -0.45293563009701793 -0.081484057809695296 0 -0.46733199893883393 -0.095530476715524698 0 -0.47129440199905009 -0.074776892579035664 0 -0.45293563009701793 -0.081484057809695296 0 -0.45780331253909212 -0.065089095927913551 0 -0.47129440199905009 -0.074776892579035664 0 -0.44534265680647211 -0.13749472944714031 0 -0.44198817408939339 -0.11308865940685089 0 -0.46423032691481653 -0.1152713164984131 0 -0.44198817408939339 -0.11308865940685089 0 -0.45244808411754078 -0.099077094409647237 0 -0.46423032691481653 -0.1152713164984131 0 -0.43661502158384502 -0.088998217264152191 0 -0.44198817408939339 -0.11308865940685089 0 -0.45244808411754078 -0.099077094409647237 0 -0.46733199893883393 -0.095530476715524698 0 -0.46423032691481653 -0.1152713164984131 0 -0.46888879113743698 -0.097918941565136114 0 -0.46733199893883393 -0.095530476715524698 0 -0.46423032691481653 -0.1152713164984131 0 -0.45244808411754078 -0.099077094409647237 0 -0.46733199893883393 -0.095530476715524698 0 -0.46423032691481653 -0.1152713164984131 0 -0.46423032691481653 -0.1152713164984131 0 -0.46888879113743698 -0.097918941565136114 0 -0.46423032691481653 -0.1152713164984131 0 -0.46191961509160318 -0.12387851749920301 0 -0.47054932777894559 -0.1190316466279922 0 -0.46423032691481653 -0.1152713164984131 0 -0.46191961509160318 -0.12387851749920301 0 -0.46423032691481653 -0.1152713164984131 0 -0.47054932777894559 -0.1190316466279922 0 -0.48163114216261838 -0.1013415848717087 0 -0.48282769070819631 -0.131746624010248 0 -0.47054932777894559 -0.1190316466279922 0 -0.48960263744709948 -0.12182776484659701 0 -0.47054932777894559 -0.1190316466279922 0 -0.48163114216261838 -0.1013415848717087 0 -0.47054932777894559 -0.1190316466279922 0 -0.48163114216261838 -0.1013415848717087 0 -0.48960263744709948 -0.12182776484659701 0 -0.46423032691481653 -0.1152713164984131 0 -0.47988440101823893 -0.096852583476567361 0 -0.46423032691481653 -0.1152713164984131 0 -0.46888879113743698 -0.097918941565136114 0 -0.47988440101823893 -0.096852583476567361 0 -0.46423032691481653 -0.1152713164984131 0 -0.47988440101823893 -0.096852583476567361 0 -0.48163114216261838 -0.1013415848717087 0 -0.47988440101823893 -0.096852583476567361 0 -0.48163114216261838 -0.1013415848717087 0 -0.48163114216261838 -0.1013415848717087 0 -0.5 -0.10231324705949039 0 -0.48960263744709948 -0.12182776484659701 0 -0.5 -0.1314421164252422 0 -0.5 -0.10231324705949039 0 -0.48960263744709948 -0.12182776484659701 0 -0.48163114216261838 -0.1013415848717087 0 -0.48960263744709948 -0.12182776484659701 0 -0.47837845588033912 -0.066351382798094674 0 -0.47129440199905009 -0.074776892579035664 0 -0.47607866833254531 -0.049718696233414447 0 -0.47905802494758187 -0.076208881445555571 0 -0.48227636370817201 -0.071860041171849937 0 -0.47563663577889831 -0.072783805903577498 0 -0.48227636370817201 -0.071860041171849937 0 -0.47837845588033912 -0.066351382798094674 0 -0.47563663577889831 -0.072783805903577498 0 -0.47905802494758187 -0.076208881445555571 0 -0.48227636370817201 -0.071860041171849937 0 -0.48477184494319853 -0.079625112074935139 0 -0.48227636370817201 -0.071860041171849937 0 -0.47837845588033912 -0.066351382798094674 0 -0.48660620958302619 -0.062617478102595187 0 -0.47837845588033912 -0.066351382798094674 0 -0.47563663577889831 -0.072783805903577498 0 -0.47129440199905009 -0.074776892579035664 0 -0.47563663577889831 -0.072783805903577498 0 -0.47354725536005932 -0.080566566631859571 0 -0.47905802494758187 -0.076208881445555571 0 -0.47563663577889831 -0.072783805903577498 0 -0.47354725536005932 -0.080566566631859571 0 -0.47563663577889831 -0.072783805903577498 0 -0.47129440199905009 -0.074776892579035664 0 -0.47354725536005932 -0.080566566631859571 0 -0.47129440199905009 -0.074776892579035664 0 -0.47354725536005932 -0.080566566631859571 0 -0.46888879113743698 -0.097918941565136114 0 -0.47354725536005932 -0.080566566631859571 0 -0.46888879113743698 -0.097918941565136114 0 -0.47988440101823893 -0.096852583476567361 0 -0.47354725536005932 -0.080566566631859571 0 -0.47988440101823893 -0.096852583476567361 0 -0.47354725536005932 -0.080566566631859571 0 -0.48477184494319853 -0.079625112074935139 0 -0.46733199893883393 -0.095530476715524698 0 -0.47129440199905009 -0.074776892579035664 0 -0.46733199893883393 -0.095530476715524698 0 -0.47129440199905009 -0.074776892579035664 0 -0.47354725536005932 -0.080566566631859571 0 -0.46733199893883393 -0.095530476715524698 0 -0.46888879113743698 -0.097918941565136114 0 -0.47354725536005932 -0.080566566631859571 0 -0.47988440101823893 -0.096852583476567361 0 -0.47354725536005932 -0.080566566631859571 0 -0.47905802494758187 -0.076208881445555571 0 -0.47354725536005932 -0.080566566631859571 0 -0.48477184494319853 -0.079625112074935139 0 -0.47988440101823893 -0.096852583476567361 0 -0.49722360194399889 -0.076451114149563029 0 -0.48163114216261838 -0.1013415848717087 0 -0.49722360194399889 -0.076451114149563029 0 -0.47988440101823893 -0.096852583476567361 0 -0.48163114216261838 -0.1013415848717087 0 -0.49722360194399889 -0.076451114149563029 0 -0.5 -0.10231324705949039 0 -0.49722360194399889 -0.076451114149563029 0 -0.49999999999999928 -0.07318437769373877 0 -0.48163114216261838 -0.1013415848717087 0 -0.5 -0.10231324705949039 0 -0.49722360194399889 -0.076451114149563029 0 -0.47988440101823893 -0.096852583476567361 0 -0.48477184494319853 -0.079625112074935139 0 -0.49722360194399889 -0.076451114149563029 0 -0.49722360194399889 -0.076451114149563029 0 -0.48903889571405362 -0.071240052483750524 0 -0.49431645839187238 -0.065646516919809272 0 -0.49722360194399889 -0.076451114149563029 0 -0.49999999999999928 -0.07318437769373877 0 -0.49431645839187238 -0.065646516919809272 0 -0.49722360194399889 -0.076451114149563029 0 -0.49999999999999928 -0.07318437769373877 0 -0.48477184494319853 -0.079625112074935139 0 -0.49722360194399889 -0.076451114149563029 0 -0.48903889571405362 -0.071240052483750524 0 -0.48227636370817201 -0.071860041171849937 0 -0.48477184494319853 -0.079625112074935139 0 -0.48903889571405362 -0.071240052483750524 0 -0.48227636370817201 -0.071860041171849937 0 -0.48903889571405362 -0.071240052483750524 0 -0.48660620958302619 -0.062617478102595187 0 -0.48903889571405362 -0.071240052483750524 0 -0.48660620958302619 -0.062617478102595187 0 -0.49431645839187238 -0.065646516919809272 0 -0.49999999999999928 -0.07318437769373877 0 -0.49431645839187238 -0.065646516919809272 0 -0.5 -0.043433045056052062 0 -0.48660620958302619 -0.062617478102595187 0 -0.49431645839187238 -0.065646516919809272 0 -0.5 -0.043433045056052062 0 -0.48660620958302619 -0.062617478102595187 0 -0.5 -0.043433045056052062 0 -0.47607866833254531 -0.049718696233414447 0 -0.5 -0.043433045056052062 0 -0.47607866833254531 -0.049718696233414447 0 -0.48086293466603669 -0.024660499887792561 0 -0.47607866833254531 -0.049718696233414447 0 -0.46870748437107013 -0.041074989663931818 0 -0.48086293466603669 -0.024660499887792561 0 -0.46870748437107013 -0.041074989663931818 0 -0.46812195261041212 -0.029269558455512251 0 -0.48086293466603669 -0.024660499887792561 0 -0.47607866833254531 -0.049718696233414447 0 -0.48086293466603669 -0.024660499887792561 0 -0.47129440199905009 -0.074776892579035664 0 -0.47607866833254531 -0.049718696233414447 0 -0.4691705439159366 -0.053216944714335482 0 -0.47837845588033912 -0.066351382798094674 0 -0.48660620958302619 -0.062617478102595187 0 -0.47607866833254531 -0.049718696233414447 0 -0.47129440199905009 -0.074776892579035664 0 -0.47607866833254531 -0.049718696233414447 0 -0.47607866833254531 -0.049718696233414447 0 -0.4691705439159366 -0.053216944714335482 0 -0.46870748437107013 -0.041074989663931818 0 -0.45780331253909212 -0.065089095927913551 0 -0.47129440199905009 -0.074776892579035664 0 -0.46060162096107748 -0.047297200380959359 0 -0.47129440199905009 -0.074776892579035664 0 -0.4691705439159366 -0.053216944714335482 0 -0.46060162096107748 -0.047297200380959359 0 -0.47129440199905009 -0.074776892579035664 0 -0.46060162096107748 -0.047297200380959359 0 -0.45780331253909212 -0.065089095927913551 0 -0.45554668633737322 -0.053789703236714302 0 -0.46060162096107748 -0.047297200380959359 0 -0.45780331253909212 -0.065089095927913551 0 -0.45554668633737322 -0.053789703236714302 0 -0.4525534630820921 -0.058361535651268677 0 -0.45554668633737322 -0.053789703236714302 0 -0.4525534630820921 -0.058361535651268677 0 -0.45220615914202039 -0.053855530378238058 0 -0.45554668633737322 -0.053789703236714302 0 -0.45511778892428573 -0.046792051096874732 0 -0.45173134154106848 -0.049242703946497698 0 -0.45554668633737322 -0.053789703236714302 0 -0.45220615914202039 -0.053855530378238058 0 -0.45173134154106848 -0.049242703946497698 0 -0.45554668633737322 -0.053789703236714302 0 -0.46060162096107748 -0.047297200380959359 0 -0.45511778892428573 -0.046792051096874732 0 -0.4691705439159366 -0.053216944714335482 0 -0.46060162096107748 -0.047297200380959359 0 -0.46870748437107013 -0.041074989663931818 0 -0.45904500350922589 -0.043296803450063009 0 -0.45546830435127839 -0.019632508941909939 0 -0.45904500350922589 -0.043296803450063009 0 -0.45520763503149059 -0.041380965711721507 0 -0.44990883992310893 -0.019817508182881371 0 -0.46060162096107748 -0.047297200380959359 0 -0.46870748437107013 -0.041074989663931818 0 -0.45904500350922589 -0.043296803450063009 0 -0.46275031027664282 -0.031342310798615672 0 -0.45904500350922589 -0.043296803450063009 0 -0.45546830435127839 -0.019632508941909939 0 -0.45904500350922589 -0.043296803450063009 0 -0.44990883992310893 -0.019817508182881371 0 -0.46870748437107013 -0.041074989663931818 0 -0.46275031027664282 -0.031342310798615672 0 -0.46812195261041212 -0.029269558455512251 0 -0.46870748437107013 -0.041074989663931818 0 -0.46275031027664282 -0.031342310798615672 0 -0.45904500350922589 -0.043296803450063009 0 -0.46060162096107748 -0.047297200380959359 0 -0.45904500350922589 -0.043296803450063009 0 -0.46060162096107748 -0.047297200380959359 0 -0.45904500350922589 -0.043296803450063009 0 -0.45520763503149059 -0.041380965711721507 0 -0.46060162096107748 -0.047297200380959359 0 -0.45520763503149059 -0.041380965711721507 0 -0.45511778892428573 -0.046792051096874732 0 -0.45520763503149059 -0.041380965711721507 0 -0.45511778892428573 -0.046792051096874732 0 -0.45108627778213001 -0.04432386800332147 0 -0.45520763503149059 -0.041380965711721507 0 -0.44971284848492121 -0.033128378974699273 0 -0.44990883992310893 -0.019817508182881371 0 -0.45108627778213001 -0.04432386800332147 0 -0.44806394296249108 -0.046825479193565667 0 -0.45173134154106848 -0.049242703946497698 0 -0.45511778892428573 -0.046792051096874732 0 -0.45108627778213001 -0.04432386800332147 0 -0.45173134154106848 -0.049242703946497698 0 -0.45520763503149059 -0.041380965711721507 0 -0.45108627778213001 -0.04432386800332147 0 -0.44929454089594661 -0.039869529518004918 0 -0.45108627778213001 -0.04432386800332147 0 -0.44929454089594661 -0.039869529518004918 0 -0.44611131737774667 -0.042900129458570288 0 -0.44929454089594661 -0.039869529518004918 0 -0.44611131737774667 -0.042900129458570288 0 -0.44290015651447701 -0.037373668158733261 0 -0.45108627778213001 -0.04432386800332147 0 -0.44611131737774667 -0.042900129458570288 0 -0.44806394296249108 -0.046825479193565667 0 -0.44611131737774667 -0.042900129458570288 0 -0.44806394296249108 -0.046825479193565667 0 -0.44370027315684663 -0.046878109954266667 0 -0.45520763503149059 -0.041380965711721507 0 -0.44929454089594661 -0.039869529518004918 0 -0.44971284848492121 -0.033128378974699273 0 -0.44929454089594661 -0.039869529518004918 0 -0.44763590753137322 -0.035153093427814433 0 -0.44290015651447701 -0.037373668158733261 0 -0.44929454089594661 -0.039869529518004918 0 -0.44971284848492121 -0.033128378974699273 0 -0.44763590753137322 -0.035153093427814433 0 -0.44763590753137322 -0.035153093427814433 0 -0.4446417573113548 -0.032515955546767783 0 -0.44651731904268621 -0.029420798033074059 0 -0.44971284848492121 -0.033128378974699273 0 -0.44763590753137322 -0.035153093427814433 0 -0.44651731904268621 -0.029420798033074059 0 -0.43568854239011451 -0.040186616888877293 0 -0.44290015651447701 -0.037373668158733261 0 -0.43941487492107612 -0.028408305423005639 0 -0.4446417573113548 -0.032515955546767783 0 -0.44290015651447701 -0.037373668158733261 0 -0.43941487492107612 -0.028408305423005639 0 -0.44763590753137322 -0.035153093427814433 0 -0.4446417573113548 -0.032515955546767783 0 -0.44290015651447701 -0.037373668158733261 0 -0.44611131737774667 -0.042900129458570288 0 -0.44127695376749132 -0.04239011168598994 0 -0.44370027315684663 -0.046878109954266667 0 -0.44611131737774667 -0.042900129458570288 0 -0.44290015651447701 -0.037373668158733261 0 -0.44127695376749132 -0.04239011168598994 0 -0.43568854239011451 -0.040186616888877293 0 -0.44290015651447701 -0.037373668158733261 0 -0.44127695376749132 -0.04239011168598994 0 -0.43568854239011451 -0.040186616888877293 0 -0.44127695376749132 -0.04239011168598994 0 -0.43872500735636488 -0.046391146798755223 0 -0.44127695376749132 -0.04239011168598994 0 -0.43872500735636488 -0.046391146798755223 0 -0.44370027315684663 -0.046878109954266667 0 -0.43872500735636488 -0.046391146798755223 0 -0.4410899662589125 -0.048616130873553959 0 -0.44370027315684663 -0.046878109954266667 0 -0.4410899662589125 -0.048616130873553959 0 -0.44353460261337629 -0.050650439179039858 0 -0.43950090740363379 -0.051322486629672461 0 -0.43872500735636488 -0.046391146798755223 0 -0.4410899662589125 -0.048616130873553959 0 -0.43950090740363379 -0.051322486629672461 0 -0.4410899662589125 -0.048616130873553959 0 -0.44353460261337629 -0.050650439179039858 0 -0.44370027315684663 -0.046878109954266667 0 -0.44353460261337629 -0.050650439179039858 0 -0.44370027315684663 -0.046878109954266667 0 -0.44711909448592518 -0.050526330040812778 0 -0.44353460261337629 -0.050650439179039858 0 -0.44439448879102428 -0.054496530657860691 0 -0.43950090740363379 -0.051322486629672461 0 -0.44439448879102428 -0.054496530657860691 0 -0.43950090740363379 -0.051322486629672461 0 -0.44039031255556171 -0.0558008911761185 0 -0.44353460261337629 -0.050650439179039858 0 -0.44439448879102428 -0.054496530657860691 0 -0.44711909448592518 -0.050526330040812778 0 -0.43509207210421069 -0.05295781863431772 0 -0.43950090740363379 -0.051322486629672461 0 -0.44039031255556171 -0.0558008911761185 0 -0.43652325505264228 -0.057032510808195103 0 -0.44039031255556171 -0.0558008911761185 0 -0.43771221457111631 -0.061458069324133217 0 -0.44039031255556171 -0.0558008911761185 0 -0.43771221457111631 -0.061458069324133217 0 -0.44546101795533788 -0.058791564158321603 0 -0.44439448879102428 -0.054496530657860691 0 -0.44039031255556171 -0.0558008911761185 0 -0.44546101795533788 -0.058791564158321603 0 -0.44439448879102428 -0.054496530657860691 0 -0.44546101795533788 -0.058791564158321603 0 -0.44899314560754799 -0.054028178678471622 0 -0.44774958503984669 -0.067414492045691693 0 -0.44546101795533788 -0.058791564158321603 0 -0.4525534630820921 -0.058361535651268677 0 -0.44546101795533788 -0.058791564158321603 0 -0.4525534630820921 -0.058361535651268677 0 -0.44899314560754799 -0.054028178678471622 0 -0.4525534630820921 -0.058361535651268677 0 -0.45220615914202039 -0.053855530378238058 0 -0.44899314560754799 -0.054028178678471622 0 -0.45220615914202039 -0.053855530378238058 0 -0.45173134154106848 -0.049242703946497698 0 -0.44899314560754799 -0.054028178678471622 0 -0.45173134154106848 -0.049242703946497698 0 -0.44711909448592518 -0.050526330040812778 0 -0.44899314560754799 -0.054028178678471622 0 -0.44806394296249108 -0.046825479193565667 0 -0.45173134154106848 -0.049242703946497698 0 -0.44711909448592518 -0.050526330040812778 0 -0.44806394296249108 -0.046825479193565667 0 -0.44370027315684663 -0.046878109954266667 0 -0.44711909448592518 -0.050526330040812778 0 -0.44439448879102428 -0.054496530657860691 0 -0.44711909448592518 -0.050526330040812778 0 -0.44899314560754799 -0.054028178678471622 0 -0.44990883992310893 -0.019817508182881371 0 -0.45546830435127839 -0.019632508941909939 0 -0.45172434592421962 0.0039667023503073863 0 -0.44990883992310893 -0.019817508182881371 0 -0.43921605888514031 0.0076621840151965513 0 -0.44990883992310893 -0.019817508182881371 0 -0.45172434592421962 0.0039667023503073863 0 -0.43921605888514031 0.0076621840151965513 0 -0.43944672595062889 -0.0085072853373330815 0 -0.44990883992310893 -0.019817508182881371 0 -0.43921605888514031 0.0076621840151965513 0 -0.43944672595062889 -0.0085072853373330815 0 -0.44001583351499057 -0.018069667058806201 0 -0.44990883992310893 -0.019817508182881371 0 -0.43449459786842631 -0.0127581595954342 0 -0.43944672595062889 -0.0085072853373330815 0 -0.44001583351499057 -0.018069667058806201 0 -0.43307933665379761 -0.021152824348590959 0 -0.44001583351499057 -0.018069667058806201 0 -0.43941487492107612 -0.028408305423005639 0 -0.44001583351499057 -0.018069667058806201 0 -0.44404543068113622 -0.02328815037124142 0 -0.44990883992310893 -0.019817508182881371 0 -0.44001583351499057 -0.018069667058806201 0 -0.44404543068113622 -0.02328815037124142 0 -0.43941487492107612 -0.028408305423005639 0 -0.44404543068113622 -0.02328815037124142 0 -0.43941487492107612 -0.028408305423005639 0 -0.44651731904268621 -0.029420798033074059 0 -0.4446417573113548 -0.032515955546767783 0 -0.43941487492107612 -0.028408305423005639 0 -0.44651731904268621 -0.029420798033074059 0 -0.44971284848492121 -0.033128378974699273 0 -0.44651731904268621 -0.029420798033074059 0 -0.44990883992310893 -0.019817508182881371 0 -0.44404543068113622 -0.02328815037124142 0 -0.44651731904268621 -0.029420798033074059 0 -0.44990883992310893 -0.019817508182881371 0 -0.45904500350922589 -0.043296803450063009 0 -0.44990883992310893 -0.019817508182881371 0 -0.45546830435127839 -0.019632508941909939 0 -0.45546830435127839 -0.019632508941909939 0 -0.46285864521464942 -0.022768606714111749 0 -0.4622596377357327 -0.01039186637922356 0 -0.46275031027664282 -0.031342310798615672 0 -0.45546830435127839 -0.019632508941909939 0 -0.46285864521464942 -0.022768606714111749 0 -0.46812195261041212 -0.029269558455512251 0 -0.46865509122334031 -0.01968277307456787 0 -0.46285864521464942 -0.022768606714111749 0 -0.46275031027664282 -0.031342310798615672 0 -0.46812195261041212 -0.029269558455512251 0 -0.46285864521464942 -0.022768606714111749 0 -0.46865509122334031 -0.01968277307456787 0 -0.46285864521464942 -0.022768606714111749 0 -0.4622596377357327 -0.01039186637922356 0 -0.45546830435127839 -0.019632508941909939 0 -0.4622596377357327 -0.01039186637922356 0 -0.45172434592421962 0.0039667023503073863 0 -0.4622596377357327 -0.01039186637922356 0 -0.46513498956741689 0.0054319295304713858 0 -0.45172434592421962 0.0039667023503073863 0 -0.46865509122334031 -0.01968277307456787 0 -0.4622596377357327 -0.01039186637922356 0 -0.47165288971761832 -0.0095033177399844945 0 -0.45546830435127839 -0.019632508941909939 0 -0.45172434592421962 0.0039667023503073863 0 -0.4622596377357327 -0.01039186637922356 0 -0.47165288971761832 -0.0095033177399844945 0 -0.46513498956741689 0.0054319295304713858 0 -0.48086293466603669 -0.024660499887792561 0 -0.48564720099952818 0.00039769645782924973 0 -0.47165288971761832 -0.0095033177399844945 0 -0.48086293466603669 -0.024660499887792561 0 -0.48564720099952818 0.00039769645782924973 0 -0.47165288971761832 -0.0095033177399844945 0 -0.48564720099952818 0.00039769645782924973 0 -0.46513498956741689 0.0054319295304713858 0 -0.46812195261041212 -0.029269558455512251 0 -0.46865509122334031 -0.01968277307456787 0 -0.48086293466603669 -0.024660499887792561 0 -0.46865509122334031 -0.01968277307456787 0 -0.47165288971761832 -0.0095033177399844945 0 -0.48086293466603669 -0.024660499887792561 0 -0.5 -0.043433045056052062 0 -0.48086293466603669 -0.024660499887792561 0 -0.5 -0.01368171241836535 0 -0.48086293466603669 -0.024660499887792561 0 -0.5 -0.01368171241836535 0 -0.48564720099952818 0.00039769645782924973 0 -0.48564720099952818 0.00039769645782924973 0 -0.49043146733301968 0.02545589280345107 0 -0.5 0.016069620219321349 0 -0.48564720099952818 0.00039769645782924973 0 -0.49043146733301968 0.02545589280345107 0 -0.5 -0.01368171241836535 0 -0.48564720099952818 0.00039769645782924973 0 -0.5 0.016069620219321349 0 -0.49043146733301968 0.02545589280345107 0 -0.5 0.016069620219321349 0 -0.5 0.045820952857008053 0 -0.49043146733301968 0.02545589280345107 0 -0.47154547553024168 0.02055644885137501 0 -0.46985267389567631 0.043359265524659421 0 -0.48564720099952818 0.00039769645782924973 0 -0.47154547553024168 0.02055644885137501 0 -0.46513498956741689 0.0054319295304713858 0 -0.48564720099952818 0.00039769645782924973 0 -0.49043146733301968 0.02545589280345107 0 -0.47154547553024168 0.02055644885137501 0 -0.49521573366651123 0.050514089149072842 0 -0.5 0.045820952857008053 0 -0.50000000000000133 0.075572285494694733 0 -0.49043146733301968 0.02545589280345107 0 -0.49521573366651123 0.050514089149072842 0 -0.46985267389567631 0.043359265524659421 0 -0.49043146733301968 0.02545589280345107 0 -0.49521573366651123 0.050514089149072842 0 -0.49043146733301968 0.02545589280345107 0 -0.49521573366651123 0.050514089149072842 0 -0.5 0.045820952857008053 0 -0.46985267389567631 0.043359265524659421 0 -0.46053043879344002 0.067780695342168462 0 -0.48223773754410337 0.06806861768027081 0 -0.49521573366651123 0.050514089149072842 0 -0.46985267389567631 0.043359265524659421 0 -0.48223773754410337 0.06806861768027081 0 -0.46985267389567631 0.043359265524659421 0 -0.44423642907010019 0.051165124934741728 0 -0.46053043879344002 0.067780695342168462 0 -0.46985267389567631 0.043359265524659421 0 -0.44423642907010019 0.051165124934741728 0 -0.44798038749716101 0.027565913642524718 0 -0.44423642907010019 0.051165124934741728 0 -0.44798038749716101 0.027565913642524718 0 -0.4285232778471707 0.035141876213274137 0 -0.44423642907010019 0.051165124934741728 0 -0.44798038749716101 0.027565913642524718 0 -0.44423642907010019 0.051165124934741728 0 -0.42988104689921819 0.059721479963476563 0 -0.44045095793754441 0.075026002355863583 0 -0.44423642907010019 0.051165124934741728 0 -0.46053043879344002 0.067780695342168462 0 -0.46513498956741689 0.0054319295304713858 0 -0.44798038749716101 0.027565913642524718 0 -0.45172434592421962 0.0039667023503073863 0 -0.47154547553024168 0.02055644885137501 0 -0.46985267389567631 0.043359265524659421 0 -0.44798038749716101 0.027565913642524718 0 -0.47154547553024168 0.02055644885137501 0 -0.46513498956741689 0.0054319295304713858 0 -0.44798038749716101 0.027565913642524718 0 -0.44798038749716101 0.027565913642524718 0 -0.45172434592421962 0.0039667023503073863 0 -0.44798038749716101 0.027565913642524718 0 -0.43921605888514031 0.0076621840151965513 0 -0.4285232778471707 0.035141876213274137 0 -0.44798038749716101 0.027565913642524718 0 -0.45172434592421962 0.0039667023503073863 0 -0.43921605888514031 0.0076621840151965513 0 -0.43347961392146023 -0.0028595802463400339 0 -0.43921605888514031 0.0076621840151965513 0 -0.42769670842479812 0.0074315104994249342 0 -0.43921605888514031 0.0076621840151965513 0 -0.42769670842479812 0.0074315104994249342 0 -0.42631583724651989 0.017231800576312881 0 -0.42769670842479812 0.0074315104994249342 0 -0.42030519816928252 0.01383701647143927 0 -0.42631583724651989 0.017231800576312881 0 -0.42769670842479812 0.0074315104994249342 0 -0.41807960538904709 0.0045558752302702768 0 -0.42030519816928252 0.01383701647143927 0 -0.42066580394347891 -0.0030686677817414981 0 -0.42769670842479812 0.0074315104994249342 0 -0.41807960538904709 0.0045558752302702768 0 -0.41324663300947129 -0.0039260215443408762 0 -0.41807960538904709 0.0045558752302702768 0 -0.41088443635769267 0.0024351128412023102 0 -0.41807960538904709 0.0045558752302702768 0 -0.41384122967312309 0.010276749598516001 0 -0.41088443635769267 0.0024351128412023102 0 -0.42030519816928252 0.01383701647143927 0 -0.41384122967312309 0.010276749598516001 0 -0.4158379429062079 0.0220864156822295 0 -0.41807960538904709 0.0045558752302702768 0 -0.42030519816928252 0.01383701647143927 0 -0.41384122967312309 0.010276749598516001 0 -0.41384122967312309 0.010276749598516001 0 -0.4158379429062079 0.0220864156822295 0 -0.40202812620624517 0.00663764390047911 0 -0.4158379429062079 0.0220864156822295 0 -0.40202812620624517 0.00663764390047911 0 -0.4158379429062079 0.0220864156822295 0 -0.40202812620624517 0.00663764390047911 0 -0.40563828413620878 0.011805249395549529 0 -0.41384122967312309 0.010276749598516001 0 -0.41088443635769267 0.0024351128412023102 0 -0.40202812620624517 0.00663764390047911 0 -0.40990192290887839 0.028450715102047549 0 -0.4158379429062079 0.0220864156822295 0 -0.4061243330763914 0.020807500736806841 0 -0.40990192290887839 0.028450715102047549 0 -0.4158379429062079 0.0220864156822295 0 -0.41594848676733898 0.035260759025987007 0 -0.4158379429062079 0.0220864156822295 0 -0.40563828413620878 0.011805249395549529 0 -0.4158379429062079 0.0220864156822295 0 -0.40563828413620878 0.011805249395549529 0 -0.4061243330763914 0.020807500736806841 0 -0.42030519816928252 0.01383701647143927 0 -0.4158379429062079 0.0220864156822295 0 -0.42631583724651989 0.017231800576312881 0 -0.4158379429062079 0.0220864156822295 0 -0.4285232778471707 0.035141876213274137 0 -0.41594848676733898 0.035260759025987007 0 -0.4158379429062079 0.0220864156822295 0 -0.4285232778471707 0.035141876213274137 0 -0.43921605888514031 0.0076621840151965513 0 -0.4285232778471707 0.035141876213274137 0 -0.4158379429062079 0.0220864156822295 0 -0.42631583724651989 0.017231800576312881 0 -0.4285232778471707 0.035141876213274137 0 -0.43921605888514031 0.0076621840151965513 0 -0.42631583724651989 0.017231800576312881 0 -0.4285232778471707 0.035141876213274137 0 -0.44423642907010019 0.051165124934741728 0 -0.42520172428921771 0.043678034306094217 0 -0.4285232778471707 0.035141876213274137 0 -0.44423642907010019 0.051165124934741728 0 -0.4285232778471707 0.035141876213274137 0 -0.42520172428921771 0.043678034306094217 0 -0.4285232778471707 0.035141876213274137 0 -0.42520172428921771 0.043678034306094217 0 -0.4285232778471707 0.035141876213274137 0 -0.41594848676733898 0.035260759025987007 0 -0.42520172428921771 0.043678034306094217 0 -0.42988104689921819 0.059721479963476563 0 -0.41956848002898089 0.053255167948343472 0 -0.44423642907010019 0.051165124934741728 0 -0.42520172428921771 0.043678034306094217 0 -0.42988104689921819 0.059721479963476563 0 -0.42988104689921819 0.059721479963476563 0 -0.41956848002898089 0.053255167948343472 0 -0.4152957655729394 0.067879774962012085 0 -0.41956848002898089 0.053255167948343472 0 -0.40943258713107472 0.053894841354227223 0 -0.4152957655729394 0.067879774962012085 0 -0.41956848002898089 0.053255167948343472 0 -0.40943258713107472 0.053894841354227223 0 -0.41511497582208001 0.044941194741276308 0 -0.42520172428921771 0.043678034306094217 0 -0.41956848002898089 0.053255167948343472 0 -0.41511497582208001 0.044941194741276308 0 -0.40943258713107472 0.053894841354227223 0 -0.4024433618565933 0.063578594603827573 0 -0.4152957655729394 0.067879774962012085 0 -0.42520172428921771 0.043678034306094217 0 -0.41594848676733898 0.035260759025987007 0 -0.41511497582208001 0.044941194741276308 0 -0.40943258713107472 0.053894841354227223 0 -0.41511497582208001 0.044941194741276308 0 -0.40396545067860018 0.040536913864414187 0 -0.41594848676733898 0.035260759025987007 0 -0.41511497582208001 0.044941194741276308 0 -0.40396545067860018 0.040536913864414187 0 -0.40990192290887839 0.028450715102047549 0 -0.41594848676733898 0.035260759025987007 0 -0.40396545067860018 0.040536913864414187 0 -0.40396545067860018 0.040536913864414187 0 -0.39147601000786142 0.031366159184906428 0 -0.38950979462312679 0.048532684559943279 0 -0.40396545067860018 0.040536913864414187 0 -0.39147601000786142 0.031366159184906428 0 -0.4014490664325493 0.027678683795938741 0 -0.40990192290887839 0.028450715102047549 0 -0.40396545067860018 0.040536913864414187 0 -0.4014490664325493 0.027678683795938741 0 -0.40943258713107472 0.053894841354227223 0 -0.39910835117081678 0.053907579673227297 0 -0.4024433618565933 0.063578594603827573 0 -0.40943258713107472 0.053894841354227223 0 -0.40396545067860018 0.040536913864414187 0 -0.39910835117081678 0.053907579673227297 0 -0.40396545067860018 0.040536913864414187 0 -0.39910835117081678 0.053907579673227297 0 -0.38950979462312679 0.048532684559943279 0 -0.39910835117081678 0.053907579673227297 0 -0.38956013603508438 0.063239770527187239 0 -0.4024433618565933 0.063578594603827573 0 -0.39910835117081678 0.053907579673227297 0 -0.38950979462312679 0.048532684559943279 0 -0.38956013603508438 0.063239770527187239 0 -0.378823189839815 0.03909604806771539 0 -0.37412563000658372 0.063049636042209145 0 -0.38950979462312679 0.048532684559943279 0 -0.378823189839815 0.03909604806771539 0 -0.37412563000658372 0.063049636042209145 0 -0.38950979462312679 0.048532684559943279 0 -0.38956013603508438 0.063239770527187239 0 -0.37412563000658372 0.063049636042209145 0 -0.39147601000786142 0.031366159184906428 0 -0.38950979462312679 0.048532684559943279 0 -0.378823189839815 0.03909604806771539 0 -0.39147601000786142 0.031366159184906428 0 -0.378823189839815 0.03909604806771539 0 -0.38352074967304828 0.015142460093222071 0 -0.378823189839815 0.03909604806771539 0 -0.38352074967304828 0.015142460093222071 0 -0.378823189839815 0.03909604806771539 0 -0.38352074967304828 0.015142460093222071 0 -0.37240583582309161 0.025400119615024142 0 -0.39147601000786142 0.031366159184906428 0 -0.38352074967304828 0.015142460093222071 0 -0.39488149505859088 0.01547523039383081 0 -0.36933859948822412 -0.0004439302888986224 0 -0.38821830950628222 -0.0088111278812710685 0 -0.38352074967304828 0.015142460093222071 0 -0.38821830950628222 -0.0088111278812710685 0 -0.38352074967304828 0.015142460093222071 0 -0.38821830950628222 -0.0088111278812710685 0 -0.38352074967304828 0.015142460093222071 0 -0.39488149505859088 0.01547523039383081 0 -0.38821830950628222 -0.0088111278812710685 0 -0.39488149505859088 0.01547523039383081 0 -0.40202812620624517 0.00663764390047911 0 -0.40500532189739991 -0.0035418967092628521 0 -0.41088443635769267 0.0024351128412023102 0 -0.40202812620624517 0.00663764390047911 0 -0.39488149505859088 0.01547523039383081 0 -0.40202812620624517 0.00663764390047911 0 -0.40563828413620878 0.011805249395549529 0 -0.39488149505859088 0.01547523039383081 0 -0.4061243330763914 0.020807500736806841 0 -0.4014490664325493 0.027678683795938741 0 -0.39488149505859088 0.01547523039383081 0 -0.40563828413620878 0.011805249395549529 0 -0.4061243330763914 0.020807500736806841 0 -0.39147601000786142 0.031366159184906428 0 -0.39488149505859088 0.01547523039383081 0 -0.4014490664325493 0.027678683795938741 0 -0.40990192290887839 0.028450715102047549 0 -0.4061243330763914 0.020807500736806841 0 -0.4014490664325493 0.027678683795938741 0 -0.39974501216309732 0.10634675778754921 0 -0.39126987539350838 0.092023655603444943 0 -0.40857924578105392 0.099391750598595591 0 -0.39974501216309732 0.10634675778754921 0 -0.39275843411867328 0.1170839100002684 0 -0.39126987539350838 0.092023655603444943 0 -0.39275843411867328 0.1170839100002684 0 -0.39126987539350838 0.092023655603444943 0 -0.39974501216309732 0.10634675778754921 0 -0.39126987539350838 0.092023655603444943 0 -0.39974501216309732 0.10634675778754921 0 -0.40857924578105392 0.099391750598595591 0 -0.40933818870613081 0.1097356457976169 0 -0.39974501216309732 0.10634675778754921 0 -0.40822014893268682 0.120669859971653 0 -0.40933818870613081 0.1097356457976169 0 -0.39974501216309732 0.10634675778754921 0 -0.39275843411867328 0.1170839100002684 0 -0.40822014893268682 0.120669859971653 0 -0.39275843411867328 0.1170839100002684 0 -0.40822014893268682 0.120669859971653 0 -0.41033554470758682 0.12820438943905521 0 -0.39974501216309732 0.10634675778754921 0 -0.40822014893268682 0.120669859971653 0 -0.39275843411867328 0.1170839100002684 0 -0.37853037782034571 0.11479208822673689 0 -0.37437258627236542 0.12890371469479259 0 -0.39275843411867328 0.1170839100002684 0 -0.37853037782034571 0.11479208822673689 0 -0.37761936588316741 0.1004094566761367 0 -0.39275843411867328 0.1170839100002684 0 -0.37761936588316741 0.1004094566761367 0 -0.39126987539350838 0.092023655603444943 0 -0.37761936588316741 0.1004094566761367 0 -0.38027383380681551 0.089140916853956212 0 -0.39126987539350838 0.092023655603444943 0 -0.37761936588316741 0.1004094566761367 0 -0.38027383380681551 0.089140916853956212 0 -0.3695083412505395 0.086593909313416401 0 -0.38027383380681551 0.089140916853956212 0 -0.38269775270004641 0.077536645822826877 0 -0.3695083412505395 0.086593909313416401 0 -0.38269775270004641 0.077536645822826877 0 -0.39126987539350838 0.092023655603444943 0 -0.38027383380681551 0.089140916853956212 0 -0.38269775270004641 0.077536645822826877 0 -0.39126987539350838 0.092023655603444943 0 -0.38269775270004641 0.077536645822826877 0 -0.37412563000658372 0.063049636042209145 0 -0.3695083412505395 0.086593909313416401 0 -0.38956013603508438 0.063239770527187239 0 -0.39126987539350838 0.092023655603444943 0 -0.38269775270004641 0.077536645822826877 0 -0.38956013603508438 0.063239770527187239 0 -0.39126987539350838 0.092023655603444943 0 -0.38269775270004641 0.077536645822826877 0 -0.38956013603508438 0.063239770527187239 0 -0.37412563000658372 0.063049636042209145 0 -0.38269775270004641 0.077536645822826877 0 -0.37412563000658372 0.063049636042209145 0 -0.38956013603508438 0.063239770527187239 0 -0.40141988574119392 0.075047284515241813 0 -0.39126987539350838 0.092023655603444943 0 -0.38956013603508438 0.063239770527187239 0 -0.40141988574119392 0.075047284515241813 0 -0.4024433618565933 0.063578594603827573 0 -0.39126987539350838 0.092023655603444943 0 -0.40983024803191548 0.086552765886116073 0 -0.40857924578105392 0.099391750598595591 0 -0.40141988574119392 0.075047284515241813 0 -0.39126987539350838 0.092023655603444943 0 -0.40983024803191548 0.086552765886116073 0 -0.40983024803191548 0.086552765886116073 0 -0.4152957655729394 0.067879774962012085 0 -0.42657684505021348 0.083357347047406605 0 -0.40983024803191548 0.086552765886116073 0 -0.42657684505021348 0.083357347047406605 0 -0.4189129809442293 0.098190971370056446 0 -0.40141988574119392 0.075047284515241813 0 -0.40983024803191548 0.086552765886116073 0 -0.4152957655729394 0.067879774962012085 0 -0.40141988574119392 0.075047284515241813 0 -0.4024433618565933 0.063578594603827573 0 -0.4152957655729394 0.067879774962012085 0 -0.42988104689921819 0.059721479963476563 0 -0.4152957655729394 0.067879774962012085 0 -0.42657684505021348 0.083357347047406605 0 -0.42988104689921819 0.059721479963476563 0 -0.42657684505021348 0.083357347047406605 0 -0.44045095793754441 0.075026002355863583 0 -0.42657684505021348 0.083357347047406605 0 -0.43126845361929728 0.10010452027074281 0 -0.4413655972566517 0.089987031503718784 0 -0.42657684505021348 0.083357347047406605 0 -0.44045095793754441 0.075026002355863583 0 -0.4413655972566517 0.089987031503718784 0 -0.42657684505021348 0.083357347047406605 0 -0.43126845361929728 0.10010452027074281 0 -0.4189129809442293 0.098190971370056446 0 -0.43126845361929728 0.10010452027074281 0 -0.42417955623431008 0.110633902559287 0 -0.43664339076383379 0.1119759113111297 0 -0.43126845361929728 0.10010452027074281 0 -0.4189129809442293 0.098190971370056446 0 -0.42417955623431008 0.110633902559287 0 -0.4189129809442293 0.098190971370056446 0 -0.41487903430584738 0.1072465081225729 0 -0.42417955623431008 0.110633902559287 0 -0.4189129809442293 0.098190971370056446 0 -0.41487903430584738 0.1072465081225729 0 -0.40857924578105392 0.099391750598595591 0 -0.41487903430584738 0.1072465081225729 0 -0.40857924578105392 0.099391750598595591 0 -0.40933818870613081 0.1097356457976169 0 -0.40983024803191548 0.086552765886116073 0 -0.4189129809442293 0.098190971370056446 0 -0.40857924578105392 0.099391750598595591 0 -0.41382272674787102 0.12121241662844449 0 -0.40822014893268682 0.120669859971653 0 -0.41526750234796872 0.1150233525077137 0 -0.41382272674787102 0.12121241662844449 0 -0.40822014893268682 0.120669859971653 0 -0.41033554470758682 0.12820438943905521 0 -0.40822014893268682 0.120669859971653 0 -0.40933818870613081 0.1097356457976169 0 -0.41526750234796872 0.1150233525077137 0 -0.41487903430584738 0.1072465081225729 0 -0.40933818870613081 0.1097356457976169 0 -0.41526750234796872 0.1150233525077137 0 -0.41526750234796872 0.1150233525077137 0 -0.42314147291976012 0.12054477068340499 0 -0.42417955623431008 0.110633902559287 0 -0.41487903430584738 0.1072465081225729 0 -0.41526750234796872 0.1150233525077137 0 -0.42417955623431008 0.110633902559287 0 -0.41382272674787102 0.12121241662844449 0 -0.41526750234796872 0.1150233525077137 0 -0.42314147291976012 0.12054477068340499 0 -0.41382272674787102 0.12121241662844449 0 -0.42314147291976012 0.12054477068340499 0 -0.41033554470758682 0.12820438943905521 0 -0.42314147291976012 0.12054477068340499 0 -0.427578916598015 0.12738546973202461 0 -0.43661566594034812 0.12695629774809031 0 -0.42314147291976012 0.12054477068340499 0 -0.42417955623431008 0.110633902559287 0 -0.43206522228774952 0.11789721821460659 0 -0.42417955623431008 0.110633902559287 0 -0.43664339076383379 0.1119759113111297 0 -0.43206522228774952 0.11789721821460659 0 -0.43664339076383379 0.1119759113111297 0 -0.43206522228774952 0.11789721821460659 0 -0.43920023284636373 0.1190903202846807 0 -0.42314147291976012 0.12054477068340499 0 -0.43206522228774952 0.11789721821460659 0 -0.43661566594034812 0.12695629774809031 0 -0.43206522228774952 0.11789721821460659 0 -0.43920023284636373 0.1190903202846807 0 -0.43661566594034812 0.12695629774809031 0 -0.4493808082944602 0.11843788207696571 0 -0.46289578717310931 0.12570820605712549 0 -0.43661566594034812 0.12695629774809031 0 -0.43920023284636373 0.1190903202846807 0 -0.4493808082944602 0.11843788207696571 0 -0.43661566594034812 0.12695629774809031 0 -0.4493808082944602 0.11843788207696571 0 -0.44496915391188169 0.1042578449849189 0 -0.45810496010314 0.1085597584265106 0 -0.43664339076383379 0.1119759113111297 0 -0.43920023284636373 0.1190903202846807 0 -0.4493808082944602 0.11843788207696571 0 -0.43664339076383379 0.1119759113111297 0 -0.4493808082944602 0.11843788207696571 0 -0.44496915391188169 0.1042578449849189 0 -0.43126845361929728 0.10010452027074281 0 -0.43664339076383379 0.1119759113111297 0 -0.44496915391188169 0.1042578449849189 0 -0.43126845361929728 0.10010452027074281 0 -0.44496915391188169 0.1042578449849189 0 -0.4413655972566517 0.089987031503718784 0 -0.44496915391188169 0.1042578449849189 0 -0.45305171343390732 0.096481966320445922 0 -0.4413655972566517 0.089987031503718784 0 -0.44496915391188169 0.1042578449849189 0 -0.45305171343390732 0.096481966320445922 0 -0.45810496010314 0.1085597584265106 0 -0.45305171343390732 0.096481966320445922 0 -0.45810496010314 0.1085597584265106 0 -0.46725129378938141 0.097364381519026572 0 -0.45810496010314 0.1085597584265106 0 -0.46725129378938141 0.097364381519026572 0 -0.47271179145628278 0.1112154712472103 0 -0.4493808082944602 0.11843788207696571 0 -0.45810496010314 0.1085597584265106 0 -0.46289578717310931 0.12570820605712549 0 -0.45810496010314 0.1085597584265106 0 -0.47271179145628278 0.1112154712472103 0 -0.46289578717310931 0.12570820605712549 0 -0.44423642907010019 0.051165124934741728 0 -0.44045095793754441 0.075026002355863583 0 -0.46053043879344002 0.067780695342168462 0 -0.44045095793754441 0.075026002355863583 0 -0.45670781539259531 0.085023117861200675 0 -0.46053043879344002 0.067780695342168462 0 -0.44423642907010019 0.051165124934741728 0 -0.44045095793754441 0.075026002355863583 0 -0.44045095793754441 0.075026002355863583 0 -0.4413655972566517 0.089987031503718784 0 -0.45670781539259531 0.085023117861200675 0 -0.45305171343390732 0.096481966320445922 0 -0.4413655972566517 0.089987031503718784 0 -0.45670781539259531 0.085023117861200675 0 -0.46725129378938141 0.097364381519026572 0 -0.45670781539259531 0.085023117861200675 0 -0.47682444851678052 0.084396265749594301 0 -0.45670781539259531 0.085023117861200675 0 -0.46053043879344002 0.067780695342168462 0 -0.47682444851678052 0.084396265749594301 0 -0.45305171343390732 0.096481966320445922 0 -0.46725129378938141 0.097364381519026572 0 -0.45670781539259531 0.085023117861200675 0 -0.46053043879344002 0.067780695342168462 0 -0.47682444851678052 0.084396265749594301 0 -0.46053043879344002 0.067780695342168462 0 -0.48223773754410337 0.06806861768027081 0 -0.47682444851678052 0.084396265749594301 0 -0.48223773754410337 0.06806861768027081 0 -0.47682444851678052 0.084396265749594301 0 -0.49100313039221011 0.086789104821435412 0 -0.47682444851678052 0.084396265749594301 0 -0.49311845824012102 0.1010118361570201 0 -0.49100313039221011 0.086789104821435412 0 -0.50000000000000133 0.075572285494694733 0 -0.5 0.099871286315795504 0 -0.47682444851678052 0.084396265749594301 0 -0.49100313039221011 0.086789104821435412 0 -0.49311845824012102 0.1010118361570201 0 -0.49521573366651123 0.050514089149072842 0 -0.50000000000000133 0.075572285494694733 0 -0.49521573366651123 0.050514089149072842 0 -0.48223773754410337 0.06806861768027081 0 -0.50000000000000133 0.075572285494694733 0 -0.48223773754410337 0.06806861768027081 0 -0.49100313039221011 0.086789104821435412 0 -0.50000000000000133 0.075572285494694733 0 -0.4817247595326275 0.115780353691101 0 -0.47271179145628278 0.1112154712472103 0 -0.46289578717310931 0.12570820605712549 0 -0.4817247595326275 0.115780353691101 0 -0.48917590840587039 0.1244601143661606 0 -0.46289578717310931 0.12570820605712549 0 -0.4817247595326275 0.115780353691101 0 -0.47271179145628278 0.1112154712472103 0 -0.48165776429706858 0.10368009070121149 0 -0.46725129378938141 0.097364381519026572 0 -0.47271179145628278 0.1112154712472103 0 -0.48165776429706858 0.10368009070121149 0 -0.47682444851678052 0.084396265749594301 0 -0.48165776429706858 0.10368009070121149 0 -0.49311845824012102 0.1010118361570201 0 -0.46725129378938141 0.097364381519026572 0 -0.47682444851678052 0.084396265749594301 0 -0.48165776429706858 0.10368009070121149 0 -0.48165776429706858 0.10368009070121149 0 -0.49311845824012102 0.1010118361570201 0 -0.49290423690789659 0.1125818568500636 0 -0.49100313039221011 0.086789104821435412 0 -0.49311845824012102 0.1010118361570201 0 -0.5 0.099871286315795504 0 -0.49311845824012102 0.1010118361570201 0 -0.5 0.099871286315795504 0 -0.49290423690789659 0.1125818568500636 0 -0.5 0.099871286315795504 0 -0.49290423690789659 0.1125818568500636 0 -0.5 0.1241702871368963 0 -0.4817247595326275 0.115780353691101 0 -0.48165776429706858 0.10368009070121149 0 -0.49290423690789659 0.1125818568500636 0 -0.4817247595326275 0.115780353691101 0 -0.49290423690789659 0.1125818568500636 0 -0.48917590840587039 0.1244601143661606 0 -0.49290423690789659 0.1125818568500636 0 -0.48917590840587039 0.1244601143661606 0 -0.5 0.1241702871368963 0 -0.5 0.1241702871368963 0 -0.48876393788881017 0.13627598938008259 0 -0.49999999999999889 0.1484692879579971 0 -0.48917590840587039 0.1244601143661606 0 -0.5 0.1241702871368963 0 -0.48876393788881017 0.13627598938008259 0 -0.48917590840587039 0.1244601143661606 0 -0.48876393788881017 0.13627598938008259 0 -0.47565453053980361 0.13505565514675269 0 -0.48917590840587039 0.1244601143661606 0 -0.47565453053980361 0.13505565514675269 0 -0.46289578717310931 0.12570820605712549 0 -0.48917590840587039 0.1244601143661606 0 -0.46289578717310931 0.12570820605712549 0 -0.48876393788881017 0.13627598938008259 0 -0.47565453053980361 0.13505565514675269 0 -0.47898925049837687 0.1492246022926064 0 -0.47565453053980361 0.13505565514675269 0 -0.47898925049837687 0.1492246022926064 0 -0.45971588570656319 0.13823391472163121 0 -0.47898925049837687 0.1492246022926064 0 -0.47064342762859818 0.16123738568058019 0 -0.45797850099675502 0.1499799166272158 0 -0.48876393788881017 0.13627598938008259 0 -0.47898925049837687 0.1492246022926064 0 -0.49999999999999889 0.1484692879579971 0 -0.47898925049837687 0.1492246022926064 0 -0.49999999999999889 0.1484692879579971 0 -0.48479590795340138 0.1666199720225478 0 -0.47898925049837687 0.1492246022926064 0 -0.49999999999999889 0.1484692879579971 0 -0.49999999999999889 0.1484692879579971 0 -0.48479590795340138 0.1666199720225478 0 -0.5 0.1780109851791519 0 -0.48479590795340138 0.1666199720225478 0 -0.5 0.1780109851791519 0 -0.4846580174193772 0.18657565287103331 0 -0.48479590795340138 0.1666199720225478 0 -0.4846580174193772 0.18657565287103331 0 -0.47232378645303491 0.175673182389746 0 -0.4846580174193772 0.18657565287103331 0 -0.47232378645303491 0.175673182389746 0 -0.47209416157927198 0.19118928130106549 0 -0.47898925049837687 0.1492246022926064 0 -0.48479590795340138 0.1666199720225478 0 -0.47064342762859818 0.16123738568058019 0 -0.48479590795340138 0.1666199720225478 0 -0.47232378645303491 0.175673182389746 0 -0.47064342762859818 0.16123738568058019 0 -0.47064342762859818 0.16123738568058019 0 -0.45912969224142319 0.1646892550707848 0 -0.45797850099675502 0.1499799166272158 0 -0.47232378645303491 0.175673182389746 0 -0.47064342762859818 0.16123738568058019 0 -0.45912969224142319 0.1646892550707848 0 -0.45912969224142319 0.1646892550707848 0 -0.44593796407678449 0.16106457269121341 0 -0.45797850099675502 0.1499799166272158 0 -0.45912969224142319 0.1646892550707848 0 -0.45916214133762062 0.18472443469785321 0 -0.44795994817827178 0.17948381793247231 0 -0.47232378645303491 0.175673182389746 0 -0.45912969224142319 0.1646892550707848 0 -0.45916214133762062 0.18472443469785321 0 -0.47232378645303491 0.175673182389746 0 -0.45916214133762062 0.18472443469785321 0 -0.47209416157927198 0.19118928130106549 0 -0.44065200127261023 0.1895907383390022 0 -0.43675118487313519 0.17120178642013789 0 -0.44795994817827178 0.17948381793247231 0 -0.44065200127261023 0.1895907383390022 0 -0.43675118487313519 0.17120178642013789 0 -0.45916214133762062 0.18472443469785321 0 -0.44795994817827178 0.17948381793247231 0 -0.45004238882164982 0.18753143321897511 0 -0.44795994817827178 0.17948381793247231 0 -0.45004238882164982 0.18753143321897511 0 -0.44065200127261023 0.1895907383390022 0 -0.45912969224142319 0.1646892550707848 0 -0.44795994817827178 0.17948381793247231 0 -0.43675118487313519 0.17120178642013789 0 -0.45912969224142319 0.1646892550707848 0 -0.44593796407678449 0.16106457269121341 0 -0.43675118487313519 0.17120178642013789 0 -0.45912969224142319 0.1646892550707848 0 -0.43675118487313519 0.17120178642013789 0 -0.44593796407678449 0.16106457269121341 0 -0.43696775149513312 0.15073523096182531 0 -0.43675118487313519 0.17120178642013789 0 -0.44593796407678449 0.16106457269121341 0 -0.45797850099675502 0.1499799166272158 0 -0.43696775149513312 0.15073523096182531 0 -0.44413150755175868 0.1448158388456077 0 -0.45797850099675502 0.1499799166272158 0 -0.43696775149513312 0.15073523096182531 0 -0.45797850099675502 0.1499799166272158 0 -0.43696775149513312 0.15073523096182531 0 -0.44881471318470839 0.1412513929177418 0 -0.44413150755175868 0.1448158388456077 0 -0.45797850099675502 0.1499799166272158 0 -0.44881471318470839 0.1412513929177418 0 -0.44413150755175868 0.1448158388456077 0 -0.44016466233856749 0.13839256695714949 0 -0.44413150755175868 0.1448158388456077 0 -0.43673190974362919 0.14372008676410589 0 -0.43696775149513312 0.15073523096182531 0 -0.44413150755175868 0.1448158388456077 0 -0.44016466233856749 0.13839256695714949 0 -0.43673190974362919 0.14372008676410589 0 -0.44964134286865942 0.1341084756803477 0 -0.46289578717310931 0.12570820605712549 0 -0.43661566594034812 0.12695629774809031 0 -0.44016466233856749 0.13839256695714949 0 -0.44964134286865942 0.1341084756803477 0 -0.43661566594034812 0.12695629774809031 0 -0.46289578717310931 0.12570820605712549 0 -0.43661566594034812 0.12695629774809031 0 -0.44881471318470839 0.1412513929177418 0 -0.44964134286865942 0.1341084756803477 0 -0.45971588570656319 0.13823391472163121 0 -0.44881471318470839 0.1412513929177418 0 -0.44016466233856749 0.13839256695714949 0 -0.44964134286865942 0.1341084756803477 0 -0.47565453053980361 0.13505565514675269 0 -0.45971588570656319 0.13823391472163121 0 -0.46289578717310931 0.12570820605712549 0 -0.44964134286865942 0.1341084756803477 0 -0.45971588570656319 0.13823391472163121 0 -0.46289578717310931 0.12570820605712549 0 -0.47898925049837687 0.1492246022926064 0 -0.45797850099675502 0.1499799166272158 0 -0.47898925049837687 0.1492246022926064 0 -0.45971588570656319 0.13823391472163121 0 -0.45797850099675502 0.1499799166272158 0 -0.44881471318470839 0.1412513929177418 0 -0.45971588570656319 0.13823391472163121 0 -0.45797850099675502 0.1499799166272158 0 -0.47535244210990601 0.24950426809701751 0 -0.48913205550528949 0.23449748088061281 0 -0.45981304281472068 0.2444485708445272 0 -0.48913205550528949 0.23449748088061281 0 -0.46247166188482508 0.2281269714749749 0 -0.45981304281472068 0.2444485708445272 0 -0.47535244210990601 0.24950426809701751 0 -0.48913205550528949 0.23449748088061281 0 -0.48916327443797081 0.247883965171216 0 -0.50000000000000133 0.2370943796214616 0 -0.5 0.25574299280684493 0 -0.47535244210990601 0.24950426809701751 0 -0.48916327443797081 0.247883965171216 0 -0.48913205550528949 0.23449748088061281 0 -0.48916327443797081 0.247883965171216 0 -0.50000000000000133 0.2370943796214616 0 -0.48913205550528949 0.23449748088061281 0 -0.50000000000000133 0.2370943796214616 0 -0.48913205550528949 0.23449748088061281 0 -0.48913205550528949 0.23449748088061281 0 -0.49823006080766091 0.22458923267735481 0 -0.48712395297058081 0.22356961644454229 0 -0.50000000000000133 0.2370943796214616 0 -0.49823006080766091 0.22458923267735481 0 -0.5 0.2075526824003068 0 -0.50000000000000133 0.2370943796214616 0 -0.48913205550528949 0.23449748088061281 0 -0.49823006080766091 0.22458923267735481 0 -0.48913205550528949 0.23449748088061281 0 -0.49823006080766091 0.22458923267735481 0 -0.48712395297058081 0.22356961644454229 0 -0.48129471542447028 0.21816990210354251 0 -0.48832705446352948 0.21463773068666239 0 -0.49823006080766091 0.22458923267735481 0 -0.48712395297058081 0.22356961644454229 0 -0.48832705446352948 0.21463773068666239 0 -0.48913205550528949 0.23449748088061281 0 -0.46247166188482508 0.2281269714749749 0 -0.48712395297058081 0.22356961644454229 0 -0.47592652655421658 0.2235602604955757 0 -0.48129471542447028 0.21816990210354251 0 -0.48913205550528949 0.23449748088061281 0 -0.47592652655421658 0.2235602604955757 0 -0.46247166188482508 0.2281269714749749 0 -0.48913205550528949 0.23449748088061281 0 -0.48712395297058081 0.22356961644454229 0 -0.47592652655421658 0.2235602604955757 0 -0.47592652655421658 0.2235602604955757 0 -0.47065795684773332 0.2141351833743638 0 -0.46352414064353292 0.22166567100593651 0 -0.47592652655421658 0.2235602604955757 0 -0.47065795684773332 0.2141351833743638 0 -0.48129471542447028 0.21816990210354251 0 -0.47065795684773332 0.2141351833743638 0 -0.47177572500571918 0.20383043836760331 0 -0.47895022051893038 0.21054959099960829 0 -0.47065795684773332 0.2141351833743638 0 -0.47177572500571918 0.20383043836760331 0 -0.46381914049172751 0.20715883129709819 0 -0.47895022051893038 0.21054959099960829 0 -0.48832705446352948 0.21463773068666239 0 -0.48332175116813242 0.2024225431444068 0 -0.47177572500571918 0.20383043836760331 0 -0.47895022051893038 0.21054959099960829 0 -0.48332175116813242 0.2024225431444068 0 -0.47895022051893038 0.21054959099960829 0 -0.48129471542447028 0.21816990210354251 0 -0.48832705446352948 0.21463773068666239 0 -0.47065795684773332 0.2141351833743638 0 -0.47895022051893038 0.21054959099960829 0 -0.48129471542447028 0.21816990210354251 0 -0.49823006080766091 0.22458923267735481 0 -0.48832705446352948 0.21463773068666239 0 -0.5 0.2075526824003068 0 -0.48832705446352948 0.21463773068666239 0 -0.5 0.2075526824003068 0 -0.48332175116813242 0.2024225431444068 0 -0.5 0.1780109851791519 0 -0.4846580174193772 0.18657565287103331 0 -0.5 0.2075526824003068 0 -0.4846580174193772 0.18657565287103331 0 -0.5 0.2075526824003068 0 -0.48332175116813242 0.2024225431444068 0 -0.4846580174193772 0.18657565287103331 0 -0.48332175116813242 0.2024225431444068 0 -0.47209416157927198 0.19118928130106549 0 -0.47177572500571918 0.20383043836760331 0 -0.48332175116813242 0.2024225431444068 0 -0.47209416157927198 0.19118928130106549 0 -0.45916214133762062 0.18472443469785321 0 -0.47209416157927198 0.19118928130106549 0 -0.46212416958598629 0.1977511214283465 0 -0.47177572500571918 0.20383043836760331 0 -0.47209416157927198 0.19118928130106549 0 -0.46212416958598629 0.1977511214283465 0 -0.47177572500571918 0.20383043836760331 0 -0.46212416958598629 0.1977511214283465 0 -0.46381914049172751 0.20715883129709819 0 -0.46212416958598629 0.1977511214283465 0 -0.45239546449809681 0.1963267419065727 0 -0.45377957441429118 0.20835911934547041 0 -0.45916214133762062 0.18472443469785321 0 -0.45004238882164982 0.18753143321897511 0 -0.45239546449809681 0.1963267419065727 0 -0.45916214133762062 0.18472443469785321 0 -0.46212416958598629 0.1977511214283465 0 -0.45239546449809681 0.1963267419065727 0 -0.44065200127261023 0.1895907383390022 0 -0.4445528176720851 0.2079796902578665 0 -0.44065200127261023 0.1895907383390022 0 -0.45239546449809681 0.1963267419065727 0 -0.4445528176720851 0.2079796902578665 0 -0.45004238882164982 0.18753143321897511 0 -0.44065200127261023 0.1895907383390022 0 -0.45239546449809681 0.1963267419065727 0 -0.44065200127261023 0.1895907383390022 0 -0.4445528176720851 0.2079796902578665 0 -0.43533406178714218 0.2010584620775146 0 -0.44191055461502771 0.2192074648305965 0 -0.43533406178714218 0.2010584620775146 0 -0.4445528176720851 0.2079796902578665 0 -0.44191055461502771 0.2192074648305965 0 -0.43533406178714218 0.2010584620775146 0 -0.45239546449809681 0.1963267419065727 0 -0.4445528176720851 0.2079796902578665 0 -0.45377957441429118 0.20835911934547041 0 -0.4445528176720851 0.2079796902578665 0 -0.44708305801073939 0.214753503808046 0 -0.45377957441429118 0.20835911934547041 0 -0.4445528176720851 0.2079796902578665 0 -0.44708305801073939 0.214753503808046 0 -0.44191055461502771 0.2192074648305965 0 -0.44191055461502771 0.2192074648305965 0 -0.4346325954034036 0.21182820830243321 0 -0.43662175963524952 0.21751620842581371 0 -0.44708305801073939 0.214753503808046 0 -0.45254288085315358 0.21604929707436649 0 -0.44357568469493142 0.22361177180723479 0 -0.44708305801073939 0.214753503808046 0 -0.45254288085315358 0.21604929707436649 0 -0.45377957441429118 0.20835911934547041 0 -0.45254288085315358 0.21604929707436649 0 -0.4604336476160048 0.21417488075949989 0 -0.4570371858773008 0.22035120544260639 0 -0.45254288085315358 0.21604929707436649 0 -0.4604336476160048 0.21417488075949989 0 -0.45377957441429118 0.20835911934547041 0 -0.4604336476160048 0.21417488075949989 0 -0.46352414064353292 0.22166567100593651 0 -0.4570371858773008 0.22035120544260639 0 -0.4604336476160048 0.21417488075949989 0 -0.45377957441429118 0.20835911934547041 0 -0.46381914049172751 0.20715883129709819 0 -0.46212416958598629 0.1977511214283465 0 -0.45377957441429118 0.20835911934547041 0 -0.46381914049172751 0.20715883129709819 0 -0.47065795684773332 0.2141351833743638 0 -0.4604336476160048 0.21417488075949989 0 -0.46381914049172751 0.20715883129709819 0 -0.47065795684773332 0.2141351833743638 0 -0.4604336476160048 0.21417488075949989 0 -0.46352414064353292 0.22166567100593651 0 -0.46247166188482508 0.2281269714749749 0 -0.4570371858773008 0.22035120544260639 0 -0.44357568469493142 0.22361177180723479 0 -0.47592652655421658 0.2235602604955757 0 -0.46352414064353292 0.22166567100593651 0 -0.46247166188482508 0.2281269714749749 0 -0.46352414064353292 0.22166567100593651 0 -0.46247166188482508 0.2281269714749749 0 -0.4570371858773008 0.22035120544260639 0 -0.46352414064353292 0.22166567100593651 0 -0.46247166188482508 0.2281269714749749 0 -0.44357568469493142 0.22361177180723479 0 -0.45036505421977402 0.24219097101065759 0 -0.46247166188482508 0.2281269714749749 0 -0.44357568469493142 0.22361177180723479 0 -0.45036505421977402 0.24219097101065759 0 -0.44357568469493142 0.22361177180723479 0 -0.440724559039954 0.22293049443900601 0 -0.43379821853527623 0.24467338397315699 0 -0.46247166188482508 0.2281269714749749 0 -0.44357568469493142 0.22361177180723479 0 -0.45254288085315358 0.21604929707436649 0 -0.4570371858773008 0.22035120544260639 0 -0.44357568469493142 0.22361177180723479 0 -0.44191055461502771 0.2192074648305965 0 -0.44357568469493142 0.22361177180723479 0 -0.440724559039954 0.22293049443900601 0 -0.44191055461502771 0.2192074648305965 0 -0.44357568469493142 0.22361177180723479 0 -0.44708305801073939 0.214753503808046 0 -0.44191055461502771 0.2192074648305965 0 -0.44357568469493142 0.22361177180723479 0 -0.44357568469493142 0.22361177180723479 0 -0.440724559039954 0.22293049443900601 0 -0.44191055461502771 0.2192074648305965 0 -0.440724559039954 0.22293049443900601 0 -0.43662175963524952 0.21751620842581371 0 -0.44191055461502771 0.2192074648305965 0 -0.440724559039954 0.22293049443900601 0 -0.44357568469493142 0.22361177180723479 0 -0.45036505421977402 0.24219097101065759 0 -0.43379821853527623 0.24467338397315699 0 -0.45036505421977402 0.24219097101065759 0 -0.43379821853527623 0.24467338397315699 0 -0.44462105563271109 0.25670510479446867 0 -0.46247166188482508 0.2281269714749749 0 -0.45036505421977402 0.24219097101065759 0 -0.45981304281472068 0.2444485708445272 0 -0.45036505421977402 0.24219097101065759 0 -0.45981304281472068 0.2444485708445272 0 -0.45715442374461801 0.26077017021407978 0 -0.46247166188482508 0.2281269714749749 0 -0.45981304281472068 0.2444485708445272 0 -0.41605306156336558 0.24779447805732691 0 -0.41294193147069319 0.2267772894132272 0 -0.3961318641724631 0.23358944961267999 0 -0.41605306156336558 0.24779447805732691 0 -0.4262491595760578 0.23079924826144221 0 -0.41294193147069319 0.2267772894132272 0 -0.41605306156336558 0.24779447805732691 0 -0.43379821853527623 0.24467338397315699 0 -0.4262491595760578 0.23079924826144221 0 -0.440724559039954 0.22293049443900601 0 -0.43379821853527623 0.24467338397315699 0 -0.4262491595760578 0.23079924826144221 0 -0.440724559039954 0.22293049443900601 0 -0.43379821853527623 0.24467338397315699 0 -0.440724559039954 0.22293049443900601 0 -0.4262491595760578 0.23079924826144221 0 -0.43179034560845841 0.220795661341357 0 -0.440724559039954 0.22293049443900601 0 -0.43179034560845841 0.220795661341357 0 -0.440724559039954 0.22293049443900601 0 -0.43179034560845841 0.220795661341357 0 -0.43662175963524952 0.21751620842581371 0 -0.4262491595760578 0.23079924826144221 0 -0.43179034560845841 0.220795661341357 0 -0.42220967221947281 0.2213187177956826 0 -0.4262491595760578 0.23079924826144221 0 -0.42220967221947281 0.2213187177956826 0 -0.41294193147069319 0.2267772894132272 0 -0.42220967221947281 0.2213187177956826 0 -0.41294193147069319 0.2267772894132272 0 -0.41400885315821973 0.20741635465681371 0 -0.41294193147069319 0.2267772894132272 0 -0.41400885315821973 0.20741635465681371 0 -0.40372495515928231 0.21921191496369891 0 -0.42220967221947281 0.2213187177956826 0 -0.41400885315821973 0.20741635465681371 0 -0.42638245386016771 0.21362339499484939 0 -0.43179034560845841 0.220795661341357 0 -0.42220967221947281 0.2213187177956826 0 -0.42638245386016771 0.21362339499484939 0 -0.44191055461502771 0.2192074648305965 0 -0.4346325954034036 0.21182820830243321 0 -0.43533406178714218 0.2010584620775146 0 -0.43179034560845841 0.220795661341357 0 -0.4346325954034036 0.21182820830243321 0 -0.43662175963524952 0.21751620842581371 0 -0.43179034560845841 0.220795661341357 0 -0.42638245386016771 0.21362339499484939 0 -0.4346325954034036 0.21182820830243321 0 -0.4346325954034036 0.21182820830243321 0 -0.42649191782211121 0.20590885433536921 0 -0.43533406178714218 0.2010584620775146 0 -0.42638245386016771 0.21362339499484939 0 -0.4346325954034036 0.21182820830243321 0 -0.42649191782211121 0.20590885433536921 0 -0.41400885315821973 0.20741635465681371 0 -0.42638245386016771 0.21362339499484939 0 -0.42649191782211121 0.20590885433536921 0 -0.42649191782211121 0.20590885433536921 0 -0.4221016249016229 0.19561785164523501 0 -0.43533406178714218 0.2010584620775146 0 -0.43533406178714218 0.2010584620775146 0 -0.42870845667701257 0.1829274063537267 0 -0.4221016249016229 0.19561785164523501 0 -0.43533406178714218 0.2010584620775146 0 -0.42870845667701257 0.1829274063537267 0 -0.44065200127261023 0.1895907383390022 0 -0.43533406178714218 0.2010584620775146 0 -0.42870845667701257 0.1829274063537267 0 -0.4221016249016229 0.19561785164523501 0 -0.40460562730583838 0.19546372891946071 0 -0.41061722383557708 0.17880721951443909 0 -0.41400885315821973 0.20741635465681371 0 -0.4221016249016229 0.19561785164523501 0 -0.40460562730583838 0.19546372891946071 0 -0.41400885315821973 0.20741635465681371 0 -0.42649191782211121 0.20590885433536921 0 -0.4221016249016229 0.19561785164523501 0 -0.40460562730583838 0.19546372891946071 0 -0.39181717183575288 0.20906456617207461 0 -0.3844832627980192 0.18641265260874079 0 -0.37511823529975852 0.20315917371936049 0 -0.39181717183575288 0.20906456617207461 0 -0.3844832627980192 0.18641265260874079 0 -0.37511823529975852 0.20315917371936049 0 -0.39181717183575288 0.20906456617207461 0 -0.38010721481574627 0.2214306265789831 0 -0.41400885315821973 0.20741635465681371 0 -0.40460562730583838 0.19546372891946071 0 -0.39181717183575288 0.20906456617207461 0 -0.41400885315821973 0.20741635465681371 0 -0.39181717183575288 0.20906456617207461 0 -0.40372495515928231 0.21921191496369891 0 -0.39181717183575288 0.20906456617207461 0 -0.3961318641724631 0.23358944961267999 0 -0.41294193147069319 0.2267772894132272 0 -0.40372495515928231 0.21921191496369891 0 -0.3961318641724631 0.23358944961267999 0 -0.39181717183575288 0.20906456617207461 0 -0.40372495515928231 0.21921191496369891 0 -0.3961318641724631 0.23358944961267999 0 -0.39181717183575288 0.20906456617207461 0 -0.3961318641724631 0.23358944961267999 0 -0.38010721481574627 0.2214306265789831 0 -0.3961318641724631 0.23358944961267999 0 -0.38010721481574627 0.2214306265789831 0 -0.38310929377983571 0.2368749301038639 0 -0.38010721481574627 0.2214306265789831 0 -0.38310929377983571 0.2368749301038639 0 -0.37064371362837262 0.23132679369821199 0 -0.3961318641724631 0.23358944961267999 0 -0.38310929377983571 0.2368749301038639 0 -0.38932782258989462 0.24452898672213899 0 -0.38310929377983571 0.2368749301038639 0 -0.37762357589810641 0.24953723411872661 0 -0.37064371362837262 0.23132679369821199 0 -0.38310929377983571 0.2368749301038639 0 -0.37762357589810641 0.24953723411872661 0 -0.38932782258989462 0.24452898672213899 0 -0.41605306156336558 0.24779447805732691 0 -0.3961318641724631 0.23358944961267999 0 -0.40044655650917238 0.25811433305328563 0 -0.3961318641724631 0.23358944961267999 0 -0.38932782258989462 0.24452898672213899 0 -0.40044655650917238 0.25811433305328563 0 -0.3961318641724631 0.23358944961267999 0 -0.40044655650917238 0.25811433305328563 0 -0.41845610516243692 0.1420321326122326 0 -0.42098279092789043 0.15052849100161689 0 -0.42492558058631569 0.1456786098448446 0 -0.41845610516243692 0.1420321326122326 0 -0.42098279092789043 0.15052849100161689 0 -0.40911667806008473 0.1488664674034324 0 -0.42098279092789043 0.15052849100161689 0 -0.42631487585071598 0.15460757127004329 0 -0.41587863874702202 0.16021150046382121 0 -0.42098279092789043 0.15052849100161689 0 -0.40911667806008473 0.1488664674034324 0 -0.41587863874702202 0.16021150046382121 0 -0.41845610516243692 0.1420321326122326 0 -0.40911667806008473 0.1488664674034324 0 -0.41006058297246217 0.13927886751481389 0 -0.41033554470758682 0.12820438943905521 0 -0.427578916598015 0.12738546973202461 0 -0.41006058297246217 0.13927886751481389 0 -0.41033554470758682 0.12820438943905521 0 -0.41814759408836538 0.13514718372225731 0 -0.41033554470758682 0.12820438943905521 0 -0.41814759408836538 0.13514718372225731 0 -0.427578916598015 0.12738546973202461 0 -0.42314147291976012 0.12054477068340499 0 -0.41033554470758682 0.12820438943905521 0 -0.427578916598015 0.12738546973202461 0 -0.41845610516243692 0.1420321326122326 0 -0.41006058297246217 0.13927886751481389 0 -0.41814759408836538 0.13514718372225731 0 -0.41845610516243692 0.1420321326122326 0 -0.41814759408836538 0.13514718372225731 0 -0.42424517056402511 0.1395916182187126 0 -0.427578916598015 0.12738546973202461 0 -0.43218270635689932 0.14966538911911739 0 -0.42424517056402511 0.1395916182187126 0 -0.427578916598015 0.12738546973202461 0 -0.43218270635689932 0.14966538911911739 0 -0.41814759408836538 0.13514718372225731 0 -0.42424517056402511 0.1395916182187126 0 -0.427578916598015 0.12738546973202461 0 -0.427578916598015 0.12738546973202461 0 -0.43466183444402151 0.13737266648131211 0 -0.43218270635689932 0.14966538911911739 0 -0.427578916598015 0.12738546973202461 0 -0.43661566594034812 0.12695629774809031 0 -0.43466183444402151 0.13737266648131211 0 -0.427578916598015 0.12738546973202461 0 -0.43661566594034812 0.12695629774809031 0 -0.44016466233856749 0.13839256695714949 0 -0.43661566594034812 0.12695629774809031 0 -0.43466183444402151 0.13737266648131211 0 -0.44016466233856749 0.13839256695714949 0 -0.43466183444402151 0.13737266648131211 0 -0.43673190974362919 0.14372008676410589 0 -0.43466183444402151 0.13737266648131211 0 -0.43673190974362919 0.14372008676410589 0 -0.43218270635689932 0.14966538911911739 0 -0.43673190974362919 0.14372008676410589 0 -0.43218270635689932 0.14966538911911739 0 -0.43696775149513312 0.15073523096182531 0 -0.42424517056402511 0.1395916182187126 0 -0.42492558058631569 0.1456786098448446 0 -0.43218270635689932 0.14966538911911739 0 -0.41845610516243692 0.1420321326122326 0 -0.42424517056402511 0.1395916182187126 0 -0.42492558058631569 0.1456786098448446 0 -0.42631487585071598 0.15460757127004329 0 -0.43218270635689932 0.14966538911911739 0 -0.42882397802768052 0.16163062067305331 0 -0.42098279092789043 0.15052849100161689 0 -0.42610148843045542 0.15012001530890551 0 -0.42631487585071598 0.15460757127004329 0 -0.42098279092789043 0.15052849100161689 0 -0.42492558058631569 0.1456786098448446 0 -0.42610148843045542 0.15012001530890551 0 -0.42610148843045542 0.15012001530890551 0 -0.42631487585071598 0.15460757127004329 0 -0.43218270635689932 0.14966538911911739 0 -0.42492558058631569 0.1456786098448446 0 -0.42610148843045542 0.15012001530890551 0 -0.43218270635689932 0.14966538911911739 0 -0.43675118487313519 0.17120178642013789 0 -0.42882397802768052 0.16163062067305331 0 -0.41061722383557708 0.17880721951443909 0 -0.43218270635689932 0.14966538911911739 0 -0.43675118487313519 0.17120178642013789 0 -0.43218270635689932 0.14966538911911739 0 -0.43696775149513312 0.15073523096182531 0 -0.43675118487313519 0.17120178642013789 0 -0.43218270635689932 0.14966538911911739 0 -0.43675118487313519 0.17120178642013789 0 -0.42882397802768052 0.16163062067305331 0 -0.42631487585071598 0.15460757127004329 0 -0.42882397802768052 0.16163062067305331 0 -0.41587863874702202 0.16021150046382121 0 -0.44065200127261023 0.1895907383390022 0 -0.43675118487313519 0.17120178642013789 0 -0.42870845667701257 0.1829274063537267 0 -0.43675118487313519 0.17120178642013789 0 -0.42870845667701257 0.1829274063537267 0 -0.41061722383557708 0.17880721951443909 0 -0.43675118487313519 0.17120178642013789 0 -0.41061722383557708 0.17880721951443909 0 -0.4221016249016229 0.19561785164523501 0 -0.42870845667701257 0.1829274063537267 0 -0.41061722383557708 0.17880721951443909 0 -0.41061722383557708 0.17880721951443909 0 -0.41587863874702202 0.16021150046382121 0 -0.39504861851220668 0.1605037294226426 0 -0.42882397802768052 0.16163062067305331 0 -0.41061722383557708 0.17880721951443909 0 -0.41587863874702202 0.16021150046382121 0 -0.40911667806008473 0.1488664674034324 0 -0.41587863874702202 0.16021150046382121 0 -0.39504861851220668 0.1605037294226426 0 -0.41061722383557708 0.17880721951443909 0 -0.39504861851220668 0.1605037294226426 0 -0.3844832627980192 0.18641265260874079 0 -0.40460562730583838 0.19546372891946071 0 -0.41061722383557708 0.17880721951443909 0 -0.3844832627980192 0.18641265260874079 0 -0.41061722383557708 0.17880721951443909 0 -0.3844832627980192 0.18641265260874079 0 -0.39504861851220668 0.1605037294226426 0 -0.3844832627980192 0.18641265260874079 0 -0.37237860194242078 0.1605319093611092 0 -0.39504861851220668 0.1605037294226426 0 -0.37884871657146379 0.14602894298995181 0 -0.37237860194242078 0.1605319093611092 0 -0.39504861851220668 0.1605037294226426 0 -0.37884871657146379 0.14602894298995181 0 -0.39424699284383752 0.14214416439709199 0 -0.40911667806008473 0.1488664674034324 0 -0.39504861851220668 0.1605037294226426 0 -0.39424699284383752 0.14214416439709199 0 -0.40911667806008473 0.1488664674034324 0 -0.41006058297246217 0.13927886751481389 0 -0.39424699284383752 0.14214416439709199 0 -0.41006058297246217 0.13927886751481389 0 -0.41033554470758682 0.12820438943905521 0 -0.39424699284383752 0.14214416439709199 0 -0.39275843411867328 0.1170839100002684 0 -0.39424699284383752 0.14214416439709199 0 -0.39275843411867328 0.1170839100002684 0 -0.41033554470758682 0.12820438943905521 0 -0.39424699284383752 0.14214416439709199 0 -0.37884871657146379 0.14602894298995181 0 -0.39424699284383752 0.14214416439709199 0 -0.37437258627236542 0.12890371469479259 0 -0.39275843411867328 0.1170839100002684 0 -0.39424699284383752 0.14214416439709199 0 -0.37437258627236542 0.12890371469479259 0 -0.37884871657146379 0.14602894298995181 0 -0.37437258627236542 0.12890371469479259 0 -0.36370712971512958 0.1435894069765756 0 -0.37437258627236542 0.12890371469479259 0 -0.34899953175928211 0.12694253498055411 0 -0.36370712971512958 0.1435894069765756 0 -0.34899953175928211 0.12694253498055411 0 -0.34564644908257869 0.15299870548450989 0 -0.36370712971512958 0.1435894069765756 0 -0.37884871657146379 0.14602894298995181 0 -0.36370712971512958 0.1435894069765756 0 -0.37237860194242078 0.1605319093611092 0 -0.34564644908257869 0.15299870548450989 0 -0.36370712971512958 0.1435894069765756 0 -0.37237860194242078 0.1605319093611092 0 -0.34564644908257869 0.15299870548450989 0 -0.37237860194242078 0.1605319093611092 0 -0.36085444111495718 0.1753857021061101 0 -0.3844832627980192 0.18641265260874079 0 -0.37237860194242078 0.1605319093611092 0 -0.36085444111495718 0.1753857021061101 0 -0.3844832627980192 0.18641265260874079 0 -0.36085444111495718 0.1753857021061101 0 -0.35834930176046143 0.1940180857030426 0 -0.36085444111495718 0.1753857021061101 0 -0.33968278222427728 0.1770401652297168 0 -0.35834930176046143 0.1940180857030426 0 -0.34564644908257869 0.15299870548450989 0 -0.36085444111495718 0.1753857021061101 0 -0.33968278222427728 0.1770401652297168 0 -0.33140876683948511 0.16260067918260609 0 -0.33968278222427728 0.1770401652297168 0 -0.31846244455725531 0.17073107261740031 0 -0.34564644908257869 0.15299870548450989 0 -0.33140876683948511 0.16260067918260609 0 -0.33968278222427728 0.1770401652297168 0 -0.33968278222427728 0.1770401652297168 0 -0.32160972613096589 0.1869020899259973 0 -0.31846244455725531 0.17073107261740031 0 -0.32160972613096589 0.1869020899259973 0 -0.31846244455725531 0.17073107261740031 0 -0.3016637250851274 0.1862604527146563 0 -0.31846244455725531 0.17073107261740031 0 -0.32184339149382868 0.14963277339879741 0 -0.30247613355515868 0.16479353289604479 0 -0.33140876683948511 0.16260067918260609 0 -0.31846244455725531 0.17073107261740031 0 -0.32184339149382868 0.14963277339879741 0 -0.32184339149382868 0.14963277339879741 0 -0.32540106173061079 0.12928329294269461 0 -0.30735137396352707 0.13221906943945599 0 -0.34899953175928211 0.12694253498055411 0 -0.34564644908257869 0.15299870548450989 0 -0.32540106173061079 0.12928329294269461 0 -0.34564644908257869 0.15299870548450989 0 -0.32184339149382868 0.14963277339879741 0 -0.32540106173061079 0.12928329294269461 0 -0.34564644908257869 0.15299870548450989 0 -0.33140876683948511 0.16260067918260609 0 -0.32184339149382868 0.14963277339879741 0 -0.354800595287041 0.2409601351841657 0 -0.3399396116739396 0.22678050595944479 0 -0.33788940549799379 0.24380658160696719 0 -0.354800595287041 0.2409601351841657 0 -0.33788940549799379 0.24380658160696719 0 -0.35340254031448232 0.25560690021648391 0 -0.37762357589810641 0.24953723411872661 0 -0.354800595287041 0.2409601351841657 0 -0.37762357589810641 0.24953723411872661 0 -0.354800595287041 0.2409601351841657 0 -0.37064371362837262 0.23132679369821199 0 -0.354800595287041 0.2409601351841657 0 -0.37064371362837262 0.23132679369821199 0 -0.35724455417959922 0.22826397538780499 0 -0.37064371362837262 0.23132679369821199 0 -0.35724455417959922 0.22826397538780499 0 -0.3635942961290437 0.21398846670939739 0 -0.38010721481574627 0.2214306265789831 0 -0.37064371362837262 0.23132679369821199 0 -0.3635942961290437 0.21398846670939739 0 -0.354800595287041 0.2409601351841657 0 -0.35724455417959922 0.22826397538780499 0 -0.3399396116739396 0.22678050595944479 0 -0.35724455417959922 0.22826397538780499 0 -0.3635942961290437 0.21398846670939739 0 -0.3399396116739396 0.22678050595944479 0 -0.3635942961290437 0.21398846670939739 0 -0.3399396116739396 0.22678050595944479 0 -0.34666550792471718 0.21095103381863761 0 -0.3635942961290437 0.21398846670939739 0 -0.3399396116739396 0.22678050595944479 0 -0.34666550792471718 0.21095103381863761 0 -0.3635942961290437 0.21398846670939739 0 -0.35834930176046143 0.1940180857030426 0 -0.37511823529975852 0.20315917371936049 0 -0.3635942961290437 0.21398846670939739 0 -0.35834930176046143 0.1940180857030426 0 -0.37511823529975852 0.20315917371936049 0 -0.38010721481574627 0.2214306265789831 0 -0.3635942961290437 0.21398846670939739 0 -0.3844832627980192 0.18641265260874079 0 -0.35834930176046143 0.1940180857030426 0 -0.37511823529975852 0.20315917371936049 0 -0.3844832627980192 0.18641265260874079 0 -0.35834930176046143 0.1940180857030426 0 -0.34666550792471718 0.21095103381863761 0 -0.35834930176046143 0.1940180857030426 0 -0.3322153407229036 0.2016235187973443 0 -0.35834930176046143 0.1940180857030426 0 -0.3322153407229036 0.2016235187973443 0 -0.33968278222427728 0.1770401652297168 0 -0.35834930176046143 0.1940180857030426 0 -0.3322153407229036 0.2016235187973443 0 -0.33968278222427728 0.1770401652297168 0 -0.32160972613096589 0.1869020899259973 0 -0.3322153407229036 0.2016235187973443 0 -0.32160972613096589 0.1869020899259973 0 -0.3322153407229036 0.2016235187973443 0 -0.3118804771884186 0.19919437202805421 0 -0.32279744800827831 0.2162709251782258 0 -0.30578263988251009 0.21328130060021519 0 -0.3118804771884186 0.19919437202805421 0 -0.3322153407229036 0.2016235187973443 0 -0.32279744800827831 0.2162709251782258 0 -0.3118804771884186 0.19919437202805421 0 -0.34666550792471718 0.21095103381863761 0 -0.32279744800827831 0.2162709251782258 0 -0.3399396116739396 0.22678050595944479 0 -0.34666550792471718 0.21095103381863761 0 -0.3322153407229036 0.2016235187973443 0 -0.32279744800827831 0.2162709251782258 0 -0.32279744800827831 0.2162709251782258 0 -0.31628492721883539 0.23957254520949231 0 -0.30630482823392868 0.22479286098863899 0 -0.32279744800827831 0.2162709251782258 0 -0.3399396116739396 0.22678050595944479 0 -0.31628492721883539 0.23957254520949231 0 -0.3399396116739396 0.22678050595944479 0 -0.31628492721883539 0.23957254520949231 0 -0.31628492721883539 0.23957254520949231 0 -0.33788940549799379 0.24380658160696719 0 -0.31675628104696218 0.25816396337405889 0 -0.3399396116739396 0.22678050595944479 0 -0.31628492721883539 0.23957254520949231 0 -0.33788940549799379 0.24380658160696719 0 -0.28953809350711668 0.23582384755491001 0 -0.29263024276373129 0.25236458445954002 0 -0.28953809350711668 0.23582384755491001 0 -0.28056281431753932 0.24436326559548641 0 -0.29263024276373129 0.25236458445954002 0 -0.28953809350711668 0.23582384755491001 0 -0.27951610468914678 0.23595674179173851 0 -0.28056281431753932 0.24436326559548641 0 -0.31628492721883539 0.23957254520949231 0 -0.28953809350711668 0.23582384755491001 0 -0.29263024276373129 0.25236458445954002 0 -0.31628492721883539 0.23957254520949231 0 -0.29263024276373129 0.25236458445954002 0 -0.31628492721883539 0.23957254520949231 0 -0.28953809350711668 0.23582384755491001 0 -0.30630482823392868 0.22479286098863899 0 -0.28953809350711668 0.23582384755491001 0 -0.30630482823392868 0.22479286098863899 0 -0.2963224594072153 0.21939569551335331 0 -0.30630482823392868 0.22479286098863899 0 -0.2963224594072153 0.21939569551335331 0 -0.30578263988251009 0.21328130060021519 0 -0.28953809350711668 0.23582384755491001 0 -0.2963224594072153 0.21939569551335331 0 -0.28644594425050141 0.21928311065028 0 -0.28953809350711668 0.23582384755491001 0 -0.28644594425050141 0.21928311065028 0 -0.28953809350711668 0.23582384755491001 0 -0.28392592649920873 0.23054426920506241 0 -0.28644594425050141 0.21928311065028 0 -0.28953809350711668 0.23582384755491001 0 -0.28392592649920873 0.23054426920506241 0 -0.27951610468914678 0.23595674179173851 0 -0.28392592649920873 0.23054426920506241 0 -0.28364703771469152 0.2228441012119147 0 -0.27737966712738499 0.2284136078854235 0 -0.28392592649920873 0.23054426920506241 0 -0.28644594425050141 0.21928311065028 0 -0.28364703771469152 0.2228441012119147 0 -0.28644594425050141 0.21928311065028 0 -0.29059038014931837 0.21135197160129721 0 -0.26930028311021809 0.22350957117454021 0 -0.28264033799195282 0.20376448852662951 0 -0.29059038014931837 0.21135197160129721 0 -0.2792070856005755 0.21242422506037401 0 -0.28264033799195282 0.20376448852662951 0 -0.29059038014931837 0.21135197160129721 0 -0.29452911505391127 0.19839102252728141 0 -0.2963224594072153 0.21939569551335331 0 -0.28644594425050141 0.21928311065028 0 -0.29059038014931837 0.21135197160129721 0 -0.29059038014931837 0.21135197160129721 0 -0.30578263988251009 0.21328130060021519 0 -0.3118804771884186 0.19919437202805421 0 -0.29059038014931837 0.21135197160129721 0 -0.3118804771884186 0.19919437202805421 0 -0.32279744800827831 0.2162709251782258 0 -0.30630482823392868 0.22479286098863899 0 -0.30578263988251009 0.21328130060021519 0 -0.2963224594072153 0.21939569551335331 0 -0.29059038014931837 0.21135197160129721 0 -0.30578263988251009 0.21328130060021519 0 -0.29059038014931837 0.21135197160129721 0 -0.3118804771884186 0.19919437202805421 0 -0.29452911505391127 0.19839102252728141 0 -0.32160972613096589 0.1869020899259973 0 -0.3118804771884186 0.19919437202805421 0 -0.3016637250851274 0.1862604527146563 0 -0.3118804771884186 0.19919437202805421 0 -0.29452911505391127 0.19839102252728141 0 -0.3016637250851274 0.1862604527146563 0 -0.29452911505391127 0.19839102252728141 0 -0.28587065485473928 0.1913838277657699 0 -0.3016637250851274 0.1862604527146563 0 -0.28264033799195282 0.20376448852662951 0 -0.28587065485473928 0.1913838277657699 0 -0.27612779653814512 0.1950273158445901 0 -0.28264033799195282 0.20376448852662951 0 -0.29452911505391127 0.19839102252728141 0 -0.28587065485473928 0.1913838277657699 0 -0.28587065485473928 0.1913838277657699 0 -0.27612779653814512 0.1950273158445901 0 -0.27375998203997298 0.18440088484611569 0 -0.28264033799195282 0.20376448852662951 0 -0.27612779653814512 0.1950273158445901 0 -0.27070696005872991 0.20089434960754221 0 -0.27612779653814512 0.1950273158445901 0 -0.27070696005872991 0.20089434960754221 0 -0.26370506754215789 0.1929982117449037 0 -0.27612779653814512 0.1950273158445901 0 -0.26370506754215789 0.1929982117449037 0 -0.27375998203997298 0.18440088484611569 0 -0.26370506754215789 0.1929982117449037 0 -0.25346129445857718 0.19861817783096619 0 -0.24878729217559289 0.18841596133959801 0 -0.27070696005872991 0.20089434960754221 0 -0.26370506754215789 0.1929982117449037 0 -0.26102220092174261 0.20404015118323821 0 -0.26370506754215789 0.1929982117449037 0 -0.25346129445857718 0.19861817783096619 0 -0.26102220092174261 0.20404015118323821 0 -0.26102220092174261 0.20404015118323821 0 -0.26200442130901008 0.21179952794854459 0 -0.26743222623665258 0.2083937308163793 0 -0.26102220092174261 0.20404015118323821 0 -0.26200442130901008 0.21179952794854459 0 -0.24882323592532751 0.21153690915109311 0 -0.25346129445857718 0.19861817783096619 0 -0.26102220092174261 0.20404015118323821 0 -0.24882323592532751 0.21153690915109311 0 -0.2554876032892458 0.21554233830853251 0 -0.26200442130901008 0.21179952794854459 0 -0.24882323592532751 0.21153690915109311 0 -0.2554876032892458 0.21554233830853251 0 -0.25513340228505632 0.22342102262153321 0 -0.24882323592532751 0.21153690915109311 0 -0.2554876032892458 0.21554233830853251 0 -0.26200442130901008 0.21179952794854459 0 -0.26215907758600338 0.21804332980454821 0 -0.26200442130901008 0.21179952794854459 0 -0.26215907758600338 0.21804332980454821 0 -0.26733068654657288 0.2146420051879723 0 -0.26200442130901008 0.21179952794854459 0 -0.26733068654657288 0.2146420051879723 0 -0.26743222623665258 0.2083937308163793 0 -0.29059038014931837 0.21135197160129721 0 -0.2792070856005755 0.21242422506037401 0 -0.26930028311021809 0.22350957117454021 0 -0.29059038014931837 0.21135197160129721 0 -0.26930028311021809 0.22350957117454021 0 -0.26733068654657288 0.2146420051879723 0 -0.27429734115081261 0.21107086893902929 0 -0.26930028311021809 0.22350957117454021 0 -0.26215907758600338 0.21804332980454821 0 -0.26733068654657288 0.2146420051879723 0 -0.26930028311021809 0.22350957117454021 0 -0.26733068654657288 0.2146420051879723 0 -0.26743222623665258 0.2083937308163793 0 -0.27429734115081261 0.21107086893902929 0 -0.27070696005872991 0.20089434960754221 0 -0.26743222623665258 0.2083937308163793 0 -0.27429734115081261 0.21107086893902929 0 -0.27070696005872991 0.20089434960754221 0 -0.26102220092174261 0.20404015118323821 0 -0.26743222623665258 0.2083937308163793 0 -0.28264033799195282 0.20376448852662951 0 -0.2792070856005755 0.21242422506037401 0 -0.27429734115081261 0.21107086893902929 0 -0.28264033799195282 0.20376448852662951 0 -0.27070696005872991 0.20089434960754221 0 -0.27429734115081261 0.21107086893902929 0 -0.2792070856005755 0.21242422506037401 0 -0.27429734115081261 0.21107086893902929 0 -0.26930028311021809 0.22350957117454021 0 -0.28364703771469152 0.2228441012119147 0 -0.26582861189290469 0.2292556359798488 0 -0.26930028311021809 0.22350957117454021 0 -0.28644594425050141 0.21928311065028 0 -0.28364703771469152 0.2228441012119147 0 -0.26930028311021809 0.22350957117454021 0 -0.28364703771469152 0.2228441012119147 0 -0.26582861189290469 0.2292556359798488 0 -0.28364703771469152 0.2228441012119147 0 -0.27737966712738499 0.2284136078854235 0 -0.26582861189290469 0.2292556359798488 0 -0.28392592649920873 0.23054426920506241 0 -0.27737966712738499 0.2284136078854235 0 -0.27611709240273541 0.23101042514486789 0 -0.27611709240273541 0.23101042514486789 0 -0.27078496666887542 0.23517667169234549 0 -0.27951610468914678 0.23595674179173851 0 -0.28392592649920873 0.23054426920506241 0 -0.27611709240273541 0.23101042514486789 0 -0.27951610468914678 0.23595674179173851 0 -0.27737966712738499 0.2284136078854235 0 -0.27611709240273541 0.23101042514486789 0 -0.26582861189290469 0.2292556359798488 0 -0.26582861189290469 0.2292556359798488 0 -0.2623339504186305 0.23499167537175319 0 -0.27078496666887542 0.23517667169234549 0 -0.27611709240273541 0.23101042514486789 0 -0.26582861189290469 0.2292556359798488 0 -0.27078496666887542 0.23517667169234549 0 -0.26582861189290469 0.2292556359798488 0 -0.24801018607111791 0.23566717074778309 0 -0.26582861189290469 0.2292556359798488 0 -0.26930028311021809 0.22350957117454021 0 -0.24801018607111791 0.23566717074778309 0 -0.26930028311021809 0.22350957117454021 0 -0.25513340228505632 0.22342102262153321 0 -0.24801018607111791 0.23566717074778309 0 -0.26582861189290469 0.2292556359798488 0 -0.2623339504186305 0.23499167537175319 0 -0.24801018607111791 0.23566717074778309 0 -0.26215907758600338 0.21804332980454821 0 -0.26930028311021809 0.22350957117454021 0 -0.25513340228505632 0.22342102262153321 0 -0.26930028311021809 0.22350957117454021 0 -0.24801018607111791 0.23566717074778309 0 -0.25513340228505632 0.22342102262153321 0 -0.2467254125811553 0.2261864474181082 0 -0.24882323592532751 0.21153690915109311 0 -0.2554876032892458 0.21554233830853251 0 -0.26215907758600338 0.21804332980454821 0 -0.25513340228505632 0.22342102262153321 0 -0.2623339504186305 0.23499167537175319 0 -0.2654835780625579 0.2406753709197223 0 -0.25783309145261651 0.23839940173774191 0 -0.2654835780625579 0.2406753709197223 0 -0.25783309145261651 0.23839940173774191 0 -0.25763099413906082 0.24544012909566779 0 -0.2623339504186305 0.23499167537175319 0 -0.25783309145261651 0.23839940173774191 0 -0.24801018607111791 0.23566717074778309 0 -0.25783309145261651 0.23839940173774191 0 -0.2524210670499249 0.24119702039500171 0 -0.24801018607111791 0.23566717074778309 0 -0.25783309145261651 0.23839940173774191 0 -0.2524210670499249 0.24119702039500171 0 -0.25763099413906082 0.24544012909566779 0 -0.2524210670499249 0.24119702039500171 0 -0.25763099413906082 0.24544012909566779 0 -0.249435427503925 0.25000056447435692 0 -0.25763099413906082 0.24544012909566779 0 -0.25704079557700088 0.2542377393705969 0 -0.249435427503925 0.25000056447435692 0 -0.25763099413906082 0.24544012909566779 0 -0.26357200518833979 0.2481306776765875 0 -0.25704079557700088 0.2542377393705969 0 -0.2654835780625579 0.2406753709197223 0 -0.25763099413906082 0.24544012909566779 0 -0.26357200518833979 0.2481306776765875 0 -0.2654835780625579 0.2406753709197223 0 -0.27127102212297499 0.24781219944000599 0 -0.27433540924344818 0.24030615961227519 0 -0.2654835780625579 0.2406753709197223 0 -0.26357200518833979 0.2481306776765875 0 -0.27127102212297499 0.24781219944000599 0 -0.2623339504186305 0.23499167537175319 0 -0.2654835780625579 0.2406753709197223 0 -0.27078496666887542 0.23517667169234549 0 -0.2654835780625579 0.2406753709197223 0 -0.27078496666887542 0.23517667169234549 0 -0.27433540924344818 0.24030615961227519 0 -0.27078496666887542 0.23517667169234549 0 -0.27433540924344818 0.24030615961227519 0 -0.27951610468914678 0.23595674179173851 0 -0.27433540924344818 0.24030615961227519 0 -0.27951610468914678 0.23595674179173851 0 -0.28056281431753932 0.24436326559548641 0 -0.27127102212297499 0.24781219944000599 0 -0.28056281431753932 0.24436326559548641 0 -0.27576790151354769 0.25417373225169149 0 -0.27127102212297499 0.24781219944000599 0 -0.27433540924344818 0.24030615961227519 0 -0.28056281431753932 0.24436326559548641 0 -0.28604175881966731 0.13901345902447379 0 -0.30060888382580458 0.14783300940381519 0 -0.28532823134413671 0.1581088227101547 0 -0.28604175881966731 0.13901345902447379 0 -0.30735137396352707 0.13221906943945599 0 -0.28654838410871292 0.1196809548513967 0 -0.28604175881966731 0.13901345902447379 0 -0.30735137396352707 0.13221906943945599 0 -0.30060888382580458 0.14783300940381519 0 -0.32184339149382868 0.14963277339879741 0 -0.30060888382580458 0.14783300940381519 0 -0.30247613355515868 0.16479353289604479 0 -0.32184339149382868 0.14963277339879741 0 -0.30735137396352707 0.13221906943945599 0 -0.30060888382580458 0.14783300940381519 0 -0.30247613355515868 0.16479353289604479 0 -0.3016637250851274 0.1862604527146563 0 -0.28695012502479972 0.17619506653144501 0 -0.31846244455725531 0.17073107261740031 0 -0.30247613355515868 0.16479353289604479 0 -0.3016637250851274 0.1862604527146563 0 -0.28587065485473928 0.1913838277657699 0 -0.3016637250851274 0.1862604527146563 0 -0.28695012502479972 0.17619506653144501 0 -0.28587065485473928 0.1913838277657699 0 -0.28695012502479972 0.17619506653144501 0 -0.27375998203997298 0.18440088484611569 0 -0.30247613355515868 0.16479353289604479 0 -0.28695012502479972 0.17619506653144501 0 -0.28532823134413671 0.1581088227101547 0 -0.30060888382580458 0.14783300940381519 0 -0.30247613355515868 0.16479353289604479 0 -0.28532823134413671 0.1581088227101547 0 -0.28695012502479972 0.17619506653144501 0 -0.28532823134413671 0.1581088227101547 0 -0.27041054030413869 0.16811620387453691 0 -0.28532823134413671 0.1581088227101547 0 -0.27041054030413869 0.16811620387453691 0 -0.26815510970455281 0.15028743953375409 0 -0.28695012502479972 0.17619506653144501 0 -0.27041054030413869 0.16811620387453691 0 -0.27375998203997298 0.18440088484611569 0 -0.27041054030413869 0.16811620387453691 0 -0.27375998203997298 0.18440088484611569 0 -0.25838158176301529 0.17966884935518021 0 -0.26370506754215789 0.1929982117449037 0 -0.27375998203997298 0.18440088484611569 0 -0.25838158176301529 0.17966884935518021 0 -0.26370506754215789 0.1929982117449037 0 -0.25838158176301529 0.17966884935518021 0 -0.24878729217559289 0.18841596133959801 0 -0.25838158176301529 0.17966884935518021 0 -0.24284285117188789 0.17505671916914031 0 -0.24878729217559289 0.18841596133959801 0 -0.27041054030413869 0.16811620387453691 0 -0.25838158176301529 0.17966884935518021 0 -0.24798754635115419 0.15984541518354681 0 -0.27041054030413869 0.16811620387453691 0 -0.26815510970455281 0.15028743953375409 0 -0.24798754635115419 0.15984541518354681 0 -0.26815510970455281 0.15028743953375409 0 -0.24702679948613401 0.13593904432249651 0 -0.24798754635115419 0.15984541518354681 0 -0.28604175881966731 0.13901345902447379 0 -0.28532823134413671 0.1581088227101547 0 -0.26815510970455281 0.15028743953375409 0 -0.28604175881966731 0.13901345902447379 0 -0.26741751376760492 0.12627490468562241 0 -0.28654838410871292 0.1196809548513967 0 -0.28604175881966731 0.13901345902447379 0 -0.26815510970455281 0.15028743953375409 0 -0.26741751376760492 0.12627490468562241 0 -0.26815510970455281 0.15028743953375409 0 -0.26741751376760492 0.12627490468562241 0 -0.24702679948613401 0.13593904432249651 0 -0.26741751376760492 0.12627490468562241 0 -0.25234779532188129 0.1106429620443504 0 -0.27069244091099248 0.104274504506114 0 -0.26741751376760492 0.12627490468562241 0 -0.25234779532188129 0.1106429620443504 0 -0.24702679948613401 0.13593904432249651 0 -0.25234779532188129 0.1106429620443504 0 -0.27069244091099248 0.104274504506114 0 -0.25766879115762881 0.085346879766204309 0 -0.25234779532188129 0.1106429620443504 0 -0.25766879115762881 0.085346879766204309 0 -0.27069244091099248 0.104274504506114 0 -0.28956548761989631 0.1033638595259942 0 -0.28037778912858607 0.089545874510506357 0 -0.26741751376760492 0.12627490468562241 0 -0.27069244091099248 0.104274504506114 0 -0.28654838410871292 0.1196809548513967 0 -0.28654838410871292 0.1196809548513967 0 -0.28956548761989631 0.1033638595259942 0 -0.30932509195253499 0.1133855600758945 0 -0.28956548761989631 0.1033638595259942 0 -0.30308678709954351 0.093744869254807961 0 -0.28037778912858607 0.089545874510506357 0 -0.27069244091099248 0.104274504506114 0 -0.28654838410871292 0.1196809548513967 0 -0.28956548761989631 0.1033638595259942 0 -0.28956548761989631 0.1033638595259942 0 -0.30932509195253499 0.1133855600758945 0 -0.30308678709954351 0.093744869254807961 0 -0.30735137396352707 0.13221906943945599 0 -0.28654838410871292 0.1196809548513967 0 -0.30932509195253499 0.1133855600758945 0 -0.30537586548509588 0.07636921710924334 0 -0.29169612894446728 0.077877822485183823 0 -0.29669797670027198 0.069083302476939917 0 -0.29669797670027198 0.069083302476939917 0 -0.29699334683450412 0.059560980331707772 0 -0.3075099059644259 0.062341610942359148 0 -0.30537586548509588 0.07636921710924334 0 -0.29669797670027198 0.069083302476939917 0 -0.3075099059644259 0.062341610942359148 0 -0.30537586548509588 0.07636921710924334 0 -0.3075099059644259 0.062341610942359148 0 -0.31673402484082391 0.071322899472689744 0 -0.30537586548509588 0.07636921710924334 0 -0.30308678709954351 0.093744869254807961 0 -0.29169612894446728 0.077877822485183823 0 -0.30537586548509588 0.07636921710924334 0 -0.30308678709954351 0.093744869254807961 0 -0.31565760967855899 0.083683454060182016 0 -0.30308678709954351 0.093744869254807961 0 -0.29169612894446728 0.077877822485183823 0 -0.28037778912858607 0.089545874510506357 0 -0.30308678709954351 0.093744869254807961 0 -0.28037778912858607 0.089545874510506357 0 -0.29169612894446728 0.077877822485183823 0 -0.28062568226775342 0.075270909233353556 0 -0.28037778912858607 0.089545874510506357 0 -0.29169612894446728 0.077877822485183823 0 -0.28630815935504711 0.065170353189075492 0 -0.28062568226775342 0.075270909233353556 0 -0.29169612894446728 0.077877822485183823 0 -0.29669797670027198 0.069083302476939917 0 -0.28630815935504711 0.065170353189075492 0 -0.29669797670027198 0.069083302476939917 0 -0.28630815935504711 0.065170353189075492 0 -0.29699334683450412 0.059560980331707772 0 -0.28630815935504711 0.065170353189075492 0 -0.28062568226775342 0.075270909233353556 0 -0.27299329597064348 0.065002333592560996 0 -0.28062568226775342 0.075270909233353556 0 -0.27299329597064348 0.065002333592560996 0 -0.27175303794002309 0.078758162389441194 0 -0.27299329597064348 0.065002333592560996 0 -0.27175303794002309 0.078758162389441194 0 -0.25947939416256299 0.071044862163915756 0 -0.27069244091099248 0.104274504506114 0 -0.28037778912858607 0.089545874510506357 0 -0.25766879115762881 0.085346879766204309 0 -0.28037778912858607 0.089545874510506357 0 -0.25766879115762881 0.085346879766204309 0 -0.28037778912858607 0.089545874510506357 0 -0.27175303794002309 0.078758162389441194 0 -0.25766879115762881 0.085346879766204309 0 -0.28062568226775342 0.075270909233353556 0 -0.28037778912858607 0.089545874510506357 0 -0.27175303794002309 0.078758162389441194 0 -0.25766879115762881 0.085346879766204309 0 -0.25947939416256299 0.071044862163915756 0 -0.24347293784451701 0.082722003339298661 0 -0.27175303794002309 0.078758162389441194 0 -0.25766879115762881 0.085346879766204309 0 -0.25947939416256299 0.071044862163915756 0 -0.25766879115762881 0.085346879766204309 0 -0.25947939416256299 0.071044862163915756 0 -0.25766879115762881 0.085346879766204309 0 -0.24347293784451701 0.082722003339298661 0 -0.25947939416256299 0.071044862163915756 0 -0.25190428147771932 0.073234116385534689 0 -0.24347293784451701 0.082722003339298661 0 -0.25947939416256299 0.071044862163915756 0 -0.25708756303328739 0.064145941896188927 0 -0.26399871830067201 0.055254325145251422 0 -0.25947939416256299 0.071044862163915756 0 -0.24347293784451701 0.082722003339298661 0 -0.25947939416256299 0.071044862163915756 0 -0.26399871830067201 0.055254325145251422 0 -0.27299329597064348 0.065002333592560996 0 -0.25947939416256299 0.071044862163915756 0 -0.26399871830067201 0.055254325145251422 0 -0.25947939416256299 0.071044862163915756 0 -0.25727969600917788 0.06890848268601836 0 -0.25708756303328739 0.064145941896188927 0 -0.25947939416256299 0.071044862163915756 0 -0.25584273887132147 0.070509885400536751 0 -0.25190428147771932 0.073234116385534689 0 -0.25190428147771932 0.073234116385534689 0 -0.25272998449871309 0.067992264760302415 0 -0.24799635201148201 0.073901566263619864 0 -0.25584273887132147 0.070509885400536751 0 -0.25190428147771932 0.073234116385534689 0 -0.25272998449871309 0.067992264760302415 0 -0.25272998449871309 0.067992264760302415 0 -0.25116776642898098 0.057890226552889897 0 -0.24630962701273121 0.067782376752368534 0 -0.25272998449871309 0.067992264760302415 0 -0.25708756303328739 0.064145941896188927 0 -0.25116776642898098 0.057890226552889897 0 -0.25584273887132147 0.070509885400536751 0 -0.25272998449871309 0.067992264760302415 0 -0.25727969600917788 0.06890848268601836 0 -0.25272998449871309 0.067992264760302415 0 -0.25727969600917788 0.06890848268601836 0 -0.25708756303328739 0.064145941896188927 0 -0.25947939416256299 0.071044862163915756 0 -0.25584273887132147 0.070509885400536751 0 -0.25727969600917788 0.06890848268601836 0 -0.25708756303328739 0.064145941896188927 0 -0.25116776642898098 0.057890226552889897 0 -0.26399871830067201 0.055254325145251422 0 -0.26399871830067201 0.055254325145251422 0 -0.25276717720812231 0.044552257542074973 0 -0.26793627276672682 0.041794969657219377 0 -0.25116776642898098 0.057890226552889897 0 -0.26399871830067201 0.055254325145251422 0 -0.25276717720812231 0.044552257542074973 0 -0.25276717720812231 0.044552257542074973 0 -0.26793627276672682 0.041794969657219377 0 -0.2482379394587918 0.029714206062630741 0 -0.26793627276672682 0.041794969657219377 0 -0.26999567457334939 0.027923507963322231 0 -0.2482379394587918 0.029714206062630741 0 -0.26793627276672682 0.041794969657219377 0 -0.27926771681344409 0.051000386147283097 0 -0.28817958803376248 0.037002692062485222 0 -0.26999567457334939 0.027923507963322231 0 -0.28817958803376248 0.037002692062485222 0 -0.26793627276672682 0.041794969657219377 0 -0.26999567457334939 0.027923507963322231 0 -0.28817958803376248 0.037002692062485222 0 -0.28630815935504711 0.065170353189075492 0 -0.27299329597064348 0.065002333592560996 0 -0.27926771681344409 0.051000386147283097 0 -0.27299329597064348 0.065002333592560996 0 -0.26399871830067201 0.055254325145251422 0 -0.27926771681344409 0.051000386147283097 0 -0.26399871830067201 0.055254325145251422 0 -0.26793627276672682 0.041794969657219377 0 -0.27926771681344409 0.051000386147283097 0 -0.27008529692414812 -0.0016724996365426871 0 -0.25413409513496882 0.01424863755994726 0 -0.24156246817162111 3.8901865961206428e-05 0 -0.27008529692414812 -0.0016724996365426871 0 -0.25413409513496882 0.01424863755994726 0 -0.26999567457334939 0.027923507963322231 0 -0.25413409513496882 0.01424863755994726 0 -0.26999567457334939 0.027923507963322231 0 -0.2482379394587918 0.029714206062630741 0 -0.27008529692414812 -0.0016724996365426871 0 -0.26999567457334939 0.027923507963322231 0 -0.29010177380800739 0.01324963621358983 0 -0.27008529692414812 -0.0016724996365426871 0 -0.29313710650179581 -0.003376988243723194 0 -0.29010177380800739 0.01324963621358983 0 -0.29010177380800739 0.01324963621358983 0 -0.3085254927697213 0.021900993765881852 0 -0.28817958803376248 0.037002692062485222 0 -0.26999567457334939 0.027923507963322231 0 -0.29010177380800739 0.01324963621358983 0 -0.28817958803376248 0.037002692062485222 0 -0.31068748404526708 -0.0022798886298844401 0 -0.3085254927697213 0.021900993765881852 0 -0.29313710650179581 -0.003376988243723194 0 -0.31068748404526708 -0.0022798886298844401 0 -0.29010177380800739 0.01324963621358983 0 -0.31068748404526708 -0.0022798886298844401 0 -0.29010177380800739 0.01324963621358983 0 -0.3085254927697213 0.021900993765881852 0 -0.29430763316198921 0.047478446600465747 0 -0.28909292297441508 0.055141684762686008 0 -0.29938920044487499 0.05182889856576952 0 -0.28909292297441508 0.055141684762686008 0 -0.29938920044487499 0.05182889856576952 0 -0.29699334683450412 0.059560980331707772 0 -0.28630815935504711 0.065170353189075492 0 -0.28909292297441508 0.055141684762686008 0 -0.29699334683450412 0.059560980331707772 0 -0.28630815935504711 0.065170353189075492 0 -0.27926771681344409 0.051000386147283097 0 -0.28909292297441508 0.055141684762686008 0 -0.27926771681344409 0.051000386147283097 0 -0.29430763316198921 0.047478446600465747 0 -0.28909292297441508 0.055141684762686008 0 -0.27926771681344409 0.051000386147283097 0 -0.29430763316198921 0.047478446600465747 0 -0.28817958803376248 0.037002692062485222 0 -0.29430763316198921 0.047478446600465747 0 -0.28817958803376248 0.037002692062485222 0 -0.30636350149417563 0.046081876161648203 0 -0.28817958803376248 0.037002692062485222 0 -0.30636350149417563 0.046081876161648203 0 -0.3085254927697213 0.021900993765881852 0 -0.30636350149417563 0.046081876161648203 0 -0.3085254927697213 0.021900993765881852 0 -0.28817958803376248 0.037002692062485222 0 -0.30636350149417563 0.046081876161648203 0 -0.3085254927697213 0.021900993765881852 0 -0.30636350149417563 0.046081876161648203 0 -0.31942896445594499 0.035062955571345693 0 -0.30636350149417563 0.046081876161648203 0 -0.30592452940623749 0.050991577950695463 0 -0.30636350149417563 0.046081876161648203 0 -0.30592452940623749 0.050991577950695463 0 -0.29938920044487499 0.05182889856576952 0 -0.29430763316198921 0.047478446600465747 0 -0.30636350149417563 0.046081876161648203 0 -0.29938920044487499 0.05182889856576952 0 -0.30592452940623749 0.050991577950695463 0 -0.29938920044487499 0.05182889856576952 0 -0.30305546314214021 0.056940205727419702 0 -0.29699334683450412 0.059560980331707772 0 -0.30305546314214021 0.056940205727419702 0 -0.3075099059644259 0.062341610942359148 0 -0.29938920044487499 0.05182889856576952 0 -0.29699334683450412 0.059560980331707772 0 -0.30305546314214021 0.056940205727419702 0 -0.30592452940623749 0.050991577950695463 0 -0.30305546314214021 0.056940205727419702 0 -0.3075099059644259 0.062341610942359148 0 -0.30636350149417563 0.046081876161648203 0 -0.3267539894745678 0.056262797592493183 0 -0.30592452940623749 0.050991577950695463 0 -0.3075099059644259 0.062341610942359148 0 -0.3267539894745678 0.056262797592493183 0 -0.30636350149417563 0.046081876161648203 0 -0.30592452940623749 0.050991577950695463 0 -0.3267539894745678 0.056262797592493183 0 -0.30636350149417563 0.046081876161648203 0 -0.3267539894745678 0.056262797592493183 0 -0.31942896445594499 0.035062955571345693 0 -0.3267539894745678 0.056262797592493183 0 -0.31942896445594499 0.035062955571345693 0 -0.33665457531158011 0.03530767912586575 0 -0.3267539894745678 0.056262797592493183 0 -0.34714447745496002 0.066443719023338205 0 -0.3267539894745678 0.056262797592493183 0 -0.34405547159010519 0.050353832715325099 0 -0.34714447745496002 0.066443719023338205 0 -0.3267539894745678 0.056262797592493183 0 -0.33665457531158011 0.03530767912586575 0 -0.34405547159010519 0.050353832715325099 0 -0.31068748404526708 -0.0022798886298844401 0 -0.3085254927697213 0.021900993765881852 0 -0.32287077353134719 0.0073081144652285199 0 -0.3085254927697213 0.021900993765881852 0 -0.32287077353134719 0.0073081144652285199 0 -0.3281311389278937 0.019570625654905131 0 -0.31942896445594499 0.035062955571345693 0 -0.33665457531158011 0.03530767912586575 0 -0.3281311389278937 0.019570625654905131 0 -0.3085254927697213 0.021900993765881852 0 -0.31942896445594499 0.035062955571345693 0 -0.3281311389278937 0.019570625654905131 0 -0.33665457531158011 0.03530767912586575 0 -0.3281311389278937 0.019570625654905131 0 -0.34486911794267522 0.01360571280719213 0 -0.32287077353134719 0.0073081144652285199 0 -0.3281311389278937 0.019570625654905131 0 -0.33824337868228571 0.0027742543799208551 0 -0.3281311389278937 0.019570625654905131 0 -0.33824337868228571 0.0027742543799208551 0 -0.34486911794267522 0.01360571280719213 0 -0.32876637323156849 -0.0054254128446808037 0 -0.32287077353134719 0.0073081144652285199 0 -0.33824337868228571 0.0027742543799208551 0 -0.33824337868228571 0.0027742543799208551 0 -0.35379291907987859 0.0036531515146394689 0 -0.34486911794267522 0.01360571280719213 0 -0.35379291907987859 0.0036531515146394689 0 -0.34486911794267522 0.01360571280719213 0 -0.35931289835773211 0.017828073835621499 0 -0.34486911794267522 0.01360571280719213 0 -0.35949737397463011 0.03832767442470033 0 -0.33665457531158011 0.03530767912586575 0 -0.34486911794267522 0.01360571280719213 0 -0.35949737397463011 0.03832767442470033 0 -0.34486911794267522 0.01360571280719213 0 -0.35931289835773211 0.017828073835621499 0 -0.35949737397463011 0.03832767442470033 0 -0.35931289835773211 0.017828073835621499 0 -0.37240583582309161 0.025400119615024142 0 -0.35949737397463011 0.03832767442470033 0 -0.38352074967304828 0.015142460093222071 0 -0.35931289835773211 0.017828073835621499 0 -0.37240583582309161 0.025400119615024142 0 -0.36933859948822412 -0.0004439302888986224 0 -0.35931289835773211 0.017828073835621499 0 -0.36933859948822412 -0.0004439302888986224 0 -0.35379291907987859 0.0036531515146394689 0 -0.35931289835773211 0.017828073835621499 0 -0.36933859948822412 -0.0004439302888986224 0 -0.38352074967304828 0.015142460093222071 0 -0.35931289835773211 0.017828073835621499 0 -0.34405547159010519 0.050353832715325099 0 -0.35745999798806488 0.056821110297827382 0 -0.34714447745496002 0.066443719023338205 0 -0.34405547159010519 0.050353832715325099 0 -0.35745999798806488 0.056821110297827382 0 -0.35949737397463011 0.03832767442470033 0 -0.33665457531158011 0.03530767912586575 0 -0.34405547159010519 0.050353832715325099 0 -0.35949737397463011 0.03832767442470033 0 -0.378823189839815 0.03909604806771539 0 -0.37240583582309161 0.025400119615024142 0 -0.35949737397463011 0.03832767442470033 0 -0.378823189839815 0.03909604806771539 0 -0.35949737397463011 0.03832767442470033 0 -0.37412563000658372 0.063049636042209145 0 -0.35745999798806488 0.056821110297827382 0 -0.35949737397463011 0.03832767442470033 0 -0.37412563000658372 0.063049636042209145 0 -0.35745999798806488 0.056821110297827382 0 -0.37412563000658372 0.063049636042209145 0 -0.36156626772124018 0.065734776454389493 0 -0.35949737397463011 0.03832767442470033 0 -0.37412563000658372 0.063049636042209145 0 -0.37412563000658372 0.063049636042209145 0 -0.3695083412505395 0.086593909313416401 0 -0.37412563000658372 0.063049636042209145 0 -0.3675349654353523 0.076624640454183254 0 -0.36156626772124018 0.065734776454389493 0 -0.37412563000658372 0.063049636042209145 0 -0.3675349654353523 0.076624640454183254 0 -0.3695083412505395 0.086593909313416401 0 -0.3675349654353523 0.076624640454183254 0 -0.36156626772124018 0.065734776454389493 0 -0.34714447745496002 0.066443719023338205 0 -0.3675349654353523 0.076624640454183254 0 -0.34714447745496002 0.066443719023338205 0 -0.35702653106516902 0.082410930972139154 0 -0.3675349654353523 0.076624640454183254 0 -0.34714447745496002 0.066443719023338205 0 -0.35745999798806488 0.056821110297827382 0 -0.36156626772124018 0.065734776454389493 0 -0.34714447745496002 0.066443719023338205 0 -0.34714447745496002 0.066443719023338205 0 -0.34407184476484548 0.087747414081418729 0 -0.35702653106516902 0.082410930972139154 0 -0.34407184476484548 0.087747414081418729 0 -0.35702653106516902 0.082410930972139154 0 -0.35687302642014779 0.094644971988339224 0 -0.35702653106516902 0.082410930972139154 0 -0.3695083412505395 0.086593909313416401 0 -0.35687302642014779 0.094644971988339224 0 -0.3675349654353523 0.076624640454183254 0 -0.35702653106516902 0.082410930972139154 0 -0.3695083412505395 0.086593909313416401 0 -0.37761936588316741 0.1004094566761367 0 -0.3695083412505395 0.086593909313416401 0 -0.36489105249449738 0.11013818258462391 0 -0.3695083412505395 0.086593909313416401 0 -0.36489105249449738 0.11013818258462391 0 -0.3695083412505395 0.086593909313416401 0 -0.36489105249449738 0.11013818258462391 0 -0.35687302642014779 0.094644971988339224 0 -0.37853037782034571 0.11479208822673689 0 -0.37761936588316741 0.1004094566761367 0 -0.36489105249449738 0.11013818258462391 0 -0.37437258627236542 0.12890371469479259 0 -0.34899953175928211 0.12694253498055411 0 -0.36489105249449738 0.11013818258462391 0 -0.37853037782034571 0.11479208822673689 0 -0.37437258627236542 0.12890371469479259 0 -0.36489105249449738 0.11013818258462391 0 -0.34899953175928211 0.12694253498055411 0 -0.36489105249449738 0.11013818258462391 0 -0.34567692745287781 0.1054922003633196 0 -0.34407184476484548 0.087747414081418729 0 -0.34567692745287781 0.1054922003633196 0 -0.35687302642014779 0.094644971988339224 0 -0.36489105249449738 0.11013818258462391 0 -0.34567692745287781 0.1054922003633196 0 -0.35687302642014779 0.094644971988339224 0 -0.34567692745287781 0.1054922003633196 0 -0.33110235222149947 0.1133837925860197 0 -0.32579578507050072 0.097943863999109565 0 -0.34407184476484548 0.087747414081418729 0 -0.34567692745287781 0.1054922003633196 0 -0.32579578507050072 0.097943863999109565 0 -0.34899953175928211 0.12694253498055411 0 -0.32540106173061079 0.12928329294269461 0 -0.33110235222149947 0.1133837925860197 0 -0.34899953175928211 0.12694253498055411 0 -0.34567692745287781 0.1054922003633196 0 -0.33110235222149947 0.1133837925860197 0 -0.32540106173061079 0.12928329294269461 0 -0.30735137396352707 0.13221906943945599 0 -0.30932509195253499 0.1133855600758945 0 -0.32540106173061079 0.12928329294269461 0 -0.30932509195253499 0.1133855600758945 0 -0.33110235222149947 0.1133837925860197 0 -0.30932509195253499 0.1133855600758945 0 -0.33110235222149947 0.1133837925860197 0 -0.32579578507050072 0.097943863999109565 0 -0.30932509195253499 0.1133855600758945 0 -0.30308678709954351 0.093744869254807961 0 -0.32579578507050072 0.097943863999109565 0 -0.30308678709954351 0.093744869254807961 0 -0.32579578507050072 0.097943863999109565 0 -0.32579578507050072 0.097943863999109565 0 -0.31565760967855899 0.083683454060182016 0 -0.32944992130611078 0.076878414853282506 0 -0.30308678709954351 0.093744869254807961 0 -0.32579578507050072 0.097943863999109565 0 -0.31565760967855899 0.083683454060182016 0 -0.30537586548509588 0.07636921710924334 0 -0.31565760967855899 0.083683454060182016 0 -0.31673402484082391 0.071322899472689744 0 -0.3075099059644259 0.062341610942359148 0 -0.3267539894745678 0.056262797592493183 0 -0.31673402484082391 0.071322899472689744 0 -0.3267539894745678 0.056262797592493183 0 -0.31673402484082391 0.071322899472689744 0 -0.32944992130611078 0.076878414853282506 0 -0.31565760967855899 0.083683454060182016 0 -0.31673402484082391 0.071322899472689744 0 -0.32944992130611078 0.076878414853282506 0 -0.34714447745496002 0.066443719023338205 0 -0.34407184476484548 0.087747414081418729 0 -0.32944992130611078 0.076878414853282506 0 -0.3267539894745678 0.056262797592493183 0 -0.34714447745496002 0.066443719023338205 0 -0.32944992130611078 0.076878414853282506 0 -0.34407184476484548 0.087747414081418729 0 -0.32579578507050072 0.097943863999109565 0 -0.32944992130611078 0.076878414853282506 0 -0.38004119447167473 0.5 0 -0.40144598658735797 0.45639365525664533 0 -0.37105357443984133 0.46430303421273489 0 -0.37935242010599618 0.44071850896710518 0 -0.40144598658735797 0.45639365525664533 0 -0.40815779377537781 0.42331444172143279 0 -0.37935242010599618 0.44071850896710518 0 -0.40144598658735797 0.45639365525664533 0 -0.37105357443984133 0.46430303421273489 0 -0.40144598658735797 0.45639365525664533 0 -0.43868982565468229 0.46919677018466283 0 -0.44151031805047608 0.43389604525709558 0 -0.40144598658735797 0.45639365525664533 0 -0.44151031805047608 0.43389604525709558 0 -0.40815779377537781 0.42331444172143279 0 -0.38004119447167473 0.5 0 -0.40144598658735797 0.45639365525664533 0 -0.43868982565468229 0.46919677018466283 0 -0.38004119447167473 0.5 0 -0.43868982565468229 0.46919677018466283 0 -0.5 0.5 0 -0.43868982565468229 0.46919677018466283 0 -0.5 0.5 0 -0.47045162916390282 0.45569415040957312 0 -0.5 0.5 0 -0.47045162916390282 0.45569415040957312 0 -0.5 0.46098350244823749 0 -0.47045162916390282 0.45569415040957312 0 -0.5 0.46098350244823749 0 -0.47333664445486912 0.42717377998972711 0 -0.47045162916390282 0.45569415040957312 0 -0.44151031805047608 0.43389604525709558 0 -0.47333664445486912 0.42717377998972711 0 -0.43868982565468229 0.46919677018466283 0 -0.47045162916390282 0.45569415040957312 0 -0.44151031805047608 0.43389604525709558 0 -0.44151031805047608 0.43389604525709558 0 -0.47333664445486912 0.42717377998972711 0 -0.45305641546656872 0.4028152879681669 0 -0.44151031805047608 0.43389604525709558 0 -0.45305641546656872 0.4028152879681669 0 -0.42862352686567828 0.39764169790538312 0 -0.47333664445486912 0.42717377998972711 0 -0.47494289786125032 0.40449320305179431 0 -0.45305641546656872 0.4028152879681669 0 -0.5 0.46098350244823749 0 -0.47333664445486912 0.42717377998972711 0 -0.50000000000000022 0.40630833158888569 0 -0.47333664445486912 0.42717377998972711 0 -0.50000000000000022 0.40630833158888569 0 -0.47494289786125032 0.40449320305179431 0 -0.50000000000000022 0.37801765443503049 0 -0.48327612692995559 0.38905392358275981 0 -0.48273601746649741 0.3698857754784371 0 -0.50000000000000022 0.40630833158888569 0 -0.48327612692995559 0.38905392358275981 0 -0.50000000000000022 0.40630833158888569 0 -0.50000000000000022 0.37801765443503049 0 -0.48327612692995559 0.38905392358275981 0 -0.50000000000000022 0.40630833158888569 0 -0.47494289786125032 0.40449320305179431 0 -0.48327612692995559 0.38905392358275981 0 -0.47494289786125032 0.40449320305179431 0 -0.48327612692995559 0.38905392358275981 0 -0.46523084502349721 0.38981232346873329 0 -0.48327612692995559 0.38905392358275981 0 -0.46655225385991111 0.37179951557663399 0 -0.48327612692995559 0.38905392358275981 0 -0.46655225385991111 0.37179951557663399 0 -0.48273601746649741 0.3698857754784371 0 -0.48327612692995559 0.38905392358275981 0 -0.46523084502349721 0.38981232346873329 0 -0.46655225385991111 0.37179951557663399 0 -0.46523084502349721 0.38981232346873329 0 -0.44845528579802219 0.38169594497092257 0 -0.46655225385991111 0.37179951557663399 0 -0.47494289786125032 0.40449320305179431 0 -0.46523084502349721 0.38981232346873329 0 -0.45305641546656872 0.4028152879681669 0 -0.46523084502349721 0.38981232346873329 0 -0.45305641546656872 0.4028152879681669 0 -0.44845528579802219 0.38169594497092257 0 -0.45305641546656872 0.4028152879681669 0 -0.44845528579802219 0.38169594497092257 0 -0.42862352686567828 0.39764169790538312 0 -0.44845528579802219 0.38169594497092257 0 -0.42862352686567828 0.39764169790538312 0 -0.42744029278261242 0.37356173733610981 0 -0.40505220477535708 0.39257836710170962 0 -0.40688636955313201 0.37131471231572333 0 -0.42744029278261242 0.37356173733610981 0 -0.42862352686567828 0.39764169790538312 0 -0.40505220477535708 0.39257836710170962 0 -0.42744029278261242 0.37356173733610981 0 -0.40505220477535708 0.39257836710170962 0 -0.42744029278261242 0.37356173733610981 0 -0.42862352686567828 0.39764169790538312 0 -0.40815779377537781 0.42331444172143279 0 -0.40505220477535708 0.39257836710170962 0 -0.44151031805047608 0.43389604525709558 0 -0.42862352686567828 0.39764169790538312 0 -0.40815779377537781 0.42331444172143279 0 -0.40815779377537781 0.42331444172143279 0 -0.38266411676810169 0.41159499686730933 0 -0.40505220477535708 0.39257836710170962 0 -0.37935242010599618 0.44071850896710518 0 -0.40815779377537781 0.42331444172143279 0 -0.38266411676810169 0.41159499686730933 0 -0.38266411676810169 0.41159499686730933 0 -0.38212343750332289 0.38854718054588178 0 -0.36856188385864808 0.39801797795947791 0 -0.38266411676810169 0.41159499686730933 0 -0.38212343750332289 0.38854718054588178 0 -0.40505220477535708 0.39257836710170962 0 -0.38212343750332289 0.38854718054588178 0 -0.38752378813381583 0.37201545498575489 0 -0.3700817685325466 0.37979505833716981 0 -0.38212343750332289 0.38854718054588178 0 -0.40505220477535708 0.39257836710170962 0 -0.38752378813381583 0.37201545498575489 0 -0.40505220477535708 0.39257836710170962 0 -0.38752378813381583 0.37201545498575489 0 -0.40688636955313201 0.37131471231572333 0 -0.38266411676810169 0.41159499686730933 0 -0.40505220477535708 0.39257836710170962 0 -0.39919111385473632 0.35598313712109703 0 -0.3907308603588967 0.34451455003393228 0 -0.40728425845483163 0.34056357847230478 0 -0.39919111385473632 0.35598313712109703 0 -0.3907308603588967 0.34451455003393228 0 -0.38209297762938599 0.35465694138060438 0 -0.39919111385473632 0.35598313712109703 0 -0.38752378813381583 0.37201545498575489 0 -0.40688636955313201 0.37131471231572333 0 -0.39919111385473632 0.35598313712109703 0 -0.38752378813381583 0.37201545498575489 0 -0.38209297762938599 0.35465694138060438 0 -0.38752378813381583 0.37201545498575489 0 -0.38209297762938599 0.35465694138060438 0 -0.3717287424002621 0.36323611655130389 0 -0.38752378813381583 0.37201545498575489 0 -0.3717287424002621 0.36323611655130389 0 -0.3700817685325466 0.37979505833716981 0 -0.38209297762938599 0.35465694138060438 0 -0.37781694332799343 0.34069825694722561 0 -0.36556641770061149 0.35149413264431328 0 -0.3907308603588967 0.34451455003393228 0 -0.38209297762938599 0.35465694138060438 0 -0.37781694332799343 0.34069825694722561 0 -0.37781694332799343 0.34069825694722561 0 -0.38992013604823089 0.329463198427704 0 -0.37644965412025161 0.32667390061683688 0 -0.3907308603588967 0.34451455003393228 0 -0.37781694332799343 0.34069825694722561 0 -0.38992013604823089 0.329463198427704 0 -0.37644965412025161 0.32667390061683688 0 -0.38841603441457873 0.31545253070281309 0 -0.37414735523205589 0.31158160091767462 0 -0.38992013604823089 0.329463198427704 0 -0.37644965412025161 0.32667390061683688 0 -0.38841603441457873 0.31545253070281309 0 -0.38992013604823089 0.329463198427704 0 -0.40186638703887367 0.31843725645121918 0 -0.40755075726582007 0.32787903414615288 0 -0.38841603441457873 0.31545253070281309 0 -0.40186638703887367 0.31843725645121918 0 -0.39850319958813718 0.30488904003086947 0 -0.38992013604823089 0.329463198427704 0 -0.38841603441457873 0.31545253070281309 0 -0.40186638703887367 0.31843725645121918 0 -0.38992013604823089 0.329463198427704 0 -0.40186638703887367 0.31843725645121918 0 -0.3907308603588967 0.34451455003393228 0 -0.38992013604823089 0.329463198427704 0 -0.40728425845483163 0.34056357847230478 0 -0.38992013604823089 0.329463198427704 0 -0.40728425845483163 0.34056357847230478 0 -0.40755075726582007 0.32787903414615288 0 -0.40728425845483163 0.34056357847230478 0 -0.41903181225013503 0.33317945872286769 0 -0.42308930759585239 0.34324625311115942 0 -0.40728425845483163 0.34056357847230478 0 -0.41903181225013503 0.33317945872286769 0 -0.40755075726582007 0.32787903414615288 0 -0.41903181225013503 0.33317945872286769 0 -0.40755075726582007 0.32787903414615288 0 -0.41774318616480038 0.32430372752259101 0 -0.40186638703887367 0.31843725645121918 0 -0.4118548885168471 0.31510478003369408 0 -0.41381263802951562 0.30741131447473341 0 -0.40186638703887367 0.31843725645121918 0 -0.4118548885168471 0.31510478003369408 0 -0.41117476815539128 0.32031185398842421 0 -0.40186638703887367 0.31843725645121918 0 -0.41381263802951562 0.30741131447473341 0 -0.4118548885168471 0.31510478003369408 0 -0.41117476815539128 0.32031185398842421 0 -0.4169851572983172 0.3171043017175123 0 -0.40186638703887367 0.31843725645121918 0 -0.41117476815539128 0.32031185398842421 0 -0.40755075726582007 0.32787903414615288 0 -0.41117476815539128 0.32031185398842421 0 -0.40755075726582007 0.32787903414615288 0 -0.41774318616480038 0.32430372752259101 0 -0.41903181225013503 0.33317945872286769 0 -0.41774318616480038 0.32430372752259101 0 -0.42604410005288978 0.32629048402612498 0 -0.41774318616480038 0.32430372752259101 0 -0.4169851572983172 0.3171043017175123 0 -0.42254196977906089 0.31994429715136091 0 -0.41117476815539128 0.32031185398842421 0 -0.41774318616480038 0.32430372752259101 0 -0.4169851572983172 0.3171043017175123 0 -0.4169851572983172 0.3171043017175123 0 -0.42398131137488448 0.31280639406466842 0 -0.41558369743344298 0.31179393319581949 0 -0.4169851572983172 0.3171043017175123 0 -0.42398131137488448 0.31280639406466842 0 -0.42254196977906089 0.31994429715136091 0 -0.4118548885168471 0.31510478003369408 0 -0.4169851572983172 0.3171043017175123 0 -0.41558369743344298 0.31179393319581949 0 -0.42398131137488448 0.31280639406466842 0 -0.42254196977906089 0.31994429715136091 0 -0.42901752508540969 0.31973215906064401 0 -0.41774318616480038 0.32430372752259101 0 -0.42254196977906089 0.31994429715136091 0 -0.42604410005288978 0.32629048402612498 0 -0.42254196977906089 0.31994429715136091 0 -0.42901752508540969 0.31973215906064401 0 -0.42604410005288978 0.32629048402612498 0 -0.42901752508540969 0.31973215906064401 0 -0.42604410005288978 0.32629048402612498 0 -0.43502561634260462 0.32433295838133902 0 -0.42604410005288978 0.32629048402612498 0 -0.43502561634260462 0.32433295838133902 0 -0.43133824964419448 0.33359794736160242 0 -0.42398131137488448 0.31280639406466842 0 -0.42901752508540969 0.31973215906064401 0 -0.43742925905360402 0.31295939535957262 0 -0.42901752508540969 0.31973215906064401 0 -0.43502561634260462 0.32433295838133902 0 -0.43742925905360402 0.31295939535957262 0 -0.41903181225013503 0.33317945872286769 0 -0.42308930759585239 0.34324625311115942 0 -0.43133824964419448 0.33359794736160242 0 -0.41903181225013503 0.33317945872286769 0 -0.42604410005288978 0.32629048402612498 0 -0.43133824964419448 0.33359794736160242 0 -0.43133824964419448 0.33359794736160242 0 -0.43789400227309427 0.33025600036426739 0 -0.4408620077163749 0.33619204747053499 0 -0.43502561634260462 0.32433295838133902 0 -0.43133824964419448 0.33359794736160242 0 -0.43789400227309427 0.33025600036426739 0 -0.42308930759585239 0.34324625311115942 0 -0.43133824964419448 0.33359794736160242 0 -0.43590433707587162 0.34293966256795311 0 -0.43133824964419448 0.33359794736160242 0 -0.43590433707587162 0.34293966256795311 0 -0.4408620077163749 0.33619204747053499 0 -0.42308930759585239 0.34324625311115942 0 -0.43590433707587162 0.34293966256795311 0 -0.43268343360342998 0.35338737862817249 0 -0.42308930759585239 0.34324625311115942 0 -0.43268343360342998 0.35338737862817249 0 -0.415305155992721 0.35694963945439268 0 -0.40728425845483163 0.34056357847230478 0 -0.42308930759585239 0.34324625311115942 0 -0.415305155992721 0.35694963945439268 0 -0.39919111385473632 0.35598313712109703 0 -0.40728425845483163 0.34056357847230478 0 -0.415305155992721 0.35694963945439268 0 -0.39919111385473632 0.35598313712109703 0 -0.415305155992721 0.35694963945439268 0 -0.40688636955313201 0.37131471231572333 0 -0.415305155992721 0.35694963945439268 0 -0.40688636955313201 0.37131471231572333 0 -0.42744029278261242 0.37356173733610981 0 -0.43268343360342998 0.35338737862817249 0 -0.415305155992721 0.35694963945439268 0 -0.42744029278261242 0.37356173733610981 0 -0.43268343360342998 0.35338737862817249 0 -0.42744029278261242 0.37356173733610981 0 -0.44982838078986631 0.35454510757050839 0 -0.42744029278261242 0.37356173733610981 0 -0.44982838078986631 0.35454510757050839 0 -0.44845528579802219 0.38169594497092257 0 -0.42744029278261242 0.37356173733610981 0 -0.44982838078986631 0.35454510757050839 0 -0.43268343360342998 0.35338737862817249 0 -0.4445331273836568 0.34908187172891242 0 -0.44982838078986631 0.35454510757050839 0 -0.43590433707587162 0.34293966256795311 0 -0.43268343360342998 0.35338737862817249 0 -0.4445331273836568 0.34908187172891242 0 -0.43590433707587162 0.34293966256795311 0 -0.4445331273836568 0.34908187172891242 0 -0.44762338251319839 0.34123405015532371 0 -0.4445331273836568 0.34908187172891242 0 -0.44982838078986631 0.35454510757050839 0 -0.4445331273836568 0.34908187172891242 0 -0.44948374455315082 0.34690735268250228 0 -0.44762338251319839 0.34123405015532371 0 -0.44982838078986631 0.35454510757050839 0 -0.44948374455315082 0.34690735268250228 0 -0.45595008752588179 0.34276838127526488 0 -0.4445331273836568 0.34908187172891242 0 -0.44982838078986631 0.35454510757050839 0 -0.44948374455315082 0.34690735268250228 0 -0.44982838078986631 0.35454510757050839 0 -0.47284570334623899 0.3349940007002829 0 -0.45595008752588179 0.34276838127526488 0 -0.44982838078986631 0.35454510757050839 0 -0.4714582660822193 0.35578680710739757 0 -0.47284570334623899 0.3349940007002829 0 -0.44982838078986631 0.35454510757050839 0 -0.47284570334623899 0.3349940007002829 0 -0.44982838078986631 0.35454510757050839 0 -0.46655225385991111 0.37179951557663399 0 -0.4714582660822193 0.35578680710739757 0 -0.44982838078986631 0.35454510757050839 0 -0.46655225385991111 0.37179951557663399 0 -0.44845528579802219 0.38169594497092257 0 -0.44982838078986631 0.35454510757050839 0 -0.46655225385991111 0.37179951557663399 0 -0.46655225385991111 0.37179951557663399 0 -0.48273601746649741 0.3698857754784371 0 -0.4714582660822193 0.35578680710739757 0 -0.4714582660822193 0.35578680710739757 0 -0.49014006813793382 0.35103582091908969 0 -0.47284570334623899 0.3349940007002829 0 -0.48273601746649741 0.3698857754784371 0 -0.4714582660822193 0.35578680710739757 0 -0.49014006813793382 0.35103582091908969 0 -0.50000000000000022 0.37801765443503049 0 -0.5 0.35211114232432988 0 -0.49014006813793382 0.35103582091908969 0 -0.50000000000000022 0.37801765443503049 0 -0.48273601746649741 0.3698857754784371 0 -0.49014006813793382 0.35103582091908969 0 -0.50000000000000022 0.37801765443503049 0 -0.49014006813793382 0.35103582091908969 0 -0.5 0.32620463021362939 0 -0.48028013627586708 0.32405398740314878 0 -0.48605986930371448 0.30722341074840598 0 -0.49014006813793382 0.35103582091908969 0 -0.5 0.32620463021362939 0 -0.48028013627586708 0.32405398740314878 0 -0.5 0.35211114232432988 0 -0.49014006813793382 0.35103582091908969 0 -0.5 0.32620463021362939 0 -0.49014006813793382 0.35103582091908969 0 -0.48028013627586708 0.32405398740314878 0 -0.47284570334623899 0.3349940007002829 0 -0.48028013627586708 0.32405398740314878 0 -0.46319047201090091 0.32727484287737602 0 -0.49014006813793382 0.35103582091908969 0 -0.47284570334623899 0.3349940007002829 0 -0.48028013627586708 0.32405398740314878 0 -0.48028013627586708 0.32405398740314878 0 -0.46194104994715501 0.31544240544793162 0 -0.46319047201090091 0.32727484287737602 0 -0.46319047201090091 0.32727484287737602 0 -0.45411490689083811 0.32349528238146452 0 -0.45339561971969228 0.33074843129139281 0 -0.46194104994715501 0.31544240544793162 0 -0.46319047201090091 0.32727484287737602 0 -0.45411490689083811 0.32349528238146452 0 -0.46194104994715501 0.31544240544793162 0 -0.45411490689083811 0.32349528238146452 0 -0.44769725738723848 0.31710968404702888 0 -0.47284570334623899 0.3349940007002829 0 -0.45939485827529042 0.33437514589583162 0 -0.45595008752588179 0.34276838127526488 0 -0.47284570334623899 0.3349940007002829 0 -0.46319047201090091 0.32727484287737602 0 -0.45939485827529042 0.33437514589583162 0 -0.46319047201090091 0.32727484287737602 0 -0.45339561971969228 0.33074843129139281 0 -0.45939485827529042 0.33437514589583162 0 -0.45339561971969228 0.33074843129139281 0 -0.45939485827529042 0.33437514589583162 0 -0.45279783895559628 0.33672886566760057 0 -0.45939485827529042 0.33437514589583162 0 -0.45595008752588179 0.34276838127526488 0 -0.45279783895559628 0.33672886566760057 0 -0.45595008752588179 0.34276838127526488 0 -0.44762338251319839 0.34123405015532371 0 -0.45279783895559628 0.33672886566760057 0 -0.44948374455315082 0.34690735268250228 0 -0.45595008752588179 0.34276838127526488 0 -0.44762338251319839 0.34123405015532371 0 -0.44762338251319839 0.34123405015532371 0 -0.45279783895559628 0.33672886566760057 0 -0.44762524674391813 0.33451831972019003 0 -0.44762338251319839 0.34123405015532371 0 -0.44762524674391813 0.33451831972019003 0 -0.4408620077163749 0.33619204747053499 0 -0.45339561971969228 0.33074843129139281 0 -0.44762524674391813 0.33451831972019003 0 -0.44435013538920332 0.32690104824359328 0 -0.45339561971969228 0.33074843129139281 0 -0.45279783895559628 0.33672886566760057 0 -0.44762524674391813 0.33451831972019003 0 -0.44762524674391813 0.33451831972019003 0 -0.4408620077163749 0.33619204747053499 0 -0.44435013538920332 0.32690104824359328 0 -0.43789400227309427 0.33025600036426739 0 -0.4408620077163749 0.33619204747053499 0 -0.44435013538920332 0.32690104824359328 0 -0.43590433707587162 0.34293966256795311 0 -0.44762338251319839 0.34123405015532371 0 -0.4408620077163749 0.33619204747053499 0 -0.45411490689083811 0.32349528238146452 0 -0.44769725738723848 0.31710968404702888 0 -0.44435013538920332 0.32690104824359328 0 -0.45411490689083811 0.32349528238146452 0 -0.45339561971969228 0.33074843129139281 0 -0.44435013538920332 0.32690104824359328 0 -0.43502561634260462 0.32433295838133902 0 -0.44435013538920332 0.32690104824359328 0 -0.44112556704316258 0.32032577150788338 0 -0.43502561634260462 0.32433295838133902 0 -0.43789400227309427 0.33025600036426739 0 -0.44435013538920332 0.32690104824359328 0 -0.44769725738723848 0.31710968404702888 0 -0.44435013538920332 0.32690104824359328 0 -0.44112556704316258 0.32032577150788338 0 -0.43742925905360402 0.31295939535957262 0 -0.44769725738723848 0.31710968404702888 0 -0.44112556704316258 0.32032577150788338 0 -0.43502561634260462 0.32433295838133902 0 -0.43742925905360402 0.31295939535957262 0 -0.44112556704316258 0.32032577150788338 0 -0.43742925905360402 0.31295939535957262 0 -0.44769725738723848 0.31710968404702888 0 -0.45032183790163149 0.30271628052429539 0 -0.43742925905360402 0.31295939535957262 0 -0.44086832692730898 0.29716244850888912 0 -0.45032183790163149 0.30271628052429539 0 -0.45032183790163149 0.30271628052429539 0 -0.45289133249418789 0.28694182761617909 0 -0.44002068862340882 0.28798256870971439 0 -0.45289133249418789 0.28694182761617909 0 -0.45546082708674512 0.27116737470806301 0 -0.44002068862340882 0.28798256870971439 0 -0.45588178353635289 0.26858306972062762 0 -0.43436417083140172 0.28844301987093762 0 -0.44086832692730898 0.29716244850888912 0 -0.45032183790163149 0.30271628052429539 0 -0.45289133249418789 0.28694182761617909 0 -0.44086832692730898 0.29716244850888912 0 -0.44002068862340882 0.28798256870971439 0 -0.45289133249418789 0.28694182761617909 0 -0.44086832692730898 0.29716244850888912 0 -0.44002068862340882 0.28798256870971439 0 -0.43436417083140172 0.28844301987093762 0 -0.47042020441380028 0.29707215388720792 0 -0.46056027255173182 0.27009032037126768 0 -0.45032183790163149 0.30271628052429539 0 -0.45289133249418789 0.28694182761617909 0 -0.47042020441380028 0.29707215388720792 0 -0.45289133249418789 0.28694182761617909 0 -0.47042020441380028 0.29707215388720792 0 -0.46056027255173182 0.27009032037126768 0 -0.46194104994715501 0.31544240544793162 0 -0.45032183790163149 0.30271628052429539 0 -0.47042020441380028 0.29707215388720792 0 -0.46194104994715501 0.31544240544793162 0 -0.44769725738723848 0.31710968404702888 0 -0.45032183790163149 0.30271628052429539 0 -0.47042020441380028 0.29707215388720792 0 -0.48818945506275457 0.28810402338646313 0 -0.48605986930371448 0.30722341074840598 0 -0.48028013627586708 0.32405398740314878 0 -0.47042020441380028 0.29707215388720792 0 -0.48605986930371448 0.30722341074840598 0 -0.48028013627586708 0.32405398740314878 0 -0.46194104994715501 0.31544240544793162 0 -0.47042020441380028 0.29707215388720792 0 -0.48028013627586708 0.32405398740314878 0 -0.47042020441380028 0.29707215388720792 0 -0.47042020441380028 0.29707215388720792 0 -0.48818945506275457 0.28810402338646313 0 -0.48028013627586341 0.27224096318175017 0 -0.48818945506275457 0.28810402338646313 0 -0.5 0.30029811810292878 0 -0.49999999999999561 0.27439160599222812 0 -0.5 0.32620463021362939 0 -0.5 0.30029811810292878 0 -0.48605986930371448 0.30722341074840598 0 -0.48818945506275457 0.28810402338646313 0 -0.5 0.30029811810292878 0 -0.48605986930371448 0.30722341074840598 0 -0.48470493529518099 0.2598227295886173 0 -0.5 0.25574299280684493 0 -0.49999999999999561 0.27439160599222812 0 -0.48916327443797081 0.247883965171216 0 -0.48470493529518099 0.2598227295886173 0 -0.5 0.25574299280684493 0 -0.48470493529518099 0.2598227295886173 0 -0.49999999999999561 0.27439160599222812 0 -0.48028013627586341 0.27224096318175017 0 -0.49999999999999561 0.27439160599222812 0 -0.48028013627586341 0.27224096318175017 0 -0.48818945506275457 0.28810402338646313 0 -0.49999999999999561 0.27439160599222812 0 -0.48028013627586341 0.27224096318175017 0 -0.48028013627586341 0.27224096318175017 0 -0.46056027255173182 0.27009032037126768 0 -0.47042020441380028 0.29707215388720792 0 -0.48028013627586341 0.27224096318175017 0 -0.46056027255173182 0.27009032037126768 0 -0.48028013627586341 0.27224096318175017 0 -0.46868086514029889 0.25676999704804171 0 -0.46056027255173182 0.27009032037126768 0 -0.48470493529518099 0.2598227295886173 0 -0.48028013627586341 0.27224096318175017 0 -0.46868086514029889 0.25676999704804171 0 -0.47535244210990601 0.24950426809701751 0 -0.48470493529518099 0.2598227295886173 0 -0.46868086514029889 0.25676999704804171 0 -0.47535244210990601 0.24950426809701751 0 -0.48916327443797081 0.247883965171216 0 -0.48470493529518099 0.2598227295886173 0 -0.47535244210990601 0.24950426809701751 0 -0.46868086514029889 0.25676999704804171 0 -0.45036505421977402 0.24219097101065759 0 -0.45715442374461801 0.26077017021407978 0 -0.45981304281472068 0.2444485708445272 0 -0.46868086514029889 0.25676999704804171 0 -0.45715442374461801 0.26077017021407978 0 -0.47535244210990601 0.24950426809701751 0 -0.45981304281472068 0.2444485708445272 0 -0.46868086514029889 0.25676999704804171 0 -0.45981304281472068 0.2444485708445272 0 -0.45715442374461801 0.26077017021407978 0 -0.46868086514029889 0.25676999704804171 0 -0.45896842684731071 0.2657342136171198 0 -0.46056027255173182 0.27009032037126768 0 -0.46868086514029889 0.25676999704804171 0 -0.45715442374461801 0.26077017021407978 0 -0.45896842684731071 0.2657342136171198 0 -0.46868086514029889 0.25676999704804171 0 -0.45896842684731071 0.2657342136171198 0 -0.45715442374461801 0.26077017021407978 0 -0.45896842684731071 0.2657342136171198 0 -0.45588178353635289 0.26858306972062762 0 -0.45715442374461801 0.26077017021407978 0 -0.45588178353635289 0.26858306972062762 0 -0.45715442374461801 0.26077017021407978 0 -0.45896842684731071 0.2657342136171198 0 -0.45289133249418789 0.28694182761617909 0 -0.45546082708674512 0.27116737470806301 0 -0.45289133249418789 0.28694182761617909 0 -0.45546082708674512 0.27116737470806301 0 -0.46056027255173182 0.27009032037126768 0 -0.45896842684731071 0.2657342136171198 0 -0.46056027255173182 0.27009032037126768 0 -0.45896842684731071 0.2657342136171198 0 -0.45588178353635289 0.26858306972062762 0 -0.46056027255173182 0.27009032037126768 0 -0.45588178353635289 0.26858306972062762 0 -0.46056027255173182 0.27009032037126768 0 -0.45896842684731071 0.2657342136171198 0 -0.45588178353635289 0.26858306972062762 0 -0.45588178353635289 0.26858306972062762 0 -0.45546082708674512 0.27116737470806301 0 -0.45588178353635289 0.26858306972062762 0 -0.45546082708674512 0.27116737470806301 0 -0.46056027255173182 0.27009032037126768 0 -0.45588178353635289 0.26858306972062762 0 -0.42687187803059939 0.26641627350730818 0 -0.43237001904122191 0.27011148194182422 0 -0.45588178353635289 0.26858306972062762 0 -0.43436417083140172 0.28844301987093762 0 -0.44002068862340882 0.28798256870971439 0 -0.45546082708674512 0.27116737470806301 0 -0.44002068862340882 0.28798256870971439 0 -0.45588178353635289 0.26858306972062762 0 -0.45546082708674512 0.27116737470806301 0 -0.45588178353635289 0.26858306972062762 0 -0.43237001904122191 0.27011148194182422 0 -0.43436417083140172 0.28844301987093762 0 -0.45588178353635289 0.26858306972062762 0 -0.42687187803059939 0.26641627350730818 0 -0.45036505421977402 0.24219097101065759 0 -0.45715442374461801 0.26077017021407978 0 -0.44462105563271109 0.25670510479446867 0 -0.45588178353635289 0.26858306972062762 0 -0.44462105563271109 0.25670510479446867 0 -0.42687187803059939 0.26641627350730818 0 -0.45715442374461801 0.26077017021407978 0 -0.45588178353635289 0.26858306972062762 0 -0.44462105563271109 0.25670510479446867 0 -0.41605306156336558 0.24779447805732691 0 -0.43379821853527623 0.24467338397315699 0 -0.42687187803059939 0.26641627350730818 0 -0.43379821853527623 0.24467338397315699 0 -0.44462105563271109 0.25670510479446867 0 -0.42687187803059939 0.26641627350730818 0 -0.43379821853527623 0.24467338397315699 0 -0.42687187803059939 0.26641627350730818 0 -0.41605306156336558 0.24779447805732691 0 -0.42076521223890689 0.26575028224770259 0 -0.42687187803059939 0.26641627350730818 0 -0.42076521223890689 0.26575028224770259 0 -0.40141875768492008 0.26364036333665669 0 -0.40044655650917238 0.25811433305328563 0 -0.42076521223890689 0.26575028224770259 0 -0.40044655650917238 0.25811433305328563 0 -0.41605306156336558 0.24779447805732691 0 -0.42076521223890689 0.26575028224770259 0 -0.40044655650917238 0.25811433305328563 0 -0.42076521223890689 0.26575028224770259 0 -0.40141875768492008 0.26364036333665669 0 -0.41107146591579979 0.27206649530583682 0 -0.42011054146118609 0.28764118932435467 0 -0.40414049742014763 0.27911084061590902 0 -0.41107146591579979 0.27206649530583682 0 -0.42076521223890689 0.26575028224770259 0 -0.42011054146118609 0.28764118932435467 0 -0.41107146591579979 0.27206649530583682 0 -0.42076521223890689 0.26575028224770259 0 -0.40141875768492008 0.26364036333665669 0 -0.42801080507730838 0.27919138742788241 0 -0.42640844489285812 0.26787106417397671 0 -0.42011054146118609 0.28764118932435467 0 -0.42076521223890689 0.26575028224770259 0 -0.42640844489285812 0.26787106417397671 0 -0.42011054146118609 0.28764118932435467 0 -0.42640844489285812 0.26787106417397671 0 -0.42011054146118609 0.28764118932435467 0 -0.42801080507730838 0.27919138742788241 0 -0.43237001904122191 0.27011148194182422 0 -0.43436417083140172 0.28844301987093762 0 -0.42801080507730838 0.27919138742788241 0 -0.42640844489285812 0.26787106417397671 0 -0.43237001904122191 0.27011148194182422 0 -0.42076521223890689 0.26575028224770259 0 -0.42687187803059939 0.26641627350730818 0 -0.42076521223890689 0.26575028224770259 0 -0.42640844489285812 0.26787106417397671 0 -0.42687187803059939 0.26641627350730818 0 -0.42076521223890689 0.26575028224770259 0 -0.42640844489285812 0.26787106417397671 0 -0.42640844489285812 0.26787106417397671 0 -0.42687187803059939 0.26641627350730818 0 -0.43237001904122191 0.27011148194182422 0 -0.42640844489285812 0.26787106417397671 0 -0.43237001904122191 0.27011148194182422 0 -0.42640844489285812 0.26787106417397671 0 -0.42687187803059939 0.26641627350730818 0 -0.43436417083140172 0.28844301987093762 0 -0.41381263802951562 0.30741131447473341 0 -0.42011054146118609 0.28764118932435467 0 -0.44086832692730898 0.29716244850888912 0 -0.43436417083140172 0.28844301987093762 0 -0.43018267265962018 0.30393159897263528 0 -0.42801080507730838 0.27919138742788241 0 -0.43436417083140172 0.28844301987093762 0 -0.42011054146118609 0.28764118932435467 0 -0.43742925905360402 0.31295939535957262 0 -0.44086832692730898 0.29716244850888912 0 -0.43018267265962018 0.30393159897263528 0 -0.42398131137488448 0.31280639406466842 0 -0.43018267265962018 0.30393159897263528 0 -0.41381263802951562 0.30741131447473341 0 -0.43436417083140172 0.28844301987093762 0 -0.41381263802951562 0.30741131447473341 0 -0.43436417083140172 0.28844301987093762 0 -0.43018267265962018 0.30393159897263528 0 -0.41381263802951562 0.30741131447473341 0 -0.42398131137488448 0.31280639406466842 0 -0.43742925905360402 0.31295939535957262 0 -0.43018267265962018 0.30393159897263528 0 -0.41381263802951562 0.30741131447473341 0 -0.42011054146118609 0.28764118932435467 0 -0.42398131137488448 0.31280639406466842 0 -0.41558369743344298 0.31179393319581949 0 -0.41381263802951562 0.30741131447473341 0 -0.41381263802951562 0.30741131447473341 0 -0.40686223715537201 0.29458131789516168 0 -0.39850319958813718 0.30488904003086947 0 -0.4118548885168471 0.31510478003369408 0 -0.41558369743344298 0.31179393319581949 0 -0.41381263802951562 0.30741131447473341 0 -0.41381263802951562 0.30741131447473341 0 -0.42011054146118609 0.28764118932435467 0 -0.40686223715537201 0.29458131789516168 0 -0.42011054146118609 0.28764118932435467 0 -0.40686223715537201 0.29458131789516168 0 -0.40414049742014763 0.27911084061590902 0 -0.3945313373191971 0.29160111031247099 0 -0.38698471458664863 0.28081574712827129 0 -0.40414049742014763 0.27911084061590902 0 -0.40686223715537201 0.29458131789516168 0 -0.40414049742014763 0.27911084061590902 0 -0.40686223715537201 0.29458131789516168 0 -0.3945313373191971 0.29160111031247099 0 -0.40414049742014763 0.27911084061590902 0 -0.40186638703887367 0.31843725645121918 0 -0.41381263802951562 0.30741131447473341 0 -0.39850319958813718 0.30488904003086947 0 -0.40686223715537201 0.29458131789516168 0 -0.3945313373191971 0.29160111031247099 0 -0.39850319958813718 0.30488904003086947 0 -0.3945313373191971 0.29160111031247099 0 -0.39850319958813718 0.30488904003086947 0 -0.38553056357128579 0.301850710348818 0 -0.38841603441457873 0.31545253070281309 0 -0.39850319958813718 0.30488904003086947 0 -0.38553056357128579 0.301850710348818 0 -0.38553056357128579 0.301850710348818 0 -0.37335442502489302 0.29669283321319562 0 -0.37414735523205589 0.31158160091767462 0 -0.38841603441457873 0.31545253070281309 0 -0.38553056357128579 0.301850710348818 0 -0.37414735523205589 0.31158160091767462 0 -0.3945313373191971 0.29160111031247099 0 -0.38309632714991909 0.29083488048489758 0 -0.38698471458664863 0.28081574712827129 0 -0.3945313373191971 0.29160111031247099 0 -0.38553056357128579 0.301850710348818 0 -0.38309632714991909 0.29083488048489758 0 -0.38309632714991909 0.29083488048489758 0 -0.37322120776534662 0.28407307773153112 0 -0.37335442502489302 0.29669283321319562 0 -0.38553056357128579 0.301850710348818 0 -0.38309632714991909 0.29083488048489758 0 -0.37335442502489302 0.29669283321319562 0 -0.38309632714991909 0.29083488048489758 0 -0.38698471458664863 0.28081574712827129 0 -0.37322120776534662 0.28407307773153112 0 -0.38698471458664863 0.28081574712827129 0 -0.37707986127010029 0.27151455830838839 0 -0.37322120776534662 0.28407307773153112 0 -0.38698471458664863 0.28081574712827129 0 -0.39044159676440388 0.27047059327612821 0 -0.37707986127010029 0.27151455830838839 0 -0.39044159676440388 0.27047059327612821 0 -0.37707986127010029 0.27151455830838839 0 -0.38222141149610711 0.26154670614212489 0 -0.37762357589810641 0.24953723411872661 0 -0.40044655650917238 0.25811433305328563 0 -0.37762357589810641 0.24953723411872661 0 -0.38222141149610711 0.26154670614212489 0 -0.40044655650917238 0.25811433305328563 0 -0.37707986127010029 0.27151455830838839 0 -0.38222141149610711 0.26154670614212489 0 -0.36773374308549611 0.26020844267376703 0 -0.37762357589810641 0.24953723411872661 0 -0.38932782258989462 0.24452898672213899 0 -0.40044655650917238 0.25811433305328563 0 -0.37762357589810641 0.24953723411872661 0 -0.38222141149610711 0.26154670614212489 0 -0.36773374308549611 0.26020844267376703 0 -0.39044159676440388 0.27047059327612821 0 -0.38222141149610711 0.26154670614212489 0 -0.40141875768492008 0.26364036333665669 0 -0.38222141149610711 0.26154670614212489 0 -0.40141875768492008 0.26364036333665669 0 -0.38222141149610711 0.26154670614212489 0 -0.40141875768492008 0.26364036333665669 0 -0.40044655650917238 0.25811433305328563 0 -0.40141875768492008 0.26364036333665669 0 -0.40044655650917238 0.25811433305328563 0 -0.40141875768492008 0.26364036333665669 0 -0.40414049742014763 0.27911084061590902 0 -0.39044159676440388 0.27047059327612821 0 -0.40141875768492008 0.26364036333665669 0 -0.40414049742014763 0.27911084061590902 0 -0.41107146591579979 0.27206649530583682 0 -0.40141875768492008 0.26364036333665669 0 -0.40414049742014763 0.27911084061590902 0 -0.38698471458664863 0.28081574712827129 0 -0.39044159676440388 0.27047059327612821 0 -0.40414049742014763 0.27911084061590902 0 -0.36001710644037521 0.27283185920830721 0 -0.33779684838279261 0.28609816075947769 0 -0.34018326285651262 0.26080154602993127 0 -0.33788940549799379 0.24380658160696719 0 -0.35340254031448232 0.25560690021648391 0 -0.34018326285651262 0.26080154602993127 0 -0.354800595287041 0.2409601351841657 0 -0.35340254031448232 0.25560690021648391 0 -0.36773374308549611 0.26020844267376703 0 -0.35340254031448232 0.25560690021648391 0 -0.36001710644037521 0.27283185920830721 0 -0.34018326285651262 0.26080154602993127 0 -0.35340254031448232 0.25560690021648391 0 -0.36773374308549611 0.26020844267376703 0 -0.36001710644037521 0.27283185920830721 0 -0.37762357589810641 0.24953723411872661 0 -0.354800595287041 0.2409601351841657 0 -0.36773374308549611 0.26020844267376703 0 -0.37707986127010029 0.27151455830838839 0 -0.36001710644037521 0.27283185920830721 0 -0.37322120776534662 0.28407307773153112 0 -0.37707986127010029 0.27151455830838839 0 -0.36773374308549611 0.26020844267376703 0 -0.36001710644037521 0.27283185920830721 0 -0.36001710644037521 0.27283185920830721 0 -0.37322120776534662 0.28407307773153112 0 -0.35879481212014352 0.29174858804612658 0 -0.37322120776534662 0.28407307773153112 0 -0.37335442502489302 0.29669283321319562 0 -0.35879481212014352 0.29174858804612658 0 -0.37335442502489302 0.29669283321319562 0 -0.37414735523205589 0.31158160091767462 0 -0.35975862629799749 0.30478335323126249 0 -0.37335442502489302 0.29669283321319562 0 -0.35975862629799749 0.30478335323126249 0 -0.35879481212014352 0.29174858804612658 0 -0.37414735523205589 0.31158160091767462 0 -0.35975862629799749 0.30478335323126249 0 -0.36188662545293182 0.31529429906019529 0 -0.34828887442138462 0.30255211001056931 0 -0.33541043390907371 0.31139477548902439 0 -0.34968365139691632 0.31873567252695539 0 -0.35975862629799749 0.30478335323126249 0 -0.34828887442138462 0.30255211001056931 0 -0.34968365139691632 0.31873567252695539 0 -0.35975862629799749 0.30478335323126249 0 -0.34828887442138462 0.30255211001056931 0 -0.35879481212014352 0.29174858804612658 0 -0.34828887442138462 0.30255211001056931 0 -0.35879481212014352 0.29174858804612658 0 -0.33779684838279261 0.28609816075947769 0 -0.36001710644037521 0.27283185920830721 0 -0.35879481212014352 0.29174858804612658 0 -0.33779684838279261 0.28609816075947769 0 -0.33779684838279261 0.28609816075947769 0 -0.33541043390907371 0.31139477548902439 0 -0.34828887442138462 0.30255211001056931 0 -0.33779684838279261 0.28609816075947769 0 -0.33541043390907371 0.31139477548902439 0 -0.33779684838279261 0.28609816075947769 0 -0.33541043390907371 0.31139477548902439 0 -0.31784951446504062 0.30236297157796233 0 -0.33541043390907371 0.31139477548902439 0 -0.31784951446504062 0.30236297157796233 0 -0.3217462657091274 0.32064737635422041 0 -0.33541043390907371 0.31139477548902439 0 -0.31784951446504062 0.30236297157796233 0 -0.33779684838279261 0.28609816075947769 0 -0.31784951446504062 0.30236297157796233 0 -0.31709042905232671 0.27959064687520507 0 -0.31709042905232671 0.27959064687520507 0 -0.34018326285651262 0.26080154602993127 0 -0.31675628104696218 0.25816396337405889 0 -0.33779684838279261 0.28609816075947769 0 -0.34018326285651262 0.26080154602993127 0 -0.33779684838279261 0.28609816075947769 0 -0.31709042905232671 0.27959064687520507 0 -0.34018326285651262 0.26080154602993127 0 -0.33788940549799379 0.24380658160696719 0 -0.34018326285651262 0.26080154602993127 0 -0.31675628104696218 0.25816396337405889 0 -0.31628492721883539 0.23957254520949231 0 -0.31675628104696218 0.25816396337405889 0 -0.29263024276373129 0.25236458445954002 0 -0.31675628104696218 0.25816396337405889 0 -0.29645941889237332 0.27284787606321742 0 -0.29263024276373129 0.25236458445954002 0 -0.31709042905232671 0.27959064687520507 0 -0.31675628104696218 0.25816396337405889 0 -0.29645941889237332 0.27284787606321742 0 -0.28965444303604121 0.27892016551864202 0 -0.29645941889237332 0.27284787606321742 0 -0.28462976222723979 0.26633557703980448 0 -0.28965444303604121 0.27892016551864202 0 -0.28462976222723979 0.26633557703980448 0 -0.28095764949768981 0.27768346499108748 0 -0.28965444303604121 0.27892016551864202 0 -0.28095764949768981 0.27768346499108748 0 -0.28604931085245322 0.28600772296606719 0 -0.28462976222723979 0.26633557703980448 0 -0.29263024276373129 0.25236458445954002 0 -0.26694789876300162 0.26625314649527909 0 -0.28056281431753932 0.24436326559548641 0 -0.29263024276373129 0.25236458445954002 0 -0.27576790151354769 0.25417373225169149 0 -0.29645941889237332 0.27284787606321742 0 -0.29263024276373129 0.25236458445954002 0 -0.29645941889237332 0.27284787606321742 0 -0.28462976222723979 0.26633557703980448 0 -0.29263024276373129 0.25236458445954002 0 -0.29263024276373129 0.25236458445954002 0 -0.26694789876300162 0.26625314649527909 0 -0.29263024276373129 0.25236458445954002 0 -0.27576790151354769 0.25417373225169149 0 -0.26694789876300162 0.26625314649527909 0 -0.27127102212297499 0.24781219944000599 0 -0.27576790151354769 0.25417373225169149 0 -0.26546174464421152 0.25559093832545982 0 -0.26357200518833979 0.2481306776765875 0 -0.27127102212297499 0.24781219944000599 0 -0.26546174464421152 0.25559093832545982 0 -0.27576790151354769 0.25417373225169149 0 -0.26694789876300162 0.26625314649527909 0 -0.26546174464421152 0.25559093832545982 0 -0.28095764949768981 0.27768346499108748 0 -0.26610105853410998 0.27574808343626722 0 -0.28604931085245322 0.28600772296606719 0 -0.26610105853410998 0.27574808343626722 0 -0.28604931085245322 0.28600772296606719 0 -0.28462976222723979 0.26633557703980448 0 -0.27465909225551027 0.27150506799060958 0 -0.28095764949768981 0.27768346499108748 0 -0.28462976222723979 0.26633557703980448 0 -0.27465909225551027 0.27150506799060958 0 -0.26694789876300162 0.26625314649527909 0 -0.27465909225551027 0.27150506799060958 0 -0.28095764949768981 0.27768346499108748 0 -0.26610105853410998 0.27574808343626722 0 -0.27465909225551027 0.27150506799060958 0 -0.26610105853410998 0.27574808343626722 0 -0.26694789876300162 0.26625314649527909 0 -0.26610105853410998 0.27574808343626722 0 -0.24615280621576621 0.26548844390646842 0 -0.26610105853410998 0.27574808343626722 0 -0.26694789876300162 0.26625314649527909 0 -0.25956864423455489 0.26256166171682438 0 -0.26610105853410998 0.27574808343626722 0 -0.25956864423455489 0.26256166171682438 0 -0.24615280621576621 0.26548844390646842 0 -0.26130286593117402 0.28573621903864221 0 -0.24915420104852881 0.28720616524545362 0 -0.24615280621576621 0.26548844390646842 0 -0.26610105853410998 0.27574808343626722 0 -0.26130286593117402 0.28573621903864221 0 -0.24615280621576621 0.26548844390646842 0 -0.25704079557700088 0.2542377393705969 0 -0.25956864423455489 0.26256166171682438 0 -0.24615280621576621 0.26548844390646842 0 -0.25704079557700088 0.2542377393705969 0 -0.249435427503925 0.25000056447435692 0 -0.24615280621576621 0.26548844390646842 0 -0.25704079557700088 0.2542377393705969 0 -0.26546174464421152 0.25559093832545982 0 -0.25956864423455489 0.26256166171682438 0 -0.26357200518833979 0.2481306776765875 0 -0.25704079557700088 0.2542377393705969 0 -0.26546174464421152 0.25559093832545982 0 -0.26694789876300162 0.26625314649527909 0 -0.26546174464421152 0.25559093832545982 0 -0.25956864423455489 0.26256166171682438 0 -0.26525891187360168 0.30190844123559668 0 -0.25250351686746902 0.29989466443510299 0 -0.26121342260660041 0.29405981721879909 0 -0.26525891187360168 0.30190844123559668 0 -0.25250351686746902 0.29989466443510299 0 -0.2579230396276298 0.31303410818490363 0 -0.26525891187360168 0.30190844123559668 0 -0.26633353908766277 0.31093815740141878 0 -0.2579230396276298 0.31303410818490363 0 -0.25250351686746902 0.29989466443510299 0 -0.2579230396276298 0.31303410818490363 0 -0.24410435883272499 0.30730467973507741 0 -0.25250351686746902 0.29989466443510299 0 -0.26121342260660041 0.29405981721879909 0 -0.24915420104852881 0.28720616524545362 0 -0.26130286593117402 0.28573621903864221 0 -0.26121342260660041 0.29405981721879909 0 -0.24915420104852881 0.28720616524545362 0 -0.26130286593117402 0.28573621903864221 0 -0.26121342260660041 0.29405981721879909 0 -0.27128639101083041 0.29036254955448482 0 -0.26610105853410998 0.27574808343626722 0 -0.27118490658214173 0.28446364374886551 0 -0.28604931085245322 0.28600772296606719 0 -0.26121342260660041 0.29405981721879909 0 -0.27128639101083041 0.29036254955448482 0 -0.27245033075707742 0.29746328467139582 0 -0.26130286593117402 0.28573621903864221 0 -0.27128639101083041 0.29036254955448482 0 -0.27118490658214173 0.28446364374886551 0 -0.26610105853410998 0.27574808343626722 0 -0.26130286593117402 0.28573621903864221 0 -0.27118490658214173 0.28446364374886551 0 -0.27128639101083041 0.29036254955448482 0 -0.27118490658214173 0.28446364374886551 0 -0.28604931085245322 0.28600772296606719 0 -0.27128639101083041 0.29036254955448482 0 -0.28058453696013991 0.29596654379966292 0 -0.28604931085245322 0.28600772296606719 0 -0.27128639101083041 0.29036254955448482 0 -0.28058453696013991 0.29596654379966292 0 -0.27245033075707742 0.29746328467139582 0 -0.28058453696013991 0.29596654379966292 0 -0.27245033075707742 0.29746328467139582 0 -0.27757187736597938 0.30780140231922909 0 -0.26525891187360168 0.30190844123559668 0 -0.27245033075707742 0.29746328467139582 0 -0.27757187736597938 0.30780140231922909 0 -0.26525891187360168 0.30190844123559668 0 -0.26121342260660041 0.29405981721879909 0 -0.27245033075707742 0.29746328467139582 0 -0.26633353908766277 0.31093815740141878 0 -0.27757187736597938 0.30780140231922909 0 -0.27103404288107152 0.31748203656040119 0 -0.26525891187360168 0.30190844123559668 0 -0.26633353908766277 0.31093815740141878 0 -0.27757187736597938 0.30780140231922909 0 -0.29531682808224791 0.30115900637501469 0 -0.30458434531204509 0.31631028978396047 0 -0.28969416299380862 0.31788582217835382 0 -0.27757187736597938 0.30780140231922909 0 -0.29531682808224791 0.30115900637501469 0 -0.28969416299380862 0.31788582217835382 0 -0.28058453696013991 0.29596654379966292 0 -0.27757187736597938 0.30780140231922909 0 -0.29531682808224791 0.30115900637501469 0 -0.28965444303604121 0.27892016551864202 0 -0.29645941889237332 0.27284787606321742 0 -0.30028859502101002 0.29333116766689571 0 -0.28095764949768981 0.27768346499108748 0 -0.28604931085245322 0.28600772296606719 0 -0.28058453696013991 0.29596654379966292 0 -0.29531682808224791 0.30115900637501469 0 -0.28604931085245322 0.28600772296606719 0 -0.28604931085245322 0.28600772296606719 0 -0.30028859502101002 0.29333116766689571 0 -0.29531682808224791 0.30115900637501469 0 -0.28604931085245322 0.28600772296606719 0 -0.30028859502101002 0.29333116766689571 0 -0.29531682808224791 0.30115900637501469 0 -0.28604931085245322 0.28600772296606719 0 -0.28965444303604121 0.27892016551864202 0 -0.28604931085245322 0.28600772296606719 0 -0.30028859502101002 0.29333116766689571 0 -0.29645941889237332 0.27284787606321742 0 -0.30028859502101002 0.29333116766689571 0 -0.31784951446504062 0.30236297157796233 0 -0.31709042905232671 0.27959064687520507 0 -0.30028859502101002 0.29333116766689571 0 -0.31709042905232671 0.27959064687520507 0 -0.29645941889237332 0.27284787606321742 0 -0.30028859502101002 0.29333116766689571 0 -0.29531682808224791 0.30115900637501469 0 -0.30028859502101002 0.29333116766689571 0 -0.30458434531204509 0.31631028978396047 0 -0.31784951446504062 0.30236297157796233 0 -0.30028859502101002 0.29333116766689571 0 -0.30028859502101002 0.29333116766689571 0 -0.30458434531204509 0.31631028978396047 0 -0.31784951446504062 0.30236297157796233 0 -0.30028859502101002 0.29333116766689571 0 -0.30458434531204509 0.31631028978396047 0 -0.29531682808224791 0.30115900637501469 0 -0.30458434531204509 0.31631028978396047 0 -0.30458434531204509 0.31631028978396047 0 -0.31773699528048088 0.33781330103381202 0 -0.30458434531204509 0.31631028978396047 0 -0.29838890140195462 0.33174364257031491 0 -0.28969416299380862 0.31788582217835382 0 -0.30458434531204509 0.31631028978396047 0 -0.29838890140195462 0.33174364257031491 0 -0.30974136336272717 0.34389656447824729 0 -0.30458434531204509 0.31631028978396047 0 -0.30974136336272717 0.34389656447824729 0 -0.31773699528048088 0.33781330103381202 0 -0.30458434531204509 0.31631028978396047 0 -0.30974136336272717 0.34389656447824729 0 -0.29838890140195462 0.33174364257031491 0 -0.29774694638481219 0.34300877871200652 0 -0.30974136336272717 0.34389656447824729 0 -0.29838890140195462 0.33174364257031491 0 -0.28193024350727569 0.33019967796918243 0 -0.28680094178357762 0.3387887289635117 0 -0.29774694638481219 0.34300877871200652 0 -0.28680094178357762 0.3387887289635117 0 -0.29026130247215393 0.3475946345917772 0 -0.29838890140195462 0.33174364257031491 0 -0.29774694638481219 0.34300877871200652 0 -0.28680094178357762 0.3387887289635117 0 -0.28680094178357762 0.3387887289635117 0 -0.27840417713944399 0.34396159558360961 0 -0.29026130247215393 0.3475946345917772 0 -0.29838890140195462 0.33174364257031491 0 -0.28193024350727569 0.33019967796918243 0 -0.28969416299380862 0.31788582217835382 0 -0.28193024350727569 0.33019967796918243 0 -0.28969416299380862 0.31788582217835382 0 -0.279998122046764 0.32066165653919487 0 -0.27757187736597938 0.30780140231922909 0 -0.28969416299380862 0.31788582217835382 0 -0.279998122046764 0.32066165653919487 0 -0.27757187736597938 0.30780140231922909 0 -0.27103404288107152 0.31748203656040119 0 -0.279998122046764 0.32066165653919487 0 -0.26633353908766277 0.31093815740141878 0 -0.27103404288107152 0.31748203656040119 0 -0.2619699813775595 0.32067090670283022 0 -0.27103404288107152 0.31748203656040119 0 -0.279998122046764 0.32066165653919487 0 -0.26785032824016602 0.32887471985406591 0 -0.27103404288107152 0.31748203656040119 0 -0.26785032824016602 0.32887471985406591 0 -0.2619699813775595 0.32067090670283022 0 -0.28193024350727569 0.33019967796918243 0 -0.279998122046764 0.32066165653919487 0 -0.26785032824016602 0.32887471985406591 0 -0.28193024350727569 0.33019967796918243 0 -0.28680094178357762 0.3387887289635117 0 -0.27407407979582488 0.33622404435417991 0 -0.28193024350727569 0.33019967796918243 0 -0.27407407979582488 0.33622404435417991 0 -0.26785032824016602 0.32887471985406591 0 -0.28680094178357762 0.3387887289635117 0 -0.27407407979582488 0.33622404435417991 0 -0.27840417713944399 0.34396159558360961 0 -0.27407407979582488 0.33622404435417991 0 -0.2657891344612594 0.34260346541075559 0 -0.27840417713944399 0.34396159558360961 0 -0.27407407979582488 0.33622404435417991 0 -0.2657891344612594 0.34260346541075559 0 -0.26785032824016602 0.32887471985406591 0 -0.2657891344612594 0.34260346541075559 0 -0.26785032824016602 0.32887471985406591 0 -0.25765534988252359 0.33551440595186149 0 -0.26785032824016602 0.32887471985406591 0 -0.25765534988252359 0.33551440595186149 0 -0.25513146044283957 0.32598646153315808 0 -0.2657891344612594 0.34260346541075559 0 -0.25368043652116851 0.34365645987938581 0 -0.25765534988252359 0.33551440595186149 0 -0.25368043652116851 0.34365645987938581 0 -0.25765534988252359 0.33551440595186149 0 -0.24763081136529461 0.33494096372922999 0 -0.25765534988252359 0.33551440595186149 0 -0.25513146044283957 0.32598646153315808 0 -0.24763081136529461 0.33494096372922999 0 -0.25513146044283957 0.32598646153315808 0 -0.2579230396276298 0.31303410818490363 0 -0.24590158606486731 0.31892834640800533 0 -0.26633353908766277 0.31093815740141878 0 -0.2579230396276298 0.31303410818490363 0 -0.2619699813775595 0.32067090670283022 0 -0.25513146044283957 0.32598646153315808 0 -0.2579230396276298 0.31303410818490363 0 -0.2619699813775595 0.32067090670283022 0 -0.26785032824016602 0.32887471985406591 0 -0.25513146044283957 0.32598646153315808 0 -0.2619699813775595 0.32067090670283022 0 -0.26525078814191227 0.36110546955719242 0 -0.25743979375409431 0.3642842092102419 0 -0.25594486946715178 0.35704283167107043 0 -0.26525078814191227 0.36110546955719242 0 -0.26515504097039871 0.37148364879392209 0 -0.25743979375409431 0.3642842092102419 0 -0.26515504097039871 0.37148364879392209 0 -0.25470617562740888 0.3714596858883974 0 -0.2560937295827152 0.38004031966349888 0 -0.26515504097039871 0.37148364879392209 0 -0.25470617562740888 0.3714596858883974 0 -0.25743979375409431 0.3642842092102419 0 -0.25470617562740888 0.3714596858883974 0 -0.25081124317754028 0.36495989425522968 0 -0.24507155163857419 0.37309708549036119 0 -0.25470617562740888 0.3714596858883974 0 -0.2560937295827152 0.38004031966349888 0 -0.24507155163857419 0.37309708549036119 0 -0.25081124317754028 0.36495989425522968 0 -0.25743979375409431 0.3642842092102419 0 -0.25594486946715178 0.35704283167107043 0 -0.25081124317754028 0.36495989425522968 0 -0.25594486946715178 0.35704283167107043 0 -0.248255913421734 0.35836464571649412 0 -0.25470617562740888 0.3714596858883974 0 -0.25081124317754028 0.36495989425522968 0 -0.25743979375409431 0.3642842092102419 0 -0.25594486946715178 0.35704283167107043 0 -0.2585086214240499 0.34986687710485342 0 -0.2474994420061162 0.35137415341270778 0 -0.25594486946715178 0.35704283167107043 0 -0.2474994420061162 0.35137415341270778 0 -0.248255913421734 0.35836464571649412 0 -0.25368043652116851 0.34365645987938581 0 -0.2585086214240499 0.34986687710485342 0 -0.2474994420061162 0.35137415341270778 0 -0.2657891344612594 0.34260346541075559 0 -0.2585086214240499 0.34986687710485342 0 -0.26556371324638772 0.35230691355030352 0 -0.2657891344612594 0.34260346541075559 0 -0.25368043652116851 0.34365645987938581 0 -0.2585086214240499 0.34986687710485342 0 -0.25594486946715178 0.35704283167107043 0 -0.2585086214240499 0.34986687710485342 0 -0.26556371324638772 0.35230691355030352 0 -0.26525078814191227 0.36110546955719242 0 -0.25594486946715178 0.35704283167107043 0 -0.26556371324638772 0.35230691355030352 0 -0.26525078814191227 0.36110546955719242 0 -0.26556371324638772 0.35230691355030352 0 -0.27428448855606408 0.35645834139669103 0 -0.26556371324638772 0.35230691355030352 0 -0.27290001507207201 0.34940459057231349 0 -0.27428448855606408 0.35645834139669103 0 -0.2657891344612594 0.34260346541075559 0 -0.26556371324638772 0.35230691355030352 0 -0.27290001507207201 0.34940459057231349 0 -0.2657891344612594 0.34260346541075559 0 -0.27290001507207201 0.34940459057231349 0 -0.27840417713944399 0.34396159558360961 0 -0.27290001507207201 0.34940459057231349 0 -0.27840417713944399 0.34396159558360961 0 -0.28195932364824339 0.35154724259594877 0 -0.27428448855606408 0.35645834139669103 0 -0.28519135930223882 0.35987967276604388 0 -0.28195932364824339 0.35154724259594877 0 -0.27290001507207201 0.34940459057231349 0 -0.27428448855606408 0.35645834139669103 0 -0.28195932364824339 0.35154724259594877 0 -0.27428448855606408 0.35645834139669103 0 -0.27311682285737771 0.36505687272092557 0 -0.28519135930223882 0.35987967276604388 0 -0.27311682285737771 0.36505687272092557 0 -0.28057373982321288 0.37181319820896352 0 -0.28519135930223882 0.35987967276604388 0 -0.26525078814191227 0.36110546955719242 0 -0.26515504097039871 0.37148364879392209 0 -0.27311682285737771 0.36505687272092557 0 -0.26525078814191227 0.36110546955719242 0 -0.27428448855606408 0.35645834139669103 0 -0.27311682285737771 0.36505687272092557 0 -0.26515504097039871 0.37148364879392209 0 -0.27311682285737771 0.36505687272092557 0 -0.28057373982321288 0.37181319820896352 0 -0.28057373982321288 0.37181319820896352 0 -0.28519135930223882 0.35987967276604388 0 -0.29639606127656892 0.37106173439842888 0 -0.28057373982321288 0.37181319820896352 0 -0.29639606127656892 0.37106173439842888 0 -0.28892080910481849 0.38162830192451103 0 -0.28519135930223882 0.35987967276604388 0 -0.29639606127656892 0.37106173439842888 0 -0.29974777648205048 0.35562568544957229 0 -0.27840417713944399 0.34396159558360961 0 -0.28195932364824339 0.35154724259594877 0 -0.29026130247215393 0.3475946345917772 0 -0.28519135930223882 0.35987967276604388 0 -0.28195932364824339 0.35154724259594877 0 -0.29026130247215393 0.3475946345917772 0 -0.28519135930223882 0.35987967276604388 0 -0.29026130247215393 0.3475946345917772 0 -0.29974777648205048 0.35562568544957229 0 -0.29774694638481219 0.34300877871200652 0 -0.29026130247215393 0.3475946345917772 0 -0.29974777648205048 0.35562568544957229 0 -0.29974777648205048 0.35562568544957229 0 -0.30974136336272717 0.34389656447824729 0 -0.31489838141340709 0.37148283917253438 0 -0.30974136336272717 0.34389656447824729 0 -0.31489838141340709 0.37148283917253438 0 -0.29774694638481219 0.34300877871200652 0 -0.29974777648205048 0.35562568544957229 0 -0.30974136336272717 0.34389656447824729 0 -0.29639606127656892 0.37106173439842888 0 -0.29974777648205048 0.35562568544957229 0 -0.31489838141340709 0.37148283917253438 0 -0.31489838141340709 0.37148283917253438 0 -0.32610453590712452 0.37033398374484378 0 -0.32168007633979612 0.35734475152834277 0 -0.32610453590712452 0.37033398374484378 0 -0.33070953682611831 0.36122550845695689 0 -0.32168007633979612 0.35734475152834277 0 -0.32610453590712452 0.37033398374484378 0 -0.33531020706499892 0.36654340269433572 0 -0.33338984371457669 0.37613270995711873 0 -0.32610453590712452 0.37033398374484378 0 -0.33070953682611831 0.36122550845695689 0 -0.33531020706499892 0.36654340269433572 0 -0.33070953682611831 0.36122550845695689 0 -0.3308896452489184 0.35931631228366262 0 -0.33531020706499892 0.36654340269433572 0 -0.3308896452489184 0.35931631228366262 0 -0.33070953682611831 0.36122550845695689 0 -0.33531020706499892 0.36654340269433572 0 -0.3308896452489184 0.35931631228366262 0 -0.33531020706499892 0.36654340269433572 0 -0.34249884809267489 0.37060752425186289 0 -0.34240418109068299 0.35723876581172342 0 -0.33531020706499892 0.36654340269433572 0 -0.34240418109068299 0.35723876581172342 0 -0.3308896452489184 0.35931631228366262 0 -0.33531020706499892 0.36654340269433572 0 -0.34249884809267489 0.37060752425186289 0 -0.33338984371457669 0.37613270995711873 0 -0.34240418109068299 0.35723876581172342 0 -0.3308896452489184 0.35931631228366262 0 -0.33315003957899553 0.33535554388634342 0 -0.34240418109068299 0.35723876581172342 0 -0.33315003957899553 0.33535554388634342 0 -0.35122832465374448 0.34787735051578789 0 -0.3308896452489184 0.35931631228366262 0 -0.33315003957899553 0.33535554388634342 0 -0.3308896452489184 0.35931631228366262 0 -0.32168007633979612 0.35734475152834277 0 -0.31773699528048088 0.33781330103381202 0 -0.3308896452489184 0.35931631228366262 0 -0.31773699528048088 0.33781330103381202 0 -0.33315003957899553 0.33535554388634342 0 -0.30974136336272717 0.34389656447824729 0 -0.32168007633979612 0.35734475152834277 0 -0.31773699528048088 0.33781330103381202 0 -0.30974136336272717 0.34389656447824729 0 -0.31489838141340709 0.37148283917253438 0 -0.32168007633979612 0.35734475152834277 0 -0.3308896452489184 0.35931631228366262 0 -0.31773699528048088 0.33781330103381202 0 -0.33070953682611831 0.36122550845695689 0 -0.3308896452489184 0.35931631228366262 0 -0.32168007633979612 0.35734475152834277 0 -0.31773699528048088 0.33781330103381202 0 -0.3217462657091274 0.32064737635422041 0 -0.33315003957899553 0.33535554388634342 0 -0.30458434531204509 0.31631028978396047 0 -0.31773699528048088 0.33781330103381202 0 -0.3217462657091274 0.32064737635422041 0 -0.31784951446504062 0.30236297157796233 0 -0.30458434531204509 0.31631028978396047 0 -0.3217462657091274 0.32064737635422041 0 -0.33541043390907371 0.31139477548902439 0 -0.3217462657091274 0.32064737635422041 0 -0.33315003957899553 0.33535554388634342 0 -0.33541043390907371 0.31139477548902439 0 -0.33315003957899553 0.33535554388634342 0 -0.33541043390907371 0.31139477548902439 0 -0.33315003957899553 0.33535554388634342 0 -0.34968365139691632 0.31873567252695539 0 -0.33541043390907371 0.31139477548902439 0 -0.34968365139691632 0.31873567252695539 0 -0.33315003957899553 0.33535554388634342 0 -0.35162250330144518 0.3338496036482177 0 -0.34968365139691632 0.31873567252695539 0 -0.33315003957899553 0.33535554388634342 0 -0.35162250330144518 0.3338496036482177 0 -0.35122832465374448 0.34787735051578789 0 -0.35162250330144518 0.3338496036482177 0 -0.36444011866480058 0.33777830232287831 0 -0.35122832465374448 0.34787735051578789 0 -0.35162250330144518 0.3338496036482177 0 -0.34968365139691632 0.31873567252695539 0 -0.3639568688847577 0.32607656956488867 0 -0.34968365139691632 0.31873567252695539 0 -0.3639568688847577 0.32607656956488867 0 -0.34968365139691632 0.31873567252695539 0 -0.36188662545293182 0.31529429906019529 0 -0.3639568688847577 0.32607656956488867 0 -0.35975862629799749 0.30478335323126249 0 -0.34968365139691632 0.31873567252695539 0 -0.36188662545293182 0.31529429906019529 0 -0.37414735523205589 0.31158160091767462 0 -0.36188662545293182 0.31529429906019529 0 -0.3639568688847577 0.32607656956488867 0 -0.37644965412025161 0.32667390061683688 0 -0.37414735523205589 0.31158160091767462 0 -0.3639568688847577 0.32607656956488867 0 -0.35162250330144518 0.3338496036482177 0 -0.3639568688847577 0.32607656956488867 0 -0.36444011866480058 0.33777830232287831 0 -0.37644965412025161 0.32667390061683688 0 -0.3639568688847577 0.32607656956488867 0 -0.36444011866480058 0.33777830232287831 0 -0.37781694332799343 0.34069825694722561 0 -0.37644965412025161 0.32667390061683688 0 -0.36444011866480058 0.33777830232287831 0 -0.37781694332799343 0.34069825694722561 0 -0.36444011866480058 0.33777830232287831 0 -0.36556641770061149 0.35149413264431328 0 -0.38209297762938599 0.35465694138060438 0 -0.36556641770061149 0.35149413264431328 0 -0.3717287424002621 0.36323611655130389 0 -0.36444011866480058 0.33777830232287831 0 -0.36556641770061149 0.35149413264431328 0 -0.35122832465374448 0.34787735051578789 0 -0.36556641770061149 0.35149413264431328 0 -0.3717287424002621 0.36323611655130389 0 -0.35325789183830669 0.36926549755128868 0 -0.3717287424002621 0.36323611655130389 0 -0.35325789183830669 0.36926549755128868 0 -0.3700817685325466 0.37979505833716981 0 -0.34249884809267489 0.37060752425186289 0 -0.35325789183830669 0.36926549755128868 0 -0.34199887503737059 0.380772450128814 0 -0.34249884809267489 0.37060752425186289 0 -0.34240418109068299 0.35723876581172342 0 -0.35325789183830669 0.36926549755128868 0 -0.36556641770061149 0.35149413264431328 0 -0.35325789183830669 0.36926549755128868 0 -0.35122832465374448 0.34787735051578789 0 -0.34240418109068299 0.35723876581172342 0 -0.35325789183830669 0.36926549755128868 0 -0.35122832465374448 0.34787735051578789 0 -0.34473680579000171 0.40019505425397711 0 -0.36856188385864808 0.39801797795947791 0 -0.35963005199534548 0.41164505657854378 0 -0.34473680579000171 0.40019505425397711 0 -0.35637021793061519 0.38714964179772732 0 -0.36856188385864808 0.39801797795947791 0 -0.34473680579000171 0.40019505425397711 0 -0.35637021793061519 0.38714964179772732 0 -0.34199887503737059 0.380772450128814 0 -0.35325789183830669 0.36926549755128868 0 -0.35637021793061519 0.38714964179772732 0 -0.34199887503737059 0.380772450128814 0 -0.35325789183830669 0.36926549755128868 0 -0.35637021793061519 0.38714964179772732 0 -0.3700817685325466 0.37979505833716981 0 -0.38212343750332289 0.38854718054588178 0 -0.3700817685325466 0.37979505833716981 0 -0.36856188385864808 0.39801797795947791 0 -0.35637021793061519 0.38714964179772732 0 -0.3700817685325466 0.37979505833716981 0 -0.36856188385864808 0.39801797795947791 0 -0.38266411676810169 0.41159499686730933 0 -0.35963005199534548 0.41164505657854378 0 -0.36027602876084641 0.43061162663290908 0 -0.38266411676810169 0.41159499686730933 0 -0.36856188385864808 0.39801797795947791 0 -0.35963005199534548 0.41164505657854378 0 -0.38266411676810169 0.41159499686730933 0 -0.36027602876084641 0.43061162663290908 0 -0.37935242010599618 0.44071850896710518 0 -0.38266411676810169 0.41159499686730933 0 -0.36027602876084641 0.43061162663290908 0 -0.36027602876084641 0.43061162663290908 0 -0.343953131731215 0.43408179415007142 0 -0.34098677526882082 0.41726714654746139 0 -0.34473680579000171 0.40019505425397711 0 -0.35963005199534548 0.41164505657854378 0 -0.34098677526882082 0.41726714654746139 0 -0.35963005199534548 0.41164505657854378 0 -0.36027602876084641 0.43061162663290908 0 -0.34098677526882082 0.41726714654746139 0 -0.34098677526882082 0.41726714654746139 0 -0.32902716490274858 0.41009973325094801 0 -0.32430915101930108 0.42182357346540889 0 -0.34473680579000171 0.40019505425397711 0 -0.34098677526882082 0.41726714654746139 0 -0.33517908890721371 0.4049508773360308 0 -0.34098677526882082 0.41726714654746139 0 -0.32902716490274858 0.41009973325094801 0 -0.33517908890721371 0.4049508773360308 0 -0.34098677526882082 0.41726714654746139 0 -0.32430915101930108 0.42182357346540889 0 -0.33009624361327028 0.44338048662395679 0 -0.343953131731215 0.43408179415007142 0 -0.34098677526882082 0.41726714654746139 0 -0.33009624361327028 0.44338048662395679 0 -0.34098677526882082 0.41726714654746139 0 -0.33009624361327028 0.44338048662395679 0 -0.32430915101930108 0.42182357346540889 0 -0.3282595285809613 0.44295520408821359 0 -0.32430915101930108 0.42182357346540889 0 -0.3282595285809613 0.44295520408821359 0 -0.33009624361327028 0.44338048662395679 0 -0.31821964290833338 0.43477018593426348 0 -0.32430915101930108 0.42182357346540889 0 -0.30672873041261001 0.42552745449977769 0 -0.31821964290833338 0.43477018593426348 0 -0.32430915101930108 0.42182357346540889 0 -0.3282595285809613 0.44295520408821359 0 -0.32430915101930108 0.42182357346540889 0 -0.31932208979495608 0.40052500332728891 0 -0.31932208979495608 0.40052500332728891 0 -0.30672873041261001 0.42552745449977769 0 -0.31799493273674212 0.41206890259851081 0 -0.32430915101930108 0.42182357346540889 0 -0.30672873041261001 0.42552745449977769 0 -0.31799493273674212 0.41206890259851081 0 -0.31932208979495608 0.40052500332728891 0 -0.30672873041261001 0.42552745449977769 0 -0.32902716490274858 0.41009973325094801 0 -0.32430915101930108 0.42182357346540889 0 -0.31932208979495608 0.40052500332728891 0 -0.31799493273674212 0.41206890259851081 0 -0.32430915101930108 0.42182357346540889 0 -0.31932208979495608 0.40052500332728891 0 -0.32005539946408601 0.39906911386682209 0 -0.32733293219852311 0.4018150074011016 0 -0.32696037162265063 0.38536020395641918 0 -0.32005539946408601 0.39906911386682209 0 -0.31932208979495608 0.40052500332728891 0 -0.32005539946408601 0.39906911386682209 0 -0.31932208979495608 0.40052500332728891 0 -0.30625820659269309 0.38737321348770393 0 -0.32005539946408601 0.39906911386682209 0 -0.32696037162265063 0.38536020395641918 0 -0.32005539946408601 0.39906911386682209 0 -0.31932208979495608 0.40052500332728891 0 -0.32733293219852311 0.4018150074011016 0 -0.32902716490274858 0.41009973325094801 0 -0.31932208979495608 0.40052500332728891 0 -0.32733293219852311 0.4018150074011016 0 -0.31932208979495608 0.40052500332728891 0 -0.32733293219852311 0.4018150074011016 0 -0.32733293219852311 0.4018150074011016 0 -0.33532721454485342 0.39340238589559889 0 -0.32696037162265063 0.38536020395641918 0 -0.34473680579000171 0.40019505425397711 0 -0.33532721454485342 0.39340238589559889 0 -0.34199887503737059 0.380772450128814 0 -0.32733293219852311 0.4018150074011016 0 -0.33517908890721371 0.4049508773360308 0 -0.33532721454485342 0.39340238589559889 0 -0.32902716490274858 0.41009973325094801 0 -0.32733293219852311 0.4018150074011016 0 -0.33517908890721371 0.4049508773360308 0 -0.34473680579000171 0.40019505425397711 0 -0.33517908890721371 0.4049508773360308 0 -0.33532721454485342 0.39340238589559889 0 -0.34249884809267489 0.37060752425186289 0 -0.34199887503737059 0.380772450128814 0 -0.33338984371457669 0.37613270995711873 0 -0.33532721454485342 0.39340238589559889 0 -0.34199887503737059 0.380772450128814 0 -0.32696037162265063 0.38536020395641918 0 -0.34199887503737059 0.380772450128814 0 -0.33338984371457669 0.37613270995711873 0 -0.32696037162265063 0.38536020395641918 0 -0.32610453590712452 0.37033398374484378 0 -0.33338984371457669 0.37613270995711873 0 -0.32696037162265063 0.38536020395641918 0 -0.31489838141340709 0.37148283917253438 0 -0.32005539946408601 0.39906911386682209 0 -0.32696037162265063 0.38536020395641918 0 -0.31489838141340709 0.37148283917253438 0 -0.32005539946408601 0.39906911386682209 0 -0.30625820659269309 0.38737321348770393 0 -0.31489838141340709 0.37148283917253438 0 -0.32610453590712452 0.37033398374484378 0 -0.32696037162265063 0.38536020395641918 0 -0.31489838141340709 0.37148283917253438 0 -0.32005539946408601 0.39906911386682209 0 -0.29639606127656892 0.37106173439842888 0 -0.30625820659269309 0.38737321348770393 0 -0.28892080910481849 0.38162830192451103 0 -0.29639606127656892 0.37106173439842888 0 -0.31489838141340709 0.37148283917253438 0 -0.30625820659269309 0.38737321348770393 0 -0.31932208979495608 0.40052500332728891 0 -0.29027908954857712 0.39584814329857138 0 -0.30320727103978301 0.40808097963194018 0 -0.31932208979495608 0.40052500332728891 0 -0.30625820659269309 0.38737321348770393 0 -0.29027908954857712 0.39584814329857138 0 -0.31932208979495608 0.40052500332728891 0 -0.29027908954857712 0.39584814329857138 0 -0.29027908954857712 0.39584814329857138 0 -0.27886850066683327 0.4066823863111646 0 -0.30320727103978301 0.40808097963194018 0 -0.29027908954857712 0.39584814329857138 0 -0.28892080910481849 0.38162830192451103 0 -0.27370974972198658 0.38199748252655358 0 -0.30625820659269309 0.38737321348770393 0 -0.29027908954857712 0.39584814329857138 0 -0.28892080910481849 0.38162830192451103 0 -0.28057373982321288 0.37181319820896352 0 -0.28892080910481849 0.38162830192451103 0 -0.27370974972198658 0.38199748252655358 0 -0.29027908954857712 0.39584814329857138 0 -0.27370974972198658 0.38199748252655358 0 -0.26123608930219788 0.39117128326985462 0 -0.26515504097039871 0.37148364879392209 0 -0.28057373982321288 0.37181319820896352 0 -0.27370974972198658 0.38199748252655358 0 -0.26123608930219788 0.39117128326985462 0 -0.26574861793578319 0.41042474952792107 0 -0.27886850066683327 0.4066823863111646 0 -0.29027908954857712 0.39584814329857138 0 -0.26123608930219788 0.39117128326985462 0 -0.29027908954857712 0.39584814329857138 0 -0.26123608930219788 0.39117128326985462 0 -0.27886850066683327 0.4066823863111646 0 -0.26123608930219788 0.39117128326985462 0 -0.25443672127411232 0.40753113851161837 0 -0.2487540922718337 0.39786746445057958 0 -0.26123608930219788 0.39117128326985462 0 -0.25443672127411232 0.40753113851161837 0 -0.26574861793578319 0.41042474952792107 0 -0.27370974972198658 0.38199748252655358 0 -0.26123608930219788 0.39117128326985462 0 -0.2560937295827152 0.38004031966349888 0 -0.26515504097039871 0.37148364879392209 0 -0.27370974972198658 0.38199748252655358 0 -0.2560937295827152 0.38004031966349888 0 -0.26123608930219788 0.39117128326985462 0 -0.2560937295827152 0.38004031966349888 0 -0.24640294203220769 0.3818395311168023 0 -0.25992894544496009 0.42475478568301339 0 -0.26755533122200842 0.44150219003199942 0 -0.2401470957773337 0.43580564415847117 0 -0.25992894544496009 0.42475478568301339 0 -0.25443672127411232 0.40753113851161837 0 -0.24539948521445129 0.42162133900916038 0 -0.25992894544496009 0.42475478568301339 0 -0.25443672127411232 0.40753113851161837 0 -0.26574861793578319 0.41042474952792107 0 -0.26574861793578319 0.41042474952792107 0 -0.27886850066683327 0.4066823863111646 0 -0.28314824073989198 0.42283245400845931 0 -0.25992894544496009 0.42475478568301339 0 -0.26574861793578319 0.41042474952792107 0 -0.28314824073989198 0.42283245400845931 0 -0.25992894544496009 0.42475478568301339 0 -0.28314824073989198 0.42283245400845931 0 -0.26755533122200842 0.44150219003199942 0 -0.28314824073989198 0.42283245400845931 0 -0.30672873041261001 0.42552745449977769 0 -0.29413537103026188 0.45052990567226558 0 -0.27886850066683327 0.4066823863111646 0 -0.28314824073989198 0.42283245400845931 0 -0.30320727103978301 0.40808097963194018 0 -0.31932208979495608 0.40052500332728891 0 -0.30320727103978301 0.40808097963194018 0 -0.30672873041261001 0.42552745449977769 0 -0.28314824073989198 0.42283245400845931 0 -0.30320727103978301 0.40808097963194018 0 -0.30672873041261001 0.42552745449977769 0 -0.31821964290833338 0.43477018593426348 0 -0.30672873041261001 0.42552745449977769 0 -0.31037484746918098 0.44303671757187341 0 -0.30672873041261001 0.42552745449977769 0 -0.31037484746918098 0.44303671757187341 0 -0.29413537103026188 0.45052990567226558 0 -0.30672873041261001 0.42552745449977769 0 -0.29413537103026188 0.45052990567226558 0 -0.31037484746918098 0.44303671757187341 0 -0.29413537103026188 0.45052990567226558 0 -0.31920571195771991 0.46949382670045231 0 -0.29413537103026188 0.45052990567226558 0 -0.30028838623699999 0.47753303797813551 0 -0.31920571195771991 0.46949382670045231 0 -0.29413537103026188 0.45052990567226558 0 -0.274561189906114 0.45778575408508321 0 -0.2815420116479137 0.47553235684475342 0 -0.29413537103026188 0.45052990567226558 0 -0.2815420116479137 0.47553235684475342 0 -0.29413537103026188 0.45052990567226558 0 -0.2815420116479137 0.47553235684475342 0 -0.30028838623699999 0.47753303797813551 0 -0.28314824073989198 0.42283245400845931 0 -0.29413537103026188 0.45052990567226558 0 -0.26755533122200842 0.44150219003199942 0 -0.29413537103026188 0.45052990567226558 0 -0.26755533122200842 0.44150219003199942 0 -0.274561189906114 0.45778575408508321 0 -0.274561189906114 0.45778575408508321 0 -0.25501204572427211 0.46357856379131462 0 -0.2815420116479137 0.47553235684475342 0 -0.26755533122200842 0.44150219003199942 0 -0.274561189906114 0.45778575408508321 0 -0.25501204572427211 0.46357856379131462 0 -0.26755533122200842 0.44150219003199942 0 -0.25501204572427211 0.46357856379131462 0 -0.2401470957773337 0.43580564415847117 0 -0.25501204572427211 0.46357856379131462 0 -0.286154948057041 0.5 0 -0.23343930148379971 0.47568444581577191 0 -0.25501204572427211 0.46357856379131462 0 -0.286154948057041 0.5 0 -0.2815420116479137 0.47553235684475342 0 -0.286154948057041 0.5 0 -0.2815420116479137 0.47553235684475342 0 -0.30028838623699999 0.47753303797813551 0 -0.30028838623699999 0.47753303797813551 0 -0.30831518030216948 0.49560716677694738 0 -0.31920571195771991 0.46949382670045231 0 -0.286154948057041 0.5 0 -0.30028838623699999 0.47753303797813551 0 -0.30831518030216948 0.49560716677694738 0 -0.38004119447167473 0.5 0 -0.286154948057041 0.5 0 -0.30831518030216948 0.49560716677694738 0 -0.38004119447167473 0.5 0 -0.30831518030216948 0.49560716677694738 0 -0.34537086950538248 0.47239016686617308 0 -0.30831518030216948 0.49560716677694738 0 -0.31920571195771991 0.46949382670045231 0 -0.34537086950538248 0.47239016686617308 0 -0.30831518030216948 0.49560716677694738 0 -0.31920571195771991 0.46949382670045231 0 -0.31920571195771991 0.46949382670045231 0 -0.33009624361327028 0.44338048662395679 0 -0.31920571195771991 0.46949382670045231 0 -0.31931560591719232 0.44264883427353291 0 -0.3282595285809613 0.44295520408821359 0 -0.31920571195771991 0.46949382670045231 0 -0.3282595285809613 0.44295520408821359 0 -0.33009624361327028 0.44338048662395679 0 -0.31037484746918098 0.44303671757187341 0 -0.31920571195771991 0.46949382670045231 0 -0.31931560591719232 0.44264883427353291 0 -0.31821964290833338 0.43477018593426348 0 -0.31037484746918098 0.44303671757187341 0 -0.31931560591719232 0.44264883427353291 0 -0.31821964290833338 0.43477018593426348 0 -0.31931560591719232 0.44264883427353291 0 -0.3282595285809613 0.44295520408821359 0 -0.343953131731215 0.43408179415007142 0 -0.33009624361327028 0.44338048662395679 0 -0.33788794075359108 0.44962825639850879 0 -0.31920571195771991 0.46949382670045231 0 -0.33009624361327028 0.44338048662395679 0 -0.33788794075359108 0.44962825639850879 0 -0.31920571195771991 0.46949382670045231 0 -0.33788794075359108 0.44962825639850879 0 -0.34537086950538248 0.47239016686617308 0 -0.33788794075359108 0.44962825639850879 0 -0.35782455177239908 0.45118382420568298 0 -0.34537086950538248 0.47239016686617308 0 -0.35782455177239908 0.45118382420568298 0 -0.37105357443984133 0.46430303421273489 0 -0.34537086950538248 0.47239016686617308 0 -0.36027602876084641 0.43061162663290908 0 -0.33788794075359108 0.44962825639850879 0 -0.35782455177239908 0.45118382420568298 0 -0.36027602876084641 0.43061162663290908 0 -0.33788794075359108 0.44962825639850879 0 -0.36027602876084641 0.43061162663290908 0 -0.343953131731215 0.43408179415007142 0 -0.33788794075359108 0.44962825639850879 0 -0.37935242010599618 0.44071850896710518 0 -0.35782455177239908 0.45118382420568298 0 -0.37105357443984133 0.46430303421273489 0 -0.37935242010599618 0.44071850896710518 0 -0.36027602876084641 0.43061162663290908 0 -0.35782455177239908 0.45118382420568298 0 -0.38004119447167473 0.5 0 -0.37105357443984133 0.46430303421273489 0 -0.34537086950538248 0.47239016686617308 0 -0.15508226309130929 0.48596458144584759 0 -0.13590672581586691 0.49999999999999578 0 -0.21882433640643481 0.5 0 -0.15508226309130929 0.48596458144584759 0 -0.14061103173860301 0.47240595647875738 0 -0.15291596689380241 0.46775626101873108 0 -0.15508226309130929 0.48596458144584759 0 -0.14061103173860301 0.47240595647875738 0 -0.13185266503140139 0.48410183447219812 0 -0.15508226309130929 0.48596458144584759 0 -0.13590672581586691 0.49999999999999578 0 -0.15508226309130929 0.48596458144584759 0 -0.13590672581586691 0.49999999999999578 0 -0.13185266503140139 0.48410183447219812 0 -0.13590672581586691 0.49999999999999578 0 -0.13152524646030489 0.49999999999999889 0 -0.13185266503140139 0.48410183447219812 0 -0.13152524646030489 0.49999999999999889 0 -0.13185266503140139 0.48410183447219812 0 -0.1143705817159245 0.47661318690332199 0 -0.14061103173860301 0.47240595647875738 0 -0.13185266503140139 0.48410183447219812 0 -0.12646001653391509 0.46668721438350619 0 -0.12646001653391509 0.46668721438350619 0 -0.1272772443498997 0.45077262286745168 0 -0.1424908262529809 0.45504144784588979 0 -0.14061103173860301 0.47240595647875738 0 -0.12646001653391509 0.46668721438350619 0 -0.1424908262529809 0.45504144784588979 0 -0.1424908262529809 0.45504144784588979 0 -0.146736243775825 0.42824328223605279 0 -0.12996922900776969 0.43349752018555421 0 -0.1272772443498997 0.45077262286745168 0 -0.1424908262529809 0.45504144784588979 0 -0.12996922900776969 0.43349752018555421 0 -0.1424908262529809 0.45504144784588979 0 -0.1582351716154502 0.44869677905138389 0 -0.146736243775825 0.42824328223605279 0 -0.14061103173860301 0.47240595647875738 0 -0.1424908262529809 0.45504144784588979 0 -0.15291596689380241 0.46775626101873108 0 -0.1424908262529809 0.45504144784588979 0 -0.15291596689380241 0.46775626101873108 0 -0.1582351716154502 0.44869677905138389 0 -0.15291596689380241 0.46775626101873108 0 -0.16805719629047611 0.46025217826640957 0 -0.1582351716154502 0.44869677905138389 0 -0.15291596689380241 0.46775626101873108 0 -0.16805719629047611 0.46025217826640957 0 -0.1625783066605854 0.47147554590567259 0 -0.16805719629047611 0.46025217826640957 0 -0.1742578003667537 0.47192916289170228 0 -0.1625783066605854 0.47147554590567259 0 -0.16805719629047611 0.46025217826640957 0 -0.1582351716154502 0.44869677905138389 0 -0.17128141429890761 0.44879319635769549 0 -0.1582351716154502 0.44869677905138389 0 -0.17128141429890761 0.44879319635769549 0 -0.1652439778291136 0.4337418550098307 0 -0.17128141429890761 0.44879319635769549 0 -0.18432665399575501 0.43667817799187769 0 -0.1652439778291136 0.4337418550098307 0 -0.18054407176374321 0.46459699146897521 0 -0.193433337642198 0.45789374433755692 0 -0.18432665399575501 0.43667817799187769 0 -0.17128141429890761 0.44879319635769549 0 -0.18054407176374321 0.46459699146897521 0 -0.18432665399575501 0.43667817799187769 0 -0.18054407176374321 0.46459699146897521 0 -0.18432665399575501 0.43667817799187769 0 -0.1742578003667537 0.47192916289170228 0 -0.193433337642198 0.45789374433755692 0 -0.16805719629047611 0.46025217826640957 0 -0.17128141429890761 0.44879319635769549 0 -0.18054407176374321 0.46459699146897521 0 -0.18054407176374321 0.46459699146897521 0 -0.1742578003667537 0.47192916289170228 0 -0.193433337642198 0.45789374433755692 0 -0.16805719629047611 0.46025217826640957 0 -0.18054407176374321 0.46459699146897521 0 -0.1742578003667537 0.47192916289170228 0 -0.1742578003667537 0.47192916289170228 0 -0.19050353773478559 0.47765758843786071 0 -0.193433337642198 0.45789374433755692 0 -0.15508226309130929 0.48596458144584759 0 -0.1742578003667537 0.47192916289170228 0 -0.19050353773478559 0.47765758843786071 0 -0.15508226309130929 0.48596458144584759 0 -0.15291596689380241 0.46775626101873108 0 -0.1625783066605854 0.47147554590567259 0 -0.15508226309130929 0.48596458144584759 0 -0.1742578003667537 0.47192916289170228 0 -0.15508226309130929 0.48596458144584759 0 -0.1742578003667537 0.47192916289170228 0 -0.1625783066605854 0.47147554590567259 0 -0.286154948057041 0.5 0 -0.21882433640643481 0.5 0 -0.23343930148379971 0.47568444581577191 0 -0.15508226309130929 0.48596458144584759 0 -0.19050353773478559 0.47765758843786071 0 -0.21882433640643481 0.5 0 -0.19050353773478559 0.47765758843786071 0 -0.21091995116723211 0.47250045351419662 0 -0.193433337642198 0.45789374433755692 0 -0.19050353773478559 0.47765758843786071 0 -0.21091995116723211 0.47250045351419662 0 -0.21882433640643481 0.5 0 -0.21091995116723211 0.47250045351419662 0 -0.21882433640643481 0.5 0 -0.23343930148379971 0.47568444581577191 0 -0.25501204572427211 0.46357856379131462 0 -0.2200359772780788 0.45486756843485959 0 -0.2401470957773337 0.43580564415847117 0 -0.25501204572427211 0.46357856379131462 0 -0.23343930148379971 0.47568444581577191 0 -0.2200359772780788 0.45486756843485959 0 -0.21091995116723211 0.47250045351419662 0 -0.23343930148379971 0.47568444581577191 0 -0.2200359772780788 0.45486756843485959 0 -0.2200359772780788 0.45486756843485959 0 -0.21415399204139551 0.43117092131933599 0 -0.2401470957773337 0.43580564415847117 0 -0.2200359772780788 0.45486756843485959 0 -0.20176731502115269 0.44175413905293831 0 -0.21415399204139551 0.43117092131933599 0 -0.2200359772780788 0.45486756843485959 0 -0.193433337642198 0.45789374433755692 0 -0.20176731502115269 0.44175413905293831 0 -0.21091995116723211 0.47250045351419662 0 -0.2200359772780788 0.45486756843485959 0 -0.193433337642198 0.45789374433755692 0 -0.193433337642198 0.45789374433755692 0 -0.20176731502115269 0.44175413905293831 0 -0.18432665399575501 0.43667817799187769 0 -0.1989573137379585 0.42643222508220968 0 -0.18810923622776671 0.40875936451478018 0 -0.18432665399575501 0.43667817799187769 0 -0.20176731502115269 0.44175413905293831 0 -0.1989573137379585 0.42643222508220968 0 -0.18432665399575501 0.43667817799187769 0 -0.1989573137379585 0.42643222508220968 0 -0.18810923622776671 0.40875936451478018 0 -0.20642937140372261 0.41379852253211602 0 -0.20642937140372261 0.41379852253211602 0 -0.21415399204139551 0.43117092131933599 0 -0.22231650485467519 0.4184311695006514 0 -0.20642937140372261 0.41379852253211602 0 -0.22231650485467519 0.4184311695006514 0 -0.21801492073140169 0.40195426953664271 0 -0.1989573137379585 0.42643222508220968 0 -0.20642937140372261 0.41379852253211602 0 -0.21415399204139551 0.43117092131933599 0 -0.20176731502115269 0.44175413905293831 0 -0.1989573137379585 0.42643222508220968 0 -0.21415399204139551 0.43117092131933599 0 -0.21415399204139551 0.43117092131933599 0 -0.22231650485467519 0.4184311695006514 0 -0.2401470957773337 0.43580564415847117 0 -0.22231650485467519 0.4184311695006514 0 -0.23471445450358619 0.41091562903383527 0 -0.2401470957773337 0.43580564415847117 0 -0.22231650485467519 0.4184311695006514 0 -0.23471445450358619 0.41091562903383527 0 -0.21801492073140169 0.40195426953664271 0 -0.23471445450358619 0.41091562903383527 0 -0.24446726463622531 0.4065245488814066 0 -0.24539948521445129 0.42162133900916038 0 -0.25443672127411232 0.40753113851161837 0 -0.24446726463622531 0.4065245488814066 0 -0.24539948521445129 0.42162133900916038 0 -0.25992894544496009 0.42475478568301339 0 -0.24539948521445129 0.42162133900916038 0 -0.2401470957773337 0.43580564415847117 0 -0.23471445450358619 0.41091562903383527 0 -0.24539948521445129 0.42162133900916038 0 -0.2401470957773337 0.43580564415847117 0 -0.23471445450358619 0.41091562903383527 0 -0.2401470957773337 0.43580564415847117 0 -0.26123608930219788 0.39117128326985462 0 -0.23159671800447831 0.3863983882616735 0 -0.26123608930219788 0.39117128326985462 0 -0.24640294203220769 0.3818395311168023 0 -0.23159671800447831 0.3863983882616735 0 -0.23742025058172889 0.37839454391916311 0 -0.24640294203220769 0.3818395311168023 0 -0.23159671800447831 0.3863983882616735 0 -0.23742025058172889 0.37839454391916311 0 -0.23248536529626049 0.3741498274786077 0 -0.237137942874179 0.37268654133040358 0 -0.2560937295827152 0.38004031966349888 0 -0.24640294203220769 0.3818395311168023 0 -0.24507155163857419 0.37309708549036119 0 -0.23742025058172889 0.37839454391916311 0 -0.24640294203220769 0.3818395311168023 0 -0.24507155163857419 0.37309708549036119 0 -0.2487540922718337 0.39786746445057958 0 -0.23159671800447831 0.3863983882616735 0 -0.23471445450358619 0.41091562903383527 0 -0.24446726463622531 0.4065245488814066 0 -0.23159671800447831 0.3863983882616735 0 -0.26123608930219788 0.39117128326985462 0 -0.2487540922718337 0.39786746445057958 0 -0.23159671800447831 0.3863983882616735 0 -0.24446726463622531 0.4065245488814066 0 -0.23159671800447831 0.3863983882616735 0 -0.24446726463622531 0.4065245488814066 0 -0.2487540922718337 0.39786746445057958 0 -0.23159671800447831 0.3863983882616735 0 -0.25443672127411232 0.40753113851161837 0 -0.24446726463622531 0.4065245488814066 0 -0.2487540922718337 0.39786746445057958 0 -0.23471445450358619 0.41091562903383527 0 -0.2289816283852395 0.38465029664716027 0 -0.21801492073140169 0.40195426953664271 0 -0.2289816283852395 0.38465029664716027 0 -0.21682628828953601 0.39127062514643263 0 -0.21801492073140169 0.40195426953664271 0 -0.23471445450358619 0.41091562903383527 0 -0.2289816283852395 0.38465029664716027 0 -0.23471445450358619 0.41091562903383527 0 -0.2289816283852395 0.38465029664716027 0 -0.23159671800447831 0.3863983882616735 0 -0.2289816283852395 0.38465029664716027 0 -0.22783010215907801 0.37937450099982362 0 -0.2110628317511736 0.37267223749852713 0 -0.2289816283852395 0.38465029664716027 0 -0.211298722199082 0.38312975608042321 0 -0.21682628828953601 0.39127062514643263 0 -0.2289816283852395 0.38465029664716027 0 -0.211298722199082 0.38312975608042321 0 -0.2289816283852395 0.38465029664716027 0 -0.2110628317511736 0.37267223749852713 0 -0.2289816283852395 0.38465029664716027 0 -0.23159671800447831 0.3863983882616735 0 -0.22783010215907801 0.37937450099982362 0 -0.23159671800447831 0.3863983882616735 0 -0.22783010215907801 0.37937450099982362 0 -0.2289816283852395 0.38465029664716027 0 -0.23159671800447831 0.3863983882616735 0 -0.23742025058172889 0.37839454391916311 0 -0.23159671800447831 0.3863983882616735 0 -0.23248220177322251 0.37960332390968199 0 -0.23742025058172889 0.37839454391916311 0 -0.23248220177322251 0.37960332390968199 0 -0.23248536529626049 0.3741498274786077 0 -0.23248220177322251 0.37960332390968199 0 -0.22783010215907801 0.37937450099982362 0 -0.23248536529626049 0.3741498274786077 0 -0.23159671800447831 0.3863983882616735 0 -0.23248220177322251 0.37960332390968199 0 -0.22783010215907801 0.37937450099982362 0 -0.2289816283852395 0.38465029664716027 0 -0.22783010215907801 0.37937450099982362 0 -0.2289816283852395 0.38465029664716027 0 -0.211298722199082 0.38312975608042321 0 -0.2110628317511736 0.37267223749852713 0 -0.211298722199082 0.38312975608042321 0 -0.21682628828953601 0.39127062514643263 0 -0.19921251696210909 0.39604804477965611 0 -0.211298722199082 0.38312975608042321 0 -0.19200265662916621 0.38002246699149062 0 -0.2110628317511736 0.37267223749852713 0 -0.21682628828953601 0.39127062514643263 0 -0.21801492073140169 0.40195426953664271 0 -0.19921251696210909 0.39604804477965611 0 -0.20642937140372261 0.41379852253211602 0 -0.21801492073140169 0.40195426953664271 0 -0.19921251696210909 0.39604804477965611 0 -0.18810923622776671 0.40875936451478018 0 -0.19200265662916621 0.38002246699149062 0 -0.18322324318590411 0.39442576711758592 0 -0.18810923622776671 0.40875936451478018 0 -0.19921251696210909 0.39604804477965611 0 -0.19200265662916621 0.38002246699149062 0 -0.18810923622776671 0.40875936451478018 0 -0.19200265662916621 0.38002246699149062 0 -0.18810923622776671 0.40875936451478018 0 -0.20642937140372261 0.41379852253211602 0 -0.19921251696210909 0.39604804477965611 0 -0.19200265662916621 0.38002246699149062 0 -0.2110628317511736 0.37267223749852713 0 -0.211298722199082 0.38312975608042321 0 -0.19921251696210909 0.39604804477965611 0 -0.19200265662916621 0.38002246699149062 0 -0.211298722199082 0.38312975608042321 0 -0.19200265662916621 0.38002246699149062 0 -0.19200265662916621 0.38002246699149062 0 -0.1740224379994427 0.38845426973539521 0 -0.17379671726428361 0.37709072339136179 0 -0.19200265662916621 0.38002246699149062 0 -0.1740224379994427 0.38845426973539521 0 -0.18322324318590411 0.39442576711758592 0 -0.19200265662916621 0.38002246699149062 0 -0.1740224379994427 0.38845426973539521 0 -0.19200265662916621 0.38002246699149062 0 -0.17379671726428361 0.37709072339136179 0 -0.17379671726428361 0.37709072339136179 0 -0.16346290206688099 0.38443956891015302 0 -0.15559077789940101 0.37415897979123303 0 -0.16346290206688099 0.38443956891015302 0 -0.15615305753910369 0.39606798843310381 0 -0.15559077789940101 0.37415897979123303 0 -0.1740224379994427 0.38845426973539521 0 -0.16346290206688099 0.38443956891015302 0 -0.15615305753910369 0.39606798843310381 0 -0.17379671726428361 0.37709072339136179 0 -0.15559077789940101 0.37415897979123303 0 -0.1740224379994427 0.38845426973539521 0 -0.17379671726428361 0.37709072339136179 0 -0.16346290206688099 0.38443956891015302 0 -0.1740224379994427 0.38845426973539521 0 -0.15615305753910369 0.39606798843310381 0 -0.1740224379994427 0.38845426973539521 0 -0.16833431332443119 0.3998808110554265 0 -0.15615305753910369 0.39606798843310381 0 -0.16833431332443119 0.3998808110554265 0 -0.15857724357758909 0.40825208227788617 0 -0.15615305753910369 0.39606798843310381 0 -0.16833431332443119 0.3998808110554265 0 -0.1788694800566285 0.39964888318248548 0 -0.1704990924109715 0.41586719865120447 0 -0.1740224379994427 0.38845426973539521 0 -0.16833431332443119 0.3998808110554265 0 -0.1788694800566285 0.39964888318248548 0 -0.1740224379994427 0.38845426973539521 0 -0.1788694800566285 0.39964888318248548 0 -0.18322324318590411 0.39442576711758592 0 -0.18810923622776671 0.40875936451478018 0 -0.1788694800566285 0.39964888318248548 0 -0.18322324318590411 0.39442576711758592 0 -0.18810923622776671 0.40875936451478018 0 -0.1788694800566285 0.39964888318248548 0 -0.1704990924109715 0.41586719865120447 0 -0.18810923622776671 0.40875936451478018 0 -0.18432665399575501 0.43667817799187769 0 -0.1704990924109715 0.41586719865120447 0 -0.18432665399575501 0.43667817799187769 0 -0.1652439778291136 0.4337418550098307 0 -0.1704990924109715 0.41586719865120447 0 -0.18810923622776671 0.40875936451478018 0 -0.18432665399575501 0.43667817799187769 0 -0.1652439778291136 0.4337418550098307 0 -0.1704990924109715 0.41586719865120447 0 -0.146736243775825 0.42824328223605279 0 -0.1582351716154502 0.44869677905138389 0 -0.1652439778291136 0.4337418550098307 0 -0.146736243775825 0.42824328223605279 0 -0.16833431332443119 0.3998808110554265 0 -0.1704990924109715 0.41586719865120447 0 -0.15857724357758909 0.40825208227788617 0 -0.1704990924109715 0.41586719865120447 0 -0.15857724357758909 0.40825208227788617 0 -0.146736243775825 0.42824328223605279 0 -0.15857724357758909 0.40825208227788617 0 -0.146736243775825 0.42824328223605279 0 -0.15116351083761401 0.40120113101364302 0 -0.146736243775825 0.42824328223605279 0 -0.15116351083761401 0.40120113101364302 0 -0.1418994643888471 0.40871960798315649 0 -0.146736243775825 0.42824328223605279 0 -0.15116351083761401 0.40120113101364302 0 -0.1418994643888471 0.40871960798315649 0 -0.146736243775825 0.42824328223605279 0 -0.13457265184884129 0.41752639487503818 0 -0.146736243775825 0.42824328223605279 0 -0.12996922900776969 0.43349752018555421 0 -0.13457265184884129 0.41752639487503818 0 -0.12996922900776969 0.43349752018555421 0 -0.13457265184884129 0.41752639487503818 0 -0.1203746603948761 0.41251815508081607 0 -0.13457265184884129 0.41752639487503818 0 -0.13425335872459301 0.40139977936119048 0 -0.1203746603948761 0.41251815508081607 0 -0.1418994643888471 0.40871960798315649 0 -0.13457265184884129 0.41752639487503818 0 -0.13425335872459301 0.40139977936119048 0 -0.13425335872459301 0.40139977936119048 0 -0.1232329307171732 0.39081748336030991 0 -0.1203746603948761 0.41251815508081607 0 -0.1418994643888471 0.40871960798315649 0 -0.13425335872459301 0.40139977936119048 0 -0.1427715567573625 0.39522745242985818 0 -0.13425335872459301 0.40139977936119048 0 -0.13702674538908621 0.3859352177706592 0 -0.1427715567573625 0.39522745242985818 0 -0.13425335872459301 0.40139977936119048 0 -0.13702674538908621 0.3859352177706592 0 -0.1232329307171732 0.39081748336030991 0 -0.13702674538908621 0.3859352177706592 0 -0.15559077789940101 0.37415897979123303 0 -0.12796394006501099 0.36971016759926228 0 -0.13702674538908621 0.3859352177706592 0 -0.12796394006501099 0.36971016759926228 0 -0.1232329307171732 0.39081748336030991 0 -0.15116351083761401 0.40120113101364302 0 -0.15559077789940101 0.37415897979123303 0 -0.15615305753910369 0.39606798843310381 0 -0.15116351083761401 0.40120113101364302 0 -0.15559077789940101 0.37415897979123303 0 -0.15116351083761401 0.40120113101364302 0 -0.1427715567573625 0.39522745242985818 0 -0.15559077789940101 0.37415897979123303 0 -0.13702674538908621 0.3859352177706592 0 -0.1427715567573625 0.39522745242985818 0 -0.15559077789940101 0.37415897979123303 0 -0.15857724357758909 0.40825208227788617 0 -0.15615305753910369 0.39606798843310381 0 -0.15116351083761401 0.40120113101364302 0 -0.1418994643888471 0.40871960798315649 0 -0.15116351083761401 0.40120113101364302 0 -0.1427715567573625 0.39522745242985818 0 -0.14452541007402739 0.34557607129485329 0 -0.16128213292978361 0.33939566390266313 0 -0.15843645541459439 0.35677732184694838 0 -0.14452541007402739 0.34557607129485329 0 -0.1436044278846986 0.3595303602328429 0 -0.15843645541459439 0.35677732184694838 0 -0.15559077789940101 0.37415897979123303 0 -0.1436044278846986 0.3595303602328429 0 -0.12796394006501099 0.36971016759926228 0 -0.15559077789940101 0.37415897979123303 0 -0.1436044278846986 0.3595303602328429 0 -0.15843645541459439 0.35677732184694838 0 -0.15559077789940101 0.37415897979123303 0 -0.12796394006501099 0.36971016759926228 0 -0.1436044278846986 0.3595303602328429 0 -0.12796394006501099 0.36971016759926228 0 -0.13150555597045929 0.35142926063191721 0 -0.14452541007402739 0.34557607129485329 0 -0.1436044278846986 0.3595303602328429 0 -0.13150555597045929 0.35142926063191721 0 -0.14452541007402739 0.34557607129485329 0 -0.13150555597045929 0.35142926063191721 0 -0.13566624030762289 0.34033657152908869 0 -0.13248335184565271 0.33238614976276798 0 -0.13566624030762289 0.34033657152908869 0 -0.13712470336561469 0.32391964524753458 0 -0.13248335184565271 0.33238614976276798 0 -0.13712470336561469 0.32391964524753458 0 -0.118377308158662 0.32960323520238249 0 -0.13248335184565271 0.33238614976276798 0 -0.13566624030762289 0.34033657152908869 0 -0.122741643959492 0.33912597706905528 0 -0.14452541007402739 0.34557607129485329 0 -0.13566624030762289 0.34033657152908869 0 -0.13712470336561469 0.32391964524753458 0 -0.13150555597045929 0.35142926063191721 0 -0.13566624030762289 0.34033657152908869 0 -0.122741643959492 0.33912597706905528 0 -0.13248335184565271 0.33238614976276798 0 -0.118377308158662 0.32960323520238249 0 -0.13712470336561469 0.32391964524753458 0 -0.1161243536851109 0.32126165558681002 0 -0.13712470336561469 0.32391964524753458 0 -0.1147960104634634 0.30832139391327168 0 -0.13712470336561469 0.32391964524753458 0 -0.13528710567376709 0.31581649060604811 0 -0.1147960104634634 0.30832139391327168 0 -0.13712470336561469 0.32391964524753458 0 -0.15005813762593989 0.31525375646269921 0 -0.16128213292978361 0.33939566390266313 0 -0.13712470336561469 0.32391964524753458 0 -0.13528710567376709 0.31581649060604811 0 -0.15005813762593989 0.31525375646269921 0 -0.13712470336561469 0.32391964524753458 0 -0.16128213292978361 0.33939566390266313 0 -0.14452541007402739 0.34557607129485329 0 -0.13712470336561469 0.32391964524753458 0 -0.16128213292978361 0.33939566390266313 0 -0.16128213292978361 0.33939566390266313 0 -0.16505648963277081 0.31634154873297893 0 -0.18026432729818129 0.33261281114432728 0 -0.16128213292978361 0.33939566390266313 0 -0.16505648963277081 0.31634154873297893 0 -0.15005813762593989 0.31525375646269921 0 -0.16128213292978361 0.33939566390266313 0 -0.16505648963277081 0.31634154873297893 0 -0.18015237552054009 0.31644380666632538 0 -0.19354091981991059 0.32341826786166361 0 -0.18593753942008651 0.30646007121581109 0 -0.16505648963277081 0.31634154873297893 0 -0.18015237552054009 0.31644380666632538 0 -0.18026432729818129 0.33261281114432728 0 -0.18015237552054009 0.31644380666632538 0 -0.18026432729818129 0.33261281114432728 0 -0.19354091981991059 0.32341826786166361 0 -0.16128213292978361 0.33939566390266313 0 -0.18026432729818129 0.33261281114432728 0 -0.1778903996787258 0.35049768183041707 0 -0.18026432729818129 0.33261281114432728 0 -0.1778903996787258 0.35049768183041707 0 -0.1876317379332563 0.345350048859141 0 -0.1778903996787258 0.35049768183041707 0 -0.1944986664276705 0.3615996997581673 0 -0.1778903996787258 0.35049768183041707 0 -0.1712118079836599 0.36308119971963609 0 -0.1944986664276705 0.3615996997581673 0 -0.1778903996787258 0.35049768183041707 0 -0.1944986664276705 0.3615996997581673 0 -0.1876317379332563 0.345350048859141 0 -0.16128213292978361 0.33939566390266313 0 -0.1778903996787258 0.35049768183041707 0 -0.15843645541459439 0.35677732184694838 0 -0.16128213292978361 0.33939566390266313 0 -0.15843645541459439 0.35677732184694838 0 -0.16128213292978361 0.33939566390266313 0 -0.1778903996787258 0.35049768183041707 0 -0.1778903996787258 0.35049768183041707 0 -0.15843645541459439 0.35677732184694838 0 -0.1712118079836599 0.36308119971963609 0 -0.15559077789940101 0.37415897979123303 0 -0.15843645541459439 0.35677732184694838 0 -0.15559077789940101 0.37415897979123303 0 -0.15843645541459439 0.35677732184694838 0 -0.1712118079836599 0.36308119971963609 0 -0.17379671726428361 0.37709072339136179 0 -0.15559077789940101 0.37415897979123303 0 -0.1712118079836599 0.36308119971963609 0 -0.19200265662916621 0.38002246699149062 0 -0.17379671726428361 0.37709072339136179 0 -0.1944986664276705 0.3615996997581673 0 -0.17379671726428361 0.37709072339136179 0 -0.1712118079836599 0.36308119971963609 0 -0.1944986664276705 0.3615996997581673 0 -0.1944986664276705 0.3615996997581673 0 -0.2110628317511736 0.37267223749852713 0 -0.19200265662916621 0.38002246699149062 0 -0.1944986664276705 0.3615996997581673 0 -0.19200265662916621 0.38002246699149062 0 -0.1944986664276705 0.3615996997581673 0 -0.2110628317511736 0.37267223749852713 0 -0.1944986664276705 0.3615996997581673 0 -0.2073214160740704 0.34590654575438262 0 -0.197873558328447 0.33669000270365301 0 -0.1944986664276705 0.3615996997581673 0 -0.197873558328447 0.33669000270365301 0 -0.1944986664276705 0.3615996997581673 0 -0.2073214160740704 0.34590654575438262 0 -0.20665738114653409 0.36130749654331479 0 -0.1944986664276705 0.3615996997581673 0 -0.1876317379332563 0.345350048859141 0 -0.197873558328447 0.33669000270365301 0 -0.2073214160740704 0.34590654575438262 0 -0.22110191232823101 0.36839482364710119 0 -0.2073214160740704 0.34590654575438262 0 -0.20665738114653409 0.36130749654331479 0 -0.21153588532500181 0.36207027586083212 0 -0.2073214160740704 0.34590654575438262 0 -0.21153588532500181 0.36207027586083212 0 -0.22110191232823101 0.36839482364710119 0 -0.2073214160740704 0.34590654575438262 0 -0.21622846350863251 0.35299043607687708 0 -0.22110191232823101 0.36839482364710119 0 -0.2073214160740704 0.34590654575438262 0 -0.21622846350863251 0.35299043607687708 0 -0.21711209476383639 0.34203159341161249 0 -0.1944986664276705 0.3615996997581673 0 -0.20665738114653409 0.36130749654331479 0 -0.2110628317511736 0.37267223749852713 0 -0.20665738114653409 0.36130749654331479 0 -0.21153588532500181 0.36207027586083212 0 -0.2110628317511736 0.37267223749852713 0 -0.21153588532500181 0.36207027586083212 0 -0.2110628317511736 0.37267223749852713 0 -0.22110191232823101 0.36839482364710119 0 -0.2110628317511736 0.37267223749852713 0 -0.22110191232823101 0.36839482364710119 0 -0.22783010215907801 0.37937450099982362 0 -0.2110628317511736 0.37267223749852713 0 -0.22110191232823101 0.36839482364710119 0 -0.22783010215907801 0.37937450099982362 0 -0.22506504962741961 0.36670622495038913 0 -0.22783010215907801 0.37937450099982362 0 -0.22110191232823101 0.36839482364710119 0 -0.22506504962741961 0.36670622495038913 0 -0.22783010215907801 0.37937450099982362 0 -0.22110191232823101 0.36839482364710119 0 -0.22110191232823101 0.36839482364710119 0 -0.22506504962741961 0.36670622495038913 0 -0.22783010215907801 0.37937450099982362 0 -0.229501313582714 0.3707740285046483 0 -0.22506504962741961 0.36670622495038913 0 -0.22783010215907801 0.37937450099982362 0 -0.229501313582714 0.3707740285046483 0 -0.23248536529626049 0.3741498274786077 0 -0.229501313582714 0.3707740285046483 0 -0.2287302936412379 0.36514455150895953 0 -0.22506504962741961 0.36670622495038913 0 -0.229501313582714 0.3707740285046483 0 -0.23339575718957351 0.3684950375854617 0 -0.2287302936412379 0.36514455150895953 0 -0.23339575718957351 0.3684950375854617 0 -0.23248536529626049 0.3741498274786077 0 -0.237137942874179 0.37268654133040358 0 -0.229501313582714 0.3707740285046483 0 -0.23339575718957351 0.3684950375854617 0 -0.23248536529626049 0.3741498274786077 0 -0.2287302936412379 0.36514455150895953 0 -0.2289847924495747 0.35944979673795208 0 -0.23462614204162871 0.36193401622845112 0 -0.23339575718957351 0.3684950375854617 0 -0.2287302936412379 0.36514455150895953 0 -0.23462614204162871 0.36193401622845112 0 -0.2287302936412379 0.36514455150895953 0 -0.22506504962741961 0.36670622495038913 0 -0.2287302936412379 0.36514455150895953 0 -0.2289847924495747 0.35944979673795208 0 -0.2239051293727172 0.36139197149094637 0 -0.22110191232823101 0.36839482364710119 0 -0.2239051293727172 0.36139197149094637 0 -0.22154876073365579 0.35909311603687921 0 -0.21622846350863251 0.35299043607687708 0 -0.22110191232823101 0.36839482364710119 0 -0.22154876073365579 0.35909311603687921 0 -0.2287302936412379 0.36514455150895953 0 -0.2239051293727172 0.36139197149094637 0 -0.22506504962741961 0.36670622495038913 0 -0.22110191232823101 0.36839482364710119 0 -0.2239051293727172 0.36139197149094637 0 -0.22506504962741961 0.36670622495038913 0 -0.2239051293727172 0.36139197149094637 0 -0.22506504962741961 0.36670622495038913 0 -0.21622846350863251 0.35299043607687708 0 -0.22154876073365579 0.35909311603687921 0 -0.2249595377250426 0.3535952329325921 0 -0.2239051293727172 0.36139197149094637 0 -0.22154876073365579 0.35909311603687921 0 -0.2249595377250426 0.3535952329325921 0 -0.2289847924495747 0.35944979673795208 0 -0.2239051293727172 0.36139197149094637 0 -0.2249595377250426 0.3535952329325921 0 -0.21622846350863251 0.35299043607687708 0 -0.2249595377250426 0.3535952329325921 0 -0.22399557766145009 0.3446724475075314 0 -0.21622846350863251 0.35299043607687708 0 -0.22399557766145009 0.3446724475075314 0 -0.21711209476383639 0.34203159341161249 0 -0.2249595377250426 0.3535952329325921 0 -0.22399557766145009 0.3446724475075314 0 -0.23214746714678799 0.34799149612710301 0 -0.2289847924495747 0.35944979673795208 0 -0.2249595377250426 0.3535952329325921 0 -0.232702859467247 0.35518321152881138 0 -0.2249595377250426 0.3535952329325921 0 -0.23214746714678799 0.34799149612710301 0 -0.232702859467247 0.35518321152881138 0 -0.2289847924495747 0.35944979673795208 0 -0.232702859467247 0.35518321152881138 0 -0.23462614204162871 0.36193401622845112 0 -0.232702859467247 0.35518321152881138 0 -0.23708631196676869 0.35765945639158631 0 -0.23462614204162871 0.36193401622845112 0 -0.23214746714678799 0.34799149612710301 0 -0.232702859467247 0.35518321152881138 0 -0.23868609591597759 0.35227544345544881 0 -0.232702859467247 0.35518321152881138 0 -0.23708631196676869 0.35765945639158631 0 -0.23868609591597759 0.35227544345544881 0 -0.23708631196676869 0.35765945639158631 0 -0.23868609591597759 0.35227544345544881 0 -0.24197092156993499 0.35865019818147748 0 -0.23214746714678799 0.34799149612710301 0 -0.23868609591597759 0.35227544345544881 0 -0.24014865592026091 0.34488460349518613 0 -0.23868609591597759 0.35227544345544881 0 -0.24014865592026091 0.34488460349518613 0 -0.2474994420061162 0.35137415341270778 0 -0.24014865592026091 0.34488460349518613 0 -0.2474994420061162 0.35137415341270778 0 -0.24659695281660601 0.34418041765800123 0 -0.25368043652116851 0.34365645987938581 0 -0.2474994420061162 0.35137415341270778 0 -0.24659695281660601 0.34418041765800123 0 -0.23868609591597759 0.35227544345544881 0 -0.24197092156993499 0.35865019818147748 0 -0.2474994420061162 0.35137415341270778 0 -0.24197092156993499 0.35865019818147748 0 -0.2474994420061162 0.35137415341270778 0 -0.248255913421734 0.35836464571649412 0 -0.25081124317754028 0.36495989425522968 0 -0.248255913421734 0.35836464571649412 0 -0.24398077621117059 0.36424438698549588 0 -0.24197092156993499 0.35865019818147748 0 -0.248255913421734 0.35836464571649412 0 -0.24398077621117059 0.36424438698549588 0 -0.24398077621117059 0.36424438698549588 0 -0.24507155163857419 0.37309708549036119 0 -0.2384856196122109 0.36748449934990363 0 -0.25081124317754028 0.36495989425522968 0 -0.24398077621117059 0.36424438698549588 0 -0.24507155163857419 0.37309708549036119 0 -0.23742025058172889 0.37839454391916311 0 -0.24507155163857419 0.37309708549036119 0 -0.237137942874179 0.37268654133040358 0 -0.24507155163857419 0.37309708549036119 0 -0.2384856196122109 0.36748449934990363 0 -0.237137942874179 0.37268654133040358 0 -0.23339575718957351 0.3684950375854617 0 -0.2384856196122109 0.36748449934990363 0 -0.237137942874179 0.37268654133040358 0 -0.23339575718957351 0.3684950375854617 0 -0.2384856196122109 0.36748449934990363 0 -0.23462614204162871 0.36193401622845112 0 -0.2384856196122109 0.36748449934990363 0 -0.23462614204162871 0.36193401622845112 0 -0.23921977308823369 0.36277535003063738 0 -0.23708631196676869 0.35765945639158631 0 -0.23462614204162871 0.36193401622845112 0 -0.23921977308823369 0.36277535003063738 0 -0.23708631196676869 0.35765945639158631 0 -0.24197092156993499 0.35865019818147748 0 -0.23921977308823369 0.36277535003063738 0 -0.24197092156993499 0.35865019818147748 0 -0.24398077621117059 0.36424438698549588 0 -0.23921977308823369 0.36277535003063738 0 -0.24398077621117059 0.36424438698549588 0 -0.2384856196122109 0.36748449934990363 0 -0.23921977308823369 0.36277535003063738 0 -0.23849393053106641 0.32795833173514138 0 -0.2355048975007363 0.31629870412113048 0 -0.24590158606486731 0.31892834640800533 0 -0.2355048975007363 0.31629870412113048 0 -0.24590158606486731 0.31892834640800533 0 -0.24410435883272499 0.30730467973507741 0 -0.2579230396276298 0.31303410818490363 0 -0.24590158606486731 0.31892834640800533 0 -0.24410435883272499 0.30730467973507741 0 -0.25513146044283957 0.32598646153315808 0 -0.24590158606486731 0.31892834640800533 0 -0.246789447101017 0.32695352585138371 0 -0.23849393053106641 0.32795833173514138 0 -0.24590158606486731 0.31892834640800533 0 -0.246789447101017 0.32695352585138371 0 -0.25513146044283957 0.32598646153315808 0 -0.246789447101017 0.32695352585138371 0 -0.24763081136529461 0.33494096372922999 0 -0.23849393053106641 0.32795833173514138 0 -0.246789447101017 0.32695352585138371 0 -0.24763081136529461 0.33494096372922999 0 -0.24659695281660601 0.34418041765800123 0 -0.24763081136529461 0.33494096372922999 0 -0.2401371347952754 0.33758706316301113 0 -0.25368043652116851 0.34365645987938581 0 -0.24659695281660601 0.34418041765800123 0 -0.24763081136529461 0.33494096372922999 0 -0.24014865592026091 0.34488460349518613 0 -0.24659695281660601 0.34418041765800123 0 -0.2401371347952754 0.33758706316301113 0 -0.23214746714678799 0.34799149612710301 0 -0.24014865592026091 0.34488460349518613 0 -0.23239207619074989 0.33733803784304872 0 -0.24014865592026091 0.34488460349518613 0 -0.2401371347952754 0.33758706316301113 0 -0.23239207619074989 0.33733803784304872 0 -0.23849393053106641 0.32795833173514138 0 -0.24763081136529461 0.33494096372922999 0 -0.2401371347952754 0.33758706316301113 0 -0.23849393053106641 0.32795833173514138 0 -0.2401371347952754 0.33758706316301113 0 -0.23239207619074989 0.33733803784304872 0 -0.23239207619074989 0.33733803784304872 0 -0.22343300475429789 0.33584365750468509 0 -0.22787459063421209 0.32654515700405817 0 -0.23849393053106641 0.32795833173514138 0 -0.23239207619074989 0.33733803784304872 0 -0.22787459063421209 0.32654515700405817 0 -0.22399557766145009 0.3446724475075314 0 -0.23214746714678799 0.34799149612710301 0 -0.23239207619074989 0.33733803784304872 0 -0.22399557766145009 0.3446724475075314 0 -0.23239207619074989 0.33733803784304872 0 -0.22343300475429789 0.33584365750468509 0 -0.22399557766145009 0.3446724475075314 0 -0.22343300475429789 0.33584365750468509 0 -0.21711209476383639 0.34203159341161249 0 -0.22343300475429789 0.33584365750468509 0 -0.22787459063421209 0.32654515700405817 0 -0.214582011820731 0.33074488021458681 0 -0.22787459063421209 0.32654515700405817 0 -0.22256089289947889 0.31285758013840059 0 -0.214582011820731 0.33074488021458681 0 -0.23849393053106641 0.32795833173514138 0 -0.2355048975007363 0.31629870412113048 0 -0.22787459063421209 0.32654515700405817 0 -0.2355048975007363 0.31629870412113048 0 -0.22787459063421209 0.32654515700405817 0 -0.22256089289947889 0.31285758013840059 0 -0.22256089289947889 0.31285758013840059 0 -0.20814440165080289 0.31535590543381581 0 -0.214582011820731 0.33074488021458681 0 -0.20814440165080289 0.31535590543381581 0 -0.214582011820731 0.33074488021458681 0 -0.20589718734137871 0.32885639981611209 0 -0.2073214160740704 0.34590654575438262 0 -0.214582011820731 0.33074488021458681 0 -0.20589718734137871 0.32885639981611209 0 -0.2073214160740704 0.34590654575438262 0 -0.21711209476383639 0.34203159341161249 0 -0.214582011820731 0.33074488021458681 0 -0.22343300475429789 0.33584365750468509 0 -0.21711209476383639 0.34203159341161249 0 -0.214582011820731 0.33074488021458681 0 -0.2073214160740704 0.34590654575438262 0 -0.197873558328447 0.33669000270365301 0 -0.19354091981991059 0.32341826786166361 0 -0.2073214160740704 0.34590654575438262 0 -0.20589718734137871 0.32885639981611209 0 -0.19354091981991059 0.32341826786166361 0 -0.18026432729818129 0.33261281114432728 0 -0.1876317379332563 0.345350048859141 0 -0.197873558328447 0.33669000270365301 0 -0.18026432729818129 0.33261281114432728 0 -0.197873558328447 0.33669000270365301 0 -0.19354091981991059 0.32341826786166361 0 -0.2073214160740704 0.34590654575438262 0 -0.19354091981991059 0.32341826786166361 0 -0.20814440165080289 0.31535590543381581 0 -0.19354091981991059 0.32341826786166361 0 -0.1968910746106588 0.30294802942791871 0 -0.20814440165080289 0.31535590543381581 0 -0.20589718734137871 0.32885639981611209 0 -0.19354091981991059 0.32341826786166361 0 -0.19354091981991059 0.32341826786166361 0 -0.1968910746106588 0.30294802942791871 0 -0.18593753942008651 0.30646007121581109 0 -0.1968910746106588 0.30294802942791871 0 -0.18292734299439711 0.28760956803163301 0 -0.18593753942008651 0.30646007121581109 0 -0.1968910746106588 0.30294802942791871 0 -0.19959370522924999 0.28857551862397368 0 -0.18292734299439711 0.28760956803163301 0 -0.19959370522924999 0.28857551862397368 0 -0.18967870183386801 0.27333845197175088 0 -0.18292734299439711 0.28760956803163301 0 -0.1968910746106588 0.30294802942791871 0 -0.19959370522924999 0.28857551862397368 0 -0.2117316528941674 0.29884943333469738 0 -0.19959370522924999 0.28857551862397368 0 -0.2117316528941674 0.29884943333469738 0 -0.21667191069777411 0.27824766948075808 0 -0.2117316528941674 0.29884943333469738 0 -0.22652793227703991 0.29511189690331718 0 -0.21667191069777411 0.27824766948075808 0 -0.20814440165080289 0.31535590543381581 0 -0.1968910746106588 0.30294802942791871 0 -0.2117316528941674 0.29884943333469738 0 -0.22256089289947889 0.31285758013840059 0 -0.20814440165080289 0.31535590543381581 0 -0.2117316528941674 0.29884943333469738 0 -0.22256089289947889 0.31285758013840059 0 -0.23360268989923161 0.30533656225006611 0 -0.22652793227703991 0.29511189690331718 0 -0.22256089289947889 0.31285758013840059 0 -0.2117316528941674 0.29884943333469738 0 -0.22652793227703991 0.29511189690331718 0 -0.2355048975007363 0.31629870412113048 0 -0.22256089289947889 0.31285758013840059 0 -0.23360268989923161 0.30533656225006611 0 -0.23360268989923161 0.30533656225006611 0 -0.22652793227703991 0.29511189690331718 0 -0.23931536798617781 0.29510995035240489 0 -0.22652793227703991 0.29511189690331718 0 -0.23416307858718921 0.27986431622324481 0 -0.21667191069777411 0.27824766948075808 0 -0.22652793227703991 0.29511189690331718 0 -0.23931536798617781 0.29510995035240489 0 -0.23416307858718921 0.27986431622324481 0 -0.23931536798617781 0.29510995035240489 0 -0.24915420104852881 0.28720616524545362 0 -0.23416307858718921 0.27986431622324481 0 -0.25250351686746902 0.29989466443510299 0 -0.23931536798617781 0.29510995035240489 0 -0.24915420104852881 0.28720616524545362 0 -0.25250351686746902 0.29989466443510299 0 -0.23931536798617781 0.29510995035240489 0 -0.24410435883272499 0.30730467973507741 0 -0.2355048975007363 0.31629870412113048 0 -0.23360268989923161 0.30533656225006611 0 -0.24410435883272499 0.30730467973507741 0 -0.23360268989923161 0.30533656225006611 0 -0.23931536798617781 0.29510995035240489 0 -0.24410435883272499 0.30730467973507741 0 -0.2381547251009824 0.25036062724400548 0 -0.24615280621576621 0.26548844390646842 0 -0.22632201528160181 0.26194095871487422 0 -0.2381547251009824 0.25036062724400548 0 -0.249435427503925 0.25000056447435692 0 -0.24615280621576621 0.26548844390646842 0 -0.24615280621576621 0.26548844390646842 0 -0.23416307858718921 0.27986431622324481 0 -0.22632201528160181 0.26194095871487422 0 -0.24915420104852881 0.28720616524545362 0 -0.24615280621576621 0.26548844390646842 0 -0.23416307858718921 0.27986431622324481 0 -0.23416307858718921 0.27986431622324481 0 -0.22632201528160181 0.26194095871487422 0 -0.21667191069777411 0.27824766948075808 0 -0.2381547251009824 0.25036062724400548 0 -0.22632201528160181 0.26194095871487422 0 -0.22359991905300591 0.24445062206085111 0 -0.22632201528160181 0.26194095871487422 0 -0.19918965203489319 0.25323407337391712 0 -0.22359991905300591 0.24445062206085111 0 -0.22632201528160181 0.26194095871487422 0 -0.21667191069777411 0.27824766948075808 0 -0.19918965203489319 0.25323407337391712 0 -0.21667191069777411 0.27824766948075808 0 -0.18967870183386801 0.27333845197175088 0 -0.21667191069777411 0.27824766948075808 0 -0.18967870183386801 0.27333845197175088 0 -0.19918965203489319 0.25323407337391712 0 -0.19959370522924999 0.28857551862397368 0 -0.21667191069777411 0.27824766948075808 0 -0.18967870183386801 0.27333845197175088 0 -0.18967870183386801 0.27333845197175088 0 -0.19918965203489319 0.25323407337391712 0 -0.17924130513872569 0.26041200934687198 0 -0.19918965203489319 0.25323407337391712 0 -0.17924130513872569 0.26041200934687198 0 -0.18967870183386801 0.27333845197175088 0 -0.19918965203489319 0.25323407337391712 0 -0.1726052030387418 0.27023331839360992 0 -0.17672660698543041 0.2450594069896791 0 -0.17924130513872569 0.26041200934687198 0 -0.1726052030387418 0.27023331839360992 0 -0.17672660698543041 0.2450594069896791 0 -0.19918965203489319 0.25323407337391712 0 -0.17924130513872569 0.26041200934687198 0 -0.17672660698543041 0.2450594069896791 0 -0.16476888297622971 0.25602604930352812 0 -0.1726052030387418 0.27023331839360992 0 -0.15243209967297619 0.26656446402532918 0 -0.16476888297622971 0.25602604930352812 0 -0.1726052030387418 0.27023331839360992 0 -0.17672660698543041 0.2450594069896791 0 -0.1610836178181364 0.2762893869838719 0 -0.15564269798255731 0.28811390744384968 0 -0.15243209967297619 0.26656446402532918 0 -0.1610836178181364 0.2762893869838719 0 -0.1726052030387418 0.27023331839360992 0 -0.16883084633575579 0.29328743356329429 0 -0.1610836178181364 0.2762893869838719 0 -0.1726052030387418 0.27023331839360992 0 -0.15243209967297619 0.26656446402532918 0 -0.1726052030387418 0.27023331839360992 0 -0.15243209967297619 0.26656446402532918 0 -0.18967870183386801 0.27333845197175088 0 -0.1726052030387418 0.27023331839360992 0 -0.18967870183386801 0.27333845197175088 0 -0.1726052030387418 0.27023331839360992 0 -0.17851052355069061 0.28111719299007198 0 -0.18967870183386801 0.27333845197175088 0 -0.17924130513872569 0.26041200934687198 0 -0.1726052030387418 0.27023331839360992 0 -0.18967870183386801 0.27333845197175088 0 -0.17851052355069061 0.28111719299007198 0 -0.18292734299439711 0.28760956803163301 0 -0.18967870183386801 0.27333845197175088 0 -0.18292734299439711 0.28760956803163301 0 -0.1726052030387418 0.27023331839360992 0 -0.17851052355069061 0.28111719299007198 0 -0.16883084633575579 0.29328743356329429 0 -0.18292734299439711 0.28760956803163301 0 -0.176175984154926 0.30188068409151497 0 -0.18292734299439711 0.28760956803163301 0 -0.176175984154926 0.30188068409151497 0 -0.16883084633575579 0.29328743356329429 0 -0.17851052355069061 0.28111719299007198 0 -0.18292734299439711 0.28760956803163301 0 -0.16883084633575579 0.29328743356329429 0 -0.18292734299439711 0.28760956803163301 0 -0.18593753942008651 0.30646007121581109 0 -0.176175984154926 0.30188068409151497 0 -0.18015237552054009 0.31644380666632538 0 -0.18593753942008651 0.30646007121581109 0 -0.176175984154926 0.30188068409151497 0 -0.16505648963277081 0.31634154873297893 0 -0.18015237552054009 0.31644380666632538 0 -0.176175984154926 0.30188068409151497 0 -0.16505648963277081 0.31634154873297893 0 -0.176175984154926 0.30188068409151497 0 -0.16883084633575579 0.29328743356329429 0 -0.16505648963277081 0.31634154873297893 0 -0.16883084633575579 0.29328743356329429 0 -0.16505648963277081 0.31634154873297893 0 -0.16883084633575579 0.29328743356329429 0 -0.1548031483610689 0.30324951582385901 0 -0.15005813762593989 0.31525375646269921 0 -0.16505648963277081 0.31634154873297893 0 -0.1548031483610689 0.30324951582385901 0 -0.1726052030387418 0.27023331839360992 0 -0.16883084633575579 0.29328743356329429 0 -0.1610836178181364 0.2762893869838719 0 -0.16883084633575579 0.29328743356329429 0 -0.15564269798255731 0.28811390744384968 0 -0.16883084633575579 0.29328743356329429 0 -0.15564269798255731 0.28811390744384968 0 -0.1548031483610689 0.30324951582385901 0 -0.15564269798255731 0.28811390744384968 0 -0.14678045925907779 0.29680204395800303 0 -0.1548031483610689 0.30324951582385901 0 -0.14206035996479041 0.28912345579663279 0 -0.14678045925907779 0.29680204395800303 0 -0.1397947742064381 0.29913891173837709 0 -0.15564269798255731 0.28811390744384968 0 -0.14206035996479041 0.28912345579663279 0 -0.14678045925907779 0.29680204395800303 0 -0.15564269798255731 0.28811390744384968 0 -0.14206035996479041 0.28912345579663279 0 -0.14154353395585409 0.27800723532345228 0 -0.15005813762593989 0.31525375646269921 0 -0.1548031483610689 0.30324951582385901 0 -0.14462508507352129 0.30524255006214629 0 -0.14678045925907779 0.29680204395800303 0 -0.1548031483610689 0.30324951582385901 0 -0.14462508507352129 0.30524255006214629 0 -0.14678045925907779 0.29680204395800303 0 -0.14462508507352129 0.30524255006214629 0 -0.1397947742064381 0.29913891173837709 0 -0.13528710567376709 0.31581649060604811 0 -0.15005813762593989 0.31525375646269921 0 -0.14462508507352129 0.30524255006214629 0 -0.13528710567376709 0.31581649060604811 0 -0.12926835532243419 0.30075690948640388 0 -0.13022086106103389 0.28871001826905551 0 -0.13528710567376709 0.31581649060604811 0 -0.1397947742064381 0.29913891173837709 0 -0.13022086106103389 0.28871001826905551 0 -0.13528710567376709 0.31581649060604811 0 -0.13022086106103389 0.28871001826905551 0 -0.13528710567376709 0.31581649060604811 0 -0.14462508507352129 0.30524255006214629 0 -0.1397947742064381 0.29913891173837709 0 -0.13528710567376709 0.31581649060604811 0 -0.12926835532243419 0.30075690948640388 0 -0.1147960104634634 0.30832139391327168 0 -0.14206035996479041 0.28912345579663279 0 -0.13022086106103389 0.28871001826905551 0 -0.14154353395585409 0.27800723532345228 0 -0.14206035996479041 0.28912345579663279 0 -0.1397947742064381 0.29913891173837709 0 -0.13022086106103389 0.28871001826905551 0 -0.12926835532243419 0.30075690948640388 0 -0.13022086106103389 0.28871001826905551 0 -0.1167690343654553 0.29370753043912179 0 -0.13022086106103389 0.28871001826905551 0 -0.1323331887336478 0.26290910293088432 0 -0.14154353395585409 0.27800723532345228 0 -0.13022086106103389 0.28871001826905551 0 -0.12515461644829939 0.26160354593206298 0 -0.12030084411280979 0.27696641295795332 0 -0.13022086106103389 0.28871001826905551 0 -0.12515461644829939 0.26160354593206298 0 -0.13022086106103389 0.28871001826905551 0 -0.12515461644829939 0.26160354593206298 0 -0.1323331887336478 0.26290910293088432 0 -0.1323331887336478 0.26290910293088432 0 -0.1386323871262797 0.23956516594961019 0 -0.12515461644829939 0.26160354593206298 0 -0.1323331887336478 0.26290910293088432 0 -0.12515461644829939 0.26160354593206298 0 -0.1323331887336478 0.26290910293088432 0 -0.12907737633496441 0.24962857445301059 0 -0.1323331887336478 0.26290910293088432 0 -0.1386323871262797 0.23956516594961019 0 -0.12907737633496441 0.24962857445301059 0 -0.12515461644829939 0.26160354593206298 0 -0.12907737633496441 0.24962857445301059 0 -0.1212830836163822 0.24088926827038079 0 -0.1323331887336478 0.26290910293088432 0 -0.15243209967297619 0.26656446402532918 0 -0.14868184259594561 0.24139284649683301 0 -0.15243209967297619 0.26656446402532918 0 -0.14868184259594561 0.24139284649683301 0 -0.16476888297622971 0.25602604930352812 0 -0.15243209967297619 0.26656446402532918 0 -0.14868184259594561 0.24139284649683301 0 -0.1323331887336478 0.26290910293088432 0 -0.15243209967297619 0.26656446402532918 0 -0.15564269798255731 0.28811390744384968 0 -0.15243209967297619 0.26656446402532918 0 -0.1323331887336478 0.26290910293088432 0 -0.15243209967297619 0.26656446402532918 0 -0.14154353395585409 0.27800723532345228 0 -0.15564269798255731 0.28811390744384968 0 -0.15243209967297619 0.26656446402532918 0 -0.14154353395585409 0.27800723532345228 0 -0.1009275834509456 0.26867340665007389 0 -0.10903011336986559 0.28162300019745062 0 -0.093055835147581936 0.27830993635481338 0 -0.1009275834509456 0.26867340665007389 0 -0.1157426567319621 0.26744421432395449 0 -0.10903011336986559 0.28162300019745062 0 -0.1009275834509456 0.26867340665007389 0 -0.10903011336986559 0.28162300019745062 0 -0.1009275834509456 0.26867340665007389 0 -0.090035611100586166 0.26680364507765603 0 -0.093055835147581936 0.27830993635481338 0 -0.1009275834509456 0.26867340665007389 0 -0.10898983499016381 0.25866367951737868 0 -0.092825053532027996 0.25572381310269582 0 -0.10898983499016381 0.25866367951737868 0 -0.092825053532027996 0.25572381310269582 0 -0.1009275834509456 0.26867340665007389 0 -0.092825053532027996 0.25572381310269582 0 -0.1009275834509456 0.26867340665007389 0 -0.090035611100586166 0.26680364507765603 0 -0.092825053532027996 0.25572381310269582 0 -0.10898983499016381 0.25866367951737868 0 -0.092825053532027996 0.25572381310269582 0 -0.09788140403950131 0.24634004413176361 0 -0.092803926884228172 0.25053040598172899 0 -0.092825053532027996 0.25572381310269582 0 -0.09788140403950131 0.24634004413176361 0 -0.1009275834509456 0.26867340665007389 0 -0.10898983499016381 0.25866367951737868 0 -0.1157426567319621 0.26744421432395449 0 -0.12515461644829939 0.26160354593206298 0 -0.10898983499016381 0.25866367951737868 0 -0.12515461644829939 0.26160354593206298 0 -0.115970302515576 0.25098152906068399 0 -0.1212830836163822 0.24088926827038079 0 -0.12515461644829939 0.26160354593206298 0 -0.10898983499016381 0.25866367951737868 0 -0.1157426567319621 0.26744421432395449 0 -0.12515461644829939 0.26160354593206298 0 -0.1212830836163822 0.24088926827038079 0 -0.10898983499016381 0.25866367951737868 0 -0.115970302515576 0.25098152906068399 0 -0.1084536750074588 0.24276962252291351 0 -0.12515461644829939 0.26160354593206298 0 -0.10898983499016381 0.25866367951737868 0 -0.115970302515576 0.25098152906068399 0 -0.12515461644829939 0.26160354593206298 0 -0.1157426567319621 0.26744421432395449 0 -0.12030084411280979 0.27696641295795332 0 -0.1157426567319621 0.26744421432395449 0 -0.12030084411280979 0.27696641295795332 0 -0.10903011336986559 0.28162300019745062 0 -0.13022086106103389 0.28871001826905551 0 -0.12030084411280979 0.27696641295795332 0 -0.1190802132272912 0.2852517404658953 0 -0.13022086106103389 0.28871001826905551 0 -0.1190802132272912 0.2852517404658953 0 -0.1167690343654553 0.29370753043912179 0 -0.12030084411280979 0.27696641295795332 0 -0.1190802132272912 0.2852517404658953 0 -0.10903011336986559 0.28162300019745062 0 -0.1190802132272912 0.2852517404658953 0 -0.1167690343654553 0.29370753043912179 0 -0.10903011336986559 0.28162300019745062 0 -0.1167690343654553 0.29370753043912179 0 -0.1147960104634634 0.30832139391327168 0 -0.097491782498826549 0.29675415140728062 0 -0.12926835532243419 0.30075690948640388 0 -0.1167690343654553 0.29370753043912179 0 -0.1147960104634634 0.30832139391327168 0 -0.12926835532243419 0.30075690948640388 0 -0.1147960104634634 0.30832139391327168 0 -0.1147960104634634 0.30832139391327168 0 -0.097491782498826549 0.29675415140728062 0 -0.09512400400460716 0.31860366592608508 0 -0.1147960104634634 0.30832139391327168 0 -0.097491782498826549 0.29675415140728062 0 -0.1167690343654553 0.29370753043912179 0 -0.097491782498826549 0.29675415140728062 0 -0.10903011336986559 0.28162300019745062 0 -0.097491782498826549 0.29675415140728062 0 -0.10903011336986559 0.28162300019745062 0 -0.093055835147581936 0.27830993635481338 0 -0.097491782498826549 0.29675415140728062 0 -0.080187554534190311 0.28518690890128851 0 -0.082180653803224438 0.30238691344433472 0 -0.097491782498826549 0.29675415140728062 0 -0.080187554534190311 0.28518690890128851 0 -0.093055835147581936 0.27830993635481338 0 -0.097491782498826549 0.29675415140728062 0 -0.080187554534190311 0.28518690890128851 0 -0.097491782498826549 0.29675415140728062 0 -0.082180653803224438 0.30238691344433472 0 -0.09512400400460716 0.31860366592608508 0 -0.082180653803224438 0.30238691344433472 0 -0.070435224019783207 0.31547883596211101 0 -0.09512400400460716 0.31860366592608508 0 -0.069910016508989037 0.29693434480645542 0 -0.058333626216541187 0.30353905419620569 0 -0.070435224019783207 0.31547883596211101 0 -0.082180653803224438 0.30238691344433472 0 -0.069910016508989037 0.29693434480645542 0 -0.070435224019783207 0.31547883596211101 0 -0.058333626216541187 0.30353905419620569 0 -0.060493970586394052 0.31422058315953461 0 -0.070435224019783207 0.31547883596211101 0 -0.058333626216541187 0.30353905419620569 0 -0.070435224019783207 0.31547883596211101 0 -0.080187554534190311 0.28518690890128851 0 -0.082180653803224438 0.30238691344433472 0 -0.069910016508989037 0.29693434480645542 0 -0.080187554534190311 0.28518690890128851 0 -0.06252571920817282 0.28477070812665461 0 -0.071836522049402579 0.27679401152849781 0 -0.069910016508989037 0.29693434480645542 0 -0.06252571920817282 0.28477070812665461 0 -0.058333626216541187 0.30353905419620569 0 -0.080187554534190311 0.28518690890128851 0 -0.069910016508989037 0.29693434480645542 0 -0.06252571920817282 0.28477070812665461 0 -0.06252571920817282 0.28477070812665461 0 -0.063493306409347777 0.274175895010561 0 -0.071836522049402579 0.27679401152849781 0 -0.063493306409347777 0.274175895010561 0 -0.069217857229412538 0.26882375785545892 0 -0.059176626246956077 0.26742431868950373 0 -0.063493306409347777 0.274175895010561 0 -0.069217857229412538 0.26882375785545892 0 -0.071836522049402579 0.27679401152849781 0 -0.069217857229412538 0.26882375785545892 0 -0.063808532278066044 0.26096950509128769 0 -0.059176626246956077 0.26742431868950373 0 -0.069217857229412538 0.26882375785545892 0 -0.071836522049402579 0.27679401152849781 0 -0.080662365931077271 0.27081850589513068 0 -0.069217857229412538 0.26882375785545892 0 -0.080662365931077271 0.27081850589513068 0 -0.074622406796695032 0.26128246331223082 0 -0.080187554534190311 0.28518690890128851 0 -0.071836522049402579 0.27679401152849781 0 -0.080662365931077271 0.27081850589513068 0 -0.080187554534190311 0.28518690890128851 0 -0.080662365931077271 0.27081850589513068 0 -0.093055835147581936 0.27830993635481338 0 -0.080662365931077271 0.27081850589513068 0 -0.090035611100586166 0.26680364507765603 0 -0.083535837439683819 0.25977536041333599 0 -0.080662365931077271 0.27081850589513068 0 -0.090035611100586166 0.26680364507765603 0 -0.093055835147581936 0.27830993635481338 0 -0.092825053532027996 0.25572381310269582 0 -0.083535837439683819 0.25977536041333599 0 -0.076267965387558284 0.25271259841433158 0 -0.092825053532027996 0.25572381310269582 0 -0.076267965387558284 0.25271259841433158 0 -0.089436495014079617 0.25030816441543419 0 -0.076267965387558284 0.25271259841433158 0 -0.073135677888041331 0.24923235374733829 0 -0.089436495014079617 0.25030816441543419 0 -0.092825053532027996 0.25572381310269582 0 -0.076267965387558284 0.25271259841433158 0 -0.089436495014079617 0.25030816441543419 0 -0.092803926884228172 0.25053040598172899 0 -0.092825053532027996 0.25572381310269582 0 -0.089436495014079617 0.25030816441543419 0 -0.092825053532027996 0.25572381310269582 0 -0.089436495014079617 0.25030816441543419 0 -0.092803926884228172 0.25053040598172899 0 -0.090035611100586166 0.26680364507765603 0 -0.092825053532027996 0.25572381310269582 0 -0.083535837439683819 0.25977536041333599 0 -0.083535837439683819 0.25977536041333599 0 -0.07624210973768572 0.25719067581913219 0 -0.074622406796695032 0.26128246331223082 0 -0.080662365931077271 0.27081850589513068 0 -0.083535837439683819 0.25977536041333599 0 -0.074622406796695032 0.26128246331223082 0 -0.083535837439683819 0.25977536041333599 0 -0.076267965387558284 0.25271259841433158 0 -0.07624210973768572 0.25719067581913219 0 -0.070542229326805775 0.25499228113663053 0 -0.073135677888041331 0.24923235374733829 0 -0.056834860762002989 0.24815654307924351 0 -0.076267965387558284 0.25271259841433158 0 -0.07624210973768572 0.25719067581913219 0 -0.070542229326805775 0.25499228113663053 0 -0.076267965387558284 0.25271259841433158 0 -0.070542229326805775 0.25499228113663053 0 -0.073135677888041331 0.24923235374733829 0 -0.07624210973768572 0.25719067581913219 0 -0.070542229326805775 0.25499228113663053 0 -0.074622406796695032 0.26128246331223082 0 -0.070542229326805775 0.25499228113663053 0 -0.074622406796695032 0.26128246331223082 0 -0.063808532278066044 0.26096950509128769 0 -0.069217857229412538 0.26882375785545892 0 -0.074622406796695032 0.26128246331223082 0 -0.063808532278066044 0.26096950509128769 0 -0.070542229326805775 0.25499228113663053 0 -0.063808532278066044 0.26096950509128769 0 -0.056834860762002989 0.24815654307924351 0 -0.052396398897271677 0.2663421458675399 0 -0.043429986064867067 0.25593886148048639 0 -0.056834860762002989 0.24815654307924351 0 -0.063808532278066044 0.26096950509128769 0 -0.052396398897271677 0.2663421458675399 0 -0.056834860762002989 0.24815654307924351 0 -0.052396398897271677 0.2663421458675399 0 -0.056834860762002989 0.24815654307924351 0 -0.063808532278066044 0.26096950509128769 0 -0.059176626246956077 0.26742431868950373 0 -0.052396398897271677 0.2663421458675399 0 -0.052396398897271677 0.2663421458675399 0 -0.046232028413296107 0.29159927243030348 0 -0.06252571920817282 0.28477070812665461 0 -0.052396398897271677 0.2663421458675399 0 -0.046232028413296107 0.29159927243030348 0 -0.06252571920817282 0.28477070812665461 0 -0.063493306409347777 0.274175895010561 0 -0.052396398897271677 0.2663421458675399 0 -0.063493306409347777 0.274175895010561 0 -0.059176626246956077 0.26742431868950373 0 -0.052396398897271677 0.2663421458675399 0 -0.059176626246956077 0.26742431868950373 0 -0.052396398897271677 0.2663421458675399 0 -0.052396398897271677 0.2663421458675399 0 -0.033692763614023291 0.27922767591532449 0 -0.027943398718329439 0.26243927198965761 0 -0.052396398897271677 0.2663421458675399 0 -0.033692763614023291 0.27922767591532449 0 -0.046232028413296107 0.29159927243030348 0 -0.052396398897271677 0.2663421458675399 0 -0.043429986064867067 0.25593886148048639 0 -0.027943398718329439 0.26243927198965761 0 -0.052396398897271677 0.2663421458675399 0 -0.027943398718329439 0.26243927198965761 0 -0.043429986064867067 0.25593886148048639 0 -0.036545285881863981 0.2468174849855049 0 -0.056834860762002989 0.24815654307924351 0 -0.043429986064867067 0.25593886148048639 0 -0.027943398718329439 0.26243927198965761 0 -0.036545285881863981 0.2468174849855049 0 -0.027943398718329439 0.26243927198965761 0 -0.036545285881863981 0.2468174849855049 0 -0.016255711001725019 0.24547842689176669 0 -0.027943398718329439 0.26243927198965761 0 -0.0034903985393868221 0.25853639811177698 0 -0.016255711001725019 0.24547842689176669 0 -0.027943398718329439 0.26243927198965761 0 -0.0034903985393868221 0.25853639811177698 0 -0.027943398718329439 0.26243927198965761 0 -0.02087470435408539 0.27415397068469499 0 -0.0034903985393868221 0.25853639811177698 0 -0.033692763614023291 0.27922767591532449 0 -0.027943398718329439 0.26243927198965761 0 -0.02087470435408539 0.27415397068469499 0 -0.0091796179168699803 0.28065720455182208 0 -0.0034903985393868221 0.25853639811177698 0 0.01235737625438715 0.27566787937973941 0 -0.02087470435408539 0.27415397068469499 0 -0.0091796179168699803 0.28065720455182208 0 -0.0034903985393868221 0.25853639811177698 0 -0.01127632507762838 0.29599024991135331 0 -0.016587983717251609 0.3095217014027225 0 0.0075209757127229632 0.30476535896382217 0 -0.016587983717251609 0.3095217014027225 0 0.0075209757127229632 0.30476535896382217 0 -0.0091796179168699803 0.28065720455182208 0 -0.01127632507762838 0.29599024991135331 0 0.0059730323149553791 0.28997367436947741 0 -0.01127632507762838 0.29599024991135331 0 -0.027342374190062479 0.29067306321841357 0 -0.023486676678597079 0.30025973808487011 0 -0.02087470435408539 0.27415397068469499 0 -0.0091796179168699803 0.28065720455182208 0 -0.027342374190062479 0.29067306321841357 0 -0.033692763614023291 0.27922767591532449 0 -0.02087470435408539 0.27415397068469499 0 -0.027342374190062479 0.29067306321841357 0 -0.0091796179168699803 0.28065720455182208 0 -0.01127632507762838 0.29599024991135331 0 -0.027342374190062479 0.29067306321841357 0 -0.027342374190062479 0.29067306321841357 0 -0.023486676678597079 0.30025973808487011 0 -0.033462243323422187 0.29975083894690918 0 -0.016587983717251609 0.3095217014027225 0 -0.040696943147226293 0.31427804384162272 0 -0.023486676678597079 0.30025973808487011 0 -0.03011694568268046 0.3060609687348908 0 -0.033462243323422187 0.29975083894690918 0 -0.016587983717251609 0.3095217014027225 0 -0.03011694568268046 0.3060609687348908 0 -0.040696943147226293 0.31427804384162272 0 -0.01127632507762838 0.29599024991135331 0 -0.023486676678597079 0.30025973808487011 0 -0.016587983717251609 0.3095217014027225 0 -0.023486676678597079 0.30025973808487011 0 -0.016587983717251609 0.3095217014027225 0 -0.03011694568268046 0.3060609687348908 0 -0.03011694568268046 0.3060609687348908 0 -0.03780693982600776 0.30479574344446841 0 -0.040696943147226293 0.31427804384162272 0 -0.03011694568268046 0.3060609687348908 0 -0.03780693982600776 0.30479574344446841 0 -0.033462243323422187 0.29975083894690918 0 -0.033462243323422187 0.29975083894690918 0 -0.041330946399602997 0.30079916065489692 0 -0.036412071188081048 0.29241000223316937 0 -0.03780693982600776 0.30479574344446841 0 -0.033462243323422187 0.29975083894690918 0 -0.041330946399602997 0.30079916065489692 0 -0.041330946399602997 0.30079916065489692 0 -0.043427620577108042 0.30308970504402261 0 -0.046232028413296107 0.29159927243030348 0 -0.03780693982600776 0.30479574344446841 0 -0.041330946399602997 0.30079916065489692 0 -0.043427620577108042 0.30308970504402261 0 -0.043427620577108042 0.30308970504402261 0 -0.046232028413296107 0.29159927243030348 0 -0.041330946399602997 0.30079916065489692 0 -0.043427620577108042 0.30308970504402261 0 -0.03780693982600776 0.30479574344446841 0 -0.043427620577108042 0.30308970504402261 0 -0.040696943147226293 0.31427804384162272 0 -0.043427620577108042 0.30308970504402261 0 -0.040696943147226293 0.31427804384162272 0 -0.033692763614023291 0.27922767591532449 0 -0.027342374190062479 0.29067306321841357 0 -0.036412071188081048 0.29241000223316937 0 -0.033692763614023291 0.27922767591532449 0 -0.036412071188081048 0.29241000223316937 0 -0.046232028413296107 0.29159927243030348 0 -0.027342374190062479 0.29067306321841357 0 -0.033462243323422187 0.29975083894690918 0 -0.036412071188081048 0.29241000223316937 0 -0.041330946399602997 0.30079916065489692 0 -0.036412071188081048 0.29241000223316937 0 -0.046232028413296107 0.29159927243030348 0 -0.033692763614023291 0.27922767591532449 0 -0.046232028413296107 0.29159927243030348 0 -0.06252571920817282 0.28477070812665461 0 -0.046232028413296107 0.29159927243030348 0 -0.058333626216541187 0.30353905419620569 0 -0.043427620577108042 0.30308970504402261 0 -0.05652784284900117 0.31740124707717637 0 -0.040696943147226293 0.31427804384162272 0 -0.043427620577108042 0.30308970504402261 0 -0.05652784284900117 0.31740124707717637 0 -0.043427620577108042 0.30308970504402261 0 -0.058333626216541187 0.30353905419620569 0 -0.05652784284900117 0.31740124707717637 0 -0.043427620577108042 0.30308970504402261 0 -0.046232028413296107 0.29159927243030348 0 -0.058333626216541187 0.30353905419620569 0 -0.046232028413296107 0.29159927243030348 0 -0.058333626216541187 0.30353905419620569 0 -0.058333626216541187 0.30353905419620569 0 -0.060493970586394052 0.31422058315953461 0 -0.05652784284900117 0.31740124707717637 0 -0.060493970586394052 0.31422058315953461 0 -0.05652784284900117 0.31740124707717637 0 -0.070435224019783207 0.31547883596211101 0 -0.053949199910575903 0.33095622381377332 0 -0.038695296552776662 0.32247934217392432 0 -0.063097214898758275 0.32457805997929129 0 -0.038695296552776662 0.32247934217392432 0 -0.063097214898758275 0.32457805997929129 0 -0.05652784284900117 0.31740124707717637 0 -0.040696943147226293 0.31427804384162272 0 -0.05652784284900117 0.31740124707717637 0 -0.038695296552776662 0.32247934217392432 0 -0.063097214898758275 0.32457805997929129 0 -0.05652784284900117 0.31740124707717637 0 -0.063097214898758275 0.32457805997929129 0 -0.053460837060086523 0.34038039807259329 0 -0.069762562575301196 0.33185972295100452 0 -0.053949199910575903 0.33095622381377332 0 -0.069762562575301196 0.33185972295100452 0 -0.063097214898758275 0.32457805997929129 0 -0.053949199910575903 0.33095622381377332 0 -0.053460837060086523 0.34038039807259329 0 -0.069762562575301196 0.33185972295100452 0 -0.053949199910575903 0.33095622381377332 0 -0.053460837060086523 0.34038039807259329 0 -0.044730088465956643 0.33548359589205418 0 -0.053460837060086523 0.34038039807259329 0 -0.044730088465956643 0.33548359589205418 0 -0.043763960751531182 0.34417121486810792 0 -0.044730088465956643 0.33548359589205418 0 -0.034100778548388007 0.34130435002076248 0 -0.038695296552776662 0.32247934217392432 0 -0.034100778548388007 0.34130435002076248 0 -0.038695296552776662 0.32247934217392432 0 -0.034100778548388007 0.34130435002076248 0 -0.038695296552776662 0.32247934217392432 0 -0.030511742196305369 0.32177550524619708 0 -0.034100778548388007 0.34130435002076248 0 -0.030511742196305369 0.32177550524619708 0 -0.032296131655756691 0.35014490670097193 0 -0.030511742196305369 0.32177550524619708 0 -0.032296131655756691 0.35014490670097193 0 -0.044730088465956643 0.33548359589205418 0 -0.034100778548388007 0.34130435002076248 0 -0.043763960751531182 0.34417121486810792 0 -0.053949199910575903 0.33095622381377332 0 -0.044730088465956643 0.33548359589205418 0 -0.038695296552776662 0.32247934217392432 0 -0.05652784284900117 0.31740124707717637 0 -0.040696943147226293 0.31427804384162272 0 -0.038695296552776662 0.32247934217392432 0 -0.040696943147226293 0.31427804384162272 0 -0.038695296552776662 0.32247934217392432 0 -0.038695296552776662 0.32247934217392432 0 -0.033476053198191302 0.31771390019135048 0 -0.030511742196305369 0.32177550524619708 0 -0.038695296552776662 0.32247934217392432 0 -0.030511742196305369 0.32177550524619708 0 -0.040696943147226293 0.31427804384162272 0 -0.038695296552776662 0.32247934217392432 0 -0.033476053198191302 0.31771390019135048 0 -0.033476053198191302 0.31771390019135048 0 -0.02534719022929903 0.32133132143179249 0 -0.030511742196305369 0.32177550524619708 0 -0.016587983717251609 0.3095217014027225 0 -0.040696943147226293 0.31427804384162272 0 -0.033476053198191302 0.31771390019135048 0 -0.016587983717251609 0.3095217014027225 0 -0.033476053198191302 0.31771390019135048 0 -0.02534719022929903 0.32133132143179249 0 -0.016587983717251609 0.3095217014027225 0 -0.017134382125609599 0.32078890628859352 0 -0.02534719022929903 0.32133132143179249 0 -0.01952096879434586 0.32674557664147802 0 -0.017134382125609599 0.32078890628859352 0 -0.02534719022929903 0.32133132143179249 0 -0.01952096879434586 0.32674557664147802 0 -0.02534719022929903 0.32133132143179249 0 -0.030511742196305369 0.32177550524619708 0 -0.02534719022929903 0.32133132143179249 0 -0.030511742196305369 0.32177550524619708 0 -0.030511742196305369 0.32177550524619708 0 -0.01972516732872899 0.33793190566565429 0 -0.032296131655756691 0.35014490670097193 0 -0.01952096879434586 0.32674557664147802 0 -0.030511742196305369 0.32177550524619708 0 -0.01972516732872899 0.33793190566565429 0 -0.01952096879434586 0.32674557664147802 0 -0.01972516732872899 0.33793190566565429 0 -0.007659023569372596 0.32388775754765192 0 -0.01972516732872899 0.33793190566565429 0 -0.007659023569372596 0.32388775754765192 0 0.0045422153079443823 0.33974475314486291 0 -0.016587983717251609 0.3095217014027225 0 -0.007659023569372596 0.32388775754765192 0 0.0075209757127229632 0.30476535896382217 0 -0.016587983717251609 0.3095217014027225 0 -0.017134382125609599 0.32078890628859352 0 -0.007659023569372596 0.32388775754765192 0 -0.01952096879434586 0.32674557664147802 0 -0.017134382125609599 0.32078890628859352 0 -0.007659023569372596 0.32388775754765192 0 -0.0045426006561533408 0.37315282105005088 0 -0.012589133325050361 0.35629326518858673 0 0.010567405497599351 0.35827089641423382 0 -0.01972516732872899 0.33793190566565429 0 -0.012589133325050361 0.35629326518858673 0 0.0045422153079443823 0.33974475314486291 0 -0.01972516732872899 0.33793190566565429 0 -0.012589133325050361 0.35629326518858673 0 -0.032296131655756691 0.35014490670097193 0 -0.012589133325050361 0.35629326518858673 0 -0.032296131655756691 0.35014490670097193 0 -0.034080521115206881 0.37851430815574671 0 -0.0045426006561533408 0.37315282105005088 0 -0.012589133325050361 0.35629326518858673 0 -0.034080521115206881 0.37851430815574671 0 -0.032296131655756691 0.35014490670097193 0 -0.034080521115206881 0.37851430815574671 0 -0.032296131655756691 0.35014490670097193 0 -0.05289439062466203 0.35762154823580239 0 -0.034080521115206881 0.37851430815574671 0 -0.032296131655756691 0.35014490670097193 0 -0.043763960751531182 0.34417121486810792 0 -0.05289439062466203 0.35762154823580239 0 -0.034100778548388007 0.34130435002076248 0 -0.032296131655756691 0.35014490670097193 0 -0.043763960751531182 0.34417121486810792 0 -0.053460837060086523 0.34038039807259329 0 -0.05289439062466203 0.35762154823580239 0 -0.065670960331832395 0.34625609997416612 0 -0.053460837060086523 0.34038039807259329 0 -0.043763960751531182 0.34417121486810792 0 -0.05289439062466203 0.35762154823580239 0 -0.05289439062466203 0.35762154823580239 0 -0.070899961949904777 0.36052102611724862 0 -0.05289439062466203 0.35762154823580239 0 -0.070899961949904777 0.36052102611724862 0 -0.060850739561521622 0.37996687948229863 0 -0.05289439062466203 0.35762154823580239 0 -0.060850739561521622 0.37996687948229863 0 -0.034080521115206881 0.37851430815574671 0 -0.070899961949904777 0.36052102611724862 0 -0.060850739561521622 0.37996687948229863 0 -0.070899961949904777 0.36052102611724862 0 -0.076315094498247679 0.37414400683445298 0 -0.060850739561521622 0.37996687948229863 0 -0.070899961949904777 0.36052102611724862 0 -0.089768302905147479 0.36355943774391392 0 -0.070899961949904777 0.36052102611724862 0 -0.076315094498247679 0.37414400683445298 0 -0.089768302905147479 0.36355943774391392 0 -0.070899961949904777 0.36052102611724862 0 -0.089768302905147479 0.36355943774391392 0 -0.091587997054771109 0.35570325907290168 0 -0.089768302905147479 0.36355943774391392 0 -0.091587997054771109 0.35570325907290168 0 -0.070899961949904777 0.36052102611724862 0 -0.091587997054771109 0.35570325907290168 0 -0.07995644325806224 0.34299618680973798 0 -0.091587997054771109 0.35570325907290168 0 -0.093934845268146314 0.34557119436200701 0 -0.091587997054771109 0.35570325907290168 0 -0.08822359836096319 0.34354535834216587 0 -0.093934845268146314 0.34557119436200701 0 -0.091587997054771109 0.35570325907290168 0 -0.07995644325806224 0.34299618680973798 0 -0.08822359836096319 0.34354535834216587 0 -0.091587997054771109 0.35570325907290168 0 -0.07995644325806224 0.34299618680973798 0 -0.070899961949904777 0.36052102611724862 0 -0.07995644325806224 0.34299618680973798 0 -0.070899961949904777 0.36052102611724862 0 -0.065670960331832395 0.34625609997416612 0 -0.07995644325806224 0.34299618680973798 0 -0.05289439062466203 0.35762154823580239 0 -0.070899961949904777 0.36052102611724862 0 -0.065670960331832395 0.34625609997416612 0 -0.053460837060086523 0.34038039807259329 0 -0.065670960331832395 0.34625609997416612 0 -0.069762562575301196 0.33185972295100452 0 -0.069762562575301196 0.33185972295100452 0 -0.063097214898758275 0.32457805997929129 0 -0.069762562575301196 0.33185972295100452 0 -0.080783578508548115 0.32609919801826648 0 -0.069762562575301196 0.33185972295100452 0 -0.07995644325806224 0.34299618680973798 0 -0.079019282631744056 0.332702813596087 0 -0.069762562575301196 0.33185972295100452 0 -0.080783578508548115 0.32609919801826648 0 -0.079019282631744056 0.332702813596087 0 -0.069762562575301196 0.33185972295100452 0 -0.07995644325806224 0.34299618680973798 0 -0.065670960331832395 0.34625609997416612 0 -0.069762562575301196 0.33185972295100452 0 -0.07995644325806224 0.34299618680973798 0 -0.05652784284900117 0.31740124707717637 0 -0.076346634981989778 0.32131120272597569 0 -0.070435224019783207 0.31547883596211101 0 -0.05652784284900117 0.31740124707717637 0 -0.063097214898758275 0.32457805997929129 0 -0.076346634981989778 0.32131120272597569 0 -0.069762562575301196 0.33185972295100452 0 -0.063097214898758275 0.32457805997929129 0 -0.080783578508548115 0.32609919801826648 0 -0.063097214898758275 0.32457805997929129 0 -0.076346634981989778 0.32131120272597569 0 -0.080783578508548115 0.32609919801826648 0 -0.063097214898758275 0.32457805997929129 0 -0.080783578508548115 0.32609919801826648 0 -0.05652784284900117 0.31740124707717637 0 -0.076346634981989778 0.32131120272597569 0 -0.060493970586394052 0.31422058315953461 0 -0.070435224019783207 0.31547883596211101 0 -0.076346634981989778 0.32131120272597569 0 -0.070435224019783207 0.31547883596211101 0 -0.070435224019783207 0.31547883596211101 0 -0.09512400400460716 0.31860366592608508 0 -0.080783578508548115 0.32609919801826648 0 -0.098591778497473109 0.3276308147488996 0 -0.076346634981989778 0.32131120272597569 0 -0.070435224019783207 0.31547883596211101 0 -0.09512400400460716 0.31860366592608508 0 -0.080783578508548115 0.32609919801826648 0 -0.086218037865840938 0.32325868505528488 0 -0.098591778497473109 0.3276308147488996 0 -0.076346634981989778 0.32131120272597569 0 -0.086218037865840938 0.32325868505528488 0 -0.09512400400460716 0.31860366592608508 0 -0.076346634981989778 0.32131120272597569 0 -0.086218037865840938 0.32325868505528488 0 -0.076346634981989778 0.32131120272597569 0 -0.080783578508548115 0.32609919801826648 0 -0.086218037865840938 0.32325868505528488 0 -0.076346634981989778 0.32131120272597569 0 -0.080783578508548115 0.32609919801826648 0 -0.080783578508548115 0.32609919801826648 0 -0.086218037865840938 0.32325868505528488 0 -0.086218037865840938 0.32325868505528488 0 -0.09512400400460716 0.31860366592608508 0 -0.080783578508548115 0.32609919801826648 0 -0.092284118840694762 0.33703557914836868 0 -0.098591778497473109 0.3276308147488996 0 -0.083354587383140194 0.33642057231781519 0 -0.07995644325806224 0.34299618680973798 0 -0.08822359836096319 0.34354535834216587 0 -0.083354587383140194 0.33642057231781519 0 -0.07995644325806224 0.34299618680973798 0 -0.079019282631744056 0.332702813596087 0 -0.083354587383140194 0.33642057231781519 0 -0.07995644325806224 0.34299618680973798 0 -0.080783578508548115 0.32609919801826648 0 -0.083354587383140194 0.33642057231781519 0 -0.079019282631744056 0.332702813596087 0 -0.080783578508548115 0.32609919801826648 0 -0.083354587383140194 0.33642057231781519 0 -0.092284118840694762 0.33703557914836868 0 -0.080783578508548115 0.32609919801826648 0 -0.092284118840694762 0.33703557914836868 0 -0.083354587383140194 0.33642057231781519 0 -0.092284118840694762 0.33703557914836868 0 -0.08822359836096319 0.34354535834216587 0 -0.092284118840694762 0.33703557914836868 0 -0.08822359836096319 0.34354535834216587 0 -0.093934845268146314 0.34557119436200701 0 -0.1052980038644945 0.33894621453504031 0 -0.098591778497473109 0.3276308147488996 0 -0.1159443155612791 0.3291232416141866 0 -0.098591778497473109 0.3276308147488996 0 -0.1159443155612791 0.3291232416141866 0 -0.092284118840694762 0.33703557914836868 0 -0.1052980038644945 0.33894621453504031 0 -0.093934845268146314 0.34557119436200701 0 -0.092284118840694762 0.33703557914836868 0 -0.1052980038644945 0.33894621453504031 0 -0.098591778497473109 0.3276308147488996 0 -0.1147960104634634 0.30832139391327168 0 -0.09512400400460716 0.31860366592608508 0 -0.1147960104634634 0.30832139391327168 0 -0.09512400400460716 0.31860366592608508 0 -0.1161243536851109 0.32126165558681002 0 -0.086218037865840938 0.32325868505528488 0 -0.09512400400460716 0.31860366592608508 0 -0.1159443155612791 0.3291232416141866 0 -0.09512400400460716 0.31860366592608508 0 -0.1161243536851109 0.32126165558681002 0 -0.1159443155612791 0.3291232416141866 0 -0.086218037865840938 0.32325868505528488 0 -0.098591778497473109 0.3276308147488996 0 -0.1159443155612791 0.3291232416141866 0 -0.086218037865840938 0.32325868505528488 0 -0.1159443155612791 0.3291232416141866 0 -0.09512400400460716 0.31860366592608508 0 -0.1161243536851109 0.32126165558681002 0 -0.13712470336561469 0.32391964524753458 0 -0.1161243536851109 0.32126165558681002 0 -0.118377308158662 0.32960323520238249 0 -0.13712470336561469 0.32391964524753458 0 -0.1147960104634634 0.30832139391327168 0 -0.1161243536851109 0.32126165558681002 0 -0.1161243536851109 0.32126165558681002 0 -0.1159443155612791 0.3291232416141866 0 -0.118377308158662 0.32960323520238249 0 -0.1052980038644945 0.33894621453504031 0 -0.122741643959492 0.33912597706905528 0 -0.11478268076750379 0.35206942212872511 0 -0.1052980038644945 0.33894621453504031 0 -0.1159443155612791 0.3291232416141866 0 -0.122741643959492 0.33912597706905528 0 -0.1159443155612791 0.3291232416141866 0 -0.118377308158662 0.32960323520238249 0 -0.13248335184565271 0.33238614976276798 0 -0.118377308158662 0.32960323520238249 0 -0.122741643959492 0.33912597706905528 0 -0.1159443155612791 0.3291232416141866 0 -0.118377308158662 0.32960323520238249 0 -0.122741643959492 0.33912597706905528 0 -0.12796394006501099 0.36971016759926228 0 -0.13150555597045929 0.35142926063191721 0 -0.11478268076750379 0.35206942212872511 0 -0.13150555597045929 0.35142926063191721 0 -0.122741643959492 0.33912597706905528 0 -0.11478268076750379 0.35206942212872511 0 -0.12796394006501099 0.36971016759926228 0 -0.11478268076750379 0.35206942212872511 0 -0.1003371022306211 0.3652613554072911 0 -0.12796394006501099 0.36971016759926228 0 -0.1003371022306211 0.3652613554072911 0 -0.11266105448221971 0.37872484915592258 0 -0.12796394006501099 0.36971016759926228 0 -0.1003371022306211 0.3652613554072911 0 -0.1003371022306211 0.3652613554072911 0 -0.11266105448221971 0.37872484915592258 0 -0.1003371022306211 0.3652613554072911 0 -0.098519283332364274 0.37849628923692291 0 -0.11266105448221971 0.37872484915592258 0 -0.089768302905147479 0.36355943774391392 0 -0.1003371022306211 0.3652613554072911 0 -0.098519283332364274 0.37849628923692291 0 -0.091587997054771109 0.35570325907290168 0 -0.1003371022306211 0.3652613554072911 0 -0.089768302905147479 0.36355943774391392 0 -0.091587997054771109 0.35570325907290168 0 -0.1003371022306211 0.3652613554072911 0 -0.089768302905147479 0.36355943774391392 0 -0.1003371022306211 0.3652613554072911 0 -0.091587997054771109 0.35570325907290168 0 -0.1003371022306211 0.3652613554072911 0 -0.1017038881607014 0.3519379759486575 0 -0.091587997054771109 0.35570325907290168 0 -0.093934845268146314 0.34557119436200701 0 -0.1017038881607014 0.3519379759486575 0 -0.1052980038644945 0.33894621453504031 0 -0.093934845268146314 0.34557119436200701 0 -0.1017038881607014 0.3519379759486575 0 -0.1052980038644945 0.33894621453504031 0 -0.11478268076750379 0.35206942212872511 0 -0.1017038881607014 0.3519379759486575 0 -0.11478268076750379 0.35206942212872511 0 -0.1003371022306211 0.3652613554072911 0 -0.1017038881607014 0.3519379759486575 0 -0.1062038381056192 0.39485867101187172 0 -0.099923345832045846 0.41560824843269573 0 -0.083626118938213853 0.3900771328656143 0 -0.1062038381056192 0.39485867101187172 0 -0.098519283332364274 0.37849628923692291 0 -0.083626118938213853 0.3900771328656143 0 -0.1062038381056192 0.39485867101187172 0 -0.098519283332364274 0.37849628923692291 0 -0.11266105448221971 0.37872484915592258 0 -0.1062038381056192 0.39485867101187172 0 -0.11266105448221971 0.37872484915592258 0 -0.1232329307171732 0.39081748336030991 0 -0.12796394006501099 0.36971016759926228 0 -0.11266105448221971 0.37872484915592258 0 -0.1232329307171732 0.39081748336030991 0 -0.1062038381056192 0.39485867101187172 0 -0.1232329307171732 0.39081748336030991 0 -0.1203746603948761 0.41251815508081607 0 -0.1203746603948761 0.41251815508081607 0 -0.11120801991973291 0.43703896361145472 0 -0.099923345832045846 0.41560824843269573 0 -0.12996922900776969 0.43349752018555421 0 -0.1203746603948761 0.41251815508081607 0 -0.11120801991973291 0.43703896361145472 0 -0.11120801991973291 0.43703896361145472 0 -0.099923345832045846 0.41560824843269573 0 -0.089871677374432093 0.43386133156577228 0 -0.1062038381056192 0.39485867101187172 0 -0.1203746603948761 0.41251815508081607 0 -0.099923345832045846 0.41560824843269573 0 -0.099923345832045846 0.41560824843269573 0 -0.077483934971280144 0.41659482798731462 0 -0.083626118938213853 0.3900771328656143 0 -0.099923345832045846 0.41560824843269573 0 -0.089871677374432093 0.43386133156577228 0 -0.077483934971280144 0.41659482798731462 0 -0.089871677374432093 0.43386133156577228 0 -0.077483934971280144 0.41659482798731462 0 -0.071341751004346421 0.44311252310901511 0 -0.065383313845563409 0.43421625499203198 0 -0.077483934971280144 0.41659482798731462 0 -0.06005183717116052 0.42723826647083418 0 -0.077483934971280144 0.41659482798731462 0 -0.071341751004346421 0.44311252310901511 0 -0.065383313845563409 0.43421625499203198 0 -0.077483934971280144 0.41659482798731462 0 -0.071341751004346421 0.44311252310901511 0 -0.077483934971280144 0.41659482798731462 0 -0.055290111237088747 0.414051890947991 0 -0.06005183717116052 0.42723826647083418 0 -0.077483934971280144 0.41659482798731462 0 -0.066728440221001356 0.40107828336712281 0 -0.055290111237088747 0.414051890947991 0 -0.077483934971280144 0.41659482798731462 0 -0.066728440221001356 0.40107828336712281 0 -0.083626118938213853 0.3900771328656143 0 -0.077483934971280144 0.41659482798731462 0 -0.083626118938213853 0.3900771328656143 0 -0.076315094498247679 0.37414400683445298 0 -0.089768302905147479 0.36355943774391392 0 -0.083626118938213853 0.3900771328656143 0 -0.089768302905147479 0.36355943774391392 0 -0.083626118938213853 0.3900771328656143 0 -0.089768302905147479 0.36355943774391392 0 -0.098519283332364274 0.37849628923692291 0 -0.083626118938213853 0.3900771328656143 0 -0.076315094498247679 0.37414400683445298 0 -0.083626118938213853 0.3900771328656143 0 -0.060850739561521622 0.37996687948229863 0 -0.066728440221001356 0.40107828336712281 0 -0.083626118938213853 0.3900771328656143 0 -0.060850739561521622 0.37996687948229863 0 -0.060850739561521622 0.37996687948229863 0 -0.050801517173141013 0.39941273284734991 0 -0.060850739561521622 0.37996687948229863 0 -0.050801517173141013 0.39941273284734991 0 -0.034080521115206881 0.37851430815574671 0 -0.066728440221001356 0.40107828336712281 0 -0.050801517173141013 0.39941273284734991 0 -0.055290111237088747 0.414051890947991 0 -0.066728440221001356 0.40107828336712281 0 -0.060850739561521622 0.37996687948229863 0 -0.050801517173141013 0.39941273284734991 0 -0.034080521115206881 0.37851430815574671 0 -0.035864910574657072 0.40688370961052162 0 -0.050801517173141013 0.39941273284734991 0 -0.034080521115206881 0.37851430815574671 0 -0.035864910574657072 0.40688370961052162 0 -0.034080521115206881 0.37851430815574671 0 -0.0073143073136647503 0.39745635484607128 0 -0.035864910574657072 0.40688370961052162 0 -0.0045426006561533408 0.37315282105005088 0 -0.034080521115206881 0.37851430815574671 0 -0.0073143073136647503 0.39745635484607128 0 -0.0040682684714412696 0.42417482241573168 0 -0.015782937492065951 0.43554010381058977 0 -0.0049807791518667174 0.44616128958802082 0 -0.0040682684714412696 0.42417482241573168 0 -0.019107250757187139 0.4176064176722506 0 -0.015782937492065951 0.43554010381058977 0 -0.0073143073136647503 0.39745635484607128 0 -0.0040682684714412696 0.42417482241573168 0 -0.019107250757187139 0.4176064176722506 0 -0.019107250757187139 0.4176064176722506 0 -0.02656500704299854 0.4325989637187696 0 -0.035864910574657072 0.40688370961052162 0 -0.0073143073136647503 0.39745635484607128 0 -0.019107250757187139 0.4176064176722506 0 -0.035864910574657072 0.40688370961052162 0 -0.019107250757187139 0.4176064176722506 0 -0.015782937492065951 0.43554010381058977 0 -0.02656500704299854 0.4325989637187696 0 -0.015782937492065951 0.43554010381058977 0 -0.02656500704299854 0.4325989637187696 0 -0.023675093468530781 0.44402859556799201 0 -0.02656500704299854 0.4325989637187696 0 -0.037649300034107269 0.43525311106529641 0 -0.035864910574657072 0.40688370961052162 0 -0.037649300034107269 0.43525311106529641 0 -0.040752294784760362 0.4188585862124013 0 -0.048474037110131409 0.42958265343806668 0 -0.02656500704299854 0.4325989637187696 0 -0.037649300034107269 0.43525311106529641 0 -0.034523192171998299 0.44075821237917812 0 -0.037649300034107269 0.43525311106529641 0 -0.048474037110131409 0.42958265343806668 0 -0.046103454652248188 0.44423988733506659 0 -0.050801517173141013 0.39941273284734991 0 -0.040752294784760362 0.4188585862124013 0 -0.037649300034107269 0.43525311106529641 0 -0.035864910574657072 0.40688370961052162 0 -0.037649300034107269 0.43525311106529641 0 -0.035864910574657072 0.40688370961052162 0 -0.040752294784760362 0.4188585862124013 0 -0.050801517173141013 0.39941273284734991 0 -0.035864910574657072 0.40688370961052162 0 -0.040752294784760362 0.4188585862124013 0 -0.050801517173141013 0.39941273284734991 0 -0.040752294784760362 0.4188585862124013 0 -0.055290111237088747 0.414051890947991 0 -0.040752294784760362 0.4188585862124013 0 -0.055290111237088747 0.414051890947991 0 -0.048474037110131409 0.42958265343806668 0 -0.055290111237088747 0.414051890947991 0 -0.048474037110131409 0.42958265343806668 0 -0.06005183717116052 0.42723826647083418 0 -0.065383313845563409 0.43421625499203198 0 -0.06005183717116052 0.42723826647083418 0 -0.056003875674400627 0.44065376515210219 0 -0.048474037110131409 0.42958265343806668 0 -0.06005183717116052 0.42723826647083418 0 -0.056003875674400627 0.44065376515210219 0 -0.065383313845563409 0.43421625499203198 0 -0.056003875674400627 0.44065376515210219 0 -0.06287247633919027 0.44319610961936079 0 -0.056003875674400627 0.44065376515210219 0 -0.058179896233418182 0.4505115193336458 0 -0.06287247633919027 0.44319610961936079 0 -0.056003875674400627 0.44065376515210219 0 -0.058179896233418182 0.4505115193336458 0 -0.051042475487784678 0.4532538888978343 0 -0.056003875674400627 0.44065376515210219 0 -0.051042475487784678 0.4532538888978343 0 -0.046103454652248188 0.44423988733506659 0 -0.048474037110131409 0.42958265343806668 0 -0.056003875674400627 0.44065376515210219 0 -0.046103454652248188 0.44423988733506659 0 -0.058179896233418182 0.4505115193336458 0 -0.05434534618376094 0.46905332145074818 0 -0.067472613414515326 0.44611472892665049 0 -0.058179896233418182 0.4505115193336458 0 -0.051042475487784678 0.4532538888978343 0 -0.05434534618376094 0.46905332145074818 0 -0.051042475487784678 0.4532538888978343 0 -0.03943368949355746 0.46362251252007131 0 -0.05434534618376094 0.46905332145074818 0 -0.05434534618376094 0.46905332145074818 0 -0.067472613414515326 0.44611472892665049 0 -0.05434534618376094 0.46905332145074818 0 -0.06519956703741267 0.4696302182307156 0 -0.067472613414515326 0.44611472892665049 0 -0.029853594842888988 0.45173519517568939 0 -0.028903662133188238 0.45988144744529869 0 -0.035334068008208652 0.47037910618958828 0 -0.03943368949355746 0.46362251252007131 0 -0.034523192171998299 0.44075821237917812 0 -0.035334068008208652 0.47037910618958828 0 -0.034523192171998299 0.44075821237917812 0 -0.029853594842888988 0.45173519517568939 0 -0.035334068008208652 0.47037910618958828 0 -0.034523192171998299 0.44075821237917812 0 -0.035334068008208652 0.47037910618958828 0 -0.051042475487784678 0.4532538888978343 0 -0.03943368949355746 0.46362251252007131 0 -0.046103454652248188 0.44423988733506659 0 -0.037649300034107269 0.43525311106529641 0 -0.03943368949355746 0.46362251252007131 0 -0.037649300034107269 0.43525311106529641 0 -0.03943368949355746 0.46362251252007131 0 -0.046103454652248188 0.44423988733506659 0 -0.037649300034107269 0.43525311106529641 0 -0.03943368949355746 0.46362251252007131 0 -0.034523192171998299 0.44075821237917812 0 -0.02656500704299854 0.4325989637187696 0 -0.034523192171998299 0.44075821237917812 0 -0.028997254779897039 0.44295092291603899 0 -0.034523192171998299 0.44075821237917812 0 -0.028997254779897039 0.44295092291603899 0 -0.029853594842888988 0.45173519517568939 0 -0.02656500704299854 0.4325989637187696 0 -0.023675093468530781 0.44402859556799201 0 -0.028997254779897039 0.44295092291603899 0 -0.015782937492065951 0.43554010381058977 0 -0.023675093468530781 0.44402859556799201 0 -0.016013913773140868 0.44694064644226822 0 -0.016013913773140868 0.44694064644226822 0 -0.023510305137849359 0.45362514901992429 0 -0.01433842468709174 0.45509930100057761 0 -0.023675093468530781 0.44402859556799201 0 -0.016013913773140868 0.44694064644226822 0 -0.023510305137849359 0.45362514901992429 0 -0.023675093468530781 0.44402859556799201 0 -0.028997254779897039 0.44295092291603899 0 -0.029853594842888988 0.45173519517568939 0 -0.023675093468530781 0.44402859556799201 0 -0.029853594842888988 0.45173519517568939 0 -0.023510305137849359 0.45362514901992429 0 -0.029853594842888988 0.45173519517568939 0 -0.023510305137849359 0.45362514901992429 0 -0.028903662133188238 0.45988144744529869 0 -0.023510305137849359 0.45362514901992429 0 -0.028903662133188238 0.45988144744529869 0 -0.02024587318469839 0.46173495204913262 0 -0.028903662133188238 0.45988144744529869 0 -0.026678086131145081 0.46715933272864602 0 -0.035334068008208652 0.47037910618958828 0 -0.028903662133188238 0.45988144744529869 0 -0.026678086131145081 0.46715933272864602 0 -0.02024587318469839 0.46173495204913262 0 -0.02024587318469839 0.46173495204913262 0 -0.0076889094467738816 0.46478000118795137 0 -0.02035585157214204 0.4698644809123983 0 -0.026678086131145081 0.46715933272864602 0 -0.02024587318469839 0.46173495204913262 0 -0.02035585157214204 0.4698644809123983 0 -0.023510305137849359 0.45362514901992429 0 -0.02024587318469839 0.46173495204913262 0 -0.01433842468709174 0.45509930100057761 0 -0.01433842468709174 0.45509930100057761 0 -0.0076889094467738816 0.46478000118795137 0 -0.0049807791518667174 0.44616128958802082 0 -0.0076889094467738816 0.46478000118795137 0 -0.0049807791518667174 0.44616128958802082 0 0.0067190561514857416 0.45457892549911538 0 -0.02024587318469839 0.46173495204913262 0 -0.01433842468709174 0.45509930100057761 0 -0.0076889094467738816 0.46478000118795137 0 -0.015782937492065951 0.43554010381058977 0 -0.016013913773140868 0.44694064644226822 0 -0.0049807791518667174 0.44616128958802082 0 -0.016013913773140868 0.44694064644226822 0 -0.01433842468709174 0.45509930100057761 0 -0.0049807791518667174 0.44616128958802082 0 -0.01067909684907253 0.5 0 -0.0156062486182605 0.47973855648976349 0 0.0017979149220028511 0.48165652148318122 0 -0.0076889094467738816 0.46478000118795137 0 -0.0156062486182605 0.47973855648976349 0 0.0017979149220028511 0.48165652148318122 0 -0.0076889094467738816 0.46478000118795137 0 -0.0156062486182605 0.47973855648976349 0 -0.02035585157214204 0.4698644809123983 0 -0.0156062486182605 0.47973855648976349 0 -0.02035585157214204 0.4698644809123983 0 -0.025993513961239261 0.47423678715391149 0 -0.026678086131145081 0.46715933272864602 0 -0.025993513961239261 0.47423678715391149 0 -0.035334068008208652 0.47037910618958828 0 -0.026678086131145081 0.46715933272864602 0 -0.02035585157214204 0.4698644809123983 0 -0.025993513961239261 0.47423678715391149 0 -0.025993513961239261 0.47423678715391149 0 -0.029084936037789871 0.4853717228145033 0 -0.035334068008208652 0.47037910618958828 0 -0.0156062486182605 0.47973855648976349 0 -0.025993513961239261 0.47423678715391149 0 -0.029084936037789871 0.4853717228145033 0 -0.01067909684907253 0.5 0 -0.0156062486182605 0.47973855648976349 0 -0.029084936037789871 0.4853717228145033 0 -0.01067909684907253 0.5 0 -0.029084936037789871 0.4853717228145033 0 -0.036144943844418992 0.49999999999999872 0 -0.029084936037789871 0.4853717228145033 0 -0.036144943844418992 0.49999999999999872 0 -0.035334068008208652 0.47037910618958828 0 -0.036144943844418992 0.49999999999999872 0 -0.041218078953006998 0.49199191397484621 0 -0.035334068008208652 0.47037910618958828 0 -0.036144943844418992 0.49999999999999872 0 -0.035334068008208652 0.47037910618958828 0 -0.036144943844418992 0.49999999999999872 0 -0.041218078953006998 0.49199191397484621 0 -0.041218078953006998 0.49199191397484621 0 -0.044078524422878518 0.5 0 -0.041721774609626561 0.49999999999999811 0 -0.036144943844418992 0.49999999999999872 0 -0.041218078953006998 0.49199191397484621 0 -0.041721774609626561 0.49999999999999811 0 -0.041218078953006998 0.49199191397484621 0 -0.041721774609626561 0.49999999999999811 0 -0.03943368949355746 0.46362251252007131 0 -0.041218078953006998 0.49199191397484621 0 -0.035334068008208652 0.47037910618958828 0 -0.03943368949355746 0.46362251252007131 0 -0.041218078953006998 0.49199191397484621 0 -0.03943368949355746 0.46362251252007131 0 -0.041218078953006998 0.49199191397484621 0 -0.05434534618376094 0.46905332145074818 0 -0.0590573830704786 0.49614791335241581 0 -0.06519956703741267 0.4696302182307156 0 -0.041218078953006998 0.49199191397484621 0 -0.05434534618376094 0.46905332145074818 0 -0.054955093811165062 0.4817058417521814 0 -0.0590573830704786 0.49614791335241581 0 -0.06519956703741267 0.4696302182307156 0 -0.041218078953006998 0.49199191397484621 0 -0.05434534618376094 0.46905332145074818 0 -0.054955093811165062 0.4817058417521814 0 -0.05434534618376094 0.46905332145074818 0 -0.054955093811165062 0.4817058417521814 0 -0.06519956703741267 0.4696302182307156 0 -0.041218078953006998 0.49199191397484621 0 -0.054955093811165062 0.4817058417521814 0 -0.0590573830704786 0.49614791335241581 0 -0.041218078953006998 0.49199191397484621 0 -0.044078524422878518 0.5 0 -0.0590573830704786 0.49614791335241581 0 -0.044078524422878518 0.5 0 -0.058165140183702127 0.50000000000000189 0 -0.0590573830704786 0.49614791335241581 0 -0.044078524422878518 0.5 0 -0.0590573830704786 0.49614791335241581 0 -0.058165140183702127 0.50000000000000189 0 -0.0590573830704786 0.49614791335241581 0 -0.0590573830704786 0.49614791335241581 0 -0.069931900117377432 0.48508350430910852 0 -0.081273071594596319 0.49043474393517239 0 -0.0590573830704786 0.49614791335241581 0 -0.082618508942569724 0.5 0 -0.081273071594596319 0.49043474393517239 0 -0.0590573830704786 0.49614791335241581 0 -0.081273071594596319 0.49043474393517239 0 -0.058165140183702127 0.50000000000000189 0 -0.0590573830704786 0.49614791335241581 0 -0.082618508942569724 0.5 0 -0.069931900117377432 0.48508350430910852 0 -0.081273071594596319 0.49043474393517239 0 -0.075958334991466092 0.4792870028873748 0 -0.081273071594596319 0.49043474393517239 0 -0.1034887601187142 0.48472157451792991 0 -0.093912603506258352 0.49353413449259642 0 -0.081273071594596319 0.49043474393517239 0 -0.1034887601187142 0.48472157451792991 0 -0.082618508942569724 0.5 0 -0.081273071594596319 0.49043474393517239 0 -0.093912603506258352 0.49353413449259642 0 -0.081273071594596319 0.49043474393517239 0 -0.088218026713187306 0.47139074348274329 0 -0.075958334991466092 0.4792870028873748 0 -0.081273071594596319 0.49043474393517239 0 -0.088218026713187306 0.47139074348274329 0 -0.1034887601187142 0.48472157451792991 0 -0.088218026713187306 0.47139074348274329 0 -0.075958334991466092 0.4792870028873748 0 -0.06519956703741267 0.4696302182307156 0 -0.0590573830704786 0.49614791335241581 0 -0.069931900117377432 0.48508350430910852 0 -0.06519956703741267 0.4696302182307156 0 -0.069931900117377432 0.48508350430910852 0 -0.075958334991466092 0.4792870028873748 0 -0.06519956703741267 0.4696302182307156 0 -0.088218026713187306 0.47139074348274329 0 -0.06519956703741267 0.4696302182307156 0 -0.071341751004346421 0.44311252310901511 0 -0.06519956703741267 0.4696302182307156 0 -0.071341751004346421 0.44311252310901511 0 -0.06519956703741267 0.4696302182307156 0 -0.067472613414515326 0.44611472892665049 0 -0.071341751004346421 0.44311252310901511 0 -0.06287247633919027 0.44319610961936079 0 -0.067472613414515326 0.44611472892665049 0 -0.071341751004346421 0.44311252310901511 0 -0.065383313845563409 0.43421625499203198 0 -0.06287247633919027 0.44319610961936079 0 -0.071341751004346421 0.44311252310901511 0 -0.058179896233418182 0.4505115193336458 0 -0.06287247633919027 0.44319610961936079 0 -0.067472613414515326 0.44611472892665049 0 -0.089871677374432093 0.43386133156577228 0 -0.071341751004346421 0.44311252310901511 0 -0.097215916971543415 0.45322637380664538 0 -0.088218026713187306 0.47139074348274329 0 -0.071341751004346421 0.44311252310901511 0 -0.097215916971543415 0.45322637380664538 0 -0.097215916971543415 0.45322637380664538 0 -0.1143705817159245 0.47661318690332199 0 -0.088218026713187306 0.47139074348274329 0 -0.097215916971543415 0.45322637380664538 0 -0.1143705817159245 0.47661318690332199 0 -0.097215916971543415 0.45322637380664538 0 -0.1148651275162057 0.45701265773121902 0 -0.1143705817159245 0.47661318690332199 0 -0.11120801991973291 0.43703896361145472 0 -0.097215916971543415 0.45322637380664538 0 -0.1148651275162057 0.45701265773121902 0 -0.11120801991973291 0.43703896361145472 0 -0.089871677374432093 0.43386133156577228 0 -0.097215916971543415 0.45322637380664538 0 -0.1272772443498997 0.45077262286745168 0 -0.11120801991973291 0.43703896361145472 0 -0.1148651275162057 0.45701265773121902 0 -0.1272772443498997 0.45077262286745168 0 -0.12996922900776969 0.43349752018555421 0 -0.11120801991973291 0.43703896361145472 0 -0.12646001653391509 0.46668721438350619 0 -0.1272772443498997 0.45077262286745168 0 -0.1148651275162057 0.45701265773121902 0 -0.12646001653391509 0.46668721438350619 0 -0.1148651275162057 0.45701265773121902 0 -0.1143705817159245 0.47661318690332199 0 -0.13185266503140139 0.48410183447219812 0 -0.12646001653391509 0.46668721438350619 0 -0.1143705817159245 0.47661318690332199 0 -0.1143705817159245 0.47661318690332199 0 -0.1141141164990952 0.49033369035531288 0 -0.1034887601187142 0.48472157451792991 0 -0.13152524646030489 0.49999999999999889 0 -0.1143705817159245 0.47661318690332199 0 -0.1141141164990952 0.49033369035531288 0 -0.13152524646030489 0.49999999999999889 0 -0.1143705817159245 0.47661318690332199 0 -0.13152524646030489 0.49999999999999889 0 -0.1141141164990952 0.49033369035531288 0 -0.10707187770143731 0.5 0 -0.082618508942569724 0.5 0 -0.10707187770143731 0.5 0 -0.093912603506258352 0.49353413449259642 0 -0.1141141164990952 0.49033369035531288 0 -0.1034887601187142 0.48472157451792991 0 -0.10707187770143731 0.5 0 -0.1034887601187142 0.48472157451792991 0 -0.10707187770143731 0.5 0 -0.093912603506258352 0.49353413449259642 0 -0.088218026713187306 0.47139074348274329 0 -0.1143705817159245 0.47661318690332199 0 -0.1034887601187142 0.48472157451792991 0 -0.1661971227857981 0.078557615014028415 0 -0.1696000463671872 0.090486790117669247 0 -0.15052620736169109 0.089586875673122943 0 -0.1661971227857981 0.078557615014028415 0 -0.1696000463671872 0.090486790117669247 0 -0.17322377873682129 0.082178747011534048 0 -0.1661971227857981 0.078557615014028415 0 -0.17466744690556341 0.072210934782529768 0 -0.16573689351737059 0.058418533155446262 0 -0.1661971227857981 0.078557615014028415 0 -0.15022012338656149 0.071613750069491541 0 -0.16573689351737059 0.058418533155446262 0 -0.1661971227857981 0.078557615014028415 0 -0.16573689351737059 0.058418533155446262 0 -0.1661971227857981 0.078557615014028415 0 -0.17466744690556341 0.072210934782529768 0 -0.17322377873682129 0.082178747011534048 0 -0.18195787630629109 0.089405519221786023 0 -0.18395297478579681 0.061834440741264707 0 -0.18904825503125969 0.074596579277287578 0 -0.17466744690556341 0.072210934782529768 0 -0.18195787630629109 0.089405519221786023 0 -0.18395297478579681 0.061834440741264707 0 -0.17466744690556341 0.072210934782529768 0 -0.16573689351737059 0.058418533155446262 0 -0.18395297478579681 0.061834440741264707 0 -0.18195787630629109 0.089405519221786023 0 -0.18395297478579681 0.061834440741264707 0 -0.17466744690556341 0.072210934782529768 0 -0.17322377873682129 0.082178747011534048 0 -0.18195787630629109 0.089405519221786023 0 -0.18195787630629109 0.089405519221786023 0 -0.1876203062103812 0.085154091553751227 0 -0.18904825503125969 0.074596579277287578 0 -0.1696000463671872 0.090486790117669247 0 -0.18195787630629109 0.089405519221786023 0 -0.17430669802228721 0.10127932723892839 0 -0.1696000463671872 0.090486790117669247 0 -0.17322377873682129 0.082178747011534048 0 -0.18195787630629109 0.089405519221786023 0 -0.18195787630629109 0.089405519221786023 0 -0.18957189966287441 0.093117068594800498 0 -0.1876203062103812 0.085154091553751227 0 -0.18195787630629109 0.089405519221786023 0 -0.17996277782678469 0.1169765977023071 0 -0.18195787630629109 0.089405519221786023 0 -0.17996277782678469 0.1169765977023071 0 -0.18751175784101981 0.1019174488126332 0 -0.18195787630629109 0.089405519221786023 0 -0.17430669802228721 0.10127932723892839 0 -0.17996277782678469 0.1169765977023071 0 -0.18195787630629109 0.089405519221786023 0 -0.18957189966287441 0.093117068594800498 0 -0.18751175784101981 0.1019174488126332 0 -0.17430669802228721 0.10127932723892839 0 -0.17996277782678469 0.1169765977023071 0 -0.17008507433928949 0.1129307387472854 0 -0.18399944287813769 0.1243110413724456 0 -0.17996277782678469 0.1169765977023071 0 -0.1915165139578541 0.12062561452203339 0 -0.17996277782678469 0.1169765977023071 0 -0.19070674849365871 0.1098036214123289 0 -0.18751175784101981 0.1019174488126332 0 -0.17996277782678469 0.1169765977023071 0 -0.1915165139578541 0.12062561452203339 0 -0.19070674849365871 0.1098036214123289 0 -0.18399944287813769 0.1243110413724456 0 -0.17996277782678469 0.1169765977023071 0 -0.17238658245394531 0.12545986635763931 0 -0.17996277782678469 0.1169765977023071 0 -0.17008507433928949 0.1129307387472854 0 -0.17238658245394531 0.12545986635763931 0 -0.17008507433928949 0.1129307387472854 0 -0.1609078447057396 0.11821543189307759 0 -0.17238658245394531 0.12545986635763931 0 -0.17008507433928949 0.1129307387472854 0 -0.1609078447057396 0.11821543189307759 0 -0.16286146868769069 0.1027224705444747 0 -0.1696000463671872 0.090486790117669247 0 -0.16286146868769069 0.1027224705444747 0 -0.15052620736169109 0.089586875673122943 0 -0.1696000463671872 0.090486790117669247 0 -0.17430669802228721 0.10127932723892839 0 -0.16286146868769069 0.1027224705444747 0 -0.17430669802228721 0.10127932723892839 0 -0.17008507433928949 0.1129307387472854 0 -0.16286146868769069 0.1027224705444747 0 -0.14483809316289209 0.10788626194089659 0 -0.12953394143352689 0.0962220954654186 0 -0.15052620736169109 0.089586875673122943 0 -0.16286146868769069 0.1027224705444747 0 -0.14483809316289209 0.10788626194089659 0 -0.15052620736169109 0.089586875673122943 0 -0.1609078447057396 0.11821543189307759 0 -0.14483809316289209 0.10788626194089659 0 -0.146422009359223 0.12588572965013881 0 -0.1609078447057396 0.11821543189307759 0 -0.16286146868769069 0.1027224705444747 0 -0.14483809316289209 0.10788626194089659 0 -0.14483809316289209 0.10788626194089659 0 -0.13007033986284439 0.11468940196259191 0 -0.146422009359223 0.12588572965013881 0 -0.13007033986284439 0.11468940196259191 0 -0.146422009359223 0.12588572965013881 0 -0.12794092556623851 0.1308087954511595 0 -0.14483809316289209 0.10788626194089659 0 -0.13007033986284439 0.11468940196259191 0 -0.12953394143352689 0.0962220954654186 0 -0.12953394143352689 0.0962220954654186 0 -0.15052620736169109 0.089586875673122943 0 -0.13065787682797539 0.074490167233760132 0 -0.15052620736169109 0.089586875673122943 0 -0.15022012338656149 0.071613750069491541 0 -0.13065787682797539 0.074490167233760132 0 -0.1661971227857981 0.078557615014028415 0 -0.15052620736169109 0.089586875673122943 0 -0.15022012338656149 0.071613750069491541 0 -0.15022012338656149 0.071613750069491541 0 -0.13065787682797539 0.074490167233760132 0 -0.14515982565357641 0.054559889730765067 0 -0.13065787682797539 0.074490167233760132 0 -0.13896875645631149 0.050392457974293377 0 -0.13065787682797539 0.074490167233760132 0 -0.13896875645631149 0.050392457974293377 0 -0.12525322860273669 0.054683915403429713 0 -0.13065787682797539 0.074490167233760132 0 -0.13896875645631149 0.050392457974293377 0 -0.14515982565357641 0.054559889730765067 0 -0.13896875645631149 0.050392457974293377 0 -0.12525322860273669 0.054683915403429713 0 -0.13112496187718059 0.044324123850062493 0 -0.12525322860273669 0.054683915403429713 0 -0.13112496187718059 0.044324123850062493 0 -0.11947386029792641 0.044699115915308937 0 -0.13112496187718059 0.044324123850062493 0 -0.13207584708741921 0.037796525428943371 0 -0.1241829150729519 0.03733201807985212 0 -0.13207584708741921 0.037796525428943371 0 -0.131833608700272 0.030524403571461269 0 -0.1241829150729519 0.03733201807985212 0 -0.131833608700272 0.030524403571461269 0 -0.12279062167827851 0.029362630448722959 0 -0.1241829150729519 0.03733201807985212 0 -0.13207584708741921 0.037796525428943371 0 -0.13748289047400489 0.031740414346278022 0 -0.131833608700272 0.030524403571461269 0 -0.13207584708741921 0.037796525428943371 0 -0.1376660792386305 0.038226945630428777 0 -0.13748289047400489 0.031740414346278022 0 -0.13896875645631149 0.050392457974293377 0 -0.13112496187718059 0.044324123850062493 0 -0.1376660792386305 0.038226945630428777 0 -0.13112496187718059 0.044324123850062493 0 -0.13207584708741921 0.037796525428943371 0 -0.1376660792386305 0.038226945630428777 0 -0.13896875645631149 0.050392457974293377 0 -0.14671443159904121 0.045399133558557639 0 -0.1472796360846475 0.026294748714826701 0 -0.14671443159904121 0.045399133558557639 0 -0.15124688017340179 0.039609834018222753 0 -0.1472796360846475 0.026294748714826701 0 -0.13896875645631149 0.050392457974293377 0 -0.1376660792386305 0.038226945630428777 0 -0.1472796360846475 0.026294748714826701 0 -0.13896875645631149 0.050392457974293377 0 -0.1472796360846475 0.026294748714826701 0 -0.1376660792386305 0.038226945630428777 0 -0.13748289047400489 0.031740414346278022 0 -0.1472796360846475 0.026294748714826701 0 -0.15377806982209841 0.031910215931445288 0 -0.15124688017340179 0.039609834018222753 0 -0.1472796360846475 0.026294748714826701 0 -0.14671443159904121 0.045399133558557639 0 -0.15124688017340179 0.039609834018222753 0 -0.15554430400163299 0.04845401766222325 0 -0.14671443159904121 0.045399133558557639 0 -0.15554430400163299 0.04845401766222325 0 -0.14515982565357641 0.054559889730765067 0 -0.15022012338656149 0.071613750069491541 0 -0.14515982565357641 0.054559889730765067 0 -0.16573689351737059 0.058418533155446262 0 -0.15554430400163299 0.04845401766222325 0 -0.14515982565357641 0.054559889730765067 0 -0.16573689351737059 0.058418533155446262 0 -0.14515982565357641 0.054559889730765067 0 -0.16573689351737059 0.058418533155446262 0 -0.13896875645631149 0.050392457974293377 0 -0.14671443159904121 0.045399133558557639 0 -0.14515982565357641 0.054559889730765067 0 -0.13082697262089341 0.0013823364580261221 0 -0.1360887568453997 0.017432280465049261 0 -0.13082697262089341 0.0013823364580261221 0 -0.13871558333384901 0.0091914915382712535 0 -0.1360887568453997 0.017432280465049261 0 -0.13082697262089341 0.0013823364580261221 0 -0.1360887568453997 0.017432280465049261 0 -0.1198791301280094 0.01256548056862198 0 -0.13082697262089341 0.0013823364580261221 0 -0.13871558333384901 0.0091914915382712535 0 -0.1430733723094596 0.0027738663656623908 0 -0.13871558333384901 0.0091914915382712535 0 -0.1360887568453997 0.017432280465049261 0 -0.1448732315596436 0.015177482864347251 0 -0.1360887568453997 0.017432280465049261 0 -0.13869379842726631 0.02537840097113014 0 -0.1360887568453997 0.017432280465049261 0 -0.13869379842726631 0.02537840097113014 0 -0.1448732315596436 0.015177482864347251 0 -0.1360887568453997 0.017432280465049261 0 -0.1448732315596436 0.015177482864347251 0 -0.1360887568453997 0.017432280465049261 0 -0.131833608700272 0.030524403571461269 0 -0.12279062167827851 0.029362630448722959 0 -0.13748289047400489 0.031740414346278022 0 -0.131833608700272 0.030524403571461269 0 -0.13869379842726631 0.02537840097113014 0 -0.1360887568453997 0.017432280465049261 0 -0.131833608700272 0.030524403571461269 0 -0.13869379842726631 0.02537840097113014 0 -0.13748289047400489 0.031740414346278022 0 -0.13869379842726631 0.02537840097113014 0 -0.1472796360846475 0.026294748714826701 0 -0.15377806982209841 0.031910215931445288 0 -0.1472796360846475 0.026294748714826701 0 -0.1561335750157348 0.026808813557556051 0 -0.1472796360846475 0.026294748714826701 0 -0.1561335750157348 0.026808813557556051 0 -0.1579328502657682 0.018159964467206611 0 -0.13869379842726631 0.02537840097113014 0 -0.1472796360846475 0.026294748714826701 0 -0.1448732315596436 0.015177482864347251 0 -0.1472796360846475 0.026294748714826701 0 -0.15559051571298349 0.0021970394553601428 0 -0.1472796360846475 0.026294748714826701 0 -0.15559051571298349 0.0021970394553601428 0 -0.1579328502657682 0.018159964467206611 0 -0.1472796360846475 0.026294748714826701 0 -0.1448732315596436 0.015177482864347251 0 -0.15559051571298349 0.0021970394553601428 0 -0.13871558333384901 0.0091914915382712535 0 -0.1448732315596436 0.015177482864347251 0 -0.1430733723094596 0.0027738663656623908 0 -0.14682546129531099 -0.0042659812654107041 0 -0.15559051571298349 0.0021970394553601428 0 -0.1430733723094596 0.0027738663656623908 0 -0.1448732315596436 0.015177482864347251 0 -0.15559051571298349 0.0021970394553601428 0 -0.1430733723094596 0.0027738663656623908 0 -0.15559051571298349 0.0021970394553601428 0 -0.1645132280666701 0.0048723978490777626 0 -0.1579328502657682 0.018159964467206611 0 -0.17142969566451249 -0.002320172152788679 0 -0.1645132280666701 0.0048723978490777626 0 -0.17409539937870841 0.0038983075190149349 0 -0.1645132280666701 0.0048723978490777626 0 -0.17573815155413611 0.010906618706079859 0 -0.17409539937870841 0.0038983075190149349 0 -0.1645132280666701 0.0048723978490777626 0 -0.1651250607920203 0.031645465502262007 0 -0.1645132280666701 0.0048723978490777626 0 -0.1579328502657682 0.018159964467206611 0 -0.1651250607920203 0.031645465502262007 0 -0.1645132280666701 0.0048723978490777626 0 -0.17573815155413611 0.010906618706079859 0 -0.1651250607920203 0.031645465502262007 0 -0.1561335750157348 0.026808813557556051 0 -0.1579328502657682 0.018159964467206611 0 -0.1651250607920203 0.031645465502262007 0 -0.15377806982209841 0.031910215931445288 0 -0.1561335750157348 0.026808813557556051 0 -0.1651250607920203 0.031645465502262007 0 -0.18189124422637781 0.014762174366335829 0 -0.18601038568932329 0.033402241493726878 0 -0.18806779659284831 0.0049700422461890943 0 -0.17719121056546441 0.022679125017101141 0 -0.18189124422637781 0.014762174366335829 0 -0.18601038568932329 0.033402241493726878 0 -0.17719121056546441 0.022679125017101141 0 -0.17573815155413611 0.010906618706079859 0 -0.1651250607920203 0.031645465502262007 0 -0.18601038568932329 0.033402241493726878 0 -0.18806779659284831 0.0049700422461890943 0 -0.17719121056546441 0.022679125017101141 0 -0.1651250607920203 0.031645465502262007 0 -0.18601038568932329 0.033402241493726878 0 -0.17719121056546441 0.022679125017101141 0 -0.17573815155413611 0.010906618706079859 0 -0.18189124422637781 0.014762174366335829 0 -0.17573815155413611 0.010906618706079859 0 -0.17889033448411179 0.0079964195331972236 0 -0.18189124422637781 0.014762174366335829 0 -0.18189124422637781 0.014762174366335829 0 -0.18273711566350151 0.0072184972263333383 0 -0.18806779659284831 0.0049700422461890943 0 -0.17889033448411179 0.0079964195331972236 0 -0.18189124422637781 0.014762174366335829 0 -0.18273711566350151 0.0072184972263333383 0 -0.18273711566350151 0.0072184972263333383 0 -0.18446886122977971 0.003824433103355296 0 -0.179989761597835 0.003196499848222149 0 -0.17889033448411179 0.0079964195331972236 0 -0.18273711566350151 0.0072184972263333383 0 -0.179989761597835 0.003196499848222149 0 -0.18273711566350151 0.0072184972263333383 0 -0.18446886122977971 0.003824433103355296 0 -0.18806779659284831 0.0049700422461890943 0 -0.18346386537279349 -0.001647984405783556 0 -0.18446886122977971 0.003824433103355296 0 -0.18806779659284831 0.0049700422461890943 0 -0.18346386537279349 -0.001647984405783556 0 -0.18446886122977971 0.003824433103355296 0 -0.179989761597835 0.003196499848222149 0 -0.17622003680225889 -0.0018283141660710069 0 -0.179989761597835 0.003196499848222149 0 -0.17409539937870841 0.0038983075190149349 0 -0.17889033448411179 0.0079964195331972236 0 -0.179989761597835 0.003196499848222149 0 -0.17409539937870841 0.0038983075190149349 0 -0.17573815155413611 0.010906618706079859 0 -0.17889033448411179 0.0079964195331972236 0 -0.17409539937870841 0.0038983075190149349 0 -0.15554430400163299 0.04845401766222325 0 -0.16573689351737059 0.058418533155446262 0 -0.1651250607920203 0.031645465502262007 0 -0.16573689351737059 0.058418533155446262 0 -0.1651250607920203 0.031645465502262007 0 -0.16573689351737059 0.058418533155446262 0 -0.1651250607920203 0.031645465502262007 0 -0.17520632869612771 0.046325170223174991 0 -0.15124688017340179 0.039609834018222753 0 -0.15554430400163299 0.04845401766222325 0 -0.1651250607920203 0.031645465502262007 0 -0.15377806982209841 0.031910215931445288 0 -0.15124688017340179 0.039609834018222753 0 -0.1651250607920203 0.031645465502262007 0 -0.1651250607920203 0.031645465502262007 0 -0.17520632869612771 0.046325170223174991 0 -0.18601038568932329 0.033402241493726878 0 -0.18601038568932329 0.033402241493726878 0 -0.18395297478579681 0.061834440741264707 0 -0.16573689351737059 0.058418533155446262 0 -0.18395297478579681 0.061834440741264707 0 -0.17520632869612771 0.046325170223174991 0 -0.18601038568932329 0.033402241493726878 0 -0.18395297478579681 0.061834440741264707 0 -0.16573689351737059 0.058418533155446262 0 -0.17520632869612771 0.046325170223174991 0 -0.18395297478579681 0.061834440741264707 0 -0.18601038568932329 0.033402241493726878 0 -0.18395297478579681 0.061834440741264707 0 -0.19432427019888721 0.047717368901783637 0 -0.18395297478579681 0.061834440741264707 0 -0.19432427019888721 0.047717368901783637 0 -0.2004398973288736 0.064926093822507414 0 -0.19432427019888721 0.047717368901783637 0 -0.20919739655702321 0.05110765976474177 0 -0.2004398973288736 0.064926093822507414 0 -0.19432427019888721 0.047717368901783637 0 -0.20919739655702321 0.05110765976474177 0 -0.20302794047968459 0.023081294018651489 0 -0.18601038568932329 0.033402241493726878 0 -0.19432427019888721 0.047717368901783637 0 -0.20302794047968459 0.023081294018651489 0 -0.20919739655702321 0.05110765976474177 0 -0.20302794047968459 0.023081294018651489 0 -0.2186503457585714 0.036191877097800897 0 -0.20919739655702321 0.05110765976474177 0 -0.20302794047968459 0.023081294018651489 0 -0.2186503457585714 0.036191877097800897 0 -0.20919739655702321 0.05110765976474177 0 -0.2186503457585714 0.036191877097800897 0 -0.20919739655702321 0.05110765976474177 0 -0.2239393004417794 0.057035151505099642 0 -0.20919739655702321 0.05110765976474177 0 -0.21274729391246061 0.067233995765417526 0 -0.20919739655702321 0.05110765976474177 0 -0.2239393004417794 0.057035151505099642 0 -0.21274729391246061 0.067233995765417526 0 -0.20919739655702321 0.05110765976474177 0 -0.21274729391246061 0.067233995765417526 0 -0.2004398973288736 0.064926093822507414 0 -0.20919739655702321 0.05110765976474177 0 -0.2004398973288736 0.064926093822507414 0 -0.19685848440234599 -0.0049450717274387504 0 -0.20302794047968459 0.023081294018651489 0 -0.19685848440234599 -0.0049450717274387504 0 -0.18806779659284831 0.0049700422461890943 0 -0.20302794047968459 0.023081294018651489 0 -0.19685848440234599 -0.0049450717274387504 0 -0.18806779659284831 0.0049700422461890943 0 -0.18601038568932329 0.033402241493726878 0 -0.18806779659284831 0.0049700422461890943 0 -0.20302794047968459 0.023081294018651489 0 -0.2186503457585714 0.036191877097800897 0 -0.20302794047968459 0.023081294018651489 0 -0.21578872032528251 0.017709636277511719 0 -0.20302794047968459 0.023081294018651489 0 -0.21578872032528251 0.017709636277511719 0 -0.21019557575314421 0.006394909686725795 0 -0.19685848440234599 -0.0049450717274387504 0 -0.20302794047968459 0.023081294018651489 0 -0.21019557575314421 0.006394909686725795 0 -0.21578872032528251 0.017709636277511719 0 -0.21019557575314421 0.006394909686725795 0 -0.22381138727050781 0.002909525995360538 0 -0.2120469589708838 -0.0066311205522630702 0 -0.21019557575314421 0.006394909686725795 0 -0.22381138727050781 0.002909525995360538 0 -0.22381138727050781 0.002909525995360538 0 -0.22810329496012 0.021276094430860339 0 -0.24156246817162111 3.8901865961206428e-05 0 -0.21578872032528251 0.017709636277511719 0 -0.22381138727050781 0.002909525995360538 0 -0.22810329496012 0.021276094430860339 0 -0.22381138727050781 0.002909525995360538 0 -0.22810329496012 0.021276094430860339 0 -0.2186503457585714 0.036191877097800897 0 -0.21578872032528251 0.017709636277511719 0 -0.22810329496012 0.021276094430860339 0 -0.2186503457585714 0.036191877097800897 0 -0.22810329496012 0.021276094430860339 0 -0.22810329496012 0.021276094430860339 0 -0.2482379394587918 0.029714206062630741 0 -0.2430094494313754 0.01631945997984989 0 -0.25413409513496882 0.01424863755994726 0 -0.2482379394587918 0.029714206062630741 0 -0.2430094494313754 0.01631945997984989 0 -0.25413409513496882 0.01424863755994726 0 -0.2430094494313754 0.01631945997984989 0 -0.24156246817162111 3.8901865961206428e-05 0 -0.22810329496012 0.021276094430860339 0 -0.2430094494313754 0.01631945997984989 0 -0.24156246817162111 3.8901865961206428e-05 0 -0.22810329496012 0.021276094430860339 0 -0.24156246817162111 3.8901865961206428e-05 0 -0.2239393004417794 0.057035151505099642 0 -0.23392784627468649 0.046201378957349278 0 -0.23975239758925179 0.071126663483838351 0 -0.2186503457585714 0.036191877097800897 0 -0.2239393004417794 0.057035151505099642 0 -0.23392784627468649 0.046201378957349278 0 -0.22810329496012 0.021276094430860339 0 -0.23392784627468649 0.046201378957349278 0 -0.2186503457585714 0.036191877097800897 0 -0.22810329496012 0.021276094430860339 0 -0.23392784627468649 0.046201378957349278 0 -0.25276717720812231 0.044552257542074973 0 -0.2482379394587918 0.029714206062630741 0 -0.23392784627468649 0.046201378957349278 0 -0.22810329496012 0.021276094430860339 0 -0.2482379394587918 0.029714206062630741 0 -0.23392784627468649 0.046201378957349278 0 -0.23392784627468649 0.046201378957349278 0 -0.24630962701273121 0.067782376752368534 0 -0.23975239758925179 0.071126663483838351 0 -0.25116776642898098 0.057890226552889897 0 -0.25276717720812231 0.044552257542074973 0 -0.23392784627468649 0.046201378957349278 0 -0.23392784627468649 0.046201378957349278 0 -0.23975239758925179 0.071126663483838351 0 -0.25116776642898098 0.057890226552889897 0 -0.23392784627468649 0.046201378957349278 0 -0.24630962701273121 0.067782376752368534 0 -0.25272998449871309 0.067992264760302415 0 -0.24630962701273121 0.067782376752368534 0 -0.24799635201148201 0.073901566263619864 0 -0.24799635201148201 0.073901566263619864 0 -0.243266688756439 0.074511835008774494 0 -0.24347293784451701 0.082722003339298661 0 -0.25190428147771932 0.073234116385534689 0 -0.24799635201148201 0.073901566263619864 0 -0.24347293784451701 0.082722003339298661 0 -0.24630962701273121 0.067782376752368534 0 -0.24799635201148201 0.073901566263619864 0 -0.243266688756439 0.074511835008774494 0 -0.24630962701273121 0.067782376752368534 0 -0.243266688756439 0.074511835008774494 0 -0.23975239758925179 0.071126663483838351 0 -0.23975239758925179 0.071126663483838351 0 -0.22936052255868389 0.070349333961449836 0 -0.23417457342052941 0.075843321837321981 0 -0.243266688756439 0.074511835008774494 0 -0.23880212932421291 0.077026565204747086 0 -0.24347293784451701 0.082722003339298661 0 -0.243266688756439 0.074511835008774494 0 -0.23975239758925179 0.071126663483838351 0 -0.23880212932421291 0.077026565204747086 0 -0.23975239758925179 0.071126663483838351 0 -0.23880212932421291 0.077026565204747086 0 -0.23417457342052941 0.075843321837321981 0 -0.25766879115762881 0.085346879766204309 0 -0.24347293784451701 0.082722003339298661 0 -0.2379383999704123 0.099852136835595309 0 -0.23880212932421291 0.077026565204747086 0 -0.24347293784451701 0.082722003339298661 0 -0.23841998103028911 0.081787689146604198 0 -0.23880212932421291 0.077026565204747086 0 -0.23841998103028911 0.081787689146604198 0 -0.23417457342052941 0.075843321837321981 0 -0.24347293784451701 0.082722003339298661 0 -0.23841998103028911 0.081787689146604198 0 -0.23841998103028911 0.081787689146604198 0 -0.2263927576408894 0.080950786320467455 0 -0.21993642918294579 0.099892520595323886 0 -0.2263927576408894 0.080950786320467455 0 -0.21634186154770299 0.083563258180370761 0 -0.21993642918294579 0.099892520595323886 0 -0.24347293784451701 0.082722003339298661 0 -0.21993642918294579 0.099892520595323886 0 -0.24347293784451701 0.082722003339298661 0 -0.23841998103028911 0.081787689146604198 0 -0.21993642918294579 0.099892520595323886 0 -0.23841998103028911 0.081787689146604198 0 -0.2263927576408894 0.080950786320467455 0 -0.23417457342052941 0.075843321837321981 0 -0.2263927576408894 0.080950786320467455 0 -0.2206779897428123 0.0749092826482608 0 -0.21634186154770299 0.083563258180370761 0 -0.22936052255868389 0.070349333961449836 0 -0.21274729391246061 0.067233995765417526 0 -0.22936052255868389 0.070349333961449836 0 -0.2206779897428123 0.0749092826482608 0 -0.21274729391246061 0.067233995765417526 0 -0.2239393004417794 0.057035151505099642 0 -0.23975239758925179 0.071126663483838351 0 -0.22936052255868389 0.070349333961449836 0 -0.2239393004417794 0.057035151505099642 0 -0.22936052255868389 0.070349333961449836 0 -0.21274729391246061 0.067233995765417526 0 -0.2263927576408894 0.080950786320467455 0 -0.22936052255868389 0.070349333961449836 0 -0.23417457342052941 0.075843321837321981 0 -0.2263927576408894 0.080950786320467455 0 -0.22936052255868389 0.070349333961449836 0 -0.2206779897428123 0.0749092826482608 0 -0.21274729391246061 0.067233995765417526 0 -0.21634186154770299 0.083563258180370761 0 -0.21274729391246061 0.067233995765417526 0 -0.21634186154770299 0.083563258180370761 0 -0.20473296819448689 0.079316544454668333 0 -0.2206779897428123 0.0749092826482608 0 -0.21274729391246061 0.067233995765417526 0 -0.21634186154770299 0.083563258180370761 0 -0.21274729391246061 0.067233995765417526 0 -0.2004398973288736 0.064926093822507414 0 -0.21274729391246061 0.067233995765417526 0 -0.20473296819448689 0.079316544454668333 0 -0.2004398973288736 0.064926093822507414 0 -0.21634186154770299 0.083563258180370761 0 -0.21993642918294579 0.099892520595323886 0 -0.21634186154770299 0.083563258180370761 0 -0.2090166835931582 0.090043566635817834 0 -0.21993642918294579 0.099892520595323886 0 -0.2090166835931582 0.090043566635817834 0 -0.20473296819448689 0.079316544454668333 0 -0.19782004329977801 0.089496679051309327 0 -0.2090166835931582 0.090043566635817834 0 -0.19782004329977801 0.089496679051309327 0 -0.2062521157408774 0.09794883089741685 0 -0.21634186154770299 0.083563258180370761 0 -0.2090166835931582 0.090043566635817834 0 -0.20473296819448689 0.079316544454668333 0 -0.20473296819448689 0.079316544454668333 0 -0.19765330375837989 0.07972335222055929 0 -0.19782004329977801 0.089496679051309327 0 -0.19782004329977801 0.089496679051309327 0 -0.18957189966287441 0.093117068594800498 0 -0.1876203062103812 0.085154091553751227 0 -0.19765330375837989 0.07972335222055929 0 -0.19782004329977801 0.089496679051309327 0 -0.1876203062103812 0.085154091553751227 0 -0.18395297478579681 0.061834440741264707 0 -0.2004398973288736 0.064926093822507414 0 -0.1876203062103812 0.085154091553751227 0 -0.18904825503125969 0.074596579277287578 0 -0.2004398973288736 0.064926093822507414 0 -0.18395297478579681 0.061834440741264707 0 -0.18904825503125969 0.074596579277287578 0 -0.2004398973288736 0.064926093822507414 0 -0.1876203062103812 0.085154091553751227 0 -0.2004398973288736 0.064926093822507414 0 -0.19765330375837989 0.07972335222055929 0 -0.1876203062103812 0.085154091553751227 0 -0.2004398973288736 0.064926093822507414 0 -0.20473296819448689 0.079316544454668333 0 -0.19765330375837989 0.07972335222055929 0 -0.2004398973288736 0.064926093822507414 0 -0.1915165139578541 0.12062561452203339 0 -0.20572647157039989 0.11025906755867849 0 -0.20573516551881479 0.1273700891938872 0 -0.1915165139578541 0.12062561452203339 0 -0.20572647157039989 0.11025906755867849 0 -0.1915165139578541 0.12062561452203339 0 -0.19070674849365871 0.1098036214123289 0 -0.20572647157039989 0.11025906755867849 0 -0.19070674849365871 0.1098036214123289 0 -0.18751175784101981 0.1019174488126332 0 -0.1953594869154904 0.1002844371319435 0 -0.18957189966287441 0.093117068594800498 0 -0.18751175784101981 0.1019174488126332 0 -0.1953594869154904 0.1002844371319435 0 -0.19782004329977801 0.089496679051309327 0 -0.18957189966287441 0.093117068594800498 0 -0.1953594869154904 0.1002844371319435 0 -0.19782004329977801 0.089496679051309327 0 -0.1953594869154904 0.1002844371319435 0 -0.2062521157408774 0.09794883089741685 0 -0.19070674849365871 0.1098036214123289 0 -0.1953594869154904 0.1002844371319435 0 -0.20572647157039989 0.11025906755867849 0 -0.1953594869154904 0.1002844371319435 0 -0.2062521157408774 0.09794883089741685 0 -0.20572647157039989 0.11025906755867849 0 -0.2062521157408774 0.09794883089741685 0 -0.20572647157039989 0.11025906755867849 0 -0.21993642918294579 0.099892520595323886 0 -0.20572647157039989 0.11025906755867849 0 -0.22371639989274039 0.11706402490529801 0 -0.21993642918294579 0.099892520595323886 0 -0.2090166835931582 0.090043566635817834 0 -0.2062521157408774 0.09794883089741685 0 -0.21993642918294579 0.099892520595323886 0 -0.20572647157039989 0.11025906755867849 0 -0.21993642918294579 0.099892520595323886 0 -0.20572647157039989 0.11025906755867849 0 -0.22371639989274039 0.11706402490529801 0 -0.20573516551881479 0.1273700891938872 0 -0.22371639989274039 0.11706402490529801 0 -0.23803867693615771 0.1218014097798229 0 -0.22799041247121521 0.13469512599485131 0 -0.22371639989274039 0.11706402490529801 0 -0.2379383999704123 0.099852136835595309 0 -0.23803867693615771 0.1218014097798229 0 -0.22371639989274039 0.11706402490529801 0 -0.21993642918294579 0.099892520595323886 0 -0.24347293784451701 0.082722003339298661 0 -0.21993642918294579 0.099892520595323886 0 -0.2379383999704123 0.099852136835595309 0 -0.22371639989274039 0.11706402490529801 0 -0.21993642918294579 0.099892520595323886 0 -0.2379383999704123 0.099852136835595309 0 -0.25234779532188129 0.1106429620443504 0 -0.25766879115762881 0.085346879766204309 0 -0.2379383999704123 0.099852136835595309 0 -0.25234779532188129 0.1106429620443504 0 -0.23803867693615771 0.1218014097798229 0 -0.24702679948613401 0.13593904432249651 0 -0.25234779532188129 0.1106429620443504 0 -0.24702679948613401 0.13593904432249651 0 -0.25234779532188129 0.1106429620443504 0 -0.2379383999704123 0.099852136835595309 0 -0.23803867693615771 0.1218014097798229 0 -0.23803867693615771 0.1218014097798229 0 -0.24702679948613401 0.13593904432249651 0 -0.22799041247121521 0.13469512599485131 0 -0.24702679948613401 0.13593904432249651 0 -0.22799041247121521 0.13469512599485131 0 -0.23256472405461259 0.14843013697506799 0 -0.22371639989274039 0.11706402490529801 0 -0.22799041247121521 0.13469512599485131 0 -0.20573516551881479 0.1273700891938872 0 -0.23256472405461259 0.14843013697506799 0 -0.22358061803701171 0.16225992021088251 0 -0.21367954882749951 0.14604350555839521 0 -0.22799041247121521 0.13469512599485131 0 -0.23256472405461259 0.14843013697506799 0 -0.21367954882749951 0.14604350555839521 0 -0.24702679948613401 0.13593904432249651 0 -0.23256472405461259 0.14843013697506799 0 -0.24798754635115419 0.15984541518354681 0 -0.23256472405461259 0.14843013697506799 0 -0.24798754635115419 0.15984541518354681 0 -0.22358061803701171 0.16225992021088251 0 -0.25838158176301529 0.17966884935518021 0 -0.24798754635115419 0.15984541518354681 0 -0.24284285117188789 0.17505671916914031 0 -0.24798754635115419 0.15984541518354681 0 -0.24284285117188789 0.17505671916914031 0 -0.22358061803701171 0.16225992021088251 0 -0.24284285117188789 0.17505671916914031 0 -0.24878729217559289 0.18841596133959801 0 -0.2325455095579794 0.1920156105778652 0 -0.22746078847163709 0.1784894408967303 0 -0.2108741751196693 0.18462551362903321 0 -0.2325455095579794 0.1920156105778652 0 -0.24284285117188789 0.17505671916914031 0 -0.22746078847163709 0.1784894408967303 0 -0.22358061803701171 0.16225992021088251 0 -0.24284285117188789 0.17505671916914031 0 -0.22746078847163709 0.1784894408967303 0 -0.2325455095579794 0.1920156105778652 0 -0.22746078847163709 0.1784894408967303 0 -0.22358061803701171 0.16225992021088251 0 -0.2108741751196693 0.18462551362903321 0 -0.22358061803701171 0.16225992021088251 0 -0.2049433530265215 0.16061588083114869 0 -0.2108741751196693 0.18462551362903321 0 -0.22358061803701171 0.16225992021088251 0 -0.2049433530265215 0.16061588083114869 0 -0.21367954882749951 0.14604350555839521 0 -0.2108741751196693 0.18462551362903321 0 -0.1890908188254993 0.16953767277788731 0 -0.18496941487880969 0.19471158418181789 0 -0.2049433530265215 0.16061588083114869 0 -0.2108741751196693 0.18462551362903321 0 -0.1890908188254993 0.16953767277788731 0 -0.2049433530265215 0.16061588083114869 0 -0.1890908188254993 0.16953767277788731 0 -0.19321222277218891 0.14436376137395671 0 -0.1890908188254993 0.16953767277788731 0 -0.19321222277218891 0.14436376137395671 0 -0.1890908188254993 0.16953767277788731 0 -0.19321222277218891 0.14436376137395671 0 -0.1852995688568064 0.14720474994801419 0 -0.19321222277218891 0.14436376137395671 0 -0.20573516551881479 0.1273700891938872 0 -0.1852995688568064 0.14720474994801419 0 -0.19029650623126329 0.13143711820087781 0 -0.20573516551881479 0.1273700891938872 0 -0.1852995688568064 0.14720474994801419 0 -0.20573516551881479 0.1273700891938872 0 -0.1852995688568064 0.14720474994801419 0 -0.18399944287813769 0.1243110413724456 0 -0.1915165139578541 0.12062561452203339 0 -0.19029650623126329 0.13143711820087781 0 -0.1915165139578541 0.12062561452203339 0 -0.19029650623126329 0.13143711820087781 0 -0.20573516551881479 0.1273700891938872 0 -0.19321222277218891 0.14436376137395671 0 -0.20573516551881479 0.1273700891938872 0 -0.21367954882749951 0.14604350555839521 0 -0.22799041247121521 0.13469512599485131 0 -0.20573516551881479 0.1273700891938872 0 -0.21367954882749951 0.14604350555839521 0 -0.2049433530265215 0.16061588083114869 0 -0.19321222277218891 0.14436376137395671 0 -0.21367954882749951 0.14604350555839521 0 -0.22359991905300591 0.24445062206085111 0 -0.23687497177736189 0.23150414832798791 0 -0.22618988828923989 0.2273314179536059 0 -0.2381547251009824 0.25036062724400548 0 -0.22359991905300591 0.24445062206085111 0 -0.2415436617167393 0.2393598459660678 0 -0.22359991905300591 0.24445062206085111 0 -0.24801018607111791 0.23566717074778309 0 -0.2415436617167393 0.2393598459660678 0 -0.22359991905300591 0.24445062206085111 0 -0.24801018607111791 0.23566717074778309 0 -0.23687497177736189 0.23150414832798791 0 -0.22359991905300591 0.24445062206085111 0 -0.24801018607111791 0.23566717074778309 0 -0.2381547251009824 0.25036062724400548 0 -0.24591301348853789 0.24331704576544311 0 -0.2415436617167393 0.2393598459660678 0 -0.2381547251009824 0.25036062724400548 0 -0.249435427503925 0.25000056447435692 0 -0.24591301348853789 0.24331704576544311 0 -0.2524210670499249 0.24119702039500171 0 -0.249435427503925 0.25000056447435692 0 -0.24591301348853789 0.24331704576544311 0 -0.2524210670499249 0.24119702039500171 0 -0.24591301348853789 0.24331704576544311 0 -0.24801018607111791 0.23566717074778309 0 -0.24591301348853789 0.24331704576544311 0 -0.24801018607111791 0.23566717074778309 0 -0.2415436617167393 0.2393598459660678 0 -0.24801018607111791 0.23566717074778309 0 -0.2415436617167393 0.2393598459660678 0 -0.23687497177736189 0.23150414832798791 0 -0.2467254125811553 0.2261864474181082 0 -0.2385505544831793 0.22259089851681441 0 -0.24801018607111791 0.23566717074778309 0 -0.23687497177736189 0.23150414832798791 0 -0.2467254125811553 0.2261864474181082 0 -0.25513340228505632 0.22342102262153321 0 -0.24801018607111791 0.23566717074778309 0 -0.2467254125811553 0.2261864474181082 0 -0.2467254125811553 0.2261864474181082 0 -0.2385505544831793 0.22259089851681441 0 -0.24882323592532751 0.21153690915109311 0 -0.2385505544831793 0.22259089851681441 0 -0.22618988828923989 0.2273314179536059 0 -0.2345365239906404 0.2107118266271652 0 -0.22618988828923989 0.2273314179536059 0 -0.2203298980247814 0.20854752786068689 0 -0.20975977502983659 0.23089080061730161 0 -0.22359991905300591 0.24445062206085111 0 -0.22618988828923989 0.2273314179536059 0 -0.20975977502983659 0.23089080061730161 0 -0.23687497177736189 0.23150414832798791 0 -0.2385505544831793 0.22259089851681441 0 -0.22618988828923989 0.2273314179536059 0 -0.2203298980247814 0.20854752786068689 0 -0.2345365239906404 0.2107118266271652 0 -0.2325455095579794 0.1920156105778652 0 -0.22618988828923989 0.2273314179536059 0 -0.2203298980247814 0.20854752786068689 0 -0.2345365239906404 0.2107118266271652 0 -0.2385505544831793 0.22259089851681441 0 -0.24882323592532751 0.21153690915109311 0 -0.2345365239906404 0.2107118266271652 0 -0.25346129445857718 0.19861817783096619 0 -0.24882323592532751 0.21153690915109311 0 -0.24330736002138159 0.19976563414728099 0 -0.24882323592532751 0.21153690915109311 0 -0.2345365239906404 0.2107118266271652 0 -0.24330736002138159 0.19976563414728099 0 -0.2345365239906404 0.2107118266271652 0 -0.24330736002138159 0.19976563414728099 0 -0.2325455095579794 0.1920156105778652 0 -0.24330736002138159 0.19976563414728099 0 -0.24878729217559289 0.18841596133959801 0 -0.2325455095579794 0.1920156105778652 0 -0.25346129445857718 0.19861817783096619 0 -0.24330736002138159 0.19976563414728099 0 -0.24878729217559289 0.18841596133959801 0 -0.2108741751196693 0.18462551362903321 0 -0.2203298980247814 0.20854752786068689 0 -0.2325455095579794 0.1920156105778652 0 -0.2108741751196693 0.18462551362903321 0 -0.2203298980247814 0.20854752786068689 0 -0.19992667255052921 0.21233891253311929 0 -0.2108741751196693 0.18462551362903321 0 -0.19992667255052921 0.21233891253311929 0 -0.18496941487880969 0.19471158418181789 0 -0.19992667255052921 0.21233891253311929 0 -0.18084801093212 0.21988549558574849 0 -0.18496941487880969 0.19471158418181789 0 -0.2203298980247814 0.20854752786068689 0 -0.19992667255052921 0.21233891253311929 0 -0.20975977502983659 0.23089080061730161 0 -0.2203298980247814 0.20854752786068689 0 -0.20975977502983659 0.23089080061730161 0 -0.19992667255052921 0.21233891253311929 0 -0.1927787613179586 0.2353725533241281 0 -0.18084801093212 0.21988549558574849 0 -0.19992667255052921 0.21233891253311929 0 -0.20975977502983659 0.23089080061730161 0 -0.1927787613179586 0.2353725533241281 0 -0.19918965203489319 0.25323407337391712 0 -0.1927787613179586 0.2353725533241281 0 -0.17672660698543041 0.2450594069896791 0 -0.19918965203489319 0.25323407337391712 0 -0.20975977502983659 0.23089080061730161 0 -0.1927787613179586 0.2353725533241281 0 -0.19918965203489319 0.25323407337391712 0 -0.22359991905300591 0.24445062206085111 0 -0.20975977502983659 0.23089080061730161 0 -0.19918965203489319 0.25323407337391712 0 -0.20975977502983659 0.23089080061730161 0 -0.19918965203489319 0.25323407337391712 0 -0.22359991905300591 0.24445062206085111 0 -0.16476888297622971 0.25602604930352812 0 -0.16409502612009411 0.24328878717079289 0 -0.14868184259594561 0.24139284649683301 0 -0.16409502612009411 0.24328878717079289 0 -0.16436325682262101 0.23053653317431089 0 -0.14868184259594561 0.24139284649683301 0 -0.16409502612009411 0.24328878717079289 0 -0.17672660698543041 0.2450594069896791 0 -0.16436325682262101 0.23053653317431089 0 -0.16476888297622971 0.25602604930352812 0 -0.16409502612009411 0.24328878717079289 0 -0.17672660698543041 0.2450594069896791 0 -0.17672660698543041 0.2450594069896791 0 -0.18084801093212 0.21988549558574849 0 -0.17672660698543041 0.2450594069896791 0 -0.18084801093212 0.21988549558574849 0 -0.16436325682262101 0.23053653317431089 0 -0.1927787613179586 0.2353725533241281 0 -0.17672660698543041 0.2450594069896791 0 -0.18084801093212 0.21988549558574849 0 -0.16436325682262101 0.23053653317431089 0 -0.1559897371102448 0.22130659102740149 0 -0.14868184259594561 0.24139284649683301 0 -0.18084801093212 0.21988549558574849 0 -0.16436325682262101 0.23053653317431089 0 -0.1665582439784892 0.20956271258860129 0 -0.16436325682262101 0.23053653317431089 0 -0.1665582439784892 0.20956271258860129 0 -0.1559897371102448 0.22130659102740149 0 -0.1665582439784892 0.20956271258860129 0 -0.1554137566352532 0.20881963390892511 0 -0.1559897371102448 0.22130659102740149 0 -0.1665582439784892 0.20956271258860129 0 -0.15935902016339959 0.19989430888723209 0 -0.1554137566352532 0.20881963390892511 0 -0.18084801093212 0.21988549558574849 0 -0.1665582439784892 0.20956271258860129 0 -0.18496941487880969 0.19471158418181789 0 -0.18084801093212 0.21988549558574849 0 -0.18496941487880969 0.19471158418181789 0 -0.1665582439784892 0.20956271258860129 0 -0.18496941487880969 0.19471158418181789 0 -0.16809049218491301 0.19293107635713549 0 -0.18496941487880969 0.19471158418181789 0 -0.16809049218491301 0.19293107635713549 0 -0.17544031540391961 0.1797377063952216 0 -0.1665582439784892 0.20956271258860129 0 -0.16809049218491301 0.19293107635713549 0 -0.15935902016339959 0.19989430888723209 0 -0.16809049218491301 0.19293107635713549 0 -0.15925409296766671 0.19077767936338921 0 -0.16448148820998909 0.18205793911320739 0 -0.16809049218491301 0.19293107635713549 0 -0.15935902016339959 0.19989430888723209 0 -0.15925409296766671 0.19077767936338921 0 -0.15925409296766671 0.19077767936338921 0 -0.14984507690878149 0.19801252585824339 0 -0.15475856829864801 0.17980382274814979 0 -0.14984507690878149 0.19801252585824339 0 -0.15475856829864801 0.17980382274814979 0 -0.14442837553278959 0.18687407145626789 0 -0.14984507690878149 0.19801252585824339 0 -0.15475856829864801 0.17980382274814979 0 -0.14236389564678001 0.19898696847216821 0 -0.13979620577464569 0.18175270797599941 0 -0.14236389564678001 0.19898696847216821 0 -0.14442837553278959 0.18687407145626789 0 -0.13979620577464569 0.18175270797599941 0 -0.15935902016339959 0.19989430888723209 0 -0.15925409296766671 0.19077767936338921 0 -0.14984507690878149 0.19801252585824339 0 -0.15935902016339959 0.19989430888723209 0 -0.14984507690878149 0.19801252585824339 0 -0.1554137566352532 0.20881963390892511 0 -0.14984507690878149 0.19801252585824339 0 -0.14236389564678001 0.19898696847216821 0 -0.14442837553278959 0.18687407145626789 0 -0.13450487708287151 0.18921428582242031 0 -0.13620945063090739 0.20979011221575081 0 -0.13979620577464569 0.18175270797599941 0 -0.13620945063090739 0.20979011221575081 0 -0.13979620577464569 0.18175270797599941 0 -0.13450487708287151 0.18921428582242031 0 -0.12953838583240601 0.19687383645675199 0 -0.13620945063090739 0.20979011221575081 0 -0.14236389564678001 0.19898696847216821 0 -0.13620945063090739 0.20979011221575081 0 -0.13979620577464569 0.18175270797599941 0 -0.12772775648191961 0.1891643003610621 0 -0.12953838583240601 0.19687383645675199 0 -0.12058679761668591 0.1942974369511673 0 -0.13450487708287151 0.18921428582242031 0 -0.12772775648191961 0.1891643003610621 0 -0.12953838583240601 0.19687383645675199 0 -0.12953838583240601 0.19687383645675199 0 -0.12653459010600179 0.20395830259826531 0 -0.12058679761668591 0.1942974369511673 0 -0.13620945063090739 0.20979011221575081 0 -0.12653459010600179 0.20395830259826531 0 -0.12409215442168731 0.2119439862754314 0 -0.12953838583240601 0.19687383645675199 0 -0.13620945063090739 0.20979011221575081 0 -0.12653459010600179 0.20395830259826531 0 -0.13620945063090739 0.20979011221575081 0 -0.12535758724892981 0.22264998485569101 0 -0.12409215442168731 0.2119439862754314 0 -0.14236389564678001 0.19898696847216821 0 -0.13620945063090739 0.20979011221575081 0 -0.14493158551891461 0.21622122896833679 0 -0.14984507690878149 0.19801252585824339 0 -0.14493158551891461 0.21622122896833679 0 -0.1554137566352532 0.20881963390892511 0 -0.14984507690878149 0.19801252585824339 0 -0.14493158551891461 0.21622122896833679 0 -0.14984507690878149 0.19801252585824339 0 -0.14236389564678001 0.19898696847216821 0 -0.14493158551891461 0.21622122896833679 0 -0.14236389564678001 0.19898696847216821 0 -0.14493158551891461 0.21622122896833679 0 -0.14493158551891461 0.21622122896833679 0 -0.1554137566352532 0.20881963390892511 0 -0.1559897371102448 0.22130659102740149 0 -0.14493158551891461 0.21622122896833679 0 -0.1386323871262797 0.23956516594961019 0 -0.14493158551891461 0.21622122896833679 0 -0.1386323871262797 0.23956516594961019 0 -0.14868184259594561 0.24139284649683301 0 -0.14493158551891461 0.21622122896833679 0 -0.14868184259594561 0.24139284649683301 0 -0.14493158551891461 0.21622122896833679 0 -0.1559897371102448 0.22130659102740149 0 -0.14868184259594561 0.24139284649683301 0 -0.14493158551891461 0.21622122896833679 0 -0.1386323871262797 0.23956516594961019 0 -0.13262269548716879 0.23782751645550221 0 -0.13620945063090739 0.20979011221575081 0 -0.14493158551891461 0.21622122896833679 0 -0.13262269548716879 0.23782751645550221 0 -0.13620945063090739 0.20979011221575081 0 -0.12535758724892981 0.22264998485569101 0 -0.13262269548716879 0.23782751645550221 0 -0.13620945063090739 0.20979011221575081 0 -0.13262269548716879 0.23782751645550221 0 -0.12535758724892981 0.22264998485569101 0 -0.13262269548716879 0.23782751645550221 0 -0.12425289891910871 0.23359296055499801 0 -0.1386323871262797 0.23956516594961019 0 -0.13262269548716879 0.23782751645550221 0 -0.1282933940016103 0.24242737913280821 0 -0.1323331887336478 0.26290910293088432 0 -0.1386323871262797 0.23956516594961019 0 -0.14868184259594561 0.24139284649683301 0 -0.13262269548716879 0.23782751645550221 0 -0.1282933940016103 0.24242737913280821 0 -0.12425289891910871 0.23359296055499801 0 -0.1386323871262797 0.23956516594961019 0 -0.12907737633496441 0.24962857445301059 0 -0.1282933940016103 0.24242737913280821 0 -0.12907737633496441 0.24962857445301059 0 -0.1282933940016103 0.24242737913280821 0 -0.1212830836163822 0.24088926827038079 0 -0.16871575145322229 0.14969033694552081 0 -0.16123777607545309 0.13610621136858139 0 -0.1556688909628586 0.15404665095293679 0 -0.16871575145322229 0.14969033694552081 0 -0.16123777607545309 0.13610621136858139 0 -0.17548335328717929 0.14089709619144039 0 -0.1609078447057396 0.11821543189307759 0 -0.16123777607545309 0.13610621136858139 0 -0.17238658245394531 0.12545986635763931 0 -0.16123777607545309 0.13610621136858139 0 -0.17238658245394531 0.12545986635763931 0 -0.17548335328717929 0.14089709619144039 0 -0.17238658245394531 0.12545986635763931 0 -0.18147810643326789 0.13229424819796479 0 -0.17548335328717929 0.14089709619144039 0 -0.19029650623126329 0.13143711820087781 0 -0.18358076706488169 0.13791082654706799 0 -0.1852995688568064 0.14720474994801419 0 -0.18399944287813769 0.1243110413724456 0 -0.17238658245394531 0.12545986635763931 0 -0.18147810643326789 0.13229424819796479 0 -0.18399944287813769 0.1243110413724456 0 -0.19029650623126329 0.13143711820087781 0 -0.18147810643326789 0.13229424819796479 0 -0.18147810643326789 0.13229424819796479 0 -0.18358076706488169 0.13791082654706799 0 -0.17548335328717929 0.14089709619144039 0 -0.19029650623126329 0.13143711820087781 0 -0.18147810643326789 0.13229424819796479 0 -0.18358076706488169 0.13791082654706799 0 -0.16871575145322229 0.14969033694552081 0 -0.1852995688568064 0.14720474994801419 0 -0.17548335328717929 0.14089709619144039 0 -0.16871575145322229 0.14969033694552081 0 -0.1852995688568064 0.14720474994801419 0 -0.16486397219479801 0.16703941070214101 0 -0.18358076706488169 0.13791082654706799 0 -0.1852995688568064 0.14720474994801419 0 -0.17548335328717929 0.14089709619144039 0 -0.1890908188254993 0.16953767277788731 0 -0.1852995688568064 0.14720474994801419 0 -0.16486397219479801 0.16703941070214101 0 -0.1852995688568064 0.14720474994801419 0 -0.16486397219479801 0.16703941070214101 0 -0.1890908188254993 0.16953767277788731 0 -0.18496941487880969 0.19471158418181789 0 -0.17544031540391961 0.1797377063952216 0 -0.1890908188254993 0.16953767277788731 0 -0.17544031540391961 0.1797377063952216 0 -0.16486397219479801 0.16703941070214101 0 -0.1890908188254993 0.16953767277788731 0 -0.18496941487880969 0.19471158418181789 0 -0.16809049218491301 0.19293107635713549 0 -0.17544031540391961 0.1797377063952216 0 -0.16448148820998909 0.18205793911320739 0 -0.17544031540391961 0.1797377063952216 0 -0.16448148820998909 0.18205793911320739 0 -0.16486397219479801 0.16703941070214101 0 -0.16448148820998909 0.18205793911320739 0 -0.16486397219479801 0.16703941070214101 0 -0.15475856829864801 0.17980382274814979 0 -0.15925409296766671 0.19077767936338921 0 -0.16448148820998909 0.18205793911320739 0 -0.15475856829864801 0.17980382274814979 0 -0.16871575145322229 0.14969033694552081 0 -0.16486397219479801 0.16703941070214101 0 -0.1556688909628586 0.15404665095293679 0 -0.16486397219479801 0.16703941070214101 0 -0.1497954440605635 0.169366134620211 0 -0.1556688909628586 0.15404665095293679 0 -0.1497954440605635 0.169366134620211 0 -0.13979620577464569 0.18175270797599941 0 -0.1432407495814593 0.15482695941974381 0 -0.1497954440605635 0.169366134620211 0 -0.1432407495814593 0.15482695941974381 0 -0.1556688909628586 0.15404665095293679 0 -0.13979620577464569 0.18175270797599941 0 -0.13921567432316551 0.17785619758757359 0 -0.1432407495814593 0.15482695941974381 0 -0.13979620577464569 0.18175270797599941 0 -0.1432407495814593 0.15482695941974381 0 -0.1497954440605635 0.169366134620211 0 -0.14442837553278959 0.18687407145626789 0 -0.13979620577464569 0.18175270797599941 0 -0.16486397219479801 0.16703941070214101 0 -0.1497954440605635 0.169366134620211 0 -0.14442837553278959 0.18687407145626789 0 -0.16486397219479801 0.16703941070214101 0 -0.14442837553278959 0.18687407145626789 0 -0.16486397219479801 0.16703941070214101 0 -0.15475856829864801 0.17980382274814979 0 -0.14442837553278959 0.18687407145626789 0 -0.13450487708287151 0.18921428582242031 0 -0.1358130723590173 0.18299489052391341 0 -0.1324281899790912 0.18085894927009269 0 -0.13450487708287151 0.18921428582242031 0 -0.13979620577464569 0.18175270797599941 0 -0.1358130723590173 0.18299489052391341 0 -0.13979620577464569 0.18175270797599941 0 -0.1365230165994607 0.18015361902714111 0 -0.1358130723590173 0.18299489052391341 0 -0.13979620577464569 0.18175270797599941 0 -0.13921567432316551 0.17785619758757359 0 -0.13979620577464569 0.18175270797599941 0 -0.1365230165994607 0.18015361902714111 0 -0.13921567432316551 0.17785619758757359 0 -0.1365230165994607 0.18015361902714111 0 -0.1358130723590173 0.18299489052391341 0 -0.1324281899790912 0.18085894927009269 0 -0.13517227170691951 0.1776918918350264 0 -0.13252220592596059 0.17189880145529821 0 -0.1324281899790912 0.18085894927009269 0 -0.1365230165994607 0.18015361902714111 0 -0.13517227170691951 0.1776918918350264 0 -0.1324281899790912 0.18085894927009269 0 -0.13517227170691951 0.1776918918350264 0 -0.13921567432316551 0.17785619758757359 0 -0.13252220592596059 0.17189880145529821 0 -0.1365230165994607 0.18015361902714111 0 -0.13517227170691951 0.1776918918350264 0 -0.13921567432316551 0.17785619758757359 0 -0.13252220592596059 0.17189880145529821 0 -0.1324281899790912 0.18085894927009269 0 -0.1237259898728903 0.1818994084390376 0 -0.12772775648191961 0.1891643003610621 0 -0.1324281899790912 0.18085894927009269 0 -0.1237259898728903 0.1818994084390376 0 -0.13450487708287151 0.18921428582242031 0 -0.12772775648191961 0.1891643003610621 0 -0.1324281899790912 0.18085894927009269 0 -0.13921567432316551 0.17785619758757359 0 -0.13252220592596059 0.17189880145529821 0 -0.1432407495814593 0.15482695941974381 0 -0.13252220592596059 0.17189880145529821 0 -0.1264709729354743 0.16016678923656219 0 -0.1432407495814593 0.15482695941974381 0 -0.13252220592596059 0.17189880145529821 0 -0.1264709729354743 0.16016678923656219 0 -0.1177564125815504 0.1708702102024765 0 -0.1273705585781979 0.14655133117890001 0 -0.1432407495814593 0.15482695941974381 0 -0.14380998939661621 0.14175275843590429 0 -0.1264709729354743 0.16016678923656219 0 -0.1273705585781979 0.14655133117890001 0 -0.1432407495814593 0.15482695941974381 0 -0.1432407495814593 0.15482695941974381 0 -0.14380998939661621 0.14175275843590429 0 -0.1556688909628586 0.15404665095293679 0 -0.16123777607545309 0.13610621136858139 0 -0.14380998939661621 0.14175275843590429 0 -0.1556688909628586 0.15404665095293679 0 -0.16123777607545309 0.13610621136858139 0 -0.14380998939661621 0.14175275843590429 0 -0.146422009359223 0.12588572965013881 0 -0.1609078447057396 0.11821543189307759 0 -0.16123777607545309 0.13610621136858139 0 -0.146422009359223 0.12588572965013881 0 -0.14380998939661621 0.14175275843590429 0 -0.146422009359223 0.12588572965013881 0 -0.12794092556623851 0.1308087954511595 0 -0.1273705585781979 0.14655133117890001 0 -0.14380998939661621 0.14175275843590429 0 -0.12794092556623851 0.1308087954511595 0 -0.1273705585781979 0.14655133117890001 0 -0.12794092556623851 0.1308087954511595 0 -0.10974542753282721 0.12941988493019499 0 -0.10974542753282721 0.12941988493019499 0 -0.095290714172933083 0.141111952959558 0 -0.07791463978225964 0.1273806028977284 0 -0.095290714172933083 0.141111952959558 0 -0.1126667885636066 0.15484330302138771 0 -0.10974542753282721 0.12941988493019499 0 -0.095290714172933083 0.141111952959558 0 -0.1126667885636066 0.15484330302138771 0 -0.095290714172933083 0.141111952959558 0 -0.1126667885636066 0.15484330302138771 0 -0.096170129396594597 0.15739719785470019 0 -0.1273705585781979 0.14655133117890001 0 -0.10974542753282721 0.12941988493019499 0 -0.1126667885636066 0.15484330302138771 0 -0.1264709729354743 0.16016678923656219 0 -0.1273705585781979 0.14655133117890001 0 -0.1126667885636066 0.15484330302138771 0 -0.1126667885636066 0.15484330302138771 0 -0.1177564125815504 0.1708702102024765 0 -0.103037108416657 0.16994393888498041 0 -0.1264709729354743 0.16016678923656219 0 -0.1126667885636066 0.15484330302138771 0 -0.1177564125815504 0.1708702102024765 0 -0.1237259898728903 0.1818994084390376 0 -0.11026248496986391 0.18409379591486499 0 -0.12058679761668591 0.1942974369511673 0 -0.1177564125815504 0.1708702102024765 0 -0.1237259898728903 0.1818994084390376 0 -0.11026248496986391 0.18409379591486499 0 -0.13252220592596059 0.17189880145529821 0 -0.1177564125815504 0.1708702102024765 0 -0.1237259898728903 0.1818994084390376 0 -0.1177564125815504 0.1708702102024765 0 -0.11026248496986391 0.18409379591486499 0 -0.103037108416657 0.16994393888498041 0 -0.11026248496986391 0.18409379591486499 0 -0.103037108416657 0.16994393888498041 0 -0.09353275242833245 0.183694077046408 0 -0.103037108416657 0.16994393888498041 0 -0.086115191607606459 0.16857145896338471 0 -0.09353275242833245 0.183694077046408 0 -0.1126667885636066 0.15484330302138771 0 -0.096170129396594597 0.15739719785470019 0 -0.103037108416657 0.16994393888498041 0 -0.096170129396594597 0.15739719785470019 0 -0.103037108416657 0.16994393888498041 0 -0.086115191607606459 0.16857145896338471 0 -0.086115191607606459 0.16857145896338471 0 -0.071570205622166178 0.16451514241004311 0 -0.083740844222169888 0.15251533544419019 0 -0.096170129396594597 0.15739719785470019 0 -0.086115191607606459 0.16857145896338471 0 -0.083740844222169888 0.15251533544419019 0 -0.086115191607606459 0.16857145896338471 0 -0.077524999160549724 0.17900739997883111 0 -0.071570205622166178 0.16451514241004311 0 -0.09353275242833245 0.183694077046408 0 -0.077524999160549724 0.17900739997883111 0 -0.079415058581209078 0.19673744734919471 0 -0.086115191607606459 0.16857145896338471 0 -0.09353275242833245 0.183694077046408 0 -0.077524999160549724 0.17900739997883111 0 -0.077524999160549724 0.17900739997883111 0 -0.071570205622166178 0.16451514241004311 0 -0.058716528685592767 0.17900066479214491 0 -0.077524999160549724 0.17900739997883111 0 -0.079415058581209078 0.19673744734919471 0 -0.058716528685592767 0.17900066479214491 0 -0.071570205622166178 0.16451514241004311 0 -0.067596123117718315 0.15084662084012049 0 -0.055727546939359981 0.15714937444158719 0 -0.067596123117718315 0.15084662084012049 0 -0.07791463978225964 0.1273806028977284 0 -0.083740844222169888 0.15251533544419019 0 -0.071570205622166178 0.16451514241004311 0 -0.067596123117718315 0.15084662084012049 0 -0.083740844222169888 0.15251533544419019 0 -0.067596123117718315 0.15084662084012049 0 -0.07791463978225964 0.1273806028977284 0 -0.057075523611279787 0.1415033920691785 0 -0.095290714172933083 0.141111952959558 0 -0.07791463978225964 0.1273806028977284 0 -0.095290714172933083 0.141111952959558 0 -0.07791463978225964 0.1273806028977284 0 -0.083740844222169888 0.15251533544419019 0 -0.095290714172933083 0.141111952959558 0 -0.096170129396594597 0.15739719785470019 0 -0.083740844222169888 0.15251533544419019 0 -0.10898983499016381 0.25866367951737868 0 -0.09788140403950131 0.24634004413176361 0 -0.1084536750074588 0.24276962252291351 0 -0.09788140403950131 0.24634004413176361 0 -0.1084536750074588 0.24276962252291351 0 -0.09333316433788108 0.22980941152379991 0 -0.09788140403950131 0.24634004413176361 0 -0.09333316433788108 0.22980941152379991 0 -0.090882769485247733 0.24054333214206711 0 -0.092803926884228172 0.25053040598172899 0 -0.09788140403950131 0.24634004413176361 0 -0.090882769485247733 0.24054333214206711 0 -0.115970302515576 0.25098152906068399 0 -0.1084536750074588 0.24276962252291351 0 -0.1212830836163822 0.24088926827038079 0 -0.1282933940016103 0.24242737913280821 0 -0.1212830836163822 0.24088926827038079 0 -0.12425289891910871 0.23359296055499801 0 -0.1212830836163822 0.24088926827038079 0 -0.1104048905081139 0.23036724624518581 0 -0.12425289891910871 0.23359296055499801 0 -0.1084536750074588 0.24276962252291351 0 -0.1212830836163822 0.24088926827038079 0 -0.1104048905081139 0.23036724624518581 0 -0.12535758724892981 0.22264998485569101 0 -0.1104048905081139 0.23036724624518581 0 -0.12425289891910871 0.23359296055499801 0 -0.12535758724892981 0.22264998485569101 0 -0.1104048905081139 0.23036724624518581 0 -0.11341166294182881 0.21784852096916679 0 -0.1104048905081139 0.23036724624518581 0 -0.1001135884768254 0.21447422990624451 0 -0.11341166294182881 0.21784852096916679 0 -0.1084536750074588 0.24276962252291351 0 -0.1104048905081139 0.23036724624518581 0 -0.09333316433788108 0.22980941152379991 0 -0.1104048905081139 0.23036724624518581 0 -0.1001135884768254 0.21447422990624451 0 -0.09333316433788108 0.22980941152379991 0 -0.1104048905081139 0.23036724624518581 0 -0.09333316433788108 0.22980941152379991 0 -0.1001135884768254 0.21447422990624451 0 -0.1054884747435865 0.19867778115645379 0 -0.079415058581209078 0.19673744734919471 0 -0.1001135884768254 0.21447422990624451 0 -0.11341166294182881 0.21784852096916679 0 -0.1054884747435865 0.19867778115645379 0 -0.11341166294182881 0.21784852096916679 0 -0.11894748118076839 0.20547301073828311 0 -0.1054884747435865 0.19867778115645379 0 -0.11341166294182881 0.21784852096916679 0 -0.12409215442168731 0.2119439862754314 0 -0.11894748118076839 0.20547301073828311 0 -0.12535758724892981 0.22264998485569101 0 -0.11341166294182881 0.21784852096916679 0 -0.12409215442168731 0.2119439862754314 0 -0.12653459010600179 0.20395830259826531 0 -0.12409215442168731 0.2119439862754314 0 -0.11894748118076839 0.20547301073828311 0 -0.11894748118076839 0.20547301073828311 0 -0.12058679761668591 0.1942974369511673 0 -0.1054884747435865 0.19867778115645379 0 -0.12653459010600179 0.20395830259826531 0 -0.11894748118076839 0.20547301073828311 0 -0.12058679761668591 0.1942974369511673 0 -0.12772775648191961 0.1891643003610621 0 -0.1237259898728903 0.1818994084390376 0 -0.12058679761668591 0.1942974369511673 0 -0.11026248496986391 0.18409379591486499 0 -0.12058679761668591 0.1942974369511673 0 -0.1054884747435865 0.19867778115645379 0 -0.11026248496986391 0.18409379591486499 0 -0.09353275242833245 0.183694077046408 0 -0.1054884747435865 0.19867778115645379 0 -0.09353275242833245 0.183694077046408 0 -0.1054884747435865 0.19867778115645379 0 -0.079415058581209078 0.19673744734919471 0 -0.079415058581209078 0.19673744734919471 0 -0.058716528685592767 0.17900066479214491 0 -0.079415058581209078 0.19673744734919471 0 -0.063460953470129408 0.20879363641823559 0 -0.058716528685592767 0.17900066479214491 0 -0.079415058581209078 0.19673744734919471 0 -0.063460953470129408 0.20879363641823559 0 -0.082655909963969418 0.21515104595148621 0 -0.063460953470129408 0.20879363641823559 0 -0.082655909963969418 0.21515104595148621 0 -0.07626143816764816 0.2292515768024139 0 -0.1001135884768254 0.21447422990624451 0 -0.079415058581209078 0.19673744734919471 0 -0.082655909963969418 0.21515104595148621 0 -0.1001135884768254 0.21447422990624451 0 -0.079415058581209078 0.19673744734919471 0 -0.09333316433788108 0.22980941152379991 0 -0.07626143816764816 0.2292515768024139 0 -0.09333316433788108 0.22980941152379991 0 -0.07626143816764816 0.2292515768024139 0 -0.090882769485247733 0.24054333214206711 0 -0.1001135884768254 0.21447422990624451 0 -0.082655909963969418 0.21515104595148621 0 -0.09333316433788108 0.22980941152379991 0 -0.082655909963969418 0.21515104595148621 0 -0.09333316433788108 0.22980941152379991 0 -0.07626143816764816 0.2292515768024139 0 -0.07626143816764816 0.2292515768024139 0 -0.05500867203951381 0.22855712266499709 0 -0.07626143816764816 0.2292515768024139 0 -0.063998046190080288 0.23595052208145709 0 -0.05500867203951381 0.22855712266499709 0 -0.063460953470129408 0.20879363641823559 0 -0.07626143816764816 0.2292515768024139 0 -0.063460953470129408 0.20879363641823559 0 -0.07626143816764816 0.2292515768024139 0 -0.05500867203951381 0.22855712266499709 0 -0.067393243976941838 0.2437428137186525 0 -0.073135677888041331 0.24923235374733829 0 -0.056834860762002989 0.24815654307924351 0 -0.07626143816764816 0.2292515768024139 0 -0.067393243976941838 0.2437428137186525 0 -0.073135677888041331 0.24923235374733829 0 -0.073135677888041331 0.24923235374733829 0 -0.056834860762002989 0.24815654307924351 0 -0.07626143816764816 0.2292515768024139 0 -0.063998046190080288 0.23595052208145709 0 -0.067393243976941838 0.2437428137186525 0 -0.063998046190080288 0.23595052208145709 0 -0.067393243976941838 0.2437428137186525 0 -0.060299001187947197 0.24016757719491261 0 -0.089436495014079617 0.25030816441543419 0 -0.07626143816764816 0.2292515768024139 0 -0.090882769485247733 0.24054333214206711 0 -0.089436495014079617 0.25030816441543419 0 -0.07626143816764816 0.2292515768024139 0 -0.073135677888041331 0.24923235374733829 0 -0.089436495014079617 0.25030816441543419 0 -0.073135677888041331 0.24923235374733829 0 -0.089436495014079617 0.25030816441543419 0 -0.07626143816764816 0.2292515768024139 0 -0.089436495014079617 0.25030816441543419 0 -0.092803926884228172 0.25053040598172899 0 -0.090882769485247733 0.24054333214206711 0 -0.036545285881863981 0.2468174849855049 0 -0.046717423499075678 0.24273165285232959 0 -0.056834860762002989 0.24815654307924351 0 -0.036545285881863981 0.2468174849855049 0 -0.056834860762002989 0.24815654307924351 0 -0.031895926198960832 0.23789204631109731 0 -0.040279042052702732 0.23980529119977709 0 -0.041573185299783183 0.23277234435221961 0 -0.036545285881863981 0.2468174849855049 0 -0.031895926198960832 0.23789204631109731 0 -0.040279042052702732 0.23980529119977709 0 -0.040279042052702732 0.23980529119977709 0 -0.048555257190820253 0.2374178558292403 0 -0.041573185299783183 0.23277234435221961 0 -0.040279042052702732 0.23980529119977709 0 -0.046717423499075678 0.24273165285232959 0 -0.048555257190820253 0.2374178558292403 0 -0.036545285881863981 0.2468174849855049 0 -0.040279042052702732 0.23980529119977709 0 -0.046717423499075678 0.24273165285232959 0 -0.046717423499075678 0.24273165285232959 0 -0.052509841951801507 0.24298189470035381 0 -0.056834860762002989 0.24815654307924351 0 -0.067393243976941838 0.2437428137186525 0 -0.056834860762002989 0.24815654307924351 0 -0.057355194675469331 0.2460245914807023 0 -0.067393243976941838 0.2437428137186525 0 -0.057355194675469331 0.2460245914807023 0 -0.060299001187947197 0.24016757719491261 0 -0.056834860762002989 0.24815654307924351 0 -0.057355194675469331 0.2460245914807023 0 -0.057355194675469331 0.2460245914807023 0 -0.060299001187947197 0.24016757719491261 0 -0.056420334248329422 0.24168367585396919 0 -0.052509841951801507 0.24298189470035381 0 -0.056834860762002989 0.24815654307924351 0 -0.057355194675469331 0.2460245914807023 0 -0.052509841951801507 0.24298189470035381 0 -0.057355194675469331 0.2460245914807023 0 -0.056420334248329422 0.24168367585396919 0 -0.063998046190080288 0.23595052208145709 0 -0.060299001187947197 0.24016757719491261 0 -0.055517299178099638 0.23756064003990821 0 -0.060299001187947197 0.24016757719491261 0 -0.056420334248329422 0.24168367585396919 0 -0.055517299178099638 0.23756064003990821 0 -0.052509841951801507 0.24298189470035381 0 -0.056420334248329422 0.24168367585396919 0 -0.055517299178099638 0.23756064003990821 0 -0.055517299178099638 0.23756064003990821 0 -0.048555257190820253 0.2374178558292403 0 -0.05500867203951381 0.22855712266499709 0 -0.052509841951801507 0.24298189470035381 0 -0.055517299178099638 0.23756064003990821 0 -0.048555257190820253 0.2374178558292403 0 -0.046717423499075678 0.24273165285232959 0 -0.052509841951801507 0.24298189470035381 0 -0.048555257190820253 0.2374178558292403 0 -0.048555257190820253 0.2374178558292403 0 -0.05500867203951381 0.22855712266499709 0 -0.041573185299783183 0.23277234435221961 0 -0.063998046190080288 0.23595052208145709 0 -0.055517299178099638 0.23756064003990821 0 -0.05500867203951381 0.22855712266499709 0 -0.05500867203951381 0.22855712266499709 0 -0.033755905911379488 0.2278626685275793 0 -0.044823540565144662 0.21470602783276521 0 -0.05500867203951381 0.22855712266499709 0 -0.041573185299783183 0.23277234435221961 0 -0.033755905911379488 0.2278626685275793 0 -0.05500867203951381 0.22855712266499709 0 -0.033755905911379488 0.2278626685275793 0 -0.031895926198960832 0.23789204631109731 0 -0.041573185299783183 0.23277234435221961 0 -0.033755905911379488 0.2278626685275793 0 -0.041573185299783183 0.23277234435221961 0 -0.033755905911379488 0.2278626685275793 0 -0.033755905911379488 0.2278626685275793 0 -0.044823540565144662 0.21470602783276521 0 -0.029146577573605999 0.2103115916447961 0 -0.044823540565144662 0.21470602783276521 0 -0.039500416256375868 0.19835812035825759 0 -0.029146577573605999 0.2103115916447961 0 -0.063460953470129408 0.20879363641823559 0 -0.05500867203951381 0.22855712266499709 0 -0.044823540565144662 0.21470602783276521 0 -0.063460953470129408 0.20879363641823559 0 -0.044823540565144662 0.21470602783276521 0 -0.039500416256375868 0.19835812035825759 0 -0.063460953470129408 0.20879363641823559 0 -0.039500416256375868 0.19835812035825759 0 -0.058716528685592767 0.17900066479214491 0 -0.039500416256375868 0.19835812035825759 0 -0.01317752082893355 0.19681828710550109 0 -0.020691642251402891 0.1807937892341285 0 -0.039500416256375868 0.19835812035825759 0 -0.01317752082893355 0.19681828710550109 0 -0.029146577573605999 0.2103115916447961 0 -0.039500416256375868 0.19835812035825759 0 -0.020691642251402891 0.1807937892341285 0 -0.01317752082893355 0.19681828710550109 0 -0.010145096427021071 0.2130337984353157 0 0.01346571305733776 0.19820492834305281 0 -0.033755905911379488 0.2278626685275793 0 -0.010145096427021071 0.2130337984353157 0 -0.029146577573605999 0.2103115916447961 0 -0.01317752082893355 0.19681828710550109 0 -0.010145096427021071 0.2130337984353157 0 -0.029146577573605999 0.2103115916447961 0 -0.033755905911379488 0.2278626685275793 0 -0.010145096427021071 0.2130337984353157 0 -0.0098889277353725498 0.22708279255087011 0 -0.033755905911379488 0.2278626685275793 0 -0.0098889277353725498 0.22708279255087011 0 -0.023240347922365609 0.23451787274387981 0 -0.033755905911379488 0.2278626685275793 0 -0.010145096427021071 0.2130337984353157 0 -0.033755905911379488 0.2278626685275793 0 -0.0098889277353725498 0.22708279255087011 0 -0.031895926198960832 0.23789204631109731 0 -0.033755905911379488 0.2278626685275793 0 -0.023240347922365609 0.23451787274387981 0 -0.010145096427021071 0.2130337984353157 0 -0.0098889277353725498 0.22708279255087011 0 0.013978050440634229 0.2263029165741601 0 -0.0034903985393868221 0.25853639811177698 0 -0.016255711001725019 0.24547842689176669 0 0.0055636717745417936 0.2409115006921535 0 -0.0098889277353725498 0.22708279255087011 0 -0.016255711001725019 0.24547842689176669 0 0.0055636717745417936 0.2409115006921535 0 -0.031895926198960832 0.23789204631109731 0 -0.016255711001725019 0.24547842689176669 0 -0.023240347922365609 0.23451787274387981 0 -0.036545285881863981 0.2468174849855049 0 -0.031895926198960832 0.23789204631109731 0 -0.016255711001725019 0.24547842689176669 0 -0.0098889277353725498 0.22708279255087011 0 -0.016255711001725019 0.24547842689176669 0 -0.023240347922365609 0.23451787274387981 0 -0.036545285881863981 0.2468174849855049 0 -0.016255711001725019 0.24547842689176669 0 -0.043113642931584727 0.14324833496996131 0 -0.038017998789976457 0.16126388223509511 0 -0.029133362338952778 0.14319444627801159 0 -0.043113642931584727 0.14324833496996131 0 -0.055727546939359981 0.15714937444158719 0 -0.038017998789976457 0.16126388223509511 0 -0.043113642931584727 0.14324833496996131 0 -0.035979705447399507 0.12799186084919251 0 -0.029133362338952778 0.14319444627801159 0 -0.043113642931584727 0.14324833496996131 0 -0.035979705447399507 0.12799186084919251 0 -0.051826104161584799 0.12844879390293071 0 -0.043113642931584727 0.14324833496996131 0 -0.051826104161584799 0.12844879390293071 0 -0.057075523611279787 0.1415033920691785 0 -0.043113642931584727 0.14324833496996131 0 -0.051826104161584799 0.12844879390293071 0 -0.07791463978225964 0.1273806028977284 0 -0.051826104161584799 0.12844879390293071 0 -0.057075523611279787 0.1415033920691785 0 -0.067596123117718315 0.15084662084012049 0 -0.057075523611279787 0.1415033920691785 0 -0.055727546939359981 0.15714937444158719 0 -0.043113642931584727 0.14324833496996131 0 -0.057075523611279787 0.1415033920691785 0 -0.055727546939359981 0.15714937444158719 0 -0.071570205622166178 0.16451514241004311 0 -0.055727546939359981 0.15714937444158719 0 -0.058716528685592767 0.17900066479214491 0 -0.055727546939359981 0.15714937444158719 0 -0.058716528685592767 0.17900066479214491 0 -0.038017998789976457 0.16126388223509511 0 -0.058716528685592767 0.17900066479214491 0 -0.038017998789976457 0.16126388223509511 0 -0.039500416256375868 0.19835812035825759 0 -0.038403657321684957 0.17891193235910041 0 -0.020691642251402891 0.1807937892341285 0 -0.039500416256375868 0.19835812035825759 0 -0.058716528685592767 0.17900066479214491 0 -0.038403657321684957 0.17891193235910041 0 -0.058716528685592767 0.17900066479214491 0 -0.038403657321684957 0.17891193235910041 0 -0.038017998789976457 0.16126388223509511 0 -0.038403657321684957 0.17891193235910041 0 -0.038017998789976457 0.16126388223509511 0 -0.023314497240787099 0.16263801041429671 0 -0.038403657321684957 0.17891193235910041 0 -0.023314497240787099 0.16263801041429671 0 -0.020691642251402891 0.1807937892341285 0 -0.020691642251402891 0.1807937892341285 0 -0.001882868246429909 0.16322945810999931 0 -0.01317752082893355 0.19681828710550109 0 -0.020691642251402891 0.1807937892341285 0 0.0069528944774667478 0.18020749461745639 0 -0.020691642251402891 0.1807937892341285 0 -0.001882868246429909 0.16322945810999931 0 0.0069528944774667478 0.18020749461745639 0 -0.023314497240787099 0.16263801041429671 0 -0.020691642251402891 0.1807937892341285 0 -0.001882868246429909 0.16322945810999931 0 -0.023314497240787099 0.16263801041429671 0 -0.001882868246429909 0.16322945810999931 0 -0.016396250213246921 0.14708269029223031 0 -0.001882868246429909 0.16322945810999931 0 -0.0059854301838424447 0.1423607794300526 0 -0.016396250213246921 0.14708269029223031 0 -0.001882868246429909 0.16322945810999931 0 -0.0059854301838424447 0.1423607794300526 0 0.0051904508739024149 0.14476521251461599 0 -0.038017998789976457 0.16126388223509511 0 -0.023314497240787099 0.16263801041429671 0 -0.029133362338952778 0.14319444627801159 0 -0.023314497240787099 0.16263801041429671 0 -0.016396250213246921 0.14708269029223031 0 -0.029133362338952778 0.14319444627801159 0 -0.035979705447399507 0.12799186084919251 0 -0.029133362338952778 0.14319444627801159 0 -0.01759377655894671 0.1278581109488037 0 -0.016396250213246921 0.14708269029223031 0 -0.029133362338952778 0.14319444627801159 0 -0.01759377655894671 0.1278581109488037 0 -0.0059854301838424447 0.1423607794300526 0 -0.01759377655894671 0.1278581109488037 0 -0.0003142905406453442 0.1318192574220213 0 -0.0059854301838424447 0.1423607794300526 0 -0.016396250213246921 0.14708269029223031 0 -0.01759377655894671 0.1278581109488037 0 -0.01759377655894671 0.1278581109488037 0 -0.0003142905406453442 0.1318192574220213 0 -0.0042797142796552976 0.1179519394458359 0 -0.0059854301838424447 0.1423607794300526 0 -0.0003142905406453442 0.1318192574220213 0 0.0051904508739024149 0.14476521251461599 0 -0.01759377655894671 0.1278581109488037 0 -0.0042797142796552976 0.1179519394458359 0 -0.015388266426666099 0.10392410588605561 0 -0.0042797142796552976 0.1179519394458359 0 -0.015388266426666099 0.10392410588605561 0 0.0057440419539671996 0.1070541674132964 0 -0.015388266426666099 0.10392410588605561 0 -0.00278832882414145 0.093432140897515836 0 0.0057440419539671996 0.1070541674132964 0 -0.015388266426666099 0.10392410588605561 0 -0.020222966824605431 0.081790066207845111 0 -0.040380766108095732 0.097719659521871893 0 -0.015388266426666099 0.10392410588605561 0 -0.03084251554004451 0.1143766496264156 0 -0.040380766108095732 0.097719659521871893 0 -0.01759377655894671 0.1278581109488037 0 -0.015388266426666099 0.10392410588605561 0 -0.03084251554004451 0.1143766496264156 0 -0.035979705447399507 0.12799186084919251 0 -0.01759377655894671 0.1278581109488037 0 -0.03084251554004451 0.1143766496264156 0 -0.020222966824605431 0.081790066207845111 0 -0.015853810636596879 0.062925156809576277 0 0.0043624206876303551 0.079126651593034655 0 -0.015853810636596879 0.062925156809576277 0 0.0062649722180432351 0.057751210548817773 0 0.0043624206876303551 0.079126651593034655 0 -0.00278832882414145 0.093432140897515836 0 -0.020222966824605431 0.081790066207845111 0 0.0043624206876303551 0.079126651593034655 0 -0.015388266426666099 0.10392410588605561 0 -0.00278832882414145 0.093432140897515836 0 -0.020222966824605431 0.081790066207845111 0 -0.020222966824605431 0.081790066207845111 0 -0.040380766108095732 0.097719659521871893 0 -0.020222966824605431 0.081790066207845111 0 -0.015853810636596879 0.062925156809576277 0 -0.037470957758676447 0.069793661932416567 0 -0.020222966824605431 0.081790066207845111 0 -0.037470957758676447 0.069793661932416567 0 -0.040380766108095732 0.097719659521871893 0 -0.037470957758676447 0.069793661932416567 0 -0.055495759758028049 0.079496875974578357 0 -0.040380766108095732 0.097719659521871893 0 -0.055495759758028049 0.079496875974578357 0 -0.040380766108095732 0.097719659521871893 0 -0.057395099407177907 0.096601294809169042 0 -0.055495759758028049 0.079496875974578357 0 -0.057395099407177907 0.096601294809169042 0 -0.07350934737728991 0.091616257152894648 0 -0.037470957758676447 0.069793661932416567 0 -0.055495759758028049 0.079496875974578357 0 -0.053754412500219402 0.056517517594490752 0 -0.055495759758028049 0.079496875974578357 0 -0.070494243644024415 0.064387713007426142 0 -0.053754412500219402 0.056517517594490752 0 -0.035979705447399507 0.12799186084919251 0 -0.051826104161584799 0.12844879390293071 0 -0.04391353132974192 0.1164372433472622 0 -0.03084251554004451 0.1143766496264156 0 -0.04391353132974192 0.1164372433472622 0 -0.040380766108095732 0.097719659521871893 0 -0.035979705447399507 0.12799186084919251 0 -0.03084251554004451 0.1143766496264156 0 -0.04391353132974192 0.1164372433472622 0 -0.040380766108095732 0.097719659521871893 0 -0.057395099407177907 0.096601294809169042 0 -0.060538565391585072 0.11364925283590011 0 -0.04391353132974192 0.1164372433472622 0 -0.040380766108095732 0.097719659521871893 0 -0.060538565391585072 0.11364925283590011 0 -0.040380766108095732 0.097719659521871893 0 -0.060538565391585072 0.11364925283590011 0 -0.051826104161584799 0.12844879390293071 0 -0.04391353132974192 0.1164372433472622 0 -0.060538565391585072 0.11364925283590011 0 -0.051826104161584799 0.12844879390293071 0 -0.060538565391585072 0.11364925283590011 0 -0.07791463978225964 0.1273806028977284 0 -0.060538565391585072 0.11364925283590011 0 -0.07791463978225964 0.1273806028977284 0 -0.060538565391585072 0.11364925283590011 0 -0.078171762161767744 0.1091954467153539 0 -0.07791463978225964 0.1273806028977284 0 -0.051826104161584799 0.12844879390293071 0 -0.060538565391585072 0.11364925283590011 0 -0.07791463978225964 0.1273806028977284 0 -0.078171762161767744 0.1091954467153539 0 -0.10687524926759261 0.109762609167841 0 -0.078171762161767744 0.1091954467153539 0 -0.092699626555879433 0.1005657399193349 0 -0.07350934737728991 0.091616257152894648 0 -0.078171762161767744 0.1091954467153539 0 -0.092699626555879433 0.1005657399193349 0 -0.10687524926759261 0.109762609167841 0 -0.060538565391585072 0.11364925283590011 0 -0.07350934737728991 0.091616257152894648 0 -0.060538565391585072 0.11364925283590011 0 -0.078171762161767744 0.1091954467153539 0 -0.07350934737728991 0.091616257152894648 0 -0.057395099407177907 0.096601294809169042 0 -0.060538565391585072 0.11364925283590011 0 -0.07350934737728991 0.091616257152894648 0 -0.055495759758028049 0.079496875974578357 0 -0.07350934737728991 0.091616257152894648 0 -0.070494243644024415 0.064387713007426142 0 -0.07350934737728991 0.091616257152894648 0 -0.070494243644024415 0.064387713007426142 0 -0.086480129362994956 0.069583261469889301 0 -0.070494243644024415 0.064387713007426142 0 -0.086480129362994956 0.069583261469889301 0 -0.086888665286464453 0.058625090010807887 0 -0.086480129362994956 0.069583261469889301 0 -0.096881957277028585 0.084193849589324535 0 -0.086888665286464453 0.058625090010807887 0 -0.096881957277028585 0.084193849589324535 0 -0.086888665286464453 0.058625090010807887 0 -0.07350934737728991 0.091616257152894648 0 -0.086480129362994956 0.069583261469889301 0 -0.096881957277028585 0.084193849589324535 0 -0.07350934737728991 0.091616257152894648 0 -0.086480129362994956 0.069583261469889301 0 -0.092699626555879433 0.1005657399193349 0 -0.07350934737728991 0.091616257152894648 0 -0.096881957277028585 0.084193849589324535 0 -0.096881957277028585 0.084193849589324535 0 -0.114235882118166 0.080917256814298982 0 -0.10687524926759261 0.109762609167841 0 -0.096881957277028585 0.084193849589324535 0 -0.10355812616660449 0.066816566697085036 0 -0.114235882118166 0.080917256814298982 0 -0.096881957277028585 0.084193849589324535 0 -0.10355812616660449 0.066816566697085036 0 -0.086888665286464453 0.058625090010807887 0 -0.10355812616660449 0.066816566697085036 0 -0.1155689013367721 0.064088044817609824 0 -0.1071004048705806 0.057292102044782182 0 -0.10355812616660449 0.066816566697085036 0 -0.1155689013367721 0.064088044817609824 0 -0.114235882118166 0.080917256814298982 0 -0.13065787682797539 0.074490167233760132 0 -0.12525322860273669 0.054683915403429713 0 -0.1155689013367721 0.064088044817609824 0 -0.13065787682797539 0.074490167233760132 0 -0.1155689013367721 0.064088044817609824 0 -0.114235882118166 0.080917256814298982 0 -0.12953394143352689 0.0962220954654186 0 -0.13065787682797539 0.074490167233760132 0 -0.114235882118166 0.080917256814298982 0 -0.13007033986284439 0.11468940196259191 0 -0.12953394143352689 0.0962220954654186 0 -0.10687524926759261 0.109762609167841 0 -0.12953394143352689 0.0962220954654186 0 -0.114235882118166 0.080917256814298982 0 -0.10687524926759261 0.109762609167841 0 -0.10974542753282721 0.12941988493019499 0 -0.07791463978225964 0.1273806028977284 0 -0.10687524926759261 0.109762609167841 0 -0.13007033986284439 0.11468940196259191 0 -0.10974542753282721 0.12941988493019499 0 -0.10687524926759261 0.109762609167841 0 -0.13007033986284439 0.11468940196259191 0 -0.12794092556623851 0.1308087954511595 0 -0.10974542753282721 0.12941988493019499 0 -0.092699626555879433 0.1005657399193349 0 -0.096881957277028585 0.084193849589324535 0 -0.10687524926759261 0.109762609167841 0 -0.096881957277028585 0.084193849589324535 0 -0.10687524926759261 0.109762609167841 0 -0.097680971997609722 0.01602634173443376 0 -0.1122919901225129 0.023540430839055791 0 -0.088495223399625775 0.029648581213061489 0 -0.1122919901225129 0.023540430839055791 0 -0.088495223399625775 0.029648581213061489 0 -0.1122919901225129 0.023540430839055791 0 -0.098427137054293123 0.035311925015822358 0 -0.088495223399625775 0.029648581213061489 0 -0.097680971997609722 0.01602634173443376 0 -0.1015133298770437 4.9595544974906723e-05 0 -0.1198791301280094 0.01256548056862198 0 -0.13082697262089341 0.0013823364580261221 0 -0.1015133298770437 4.9595544974906723e-05 0 -0.1198791301280094 0.01256548056862198 0 -0.1360887568453997 0.017432280465049261 0 -0.1198791301280094 0.01256548056862198 0 -0.1122919901225129 0.023540430839055791 0 -0.1360887568453997 0.017432280465049261 0 -0.1122919901225129 0.023540430839055791 0 -0.12279062167827851 0.029362630448722959 0 -0.1360887568453997 0.017432280465049261 0 -0.1122919901225129 0.023540430839055791 0 -0.097680971997609722 0.01602634173443376 0 -0.1198791301280094 0.01256548056862198 0 -0.1122919901225129 0.023540430839055791 0 -0.1122919901225129 0.023540430839055791 0 -0.12279062167827851 0.029362630448722959 0 -0.109555837650256 0.03798401928819635 0 -0.12279062167827851 0.029362630448722959 0 -0.1241829150729519 0.03733201807985212 0 -0.109555837650256 0.03798401928819635 0 -0.13112496187718059 0.044324123850062493 0 -0.1241829150729519 0.03733201807985212 0 -0.11947386029792641 0.044699115915308937 0 -0.1241829150729519 0.03733201807985212 0 -0.11947386029792641 0.044699115915308937 0 -0.109555837650256 0.03798401928819635 0 -0.11947386029792641 0.044699115915308937 0 -0.109555837650256 0.03798401928819635 0 -0.11260788943456961 0.050328260712302918 0 -0.12525322860273669 0.054683915403429713 0 -0.1155689013367721 0.064088044817609824 0 -0.11260788943456961 0.050328260712302918 0 -0.12525322860273669 0.054683915403429713 0 -0.11947386029792641 0.044699115915308937 0 -0.11260788943456961 0.050328260712302918 0 -0.1155689013367721 0.064088044817609824 0 -0.11260788943456961 0.050328260712302918 0 -0.1071004048705806 0.057292102044782182 0 -0.10355812616660449 0.066816566697085036 0 -0.097666651578714153 0.054357738591390203 0 -0.086888665286464453 0.058625090010807887 0 -0.10355812616660449 0.066816566697085036 0 -0.1071004048705806 0.057292102044782182 0 -0.097666651578714153 0.054357738591390203 0 -0.11260788943456961 0.050328260712302918 0 -0.1071004048705806 0.057292102044782182 0 -0.1043626929177757 0.049020655387381221 0 -0.1071004048705806 0.057292102044782182 0 -0.1043626929177757 0.049020655387381221 0 -0.097666651578714153 0.054357738591390203 0 -0.1043626929177757 0.049020655387381221 0 -0.097666651578714153 0.054357738591390203 0 -0.096330456383664845 0.044615784670338131 0 -0.097666651578714153 0.054357738591390203 0 -0.096330456383664845 0.044615784670338131 0 -0.091586987741062359 0.049592355585249062 0 -0.1122919901225129 0.023540430839055791 0 -0.109555837650256 0.03798401928819635 0 -0.098427137054293123 0.035311925015822358 0 -0.109555837650256 0.03798401928819635 0 -0.11260788943456961 0.050328260712302918 0 -0.1043626929177757 0.049020655387381221 0 -0.109555837650256 0.03798401928819635 0 -0.1043626929177757 0.049020655387381221 0 -0.096330456383664845 0.044615784670338131 0 -0.109555837650256 0.03798401928819635 0 -0.096330456383664845 0.044615784670338131 0 -0.098427137054293123 0.035311925015822358 0 -0.098427137054293123 0.035311925015822358 0 -0.08546217771540604 0.040770809068460048 0 -0.088495223399625775 0.029648581213061489 0 -0.08546217771540604 0.040770809068460048 0 -0.086888665286464453 0.058625090010807887 0 -0.07679175070062047 0.032652626761604048 0 -0.086888665286464453 0.058625090010807887 0 -0.07679175070062047 0.032652626761604048 0 -0.086888665286464453 0.058625090010807887 0 -0.074010454079176974 0.048921140551553548 0 -0.07679175070062047 0.032652626761604048 0 -0.096330456383664845 0.044615784670338131 0 -0.08546217771540604 0.040770809068460048 0 -0.091586987741062359 0.049592355585249062 0 -0.096330456383664845 0.044615784670338131 0 -0.098427137054293123 0.035311925015822358 0 -0.08546217771540604 0.040770809068460048 0 -0.08546217771540604 0.040770809068460048 0 -0.07679175070062047 0.032652626761604048 0 -0.088495223399625775 0.029648581213061489 0 -0.08546217771540604 0.040770809068460048 0 -0.086888665286464453 0.058625090010807887 0 -0.091586987741062359 0.049592355585249062 0 -0.097666651578714153 0.054357738591390203 0 -0.086888665286464453 0.058625090010807887 0 -0.091586987741062359 0.049592355585249062 0 -0.070494243644024415 0.064387713007426142 0 -0.086888665286464453 0.058625090010807887 0 -0.074010454079176974 0.048921140551553548 0 -0.070494243644024415 0.064387713007426142 0 -0.074010454079176974 0.048921140551553548 0 -0.06271496397009034 0.047483512836647292 0 -0.074010454079176974 0.048921140551553548 0 -0.07679175070062047 0.032652626761604048 0 -0.064698456676738694 0.035756731587067193 0 -0.07679175070062047 0.032652626761604048 0 -0.064698456676738694 0.035756731587067193 0 -0.074010454079176974 0.048921140551553548 0 -0.06271496397009034 0.047483512836647292 0 -0.064698456676738694 0.035756731587067193 0 -0.064698456676738694 0.035756731587067193 0 -0.063115994947373952 0.02026748138564443 0 -0.073442786595359966 0.025109898206180221 0 -0.063115994947373952 0.02026748138564443 0 -0.073442786595359966 0.025109898206180221 0 -0.07746147135770147 0.01476679863894776 0 -0.07679175070062047 0.032652626761604048 0 -0.064698456676738694 0.035756731587067193 0 -0.073442786595359966 0.025109898206180221 0 -0.097680971997609722 0.01602634173443376 0 -0.088495223399625775 0.029648581213061489 0 -0.07746147135770147 0.01476679863894776 0 -0.07679175070062047 0.032652626761604048 0 -0.088495223399625775 0.029648581213061489 0 -0.07679175070062047 0.032652626761604048 0 -0.073442786595359966 0.025109898206180221 0 -0.088495223399625775 0.029648581213061489 0 -0.073442786595359966 0.025109898206180221 0 -0.088495223399625775 0.029648581213061489 0 -0.07746147135770147 0.01476679863894776 0 -0.080113023358067775 -0.0034963713414790428 0 -0.1015133298770437 4.9595544974906723e-05 0 -0.07746147135770147 0.01476679863894776 0 -0.097680971997609722 0.01602634173443376 0 -0.1015133298770437 4.9595544974906723e-05 0 -0.07746147135770147 0.01476679863894776 0 -0.1015133298770437 4.9595544974906723e-05 0 -0.07746147135770147 0.01476679863894776 0 -0.080113023358067775 -0.0034963713414790428 0 -0.07746147135770147 0.01476679863894776 0 -0.067016117272491557 0.0064617448389865436 0 -0.063115994947373952 0.02026748138564443 0 -0.07746147135770147 0.01476679863894776 0 -0.067016117272491557 0.0064617448389865436 0 -0.063115994947373952 0.02026748138564443 0 -0.067016117272491557 0.0064617448389865436 0 -0.047480093400365117 0.0071514052909069717 0 -0.066910003298949472 -0.006380589779087396 0 -0.067016117272491557 0.0064617448389865436 0 -0.047480093400365117 0.0071514052909069717 0 -0.063115994947373952 0.02026748138564443 0 -0.047480093400365117 0.0071514052909069717 0 -0.050617252950292249 0.03183446144269883 0 -0.047480093400365117 0.0071514052909069717 0 -0.050617252950292249 0.03183446144269883 0 -0.064698456676738694 0.035756731587067193 0 -0.063115994947373952 0.02026748138564443 0 -0.050617252950292249 0.03183446144269883 0 -0.047480093400365117 0.0071514052909069717 0 -0.033781343123897689 0.028319727075923468 0 -0.050617252950292249 0.03183446144269883 0 -0.047480093400365117 0.0071514052909069717 0 -0.033781343123897689 0.028319727075923468 0 -0.022753037126858049 0.013523418070667899 0 -0.03197940571368342 -0.014345644471004631 0 -0.047480093400365117 0.0071514052909069717 0 -0.022753037126858049 0.013523418070667899 0 -0.070494243644024415 0.064387713007426142 0 -0.06271496397009034 0.047483512836647292 0 -0.053754412500219402 0.056517517594490752 0 -0.053754412500219402 0.056517517594490752 0 -0.050617252950292249 0.03183446144269883 0 -0.06271496397009034 0.047483512836647292 0 -0.064698456676738694 0.035756731587067193 0 -0.050617252950292249 0.03183446144269883 0 -0.06271496397009034 0.047483512836647292 0 -0.053754412500219402 0.056517517594490752 0 -0.050617252950292249 0.03183446144269883 0 -0.053754412500219402 0.056517517594490752 0 -0.050617252950292249 0.03183446144269883 0 -0.03452966360194034 0.047696869963003222 0 -0.033781343123897689 0.028319727075923468 0 -0.050617252950292249 0.03183446144269883 0 -0.03452966360194034 0.047696869963003222 0 -0.037470957758676447 0.069793661932416567 0 -0.053754412500219402 0.056517517594490752 0 -0.03452966360194034 0.047696869963003222 0 -0.015853810636596879 0.062925156809576277 0 -0.03452966360194034 0.047696869963003222 0 -0.01352666854003268 0.041392480612340417 0 -0.015853810636596879 0.062925156809576277 0 -0.037470957758676447 0.069793661932416567 0 -0.03452966360194034 0.047696869963003222 0 -0.033781343123897689 0.028319727075923468 0 -0.03452966360194034 0.047696869963003222 0 -0.01352666854003268 0.041392480612340417 0 -0.01352666854003268 0.041392480612340417 0 -0.0046017228383098841 0.02150879718613441 0 0.01617323494729353 0.031743731181248451 0 -0.015853810636596879 0.062925156809576277 0 -0.01352666854003268 0.041392480612340417 0 0.0062649722180432351 0.057751210548817773 0 -0.033781343123897689 0.028319727075923468 0 -0.01352666854003268 0.041392480612340417 0 -0.022753037126858049 0.013523418070667899 0 -0.01352666854003268 0.041392480612340417 0 -0.022753037126858049 0.013523418070667899 0 -0.01352666854003268 0.041392480612340417 0 -0.022753037126858049 0.013523418070667899 0 -0.0046017228383098841 0.02150879718613441 0 -0.015090251476702499 -0.003079934255059254 0 -0.022753037126858049 0.013523418070667899 0 -0.0046017228383098841 0.02150879718613441 0 -0.015090251476702499 -0.003079934255059254 0 -0.0046017228383098841 0.02150879718613441 0 0.0064513957917756229 0.0050175021511877811 0 0.0064513957917756229 0.0050175021511877811 0 0.01617323494729353 0.031743731181248451 0 -0.0046017228383098841 0.02150879718613441 0 0.0064513957917756229 0.0050175021511877811 0 0.01617323494729353 0.031743731181248451 0 0.0064513957917756229 0.0050175021511877811 0 0.024746283423928109 0.012135358359482091 0 0.01617323494729353 0.031743731181248451 0 0.024746283423928109 0.012135358359482091 0 0.01617323494729353 0.031743731181248451 0 0.041172076667347068 0.02288524704725424 0 0.0064513957917756229 0.0050175021511877811 0 0.024746283423928109 0.012135358359482091 0 0.021358438075749119 -0.01346850733666991 0 -0.01352666854003268 0.041392480612340417 0 0.0062649722180432351 0.057751210548817773 0 0.01617323494729353 0.031743731181248451 0 0.01617323494729353 0.031743731181248451 0 0.025895074102811451 0.058469960211309138 0 0.01617323494729353 0.031743731181248451 0 0.025895074102811451 0.058469960211309138 0 0.044735112818178199 0.048464709918128318 0 0.0062649722180432351 0.057751210548817773 0 0.01617323494729353 0.031743731181248451 0 0.025895074102811451 0.058469960211309138 0 0.025895074102811451 0.058469960211309138 0 0.044735112818178199 0.048464709918128318 0 0.048298148969009323 0.074044172789002452 0 0.044735112818178199 0.048464709918128318 0 0.048298148969009323 0.074044172789002452 0 0.044735112818178199 0.048464709918128318 0 0.041172076667347068 0.02288524704725424 0 0.044735112818178199 0.048464709918128318 0 0.05432588191438549 0.037505089675795869 0 0.041172076667347068 0.02288524704725424 0 0.01617323494729353 0.031743731181248451 0 0.044735112818178199 0.048464709918128318 0 0.041172076667347068 0.02288524704725424 0 0.05432588191438549 0.037505089675795869 0 0.062834062436994145 0.02393732622744342 0 0.068263696047256905 0.042341635084050568 0 0.05432588191438549 0.037505089675795869 0 0.061737886447169217 0.059380168910106557 0 0.068263696047256905 0.042341635084050568 0 0.044735112818178199 0.048464709918128318 0 0.061737886447169217 0.059380168910106557 0 0.048298148969009323 0.074044172789002452 0 0.044735112818178199 0.048464709918128318 0 0.05432588191438549 0.037505089675795869 0 0.061737886447169217 0.059380168910106557 0 0.024746283423928109 0.012135358359482091 0 0.041172076667347068 0.02288524704725424 0 0.037609040516515958 -0.002694215823619749 0 0.041172076667347068 0.02288524704725424 0 0.037609040516515958 -0.002694215823619749 0 0.041172076667347068 0.02288524704725424 0 0.051776364882943383 0.0085896918281474291 0 0.037609040516515958 -0.002694215823619749 0 0.05432588191438549 0.037505089675795869 0 0.041172076667347068 0.02288524704725424 0 0.062834062436994145 0.02393732622744342 0 0.041172076667347068 0.02288524704725424 0 0.051776364882943383 0.0085896918281474291 0 0.062834062436994145 0.02393732622744342 0 0.051776364882943383 0.0085896918281474291 0 0.065424783188372249 0.00153595686847981 0 0.062834062436994145 0.02393732622744342 0 0.051776364882943383 0.0085896918281474291 0 0.051841861605487469 -0.0027158551788205791 0 0.037609040516515958 -0.002694215823619749 0 0.051776364882943383 0.0085896918281474291 0 0.065424783188372249 0.00153595686847981 0 0.051841861605487469 -0.0027158551788205791 0 0.065424783188372249 0.00153595686847981 0 0.078557178622528062 0.020013474191852652 0 0.062834062436994145 0.02393732622744342 0 0.065424783188372249 0.00153595686847981 0 0.078557178622528062 0.020013474191852652 0 0.065424783188372249 0.00153595686847981 0 0.080134274616143808 0.0040937821631618111 0 0.078557178622528062 0.020013474191852652 0 0.080134274616143808 0.0040937821631618111 0 0.089941950092211786 0.012570042527085899 0 0.078557178622528062 0.020013474191852652 0 0.080134274616143808 0.0040937821631618111 0 0.089941950092211786 0.012570042527085899 0 0.090190712691382735 -0.002244999235090887 0 0.090657039815479498 0.02761260221752557 0 0.078557178622528062 0.020013474191852652 0 0.09168957405668382 0.038490991515225378 0 0.078557178622528062 0.020013474191852652 0 0.08140050949098257 0.034023925630769322 0 0.09168957405668382 0.038490991515225378 0 0.078557178622528062 0.020013474191852652 0 0.09168957405668382 0.038490991515225378 0 0.090657039815479498 0.02761260221752557 0 0.089336626240308581 0.020517447882289722 0 0.098183258058842843 0.022160408079909068 0 0.090657039815479498 0.02761260221752557 0 0.089336626240308581 0.020517447882289722 0 0.078557178622528062 0.020013474191852652 0 0.089941950092211786 0.012570042527085899 0 0.089336626240308581 0.020517447882289722 0 0.098183258058842843 0.022160408079909068 0 0.089941950092211786 0.012570042527085899 0 0.089336626240308581 0.020517447882289722 0 0.078557178622528062 0.020013474191852652 0 0.078557178622528062 0.020013474191852652 0 0.074802501227715271 0.033440982268584579 0 0.08140050949098257 0.034023925630769322 0 0.078557178622528062 0.020013474191852652 0 0.062834062436994145 0.02393732622744342 0 0.074802501227715271 0.033440982268584579 0 0.062834062436994145 0.02393732622744342 0 0.068263696047256905 0.042341635084050568 0 0.074802501227715271 0.033440982268584579 0 0.068263696047256905 0.042341635084050568 0 0.074802501227715271 0.033440982268584579 0 0.080552784057003141 0.044150254547414683 0 0.061737886447169217 0.059380168910106557 0 0.068263696047256905 0.042341635084050568 0 0.07456544535656473 0.057435498820888983 0 0.068263696047256905 0.042341635084050568 0 0.07456544535656473 0.057435498820888983 0 0.080552784057003141 0.044150254547414683 0 0.087703068238926749 0.054393729821081559 0 0.096059235358378847 0.037536691201763409 0 0.092140733212540488 0.065903618916232809 0 0.07456544535656473 0.057435498820888983 0 0.087703068238926749 0.054393729821081559 0 0.079346901119473581 0.071250768440399195 0 0.07456544535656473 0.057435498820888983 0 0.087703068238926749 0.054393729821081559 0 0.080552784057003141 0.044150254547414683 0 0.087703068238926749 0.054393729821081559 0 0.096059235358378847 0.037536691201763409 0 0.087703068238926749 0.054393729821081559 0 0.09168957405668382 0.038490991515225378 0 0.096059235358378847 0.037536691201763409 0 0.087703068238926749 0.054393729821081559 0 0.080552784057003141 0.044150254547414683 0 0.09168957405668382 0.038490991515225378 0 0.08140050949098257 0.034023925630769322 0 0.080552784057003141 0.044150254547414683 0 0.09168957405668382 0.038490991515225378 0 0.074802501227715271 0.033440982268584579 0 0.08140050949098257 0.034023925630769322 0 0.080552784057003141 0.044150254547414683 0 0.09168957405668382 0.038490991515225378 0 0.09327145459684992 0.03321916225880657 0 0.096059235358378847 0.037536691201763409 0 0.090657039815479498 0.02761260221752557 0 0.09168957405668382 0.038490991515225378 0 0.09327145459684992 0.03321916225880657 0 0.096059235358378847 0.037536691201763409 0 0.104639432192685 0.041230258932630527 0 0.1026100945599967 0.055505613264408747 0 0.104639432192685 0.041230258932630527 0 0.109920860497948 0.036608784364290638 0 0.11292063962577879 0.041031077726388678 0 0.096059235358378847 0.037536691201763409 0 0.104639432192685 0.041230258932630527 0 0.10678149162092319 0.031240749472272181 0 0.104639432192685 0.041230258932630527 0 0.109920860497948 0.036608784364290638 0 0.10678149162092319 0.031240749472272181 0 0.096059235358378847 0.037536691201763409 0 0.1026100945599967 0.055505613264408747 0 0.092140733212540488 0.065903618916232809 0 0.096059235358378847 0.037536691201763409 0 0.092140733212540488 0.065903618916232809 0 0.104639432192685 0.041230258932630527 0 0.1026100945599967 0.055505613264408747 0 0.1115805916839322 0.048741743490307667 0 0.1026100945599967 0.055505613264408747 0 0.1183353402422497 0.057783242689010132 0 0.1098056344569701 0.069378565114921534 0 0.1026100945599967 0.055505613264408747 0 0.1115805916839322 0.048741743490307667 0 0.1183353402422497 0.057783242689010132 0 0.1115805916839322 0.048741743490307667 0 0.1183353402422497 0.057783242689010132 0 0.11883342924132261 0.046488442517630763 0 0.1183353402422497 0.057783242689010132 0 0.11883342924132261 0.046488442517630763 0 0.12924827989677509 0.045498500018059863 0 0.11534187855240489 0.032933051325871168 0 0.11292063962577879 0.041031077726388678 0 0.1213180390941878 0.039610316036882427 0 0.11534187855240489 0.032933051325871168 0 0.109920860497948 0.036608784364290638 0 0.10678149162092319 0.031240749472272181 0 0.11534187855240489 0.032933051325871168 0 0.109920860497948 0.036608784364290638 0 0.11292063962577879 0.041031077726388678 0 0.104639432192685 0.041230258932630527 0 0.1115805916839322 0.048741743490307667 0 0.11292063962577879 0.041031077726388678 0 0.1115805916839322 0.048741743490307667 0 0.11292063962577879 0.041031077726388678 0 0.11883342924132261 0.046488442517630763 0 0.11292063962577879 0.041031077726388678 0 0.1213180390941878 0.039610316036882427 0 0.11883342924132261 0.046488442517630763 0 0.1213180390941878 0.039610316036882427 0 0.11883342924132261 0.046488442517630763 0 0.12924827989677509 0.045498500018059863 0 0.11534187855240489 0.032933051325871168 0 0.1213180390941878 0.039610316036882427 0 0.12657754096894899 0.033169311984437747 0 0.11534187855240489 0.032933051325871168 0 0.1192050179883003 0.025289878379008021 0 0.12657754096894899 0.033169311984437747 0 0.11534187855240489 0.032933051325871168 0 0.111549158247362 0.023216751289535761 0 0.10678149162092319 0.031240749472272181 0 0.11534187855240489 0.032933051325871168 0 0.1192050179883003 0.025289878379008021 0 0.111549158247362 0.023216751289535761 0 0.111549158247362 0.023216751289535761 0 0.11443592250114799 0.017584130101141932 0 0.106274661414675 0.01692893778059772 0 0.1192050179883003 0.025289878379008021 0 0.111549158247362 0.023216751289535761 0 0.11443592250114799 0.017584130101141932 0 0.1192050179883003 0.025289878379008021 0 0.11443592250114799 0.017584130101141932 0 0.1239353080246805 0.015523316410563801 0 0.1239353080246805 0.015523316410563801 0 0.1112154668307228 0.0069617666460044213 0 0.1394184874939306 0.0075857919787062364 0 0.1112154668307228 0.0069617666460044213 0 0.1394184874939306 0.0075857919787062364 0 0.1186815333657793 -0.0080996568651242658 0 0.11443592250114799 0.017584130101141932 0 0.1239353080246805 0.015523316410563801 0 0.1112154668307228 0.0069617666460044213 0 0.11443592250114799 0.017584130101141932 0 0.1112154668307228 0.0069617666460044213 0 0.106274661414675 0.01692893778059772 0 0.1112154668307228 0.0069617666460044213 0 0.1006728258854344 0.0067284981921742707 0 0.106274661414675 0.01692893778059772 0 0.106274661414675 0.01692893778059772 0 0.090190712691382735 -0.002244999235090887 0 0.089941950092211786 0.012570042527085899 0 0.106274661414675 0.01692893778059772 0 0.090190712691382735 -0.002244999235090887 0 0.1112154668307228 0.0069617666460044213 0 0.106274661414675 0.01692893778059772 0 0.1006728258854344 0.0067284981921742707 0 0.106274661414675 0.01692893778059772 0 0.090190712691382735 -0.002244999235090887 0 0.1112154668307228 0.0069617666460044213 0 0.1006728258854344 0.0067284981921742707 0 0.1112154668307228 0.0069617666460044213 0 0.1006728258854344 0.0067284981921742707 0 0.1054165138138201 -0.0048713011027633141 0 0.096059235358378847 0.037536691201763409 0 0.098183258058842843 0.022160408079909068 0 0.106274661414675 0.01692893778059772 0 0.089941950092211786 0.012570042527085899 0 0.098183258058842843 0.022160408079909068 0 0.106274661414675 0.01692893778059772 0 0.096059235358378847 0.037536691201763409 0 0.10678149162092319 0.031240749472272181 0 0.106274661414675 0.01692893778059772 0 0.096059235358378847 0.037536691201763409 0 0.106274661414675 0.01692893778059772 0 0.09327145459684992 0.03321916225880657 0 0.096059235358378847 0.037536691201763409 0 0.098183258058842843 0.022160408079909068 0 0.096059235358378847 0.037536691201763409 0 0.098183258058842843 0.022160408079909068 0 0.090657039815479498 0.02761260221752557 0 0.09327145459684992 0.03321916225880657 0 0.098183258058842843 0.022160408079909068 0 0.111549158247362 0.023216751289535761 0 0.10678149162092319 0.031240749472272181 0 0.106274661414675 0.01692893778059772 0 0.111549158247362 0.023216751289535761 0 0.106274661414675 0.01692893778059772 0 0.1068729160657173 0.1091415772908397 0 0.1063848258670575 0.097631464247106656 0 0.098107369409231718 0.1056872943054626 0 0.1063848258670575 0.097631464247106656 0 0.098901367255357725 0.098360746536220289 0 0.099621264379513838 0.090752517511206915 0 0.098901367255357725 0.098360746536220289 0 0.098107369409231718 0.1056872943054626 0 0.090405850800577281 0.10026018731825111 0 0.1063848258670575 0.097631464247106656 0 0.098901367255357725 0.098360746536220289 0 0.098107369409231718 0.1056872943054626 0 0.098901367255357725 0.098360746536220289 0 0.099621264379513838 0.090752517511206915 0 0.090405850800577281 0.10026018731825111 0 0.098107369409231718 0.1056872943054626 0 0.092947523167870846 0.10854554585519 0 0.090405850800577281 0.10026018731825111 0 0.098107369409231718 0.1056872943054626 0 0.094060648690377224 0.11210128309459449 0 0.092947523167870846 0.10854554585519 0 0.1068729160657173 0.1091415772908397 0 0.098107369409231718 0.1056872943054626 0 0.099627253813488553 0.1134470310051468 0 0.098107369409231718 0.1056872943054626 0 0.094060648690377224 0.11210128309459449 0 0.099627253813488553 0.1134470310051468 0 0.094060648690377224 0.11210128309459449 0 0.099627253813488553 0.1134470310051468 0 0.094024046965758182 0.117298107169826 0 0.099627253813488553 0.1134470310051468 0 0.094024046965758182 0.117298107169826 0 0.097732113875080517 0.12216187644950841 0 0.097732113875080517 0.12216187644950841 0 0.091896473568712569 0.1223104214677275 0 0.092941879234427649 0.12859403705842229 0 0.094024046965758182 0.117298107169826 0 0.097732113875080517 0.12216187644950841 0 0.091896473568712569 0.1223104214677275 0 0.099627253813488553 0.1134470310051468 0 0.097732113875080517 0.12216187644950841 0 0.1104450548428248 0.1198156003671198 0 0.097732113875080517 0.12216187644950841 0 0.1104450548428248 0.1198156003671198 0 0.1003664336185331 0.12938797741038191 0 0.1068729160657173 0.1091415772908397 0 0.099627253813488553 0.1134470310051468 0 0.1104450548428248 0.1198156003671198 0 0.1104450548428248 0.1198156003671198 0 0.13190173259588339 0.12673162022164239 0 0.12619853450777779 0.1078330730874123 0 0.1068729160657173 0.1091415772908397 0 0.1104450548428248 0.1198156003671198 0 0.12619853450777779 0.1078330730874123 0 0.1068729160657173 0.1091415772908397 0 0.12619853450777779 0.1078330730874123 0 0.1068729160657173 0.1091415772908397 0 0.1196566717525884 0.095935737169380891 0 0.12619853450777779 0.1078330730874123 0 0.1063848258670575 0.097631464247106656 0 0.1196566717525884 0.095935737169380891 0 0.11254258578381469 0.08804325803868028 0 0.1068729160657173 0.1091415772908397 0 0.1063848258670575 0.097631464247106656 0 0.1196566717525884 0.095935737169380891 0 0.1196566717525884 0.095935737169380891 0 0.12277357628353951 0.084307659091952911 0 0.13172932320218789 0.090527424033019929 0 0.1196566717525884 0.095935737169380891 0 0.12277357628353951 0.084307659091952911 0 0.11254258578381469 0.08804325803868028 0 0.12277357628353951 0.084307659091952911 0 0.11606835485290259 0.077247542885991075 0 0.12601201663717829 0.073782779713414431 0 0.11254258578381469 0.08804325803868028 0 0.11606835485290259 0.077247542885991075 0 0.10682976835084521 0.08057885028869459 0 0.12277357628353951 0.084307659091952911 0 0.11254258578381469 0.08804325803868028 0 0.11606835485290259 0.077247542885991075 0 0.1183353402422497 0.057783242689010132 0 0.11939743099048709 0.067795358029729025 0 0.13133004901314721 0.062710481960249712 0 0.11939743099048709 0.067795358029729025 0 0.11606835485290259 0.077247542885991075 0 0.12601201663717829 0.073782779713414431 0 0.11939743099048709 0.067795358029729025 0 0.11606835485290259 0.077247542885991075 0 0.1098056344569701 0.069378565114921534 0 0.11606835485290259 0.077247542885991075 0 0.1098056344569701 0.069378565114921534 0 0.10682976835084521 0.08057885028869459 0 0.1183353402422497 0.057783242689010132 0 0.11939743099048709 0.067795358029729025 0 0.1098056344569701 0.069378565114921534 0 0.1026100945599967 0.055505613264408747 0 0.1098056344569701 0.069378565114921534 0 0.096507972680286977 0.077882900291329951 0 0.1026100945599967 0.055505613264408747 0 0.096507972680286977 0.077882900291329951 0 0.1026100945599967 0.055505613264408747 0 0.096507972680286977 0.077882900291329951 0 0.092140733212540488 0.065903618916232809 0 0.1098056344569701 0.069378565114921534 0 0.096507972680286977 0.077882900291329951 0 0.10682976835084521 0.08057885028869459 0 0.096507972680286977 0.077882900291329951 0 0.099621264379513838 0.090752517511206915 0 0.090405850800577281 0.10026018731825111 0 0.1063848258670575 0.097631464247106656 0 0.11254258578381469 0.08804325803868028 0 0.099621264379513838 0.090752517511206915 0 0.11254258578381469 0.08804325803868028 0 0.10682976835084521 0.08057885028869459 0 0.099621264379513838 0.090752517511206915 0 0.096507972680286977 0.077882900291329951 0 0.10682976835084521 0.08057885028869459 0 0.099621264379513838 0.090752517511206915 0 0.096507972680286977 0.077882900291329951 0 0.092140733212540488 0.065903618916232809 0 0.088222231066703266 0.09427054663070239 0 0.092140733212540488 0.065903618916232809 0 0.088222231066703266 0.09427054663070239 0 0.096507972680286977 0.077882900291329951 0 0.090405850800577281 0.10026018731825111 0 0.096507972680286977 0.077882900291329951 0 0.090405850800577281 0.10026018731825111 0 0.088222231066703266 0.09427054663070239 0 0.07916600553617581 0.084034169940261444 0 0.092140733212540488 0.065903618916232809 0 0.088222231066703266 0.09427054663070239 0 0.07916600553617581 0.084034169940261444 0 0.079451916767000405 0.093117548951572482 0 0.088222231066703266 0.09427054663070239 0 0.07916600553617581 0.084034169940261444 0 0.092140733212540488 0.065903618916232809 0 0.079346901119473581 0.071250768440399195 0 0.087703068238926749 0.054393729821081559 0 0.092140733212540488 0.065903618916232809 0 0.079346901119473581 0.071250768440399195 0 0.087703068238926749 0.054393729821081559 0 0.079346901119473581 0.071250768440399195 0 0.061737886447169217 0.059380168910106557 0 0.07456544535656473 0.057435498820888983 0 0.069788336229558878 0.073096436122281325 0 0.07456544535656473 0.057435498820888983 0 0.079346901119473581 0.071250768440399195 0 0.069788336229558878 0.073096436122281325 0 0.07916600553617581 0.084034169940261444 0 0.079346901119473581 0.071250768440399195 0 0.069788336229558878 0.073096436122281325 0 0.069788336229558878 0.073096436122281325 0 0.068151406132979639 0.082692951729811323 0 0.060101149528714842 0.074061353615978862 0 0.061737886447169217 0.059380168910106557 0 0.069788336229558878 0.073096436122281325 0 0.060101149528714842 0.074061353615978862 0 0.07916600553617581 0.084034169940261444 0 0.079451916767000405 0.093117548951572482 0 0.073788158930500308 0.089778118978551785 0 0.073788158930500308 0.089778118978551785 0 0.067434982061374202 0.092085149511699521 0 0.074736484154971444 0.096960774759414073 0 0.079451916767000405 0.093117548951572482 0 0.073788158930500308 0.089778118978551785 0 0.074736484154971444 0.096960774759414073 0 0.07916600553617581 0.084034169940261444 0 0.073788158930500308 0.089778118978551785 0 0.068151406132979639 0.082692951729811323 0 0.07916600553617581 0.084034169940261444 0 0.069788336229558878 0.073096436122281325 0 0.068151406132979639 0.082692951729811323 0 0.068151406132979639 0.082692951729811323 0 0.060101149528714842 0.074061353615978862 0 0.059451472415866798 0.086463349349621549 0 0.073788158930500308 0.089778118978551785 0 0.068151406132979639 0.082692951729811323 0 0.067434982061374202 0.092085149511699521 0 0.068151406132979639 0.082692951729811323 0 0.067434982061374202 0.092085149511699521 0 0.059451472415866798 0.086463349349621549 0 0.067434982061374202 0.092085149511699521 0 0.068805539888164999 0.10023901732316889 0 0.06052727451919248 0.09676900528031912 0 0.068805539888164999 0.10023901732316889 0 0.075142511625235844 0.1043198158499633 0 0.066186447080050975 0.11106034121444849 0 0.066186447080050975 0.11106034121444849 0 0.06052727451919248 0.09676900528031912 0 0.068805539888164999 0.10023901732316889 0 0.066186447080050975 0.11106034121444849 0 0.06052727451919248 0.09676900528031912 0 0.075142511625235844 0.1043198158499633 0 0.078026257425687806 0.1114973930597328 0 0.066186447080050975 0.11106034121444849 0 0.067434982061374202 0.092085149511699521 0 0.068805539888164999 0.10023901732316889 0 0.074736484154971444 0.096960774759414073 0 0.068805539888164999 0.10023901732316889 0 0.075142511625235844 0.1043198158499633 0 0.074736484154971444 0.096960774759414073 0 0.075142511625235844 0.1043198158499633 0 0.074736484154971444 0.096960774759414073 0 0.080851470667874237 0.099506210196501868 0 0.090405850800577281 0.10026018731825111 0 0.088222231066703266 0.09427054663070239 0 0.084303728920866822 0.122637474345172 0 0.079451916767000405 0.093117548951572482 0 0.080851470667874237 0.099506210196501868 0 0.088222231066703266 0.09427054663070239 0 0.083594547686872994 0.10808540314963461 0 0.088222231066703266 0.09427054663070239 0 0.084303728920866822 0.122637474345172 0 0.080851470667874237 0.099506210196501868 0 0.083594547686872994 0.10808540314963461 0 0.088222231066703266 0.09427054663070239 0 0.079451916767000405 0.093117548951572482 0 0.074736484154971444 0.096960774759414073 0 0.080851470667874237 0.099506210196501868 0 0.088222231066703266 0.09427054663070239 0 0.084303728920866822 0.122637474345172 0 0.092947523167870846 0.10854554585519 0 0.090405850800577281 0.10026018731825111 0 0.089216223771297162 0.1161334187024516 0 0.075142511625235844 0.1043198158499633 0 0.080851470667874237 0.099506210196501868 0 0.083594547686872994 0.10808540314963461 0 0.075142511625235844 0.1043198158499633 0 0.083594547686872994 0.10808540314963461 0 0.078026257425687806 0.1114973930597328 0 0.090405850800577281 0.10026018731825111 0 0.089216223771297162 0.1161334187024516 0 0.084303728920866822 0.122637474345172 0 0.090405850800577281 0.10026018731825111 0 0.084303728920866822 0.122637474345172 0 0.088605954425768116 0.1215839084594238 0 0.089216223771297162 0.1161334187024516 0 0.084303728920866822 0.122637474345172 0 0.088605954425768116 0.1215839084594238 0 0.084303728920866822 0.122637474345172 0 0.089007391442195868 0.12525431932234421 0 0.088605954425768116 0.1215839084594238 0 0.091896473568712569 0.1223104214677275 0 0.089007391442195868 0.12525431932234421 0 0.088605954425768116 0.1215839084594238 0 0.091896473568712569 0.1223104214677275 0 0.089216223771297162 0.1161334187024516 0 0.094024046965758182 0.117298107169826 0 0.091896473568712569 0.1223104214677275 0 0.089216223771297162 0.1161334187024516 0 0.094060648690377224 0.11210128309459449 0 0.094024046965758182 0.117298107169826 0 0.089216223771297162 0.1161334187024516 0 0.094060648690377224 0.11210128309459449 0 0.092947523167870846 0.10854554585519 0 0.089216223771297162 0.1161334187024516 0 0.083594547686872994 0.10808540314963461 0 0.082816578700130219 0.1155789838255082 0 0.084303728920866822 0.122637474345172 0 0.083594547686872994 0.10808540314963461 0 0.082816578700130219 0.1155789838255082 0 0.078026257425687806 0.1114973930597328 0 0.082816578700130219 0.1155789838255082 0 0.078385618670791968 0.1186453904136909 0 0.078026257425687806 0.1114973930597328 0 0.082816578700130219 0.1155789838255082 0 0.078385618670791968 0.1186453904136909 0 0.08184329714152086 0.1199775606946808 0 0.078385618670791968 0.1186453904136909 0 0.08184329714152086 0.1199775606946808 0 0.081583977945612063 0.122515348520916 0 0.082816578700130219 0.1155789838255082 0 0.08184329714152086 0.1199775606946808 0 0.084303728920866822 0.122637474345172 0 0.08184329714152086 0.1199775606946808 0 0.084303728920866822 0.122637474345172 0 0.081583977945612063 0.122515348520916 0 0.084303728920866822 0.122637474345172 0 0.081583977945612063 0.122515348520916 0 0.078603530777755976 0.12557981141835409 0 0.066186447080050975 0.11106034121444849 0 0.055424221270671592 0.12520309853075071 0 0.071845619640909464 0.12535167714857781 0 0.074197981170891492 0.11695137923273009 0 0.066186447080050975 0.11106034121444849 0 0.071845619640909464 0.12535167714857781 0 0.081583977945612063 0.122515348520916 0 0.078603530777755976 0.12557981141835409 0 0.071845619640909464 0.12535167714857781 0 0.078385618670791968 0.1186453904136909 0 0.074197981170891492 0.11695137923273009 0 0.071845619640909464 0.12535167714857781 0 0.081583977945612063 0.122515348520916 0 0.071845619640909464 0.12535167714857781 0 0.078385618670791968 0.1186453904136909 0 0.081583977945612063 0.122515348520916 0 0.071845619640909464 0.12535167714857781 0 0.078026257425687806 0.1114973930597328 0 0.074197981170891492 0.11695137923273009 0 0.066186447080050975 0.11106034121444849 0 0.078385618670791968 0.1186453904136909 0 0.078026257425687806 0.1114973930597328 0 0.074197981170891492 0.11695137923273009 0 0.066186447080050975 0.11106034121444849 0 0.071845619640909464 0.12535167714857781 0 0.047056567666475153 0.1127632500511619 0 0.051861185119840447 0.0996236356598766 0 0.055424221270671592 0.12520309853075071 0 0.058499781997438882 0.1081640201713487 0 0.051861185119840447 0.0996236356598766 0 0.055424221270671592 0.12520309853075071 0 0.066186447080050975 0.11106034121444849 0 0.058499781997438882 0.1081640201713487 0 0.055424221270671592 0.12520309853075071 0 0.051861185119840447 0.0996236356598766 0 0.055424221270671592 0.12520309853075071 0 0.047056567666475153 0.1127632500511619 0 0.044990336119378888 0.1215935382934524 0 0.055424221270671592 0.12520309853075071 0 0.066186447080050975 0.11106034121444849 0 0.058499781997438882 0.1081640201713487 0 0.06052727451919248 0.09676900528031912 0 0.058499781997438882 0.1081640201713487 0 0.06052727451919248 0.09676900528031912 0 0.051861185119840447 0.0996236356598766 0 0.06052727451919248 0.09676900528031912 0 0.051861185119840447 0.0996236356598766 0 0.059451472415866798 0.086463349349621549 0 0.047056567666475153 0.1127632500511619 0 0.051861185119840447 0.0996236356598766 0 0.043834957280768611 0.1038325564267777 0 0.036235871832989278 0.1009334789706878 0 0.035616913258329358 0.085196189241369819 0 0.02348318981885077 0.10033662342233859 0 0.043834957280768611 0.1038325564267777 0 0.036235871832989278 0.1009334789706878 0 0.037772465249520777 0.1139359301035627 0 0.043834957280768611 0.1038325564267777 0 0.036235871832989278 0.1009334789706878 0 0.043449349950626492 0.092651504865820772 0 0.051861185119840447 0.0996236356598766 0 0.043834957280768611 0.1038325564267777 0 0.043449349950626492 0.092651504865820772 0 0.036235871832989278 0.1009334789706878 0 0.037772465249520777 0.1139359301035627 0 0.027061050510341959 0.1105975282518479 0 0.037772465249520777 0.1139359301035627 0 0.024557959906582778 0.1207113608662482 0 0.034295275469920922 0.1263429534295008 0 0.037772465249520777 0.1139359301035627 0 0.044990336119378888 0.1215935382934524 0 0.034295275469920922 0.1263429534295008 0 0.047056567666475153 0.1127632500511619 0 0.037772465249520777 0.1139359301035627 0 0.044990336119378888 0.1215935382934524 0 0.047056567666475153 0.1127632500511619 0 0.043834957280768611 0.1038325564267777 0 0.037772465249520777 0.1139359301035627 0 0.061737886447169217 0.059380168910106557 0 0.060101149528714842 0.074061353615978862 0 0.048298148969009323 0.074044172789002452 0 0.051861185119840447 0.0996236356598766 0 0.048298148969009323 0.074044172789002452 0 0.051861185119840447 0.0996236356598766 0 0.048298148969009323 0.074044172789002452 0 0.059451472415866798 0.086463349349621549 0 0.051861185119840447 0.0996236356598766 0 0.048298148969009323 0.074044172789002452 0 0.043449349950626492 0.092651504865820772 0 0.060101149528714842 0.074061353615978862 0 0.048298148969009323 0.074044172789002452 0 0.059451472415866798 0.086463349349621549 0 0.067434982061374202 0.092085149511699521 0 0.06052727451919248 0.09676900528031912 0 0.059451472415866798 0.086463349349621549 0 0.036235871832989278 0.1009334789706878 0 0.043449349950626492 0.092651504865820772 0 0.035616913258329358 0.085196189241369819 0 0.048298148969009323 0.074044172789002452 0 0.043449349950626492 0.092651504865820772 0 0.035616913258329358 0.085196189241369819 0 0.025895074102811451 0.058469960211309138 0 0.048298148969009323 0.074044172789002452 0 0.035616913258329358 0.085196189241369819 0 0.025895074102811451 0.058469960211309138 0 0.035616913258329358 0.085196189241369819 0 0.0062649722180432351 0.057751210548817773 0 0.025895074102811451 0.058469960211309138 0 0.01898689904755636 0.073610204842910532 0 0.025895074102811451 0.058469960211309138 0 0.035616913258329358 0.085196189241369819 0 0.01898689904755636 0.073610204842910532 0 0.035616913258329358 0.085196189241369819 0 0.01898689904755636 0.073610204842910532 0 0.021711875470706288 0.087206404810191471 0 0.035616913258329358 0.085196189241369819 0 0.021711875470706288 0.087206404810191471 0 0.02348318981885077 0.10033662342233859 0 0.021711875470706288 0.087206404810191471 0 0.01071928772145486 0.093491319189241362 0 0.02348318981885077 0.10033662342233859 0 0.01898689904755636 0.073610204842910532 0 0.021711875470706288 0.087206404810191471 0 0.0043624206876303551 0.079126651593034655 0 0.021711875470706288 0.087206404810191471 0 0.01071928772145486 0.093491319189241362 0 0.0043624206876303551 0.079126651593034655 0 -0.00278832882414145 0.093432140897515836 0 0.01071928772145486 0.093491319189241362 0 0.0043624206876303551 0.079126651593034655 0 0.0062649722180432351 0.057751210548817773 0 0.01898689904755636 0.073610204842910532 0 0.0043624206876303551 0.079126651593034655 0 0.017562888300967919 0.1127484468018302 0 0.024557959906582778 0.1207113608662482 0 0.027061050510341959 0.1105975282518479 0 0.017562888300967919 0.1127484468018302 0 0.024557959906582778 0.1207113608662482 0 0.010073102219326851 0.1225131567554034 0 0.024557959906582778 0.1207113608662482 0 0.010073102219326851 0.1225131567554034 0 0.021055945695268169 0.13059278844706759 0 0.037772465249520777 0.1139359301035627 0 0.024557959906582778 0.1207113608662482 0 0.027061050510341959 0.1105975282518479 0 0.036235871832989278 0.1009334789706878 0 0.027061050510341959 0.1105975282518479 0 0.02348318981885077 0.10033662342233859 0 0.017562888300967919 0.1127484468018302 0 0.027061050510341959 0.1105975282518479 0 0.02348318981885077 0.10033662342233859 0 0.017562888300967919 0.1127484468018302 0 0.02348318981885077 0.10033662342233859 0 0.0057440419539671996 0.1070541674132964 0 0.01071928772145486 0.093491319189241362 0 0.02348318981885077 0.10033662342233859 0 0.0057440419539671996 0.1070541674132964 0 -0.00278832882414145 0.093432140897515836 0 0.01071928772145486 0.093491319189241362 0 0.0057440419539671996 0.1070541674132964 0 -0.0042797142796552976 0.1179519394458359 0 0.0057440419539671996 0.1070541674132964 0 0.010073102219326851 0.1225131567554034 0 0.017562888300967919 0.1127484468018302 0 0.0057440419539671996 0.1070541674132964 0 0.010073102219326851 0.1225131567554034 0 -0.0003142905406453442 0.1318192574220213 0 -0.0042797142796552976 0.1179519394458359 0 0.010073102219326851 0.1225131567554034 0 0.01268280974215137 0.1335968898396756 0 0.02740884046290477 0.13829403405926999 0 0.0051904508739024149 0.14476521251461599 0 -0.0003142905406453442 0.1318192574220213 0 0.010073102219326851 0.1225131567554034 0 0.01268280974215137 0.1335968898396756 0 -0.0003142905406453442 0.1318192574220213 0 0.01268280974215137 0.1335968898396756 0 0.0051904508739024149 0.14476521251461599 0 0.010073102219326851 0.1225131567554034 0 0.01268280974215137 0.1335968898396756 0 0.021055945695268169 0.13059278844706759 0 0.01268280974215137 0.1335968898396756 0 0.021055945695268169 0.13059278844706759 0 0.02740884046290477 0.13829403405926999 0 0.024557959906582778 0.1207113608662482 0 0.021055945695268169 0.13059278844706759 0 0.034295275469920922 0.1263429534295008 0 0.021055945695268169 0.13059278844706759 0 0.02740884046290477 0.13829403405926999 0 0.034295275469920922 0.1263429534295008 0 0.02740884046290477 0.13829403405926999 0 0.016925905758543101 0.1456651269858702 0 0.0051904508739024149 0.14476521251461599 0 0.03104685685324678 0.15128748971905151 0 0.016925905758543101 0.1456651269858702 0 0.021647757579940329 0.16519529054774279 0 0.02740884046290477 0.13829403405926999 0 0.0051904508739024149 0.14476521251461599 0 0.02740884046290477 0.13829403405926999 0 0.03104685685324678 0.15128748971905151 0 0.016925905758543101 0.1456651269858702 0 -0.001882868246429909 0.16322945810999931 0 0.016925905758543101 0.1456651269858702 0 -0.001882868246429909 0.16322945810999931 0 0.016925905758543101 0.1456651269858702 0 0.0051904508739024149 0.14476521251461599 0 -0.001882868246429909 0.16322945810999931 0 0.016925905758543101 0.1456651269858702 0 0.021647757579940329 0.16519529054774279 0 -0.001882868246429909 0.16322945810999931 0 0.0069528944774667478 0.18020749461745639 0 0.021647757579940329 0.16519529054774279 0 0.0069528944774667478 0.18020749461745639 0 0.037076522541696737 0.1833760582507897 0 0.01346571305733776 0.19820492834305281 0 0.0069528944774667478 0.18020749461745639 0 0.021647757579940329 0.16519529054774279 0 0.037076522541696737 0.1833760582507897 0 0.03104685685324678 0.15128748971905151 0 0.021647757579940329 0.16519529054774279 0 0.041316644011420767 0.16456104136746369 0 0.021647757579940329 0.16519529054774279 0 0.041316644011420767 0.16456104136746369 0 0.037076522541696737 0.1833760582507897 0 0.041316644011420767 0.16456104136746369 0 0.037076522541696737 0.1833760582507897 0 0.060687332026055717 0.1685471881585266 0 0.037076522541696737 0.1833760582507897 0 0.060687332026055717 0.1685471881585266 0 0.037076522541696737 0.1833760582507897 0 0.060687332026055717 0.1685471881585266 0 0.063473464616501191 0.1863005182692779 0 0.041316644011420767 0.16456104136746369 0 0.060687332026055717 0.1685471881585266 0 0.054827891705841098 0.15902558629301039 0 0.041316644011420767 0.16456104136746369 0 0.054827891705841098 0.15902558629301039 0 0.046355936476888251 0.15249324902339209 0 0.060687332026055717 0.1685471881585266 0 0.054827891705841098 0.15902558629301039 0 0.0666205648069845 0.158997900528669 0 0.054827891705841098 0.15902558629301039 0 0.059158981207856211 0.15052855238700069 0 0.0666205648069845 0.158997900528669 0 0.054827891705841098 0.15902558629301039 0 0.059158981207856211 0.15052855238700069 0 0.046355936476888251 0.15249324902339209 0 0.052977132223491513 0.14227727101445431 0 0.046355936476888251 0.15249324902339209 0 0.041483199213687677 0.14323497988401829 0 0.059158981207856211 0.15052855238700069 0 0.052977132223491513 0.14227727101445431 0 0.046355936476888251 0.15249324902339209 0 0.059158981207856211 0.15052855238700069 0 0.052977132223491513 0.14227727101445431 0 0.064216705955324221 0.1413034762135888 0 0.058283682759504379 0.13697813121070121 0 0.064798142731690184 0.13367116159842229 0 0.064216705955324221 0.1413034762135888 0 0.052977132223491513 0.14227727101445431 0 0.058283682759504379 0.13697813121070121 0 0.064216705955324221 0.1413034762135888 0 0.049627230051907098 0.1318228556039239 0 0.071845619640909464 0.12535167714857781 0 0.058283682759504379 0.13697813121070121 0 0.049627230051907098 0.1318228556039239 0 0.064798142731690184 0.13367116159842229 0 0.049627230051907098 0.1318228556039239 0 0.071845619640909464 0.12535167714857781 0 0.064798142731690184 0.13367116159842229 0 0.055424221270671592 0.12520309853075071 0 0.049627230051907098 0.1318228556039239 0 0.071845619640909464 0.12535167714857781 0 0.044990336119378888 0.1215935382934524 0 0.055424221270671592 0.12520309853075071 0 0.049627230051907098 0.1318228556039239 0 0.052977132223491513 0.14227727101445431 0 0.049627230051907098 0.1318228556039239 0 0.041483199213687677 0.14323497988401829 0 0.052977132223491513 0.14227727101445431 0 0.058283682759504379 0.13697813121070121 0 0.049627230051907098 0.1318228556039239 0 0.02740884046290477 0.13829403405926999 0 0.049627230051907098 0.1318228556039239 0 0.034295275469920922 0.1263429534295008 0 0.02740884046290477 0.13829403405926999 0 0.049627230051907098 0.1318228556039239 0 0.02740884046290477 0.13829403405926999 0 0.049627230051907098 0.1318228556039239 0 0.041483199213687677 0.14323497988401829 0 0.044990336119378888 0.1215935382934524 0 0.049627230051907098 0.1318228556039239 0 0.034295275469920922 0.1263429534295008 0 0.02740884046290477 0.13829403405926999 0 0.03104685685324678 0.15128748971905151 0 0.041483199213687677 0.14323497988401829 0 0.03104685685324678 0.15128748971905151 0 0.046355936476888251 0.15249324902339209 0 0.041483199213687677 0.14323497988401829 0 0.03104685685324678 0.15128748971905151 0 0.041316644011420767 0.16456104136746369 0 0.046355936476888251 0.15249324902339209 0 0.025560123354016671 0.23451145291268399 0 0.040613191062103551 0.24305050687108271 0 0.02096260163955577 0.25463352423389651 0 0.025560123354016671 0.23451145291268399 0 0.0055636717745417936 0.2409115006921535 0 0.02096260163955577 0.25463352423389651 0 -0.0098889277353725498 0.22708279255087011 0 0.013978050440634229 0.2263029165741601 0 0.025560123354016671 0.23451145291268399 0 0.0055636717745417936 0.2409115006921535 0 0.013978050440634229 0.2263029165741601 0 -0.0098889277353725498 0.22708279255087011 0 0.0055636717745417936 0.2409115006921535 0 0.013978050440634229 0.2263029165741601 0 0.025560123354016671 0.23451145291268399 0 0.013978050440634229 0.2263029165741601 0 0.02857039565969027 0.2179844941247345 0 0.013978050440634229 0.2263029165741601 0 0.02857039565969027 0.2179844941247345 0 0.01346571305733776 0.19820492834305281 0 0.02857039565969027 0.2179844941247345 0 0.01346571305733776 0.19820492834305281 0 0.036793552239428338 0.20489479708475269 0 -0.010145096427021071 0.2130337984353157 0 0.01346571305733776 0.19820492834305281 0 -0.010145096427021071 0.2130337984353157 0 0.013978050440634229 0.2263029165741601 0 0.01346571305733776 0.19820492834305281 0 -0.01317752082893355 0.19681828710550109 0 0.0069528944774667478 0.18020749461745639 0 0.01346571305733776 0.19820492834305281 0 0.037076522541696737 0.1833760582507897 0 0.01346571305733776 0.19820492834305281 0 0.036793552239428338 0.20489479708475269 0 0.037076522541696737 0.1833760582507897 0 0.01346571305733776 0.19820492834305281 0 0.037076522541696737 0.1833760582507897 0 0.051236842595612439 0.19718077145128929 0 0.036793552239428338 0.20489479708475269 0 0.037076522541696737 0.1833760582507897 0 0.051236842595612439 0.19718077145128929 0 0.063473464616501191 0.1863005182692779 0 0.051236842595612439 0.19718077145128929 0 0.056910102454718878 0.21254075030406841 0 0.036793552239428338 0.20489479708475269 0 0.051236842595612439 0.19718077145128929 0 0.056910102454718878 0.21254075030406841 0 0.073444308258393307 0.20125128888158389 0 0.02857039565969027 0.2179844941247345 0 0.036793552239428338 0.20489479708475269 0 0.043672829547574399 0.22418577498007691 0 0.056910102454718878 0.21254075030406841 0 0.036793552239428338 0.20489479708475269 0 0.043672829547574399 0.22418577498007691 0 0.025560123354016671 0.23451145291268399 0 0.02857039565969027 0.2179844941247345 0 0.043672829547574399 0.22418577498007691 0 0.025560123354016671 0.23451145291268399 0 0.043672829547574399 0.22418577498007691 0 0.040613191062103551 0.24305050687108271 0 0.043672829547574399 0.22418577498007691 0 0.054029698577675013 0.23362545538757681 0 0.040613191062103551 0.24305050687108271 0 0.056910102454718878 0.21254075030406841 0 0.043672829547574399 0.22418577498007691 0 0.05705039134807046 0.22425137925817731 0 0.05705039134807046 0.22425137925817731 0 0.054029698577675013 0.23362545538757681 0 0.069764555973321235 0.22788985208580531 0 0.056910102454718878 0.21254075030406841 0 0.05705039134807046 0.22425137925817731 0 0.069764555973321235 0.22788985208580531 0 0.043672829547574399 0.22418577498007691 0 0.05705039134807046 0.22425137925817731 0 0.054029698577675013 0.23362545538757681 0 0.054029698577675013 0.23362545538757681 0 0.056657288182935181 0.24952246107075299 0 0.040613191062103551 0.24305050687108271 0 0.054029698577675013 0.23362545538757681 0 0.056657288182935181 0.24952246107075299 0 0.069764555973321235 0.22788985208580531 0 0.078950033264493388 0.23865579005553969 0 0.08433526990837717 0.2299046685213377 0 0.094884398846433154 0.2416421449733272 0 0.078950033264493388 0.23865579005553969 0 0.094884398846433154 0.2416421449733272 0 0.078115913588821362 0.25064488401743651 0 0.056657288182935181 0.24952246107075299 0 0.069764555973321235 0.22788985208580531 0 0.056657288182935181 0.24952246107075299 0 0.067650028005513965 0.2431974006797919 0 0.069764555973321235 0.22788985208580531 0 0.078950033264493388 0.23865579005553969 0 0.067650028005513965 0.2431974006797919 0 0.078115913588821362 0.25064488401743651 0 0.067650028005513965 0.2431974006797919 0 0.069764555973321235 0.22788985208580531 0 0.078950033264493388 0.23865579005553969 0 0.067650028005513965 0.2431974006797919 0 0.069764555973321235 0.22788985208580531 0 0.078950033264493388 0.23865579005553969 0 0.069764555973321235 0.22788985208580531 0 0.08433526990837717 0.2299046685213377 0 0.069764555973321235 0.22788985208580531 0 0.075057881503803187 0.2191535965013279 0 0.08433526990837717 0.2299046685213377 0 0.069764555973321235 0.22788985208580531 0 0.075057881503803187 0.2191535965013279 0 0.08433526990837717 0.2299046685213377 0 0.10136125596052151 0.21910564439826641 0 0.094884398846433154 0.2416421449733272 0 0.08433526990837717 0.2299046685213377 0 0.087244901815277595 0.21895151820343359 0 0.10136125596052151 0.21910564439826641 0 0.075057881503803187 0.2191535965013279 0 0.08433526990837717 0.2299046685213377 0 0.087244901815277595 0.21895151820343359 0 0.075057881503803187 0.2191535965013279 0 0.088225199888408545 0.2076421633928022 0 0.073444308258393307 0.20125128888158389 0 0.087244901815277595 0.21895151820343359 0 0.088225199888408545 0.2076421633928022 0 0.10136125596052151 0.21910564439826641 0 0.075057881503803187 0.2191535965013279 0 0.087244901815277595 0.21895151820343359 0 0.088225199888408545 0.2076421633928022 0 0.069764555973321235 0.22788985208580531 0 0.073444308258393307 0.20125128888158389 0 0.069764555973321235 0.22788985208580531 0 0.075057881503803187 0.2191535965013279 0 0.073444308258393307 0.20125128888158389 0 0.056910102454718878 0.21254075030406841 0 0.069764555973321235 0.22788985208580531 0 0.073444308258393307 0.20125128888158389 0 0.073444308258393307 0.20125128888158389 0 0.077124060543464268 0.1746127256773625 0 0.051236842595612439 0.19718077145128929 0 0.073444308258393307 0.20125128888158389 0 0.063473464616501191 0.1863005182692779 0 0.073444308258393307 0.20125128888158389 0 0.087325802838856242 0.19080075871490959 0 0.077124060543464268 0.1746127256773625 0 0.088225199888408545 0.2076421633928022 0 0.073444308258393307 0.20125128888158389 0 0.087325802838856242 0.19080075871490959 0 0.088225199888408545 0.2076421633928022 0 0.087325802838856242 0.19080075871490959 0 0.1006040938741623 0.19562285691952261 0 0.1006040938741623 0.19562285691952261 0 0.10299718948578999 0.19107462022268379 0 0.097975079283526029 0.18633355379607619 0 0.087325802838856242 0.19080075871490959 0 0.1006040938741623 0.19562285691952261 0 0.097975079283526029 0.18633355379607619 0 0.1006040938741623 0.19562285691952261 0 0.1078381130746098 0.19656914382320559 0 0.1078381130746098 0.19656914382320559 0 0.10299718948578999 0.19107462022268379 0 0.1055714717108618 0.18577292635193091 0 0.1006040938741623 0.19562285691952261 0 0.1078381130746098 0.19656914382320559 0 0.10299718948578999 0.19107462022268379 0 0.10299718948578999 0.19107462022268379 0 0.097975079283526029 0.18633355379607619 0 0.1055714717108618 0.18577292635193091 0 0.1078381130746098 0.19656914382320559 0 0.12390658127257249 0.1986710709257791 0 0.1078381130746098 0.19656914382320559 0 0.11764627623634349 0.18886065848434361 0 0.1132243453514456 0.17782751888596859 0 0.1078381130746098 0.19656914382320559 0 0.12390658127257249 0.1986710709257791 0 0.1191389408960629 0.2103128217680319 0 0.1078381130746098 0.19656914382320559 0 0.11764627623634349 0.18886065848434361 0 0.12390658127257249 0.1986710709257791 0 0.11764627623634349 0.18886065848434361 0 0.12390658127257249 0.1986710709257791 0 0.1315838303092437 0.1869937156485495 0 0.1191389408960629 0.2103128217680319 0 0.10136125596052151 0.21910564439826641 0 0.1202654117308936 0.22559744913124369 0 0.1078381130746098 0.19656914382320559 0 0.1191389408960629 0.2103128217680319 0 0.10136125596052151 0.21910564439826641 0 0.12390658127257249 0.1986710709257791 0 0.1191389408960629 0.2103128217680319 0 0.13047676572567601 0.20750739865493131 0 0.1191389408960629 0.2103128217680319 0 0.1202654117308936 0.22559744913124369 0 0.13017575062084791 0.2172098349300946 0 0.088225199888408545 0.2076421633928022 0 0.1006040938741623 0.19562285691952261 0 0.10136125596052151 0.21910564439826641 0 0.1078381130746098 0.19656914382320559 0 0.10136125596052151 0.21910564439826641 0 0.1006040938741623 0.19562285691952261 0 0.1078381130746098 0.19656914382320559 0 0.10136125596052151 0.21910564439826641 0 0.10136125596052151 0.21910564439826641 0 0.1079508969295441 0.2333838151775702 0 0.094884398846433154 0.2416421449733272 0 0.10136125596052151 0.21910564439826641 0 0.094884398846433154 0.2416421449733272 0 0.10136125596052151 0.21910564439826641 0 0.1079508969295441 0.2333838151775702 0 0.1202654117308936 0.22559744913124369 0 0.1079508969295441 0.2333838151775702 0 0.1202654117308936 0.22559744913124369 0 0.12114789904075859 0.23810251080863259 0 0.1079508969295441 0.2333838151775702 0 0.12114789904075859 0.23810251080863259 0 0.10895274041773891 0.2447373791024183 0 0.12114789904075859 0.23810251080863259 0 0.118467602947705 0.24904918409112489 0 0.10895274041773891 0.2447373791024183 0 0.118467602947705 0.24904918409112489 0 0.10895274041773891 0.2447373791024183 0 0.1094825115753742 0.25419496519862578 0 0.1079508969295441 0.2333838151775702 0 0.10895274041773891 0.2447373791024183 0 0.094884398846433154 0.2416421449733272 0 0.10895274041773891 0.2447373791024183 0 0.094884398846433154 0.2416421449733272 0 0.099659974724104566 0.25447815284378172 0 0.083140342164208417 0.14251932359315311 0 0.080803812828535368 0.14797416247314099 0 0.084808187072853605 0.13335469427271479 0 0.083140342164208417 0.14251932359315311 0 0.080803812828535368 0.14797416247314099 0 0.08785014224654851 0.14574650275247131 0 0.078598290213438171 0.1424044675639099 0 0.080803812828535368 0.14797416247314099 0 0.080803812828535368 0.14797416247314099 0 0.086613278409488278 0.16264503941182959 0 0.080803812828535368 0.14797416247314099 0 0.091555290577842688 0.15270743765646719 0 0.086613278409488278 0.16264503941182959 0 0.080803812828535368 0.14797416247314099 0 0.091555290577842688 0.15270743765646719 0 0.08785014224654851 0.14574650275247131 0 0.091555290577842688 0.15270743765646719 0 0.08785014224654851 0.14574650275247131 0 0.094789943846897179 0.1446069342275105 0 0.083140342164208417 0.14251932359315311 0 0.08785014224654851 0.14574650275247131 0 0.088961321815258954 0.1409246558120848 0 0.088961321815258954 0.1409246558120848 0 0.093384252384933794 0.13872816636909191 0 0.094789943846897179 0.1446069342275105 0 0.08785014224654851 0.14574650275247131 0 0.088961321815258954 0.1409246558120848 0 0.094789943846897179 0.1446069342275105 0 0.088961321815258954 0.1409246558120848 0 0.093384252384933794 0.13872816636909191 0 0.090032441161565502 0.1350291443210436 0 0.084303728920866822 0.122637474345172 0 0.078598290213438171 0.1424044675639099 0 0.084303728920866822 0.122637474345172 0 0.080803812828535368 0.14797416247314099 0 0.084303728920866822 0.122637474345172 0 0.078598290213438171 0.1424044675639099 0 0.080803812828535368 0.14797416247314099 0 0.084303728920866822 0.122637474345172 0 0.080803812828535368 0.14797416247314099 0 0.084808187072853605 0.13335469427271479 0 0.084303728920866822 0.122637474345172 0 0.078598290213438171 0.1424044675639099 0 0.078432759409929387 0.13008832848171209 0 0.093384252384933794 0.13872816636909191 0 0.090032441161565502 0.1350291443210436 0 0.095090873582784813 0.13384702748189201 0 0.090032441161565502 0.1350291443210436 0 0.086735573053471612 0.1379569544997491 0 0.084808187072853605 0.13335469427271479 0 0.083140342164208417 0.14251932359315311 0 0.088961321815258954 0.1409246558120848 0 0.086735573053471612 0.1379569544997491 0 0.088961321815258954 0.1409246558120848 0 0.090032441161565502 0.1350291443210436 0 0.086735573053471612 0.1379569544997491 0 0.092941879234427649 0.12859403705842229 0 0.088218725566381884 0.12897393386393941 0 0.089007391442195868 0.12525431932234421 0 0.091896473568712569 0.1223104214677275 0 0.092941879234427649 0.12859403705842229 0 0.089007391442195868 0.12525431932234421 0 0.090032441161565502 0.1350291443210436 0 0.092941879234427649 0.12859403705842229 0 0.095090873582784813 0.13384702748189201 0 0.090032441161565502 0.1350291443210436 0 0.092941879234427649 0.12859403705842229 0 0.088218725566381884 0.12897393386393941 0 0.090032441161565502 0.1350291443210436 0 0.088218725566381884 0.12897393386393941 0 0.084808187072853605 0.13335469427271479 0 0.084303728920866822 0.122637474345172 0 0.088218725566381884 0.12897393386393941 0 0.089007391442195868 0.12525431932234421 0 0.084303728920866822 0.122637474345172 0 0.088218725566381884 0.12897393386393941 0 0.084808187072853605 0.13335469427271479 0 0.084303728920866822 0.122637474345172 0 0.078432759409929387 0.13008832848171209 0 0.078603530777755976 0.12557981141835409 0 0.083140342164208417 0.14251932359315311 0 0.086735573053471612 0.1379569544997491 0 0.084808187072853605 0.13335469427271479 0 0.078598290213438171 0.1424044675639099 0 0.078432759409929387 0.13008832848171209 0 0.071845619640909464 0.12535167714857781 0 0.078598290213438171 0.1424044675639099 0 0.070328757310217149 0.1393522201272665 0 0.071845619640909464 0.12535167714857781 0 0.078598290213438171 0.1424044675639099 0 0.071845619640909464 0.12535167714857781 0 0.078432759409929387 0.13008832848171209 0 0.078603530777755976 0.12557981141835409 0 0.071845619640909464 0.12535167714857781 0 0.070328757310217149 0.1393522201272665 0 0.071845619640909464 0.12535167714857781 0 0.064798142731690184 0.13367116159842229 0 0.070328757310217149 0.1393522201272665 0 0.064798142731690184 0.13367116159842229 0 0.064216705955324221 0.1413034762135888 0 0.070328757310217149 0.1393522201272665 0 0.064216705955324221 0.1413034762135888 0 0.069979505394626579 0.14846062320260281 0 0.059158981207856211 0.15052855238700069 0 0.064216705955324221 0.1413034762135888 0 0.069979505394626579 0.14846062320260281 0 0.078598290213438171 0.1424044675639099 0 0.080803812828535368 0.14797416247314099 0 0.070328757310217149 0.1393522201272665 0 0.080803812828535368 0.14797416247314099 0 0.070328757310217149 0.1393522201272665 0 0.069979505394626579 0.14846062320260281 0 0.080803812828535368 0.14797416247314099 0 0.069979505394626579 0.14846062320260281 0 0.073631985893402682 0.1575113529704438 0 0.069979505394626579 0.14846062320260281 0 0.0666205648069845 0.158997900528669 0 0.073631985893402682 0.1575113529704438 0 0.059158981207856211 0.15052855238700069 0 0.069979505394626579 0.14846062320260281 0 0.0666205648069845 0.158997900528669 0 0.080803812828535368 0.14797416247314099 0 0.073631985893402682 0.1575113529704438 0 0.077124060543464268 0.1746127256773625 0 0.060687332026055717 0.1685471881585266 0 0.0666205648069845 0.158997900528669 0 0.077124060543464268 0.1746127256773625 0 0.0666205648069845 0.158997900528669 0 0.073631985893402682 0.1575113529704438 0 0.077124060543464268 0.1746127256773625 0 0.073444308258393307 0.20125128888158389 0 0.063473464616501191 0.1863005182692779 0 0.077124060543464268 0.1746127256773625 0 0.060687332026055717 0.1685471881585266 0 0.063473464616501191 0.1863005182692779 0 0.077124060543464268 0.1746127256773625 0 0.087325802838856242 0.19080075871490959 0 0.077124060543464268 0.1746127256773625 0 0.092422743990441036 0.1773159163505181 0 0.087325802838856242 0.19080075871490959 0 0.092422743990441036 0.1773159163505181 0 0.097975079283526029 0.18633355379607619 0 0.080803812828535368 0.14797416247314099 0 0.077124060543464268 0.1746127256773625 0 0.080803812828535368 0.14797416247314099 0 0.077124060543464268 0.1746127256773625 0 0.086613278409488278 0.16264503941182959 0 0.077124060543464268 0.1746127256773625 0 0.092422743990441036 0.1773159163505181 0 0.086613278409488278 0.16264503941182959 0 0.092422743990441036 0.1773159163505181 0 0.086613278409488278 0.16264503941182959 0 0.092422743990441036 0.1773159163505181 0 0.086613278409488278 0.16264503941182959 0 0.097158015812130086 0.1642279996531619 0 0.091555290577842688 0.15270743765646719 0 0.086613278409488278 0.16264503941182959 0 0.097158015812130086 0.1642279996531619 0 0.091555290577842688 0.15270743765646719 0 0.097158015812130086 0.1642279996531619 0 0.1019558387290859 0.15210486691999819 0 0.097158015812130086 0.1642279996531619 0 0.1074763501532815 0.16502949610107259 0 0.1029245930126412 0.175565241479086 0 0.1074763501532815 0.16502949610107259 0 0.1116064443651567 0.15339237123229671 0 0.1019558387290859 0.15210486691999819 0 0.097158015812130086 0.1642279996531619 0 0.1074763501532815 0.16502949610107259 0 0.1019558387290859 0.15210486691999819 0 0.1078381130746098 0.19656914382320559 0 0.1055714717108618 0.18577292635193091 0 0.1132243453514456 0.17782751888596859 0 0.092422743990441036 0.1773159163505181 0 0.097975079283526029 0.18633355379607619 0 0.1029245930126412 0.175565241479086 0 0.092422743990441036 0.1773159163505181 0 0.097158015812130086 0.1642279996531619 0 0.1029245930126412 0.175565241479086 0 0.1074763501532815 0.16502949610107259 0 0.1029245930126412 0.175565241479086 0 0.1132243453514456 0.17782751888596859 0 0.1029245930126412 0.175565241479086 0 0.1055714717108618 0.18577292635193091 0 0.1132243453514456 0.17782751888596859 0 0.097975079283526029 0.18633355379607619 0 0.1029245930126412 0.175565241479086 0 0.1055714717108618 0.18577292635193091 0 0.1078381130746098 0.19656914382320559 0 0.1132243453514456 0.17782751888596859 0 0.1132243453514456 0.17782751888596859 0 0.123192611147953 0.17321443326874361 0 0.1214117657612465 0.18172408157190131 0 0.11764627623634349 0.18886065848434361 0 0.1132243453514456 0.17782751888596859 0 0.1214117657612465 0.18172408157190131 0 0.11764627623634349 0.18886065848434361 0 0.1214117657612465 0.18172408157190131 0 0.1315838303092437 0.1869937156485495 0 0.1132243453514456 0.17782751888596859 0 0.123192611147953 0.17321443326874361 0 0.1186105776282813 0.15908589394873171 0 0.1074763501532815 0.16502949610107259 0 0.1132243453514456 0.17782751888596859 0 0.1186105776282813 0.15908589394873171 0 0.1132243453514456 0.17782751888596859 0 0.1186105776282813 0.15908589394873171 0 0.1074763501532815 0.16502949610107259 0 0.1186105776282813 0.15908589394873171 0 0.1116064443651567 0.15339237123229671 0 0.123192611147953 0.17321443326874361 0 0.1186105776282813 0.15908589394873171 0 0.13204592567716131 0.16909290089691831 0 0.1186105776282813 0.15908589394873171 0 0.1243800309471846 0.15285042776381211 0 0.13046594620468629 0.15877742241715781 0 0.1186105776282813 0.15908589394873171 0 0.1243800309471846 0.15285042776381211 0 0.1182793122419275 0.1469386715592986 0 0.1182793122419275 0.1469386715592986 0 0.1116064443651567 0.15339237123229671 0 0.1093694408559191 0.14479602422594329 0 0.1182793122419275 0.1469386715592986 0 0.1093694408559191 0.14479602422594329 0 0.1161973560538236 0.13727865048767349 0 0.1186105776282813 0.15908589394873171 0 0.1182793122419275 0.1469386715592986 0 0.1116064443651567 0.15339237123229671 0 0.1116064443651567 0.15339237123229671 0 0.1019558387290859 0.15210486691999819 0 0.1093694408559191 0.14479602422594329 0 0.1019558387290859 0.15210486691999819 0 0.1093694408559191 0.14479602422594329 0 0.10245063710078819 0.1427659943383279 0 0.1093694408559191 0.14479602422594329 0 0.10245063710078819 0.1427659943383279 0 0.1074086005575747 0.13482633406766739 0 0.1019558387290859 0.15210486691999819 0 0.10245063710078819 0.1427659943383279 0 0.094789943846897179 0.1446069342275105 0 0.10245063710078819 0.1427659943383279 0 0.094789943846897179 0.1446069342275105 0 0.098729361514463959 0.13749581225052021 0 0.091555290577842688 0.15270743765646719 0 0.1019558387290859 0.15210486691999819 0 0.094789943846897179 0.1446069342275105 0 0.097732113875080517 0.12216187644950841 0 0.092941879234427649 0.12859403705842229 0 0.1003664336185331 0.12938797741038191 0 0.092941879234427649 0.12859403705842229 0 0.1003664336185331 0.12938797741038191 0 0.095090873582784813 0.13384702748189201 0 0.093384252384933794 0.13872816636909191 0 0.095090873582784813 0.13384702748189201 0 0.098729361514463959 0.13749581225052021 0 0.1003664336185331 0.12938797741038191 0 0.095090873582784813 0.13384702748189201 0 0.098729361514463959 0.13749581225052021 0 0.093384252384933794 0.13872816636909191 0 0.094789943846897179 0.1446069342275105 0 0.098729361514463959 0.13749581225052021 0 0.1003664336185331 0.12938797741038191 0 0.098729361514463959 0.13749581225052021 0 0.1074086005575747 0.13482633406766739 0 0.10245063710078819 0.1427659943383279 0 0.098729361514463959 0.13749581225052021 0 0.1074086005575747 0.13482633406766739 0 0.1104450548428248 0.1198156003671198 0 0.1003664336185331 0.12938797741038191 0 0.1074086005575747 0.13482633406766739 0 0.1182793122419275 0.1469386715592986 0 0.1161973560538236 0.13727865048767349 0 0.13190173259588339 0.12673162022164239 0 0.1104450548428248 0.1198156003671198 0 0.1161415659812093 0.12989553680181759 0 0.13190173259588339 0.12673162022164239 0 0.1161415659812093 0.12989553680181759 0 0.1161973560538236 0.13727865048767349 0 0.13190173259588339 0.12673162022164239 0 0.1104450548428248 0.1198156003671198 0 0.1074086005575747 0.13482633406766739 0 0.1161415659812093 0.12989553680181759 0 0.1093694408559191 0.14479602422594329 0 0.1074086005575747 0.13482633406766739 0 0.1161973560538236 0.13727865048767349 0 0.1074086005575747 0.13482633406766739 0 0.1161415659812093 0.12989553680181759 0 0.1161973560538236 0.13727865048767349 0 0.1182793122419275 0.1469386715592986 0 0.13190173259588339 0.12673162022164239 0 0.13190173259588339 0.12673162022164239 0 0.15040551593688459 0.14365968030587239 0 0.1325441095352031 0.14436720386734861 0 0.1182793122419275 0.1469386715592986 0 0.13190173259588339 0.12673162022164239 0 0.1325441095352031 0.14436720386734861 0 0.13190173259588339 0.12673162022164239 0 0.15040551593688459 0.14365968030587239 0 0.15566547781771581 0.1200913342755673 0 0.15040551593688459 0.14365968030587239 0 0.14642666302570551 0.16035564631950441 0 0.17142690398241431 0.15889984410546859 0 0.15040551593688459 0.14365968030587239 0 0.13046594620468629 0.15877742241715781 0 0.14642666302570551 0.16035564631950441 0 0.15040551593688459 0.14365968030587239 0 0.13046594620468629 0.15877742241715781 0 0.15040551593688459 0.14365968030587239 0 0.1325441095352031 0.14436720386734861 0 0.13046594620468629 0.15877742241715781 0 0.1243800309471846 0.15285042776381211 0 0.1182793122419275 0.1469386715592986 0 0.1325441095352031 0.14436720386734861 0 0.1243800309471846 0.15285042776381211 0 0.1325441095352031 0.14436720386734861 0 0.13046594620468629 0.15877742241715781 0 0.1186105776282813 0.15908589394873171 0 0.13046594620468629 0.15877742241715781 0 0.13204592567716131 0.16909290089691831 0 0.13204592567716131 0.16909290089691831 0 0.14199592574709841 0.17613029377882289 0 0.14642666302570551 0.16035564631950441 0 0.13046594620468629 0.15877742241715781 0 0.13204592567716131 0.16909290089691831 0 0.14642666302570551 0.16035564631950441 0 0.13204592567716131 0.16909290089691831 0 0.1315838303092437 0.1869937156485495 0 0.14199592574709841 0.17613029377882289 0 0.123192611147953 0.17321443326874361 0 0.13204592567716131 0.16909290089691831 0 0.1315838303092437 0.1869937156485495 0 0.123192611147953 0.17321443326874361 0 0.1315838303092437 0.1869937156485495 0 0.123192611147953 0.17321443326874361 0 0.1214117657612465 0.18172408157190131 0 0.1315838303092437 0.1869937156485495 0 0.1315838303092437 0.1869937156485495 0 0.1451572530324764 0.1866763704657326 0 0.14199592574709841 0.17613029377882289 0 0.1451572530324764 0.1866763704657326 0 0.14199592574709841 0.17613029377882289 0 0.15887058481460239 0.17714543221290921 0 0.1451572530324764 0.1866763704657326 0 0.15887058481460239 0.17714543221290921 0 0.1533608748209026 0.19233941266002649 0 0.14199592574709841 0.17613029377882289 0 0.14642666302570551 0.16035564631950441 0 0.15887058481460239 0.17714543221290921 0 0.17142690398241431 0.15889984410546859 0 0.15887058481460239 0.17714543221290921 0 0.18251002009012271 0.17807605785514791 0 0.14642666302570551 0.16035564631950441 0 0.17142690398241431 0.15889984410546859 0 0.15887058481460239 0.17714543221290921 0 0.15887058481460239 0.17714543221290921 0 0.18251002009012271 0.17807605785514791 0 0.15887058481460239 0.17714543221290921 0 0.18251002009012271 0.17807605785514791 0 0.17117578552144461 0.1894664661520416 0 0.15887058481460239 0.17714543221290921 0 0.162098489802776 0.19170309745154779 0 0.17117578552144461 0.1894664661520416 0 0.15887058481460239 0.17714543221290921 0 0.1533608748209026 0.19233941266002649 0 0.162098489802776 0.19170309745154779 0 0.17142690398241431 0.15889984410546859 0 0.18251002009012271 0.17807605785514791 0 0.1879622090528916 0.16424354072180611 0 0.17142690398241431 0.15889984410546859 0 0.19008086165683691 0.15059846206783681 0 0.1879622090528916 0.16424354072180611 0 0.17142690398241431 0.15889984410546859 0 0.18087273719760719 0.13996272140628641 0 0.19008086165683691 0.15059846206783681 0 0.17142690398241431 0.15889984410546859 0 0.18087273719760719 0.13996272140628641 0 0.16765519519117089 0.14345397686318789 0 0.18087273719760719 0.13996272140628641 0 0.1874582289227715 0.1273740841456501 0 0.1703450856690828 0.12854193819458701 0 0.18087273719760719 0.13996272140628641 0 0.1703450856690828 0.12854193819458701 0 0.16765519519117089 0.14345397686318789 0 0.15040551593688459 0.14365968030587239 0 0.1703450856690828 0.12854193819458701 0 0.15040551593688459 0.14365968030587239 0 0.1703450856690828 0.12854193819458701 0 0.16765519519117089 0.14345397686318789 0 0.15040551593688459 0.14365968030587239 0 0.1703450856690828 0.12854193819458701 0 0.15566547781771581 0.1200913342755673 0 0.15040551593688459 0.14365968030587239 0 0.17142690398241431 0.15889984410546859 0 0.16765519519117089 0.14345397686318789 0 0.14903520139962251 0.23689281747845681 0 0.1656078887783792 0.24286487100056081 0 0.15172676458886999 0.25280479892033159 0 0.14903520139962251 0.23689281747845681 0 0.13696268387962379 0.24645699857620559 0 0.15172676458886999 0.25280479892033159 0 0.14903520139962251 0.23689281747845681 0 0.13696268387962379 0.24645699857620559 0 0.13455494172050589 0.23025582407442199 0 0.13696268387962379 0.24645699857620559 0 0.13455494172050589 0.23025582407442199 0 0.12114789904075859 0.23810251080863259 0 0.118467602947705 0.24904918409112489 0 0.13696268387962379 0.24645699857620559 0 0.12114789904075859 0.23810251080863259 0 0.13696268387962379 0.24645699857620559 0 0.13455494172050589 0.23025582407442199 0 0.1202654117308936 0.22559744913124369 0 0.12114789904075859 0.23810251080863259 0 0.13455494172050589 0.23025582407442199 0 0.1202654117308936 0.22559744913124369 0 0.13455494172050589 0.23025582407442199 0 0.13017575062084791 0.2172098349300946 0 0.13455494172050589 0.23025582407442199 0 0.14124666174094461 0.22328400113237629 0 0.13017575062084791 0.2172098349300946 0 0.14903520139962251 0.23689281747845681 0 0.15279146912445679 0.221818934514458 0 0.1656078887783792 0.24286487100056081 0 0.14124666174094461 0.22328400113237629 0 0.15279146912445679 0.221818934514458 0 0.13900066720038279 0.21376626628953449 0 0.14903520139962251 0.23689281747845681 0 0.13455494172050589 0.23025582407442199 0 0.14124666174094461 0.22328400113237629 0 0.14903520139962251 0.23689281747845681 0 0.14124666174094461 0.22328400113237629 0 0.15279146912445679 0.221818934514458 0 0.1434547364217762 0.20648701743040651 0 0.16725134579478609 0.2124949378466979 0 0.1434547364217762 0.20648701743040651 0 0.13997504947053499 0.20077299802835491 0 0.1639774133247088 0.20383273609747329 0 0.15279146912445679 0.221818934514458 0 0.1434547364217762 0.20648701743040651 0 0.16725134579478609 0.2124949378466979 0 0.1434547364217762 0.20648701743040651 0 0.13900066720038279 0.21376626628953449 0 0.13997504947053499 0.20077299802835491 0 0.1434547364217762 0.20648701743040651 0 0.13997504947053499 0.20077299802835491 0 0.15279146912445679 0.221818934514458 0 0.1434547364217762 0.20648701743040651 0 0.13900066720038279 0.21376626628953449 0 0.15279146912445679 0.221818934514458 0 0.1434547364217762 0.20648701743040651 0 0.14124666174094461 0.22328400113237629 0 0.13900066720038279 0.21376626628953449 0 0.13017575062084791 0.2172098349300946 0 0.13900066720038279 0.21376626628953449 0 0.13017575062084791 0.2172098349300946 0 0.13047676572567601 0.20750739865493131 0 0.1191389408960629 0.2103128217680319 0 0.13017575062084791 0.2172098349300946 0 0.13047676572567601 0.20750739865493131 0 0.13900066720038279 0.21376626628953449 0 0.13047676572567601 0.20750739865493131 0 0.13997504947053499 0.20077299802835491 0 0.12390658127257249 0.1986710709257791 0 0.1315838303092437 0.1869937156485495 0 0.13997504947053499 0.20077299802835491 0 0.12390658127257249 0.1986710709257791 0 0.13997504947053499 0.20077299802835491 0 0.12390658127257249 0.1986710709257791 0 0.13047676572567601 0.20750739865493131 0 0.13997504947053499 0.20077299802835491 0 0.1315838303092437 0.1869937156485495 0 0.1451572530324764 0.1866763704657326 0 0.13997504947053499 0.20077299802835491 0 0.1315838303092437 0.1869937156485495 0 0.13997504947053499 0.20077299802835491 0 0.1451572530324764 0.1866763704657326 0 0.13997504947053499 0.20077299802835491 0 0.1533608748209026 0.19233941266002649 0 0.13997504947053499 0.20077299802835491 0 0.1639774133247088 0.20383273609747329 0 0.13997504947053499 0.20077299802835491 0 0.1533608748209026 0.19233941266002649 0 0.1639774133247088 0.20383273609747329 0 0.1533608748209026 0.19233941266002649 0 0.162098489802776 0.19170309745154779 0 0.1639774133247088 0.20383273609747329 0 0.162098489802776 0.19170309745154779 0 0.17117578552144461 0.1894664661520416 0 0.1639774133247088 0.20383273609747329 0 0.18251002009012271 0.17807605785514791 0 0.17117578552144461 0.1894664661520416 0 0.1859145724301936 0.1958675937781903 0 0.1859145724301936 0.1958675937781903 0 0.18456069702556921 0.20660527648994559 0 0.1639774133247088 0.20383273609747329 0 0.17117578552144461 0.1894664661520416 0 0.1859145724301936 0.1958675937781903 0 0.1639774133247088 0.20383273609747329 0 0.1859145724301936 0.1958675937781903 0 0.1639774133247088 0.20383273609747329 0 0.16725134579478609 0.2124949378466979 0 0.1908219025480721 0.2186405183400387 0 0.18456069702556921 0.20660527648994559 0 0.16725134579478609 0.2124949378466979 0 0.1639774133247088 0.20383273609747329 0 0.18456069702556921 0.20660527648994559 0 0.16725134579478609 0.2124949378466979 0 0.1908219025480721 0.2186405183400387 0 0.18456069702556921 0.20660527648994559 0 0.1639774133247088 0.20383273609747329 0 0.1434547364217762 0.20648701743040651 0 0.16725134579478609 0.2124949378466979 0 0.1639774133247088 0.20383273609747329 0 0.15279146912445679 0.221818934514458 0 0.1656078887783792 0.24286487100056081 0 0.16546546645365251 0.22644271814046399 0 0.17621116211698801 0.22859212920013941 0 0.1656078887783792 0.24286487100056081 0 0.15279146912445679 0.221818934514458 0 0.16546546645365251 0.22644271814046399 0 0.1656078887783792 0.24286487100056081 0 0.16725134579478609 0.2124949378466979 0 0.16546546645365251 0.22644271814046399 0 0.17621116211698801 0.22859212920013941 0 0.15279146912445679 0.221818934514458 0 0.16725134579478609 0.2124949378466979 0 0.16546546645365251 0.22644271814046399 0 0.16725134579478609 0.2124949378466979 0 0.17621116211698801 0.22859212920013941 0 0.1908219025480721 0.2186405183400387 0 0.17621116211698801 0.22859212920013941 0 0.19409285738638249 0.23185535603457741 0 0.1908219025480721 0.2186405183400387 0 0.17621116211698801 0.22859212920013941 0 0.18515818986685109 0.24523198137830499 0 0.1656078887783792 0.24286487100056081 0 0.17621116211698801 0.22859212920013941 0 0.18515818986685109 0.24523198137830499 0 0.19409285738638249 0.23185535603457741 0 0.20388057309864299 0.2420260524210241 0 0.214392459301358 0.22478609883337949 0 0.22311456895561979 0.24210018387613991 0 0.20388057309864299 0.2420260524210241 0 0.22311456895561979 0.24210018387613991 0 0.21441946711031809 0.25343142140150932 0 0.18515818986685109 0.24523198137830499 0 0.20388057309864299 0.2420260524210241 0 0.19409285738638249 0.23185535603457741 0 0.18515818986685109 0.24523198137830499 0 0.20388057309864299 0.2420260524210241 0 0.2001597603643252 0.25953991024648271 0 0.19409285738638249 0.23185535603457741 0 0.214392459301358 0.22478609883337949 0 0.1908219025480721 0.2186405183400387 0 0.214392459301358 0.22478609883337949 0 0.1908219025480721 0.2186405183400387 0 0.20388057309864299 0.2420260524210241 0 0.19409285738638249 0.23185535603457741 0 0.214392459301358 0.22478609883337949 0 0.2051542730281059 0.2092991359795606 0 0.2257478490306426 0.21199299546917549 0 0.214392459301358 0.22478609883337949 0 0.2051542730281059 0.2092991359795606 0 0.2257478490306426 0.21199299546917549 0 0.214392459301358 0.22478609883337949 0 0.2051542730281059 0.2092991359795606 0 0.1908219025480721 0.2186405183400387 0 0.2051542730281059 0.2092991359795606 0 0.2136444703394772 0.19902406040407949 0 0.2257478490306426 0.21199299546917549 0 0.18456069702556921 0.20660527648994559 0 0.2051542730281059 0.2092991359795606 0 0.18456069702556921 0.20660527648994559 0 0.2051542730281059 0.2092991359795606 0 0.1908219025480721 0.2186405183400387 0 0.18456069702556921 0.20660527648994559 0 0.2051542730281059 0.2092991359795606 0 0.19412176773178141 0.20265036865301361 0 0.2051542730281059 0.2092991359795606 0 0.20085752844325711 0.1988294683643578 0 0.19412176773178141 0.20265036865301361 0 0.1859145724301936 0.1958675937781903 0 0.20085752844325711 0.1988294683643578 0 0.20785173153567851 0.18790245145890719 0 0.1859145724301936 0.1958675937781903 0 0.20785173153567851 0.18790245145890719 0 0.1859145724301936 0.1958675937781903 0 0.20785173153567851 0.18790245145890719 0 0.1946782988782447 0.1858125368520685 0 0.1859145724301936 0.1958675937781903 0 0.20085752844325711 0.1988294683643578 0 0.19412176773178141 0.20265036865301361 0 0.1859145724301936 0.1958675937781903 0 0.18456069702556921 0.20660527648994559 0 0.19412176773178141 0.20265036865301361 0 0.20085752844325711 0.1988294683643578 0 0.20785173153567851 0.18790245145890719 0 0.2136444703394772 0.19902406040407949 0 0.2051542730281059 0.2092991359795606 0 0.20085752844325711 0.1988294683643578 0 0.2136444703394772 0.19902406040407949 0 0.20785173153567851 0.18790245145890719 0 0.2136444703394772 0.19902406040407949 0 0.22057863514703391 0.19004572878947329 0 0.2235572518935548 0.19725204228771459 0 0.22882230825823141 0.18780321980362219 0 0.24670152663981329 0.2095518619195684 0 0.22057863514703391 0.19004572878947329 0 0.2235572518935548 0.19725204228771459 0 0.22882230825823141 0.18780321980362219 0 0.2136444703394772 0.19902406040407949 0 0.22057863514703391 0.19004572878947329 0 0.2235572518935548 0.19725204228771459 0 0.2136444703394772 0.19902406040407949 0 0.2235572518935548 0.19725204228771459 0 0.2257478490306426 0.21199299546917549 0 0.22882230825823141 0.18780321980362219 0 0.24246650748536 0.19450163292084799 0 0.24670152663981329 0.2095518619195684 0 0.22882230825823141 0.18780321980362219 0 0.24670152663981329 0.2095518619195684 0 0.22882230825823141 0.18780321980362219 0 0.24246650748536 0.19450163292084799 0 0.23785895048436051 0.18613779601937941 0 0.24246650748536 0.19450163292084799 0 0.24894719752453329 0.18612638269812559 0 0.25318772352235269 0.19758411353432501 0 0.24246650748536 0.19450163292084799 0 0.23785895048436051 0.18613779601937941 0 0.24894719752453329 0.18612638269812559 0 0.24246650748536 0.19450163292084799 0 0.24670152663981329 0.2095518619195684 0 0.25318772352235269 0.19758411353432501 0 0.2235572518935548 0.19725204228771459 0 0.24670152663981329 0.2095518619195684 0 0.23859066343446639 0.21961930472390831 0 0.2235572518935548 0.19725204228771459 0 0.2257478490306426 0.21199299546917549 0 0.23859066343446639 0.21961930472390831 0 0.2235572518935548 0.19725204228771459 0 0.23859066343446639 0.21961930472390831 0 0.214392459301358 0.22478609883337949 0 0.2379630160546439 0.23093167932672029 0 0.22311456895561979 0.24210018387613991 0 0.214392459301358 0.22478609883337949 0 0.23859066343446639 0.21961930472390831 0 0.2379630160546439 0.23093167932672029 0 0.214392459301358 0.22478609883337949 0 0.2257478490306426 0.21199299546917549 0 0.23859066343446639 0.21961930472390831 0 0.214392459301358 0.22478609883337949 0 0.2379630160546439 0.23093167932672029 0 0.23859066343446639 0.21961930472390831 0 0.24293490430991169 0.2356795922548468 0 0.25362407497537798 0.24198656716010189 0 0.23859066343446639 0.21961930472390831 0 0.2379630160546439 0.23093167932672029 0 0.24293490430991169 0.2356795922548468 0 0.23859066343446639 0.21961930472390831 0 0.25362407497537798 0.24198656716010189 0 0.24670152663981329 0.2095518619195684 0 0.23859066343446639 0.21961930472390831 0 0.26458074502139528 0.23130050403551469 0 0.2379630160546439 0.23093167932672029 0 0.24293490430991169 0.2356795922548468 0 0.23892470514704739 0.24618996043878821 0 0.24293490430991169 0.2356795922548468 0 0.23892470514704739 0.24618996043878821 0 0.25362407497537798 0.24198656716010189 0 0.23892470514704739 0.24618996043878821 0 0.24833316285785609 0.25613966282899547 0 0.25362407497537798 0.24198656716010189 0 0.23892470514704739 0.24618996043878821 0 0.22311456895561979 0.24210018387613991 0 0.23143636026737621 0.25829091581815028 0 0.2379630160546439 0.23093167932672029 0 0.23892470514704739 0.24618996043878821 0 0.22311456895561979 0.24210018387613991 0 0.209482326604984 0.15084602107521439 0 0.2076828374110711 0.13888776945844841 0 0.20102071552370171 0.14666203006011799 0 0.209482326604984 0.15084602107521439 0 0.20102071552370171 0.14666203006011799 0 0.20009079197176449 0.1600822806841096 0 0.209482326604984 0.15084602107521439 0 0.2193209912966799 0.14177448839356799 0 0.2187736252161564 0.15431041952742461 0 0.209482326604984 0.15084602107521439 0 0.21134660345578471 0.1612282897799939 0 0.2187736252161564 0.15431041952742461 0 0.209482326604984 0.15084602107521439 0 0.2076828374110711 0.13888776945844841 0 0.2193209912966799 0.14177448839356799 0 0.21408643943991251 0.1315545836761505 0 0.2076828374110711 0.13888776945844841 0 0.2193209912966799 0.14177448839356799 0 0.21408643943991251 0.1315545836761505 0 0.2243526157798536 0.1281753366943639 0 0.21236962900983361 0.1213060413860667 0 0.21408643943991251 0.1315545836761505 0 0.20598551444134069 0.1293379919129482 0 0.21236962900983361 0.1213060413860667 0 0.21408643943991251 0.1315545836761505 0 0.20598551444134069 0.1293379919129482 0 0.2076828374110711 0.13888776945844841 0 0.20598551444134069 0.1293379919129482 0 0.2076828374110711 0.13888776945844841 0 0.1962182618028441 0.13432337501115221 0 0.2076828374110711 0.13888776945844841 0 0.1962182618028441 0.13432337501115221 0 0.20102071552370171 0.14666203006011799 0 0.20598551444134069 0.1293379919129482 0 0.1962182618028441 0.13432337501115221 0 0.19957040454304231 0.12061819003292321 0 0.1874582289227715 0.1273740841456501 0 0.1962182618028441 0.13432337501115221 0 0.19957040454304231 0.12061819003292321 0 0.18087273719760719 0.13996272140628641 0 0.1874582289227715 0.1273740841456501 0 0.1962182618028441 0.13432337501115221 0 0.1962182618028441 0.13432337501115221 0 0.20102071552370171 0.14666203006011799 0 0.19008086165683691 0.15059846206783681 0 0.18087273719760719 0.13996272140628641 0 0.1962182618028441 0.13432337501115221 0 0.19008086165683691 0.15059846206783681 0 0.20102071552370171 0.14666203006011799 0 0.19008086165683691 0.15059846206783681 0 0.20009079197176449 0.1600822806841096 0 0.19008086165683691 0.15059846206783681 0 0.1879622090528916 0.16424354072180611 0 0.20009079197176449 0.1600822806841096 0 0.1879622090528916 0.16424354072180611 0 0.1964188055605029 0.17043902795973531 0 0.20009079197176449 0.1600822806841096 0 0.18251002009012271 0.17807605785514791 0 0.1879622090528916 0.16424354072180611 0 0.1964188055605029 0.17043902795973531 0 0.1964188055605029 0.17043902795973531 0 0.20009079197176449 0.1600822806841096 0 0.20550087996307809 0.17027529946871631 0 0.18251002009012271 0.17807605785514791 0 0.20614945536564311 0.1790066834973866 0 0.18251002009012271 0.17807605785514791 0 0.1859145724301936 0.1958675937781903 0 0.1946782988782447 0.1858125368520685 0 0.18251002009012271 0.17807605785514791 0 0.1946782988782447 0.1858125368520685 0 0.20614945536564311 0.1790066834973866 0 0.18251002009012271 0.17807605785514791 0 0.1964188055605029 0.17043902795973531 0 0.20614945536564311 0.1790066834973866 0 0.1964188055605029 0.17043902795973531 0 0.20614945536564311 0.1790066834973866 0 0.20550087996307809 0.17027529946871631 0 0.20785173153567851 0.18790245145890719 0 0.1946782988782447 0.1858125368520685 0 0.20614945536564311 0.1790066834973866 0 0.20614945536564311 0.1790066834973866 0 0.22978889064116351 0.17993730913962469 0 0.20614945536564311 0.1790066834973866 0 0.21597111053294041 0.17081635595661279 0 0.22978889064116351 0.17993730913962469 0 0.20785173153567851 0.18790245145890719 0 0.20614945536564311 0.1790066834973866 0 0.22978889064116351 0.17993730913962469 0 0.20614945536564311 0.1790066834973866 0 0.20550087996307809 0.17027529946871631 0 0.21597111053294041 0.17081635595661279 0 0.209482326604984 0.15084602107521439 0 0.20009079197176449 0.1600822806841096 0 0.21134660345578471 0.1612282897799939 0 0.20009079197176449 0.1600822806841096 0 0.20550087996307809 0.17027529946871631 0 0.21134660345578471 0.1612282897799939 0 0.20550087996307809 0.17027529946871631 0 0.21597111053294041 0.17081635595661279 0 0.21134660345578471 0.1612282897799939 0 0.21597111053294041 0.17081635595661279 0 0.21865342512527811 0.16209085720837099 0 0.21134660345578471 0.1612282897799939 0 0.21865342512527811 0.16209085720837099 0 0.21134660345578471 0.1612282897799939 0 0.2187736252161564 0.15431041952742461 0 0.21865342512527811 0.16209085720837099 0 0.22528368302780391 0.16930879134434251 0 0.22694459721967769 0.15914217780054021 0 0.21865342512527811 0.16209085720837099 0 0.22694459721967769 0.15914217780054021 0 0.2187736252161564 0.15431041952742461 0 0.21597111053294041 0.17081635595661279 0 0.21865342512527811 0.16209085720837099 0 0.22528368302780391 0.16930879134434251 0 0.22528368302780391 0.16930879134434251 0 0.2339793796296343 0.16542019843990319 0 0.22694459721967769 0.15914217780054021 0 0.22528368302780391 0.16930879134434251 0 0.23206748755666681 0.17175973890584759 0 0.2339793796296343 0.16542019843990319 0 0.2339793796296343 0.16542019843990319 0 0.22694459721967769 0.15914217780054021 0 0.23786870866578541 0.15398669782836041 0 0.20785173153567851 0.18790245145890719 0 0.22978889064116351 0.17993730913962469 0 0.20785173153567851 0.18790245145890719 0 0.22057863514703391 0.19004572878947329 0 0.22978889064116351 0.17993730913962469 0 0.22057863514703391 0.19004572878947329 0 0.22882230825823141 0.18780321980362219 0 0.22978889064116351 0.17993730913962469 0 0.21597111053294041 0.17081635595661279 0 0.22528368302780391 0.16930879134434251 0 0.22978889064116351 0.17993730913962469 0 0.23206748755666681 0.17175973890584759 0 0.22978889064116351 0.17993730913962469 0 0.23923926915253971 0.1701376690183713 0 0.22528368302780391 0.16930879134434251 0 0.23206748755666681 0.17175973890584759 0 0.22978889064116351 0.17993730913962469 0 0.22882230825823141 0.18780321980362219 0 0.22978889064116351 0.17993730913962469 0 0.23785895048436051 0.18613779601937941 0 0.22978889064116351 0.17993730913962469 0 0.25572559596713329 0.17051997537177971 0 0.22978889064116351 0.17993730913962469 0 0.23923926915253971 0.1701376690183713 0 0.25572559596713329 0.17051997537177971 0 0.22978889064116351 0.17993730913962469 0 0.24213060384150101 0.18042317162489729 0 0.25572559596713329 0.17051997537177971 0 0.22978889064116351 0.17993730913962469 0 0.24213060384150101 0.18042317162489729 0 0.23785895048436051 0.18613779601937941 0 0.22978889064116351 0.17993730913962469 0 0.24213060384150101 0.18042317162489729 0 0.24213060384150101 0.18042317162489729 0 0.24894719752453329 0.18612638269812559 0 0.25572559596713329 0.17051997537177971 0 0.24213060384150101 0.18042317162489729 0 0.23785895048436051 0.18613779601937941 0 0.24894719752453329 0.18612638269812559 0 0.23923926915253971 0.1701376690183713 0 0.2446349919681006 0.16305112323470131 0 0.25572559596713329 0.17051997537177971 0 0.2446349919681006 0.16305112323470131 0 0.23786870866578541 0.15398669782836041 0 0.25543485903957819 0.1544462132424802 0 0.2339793796296343 0.16542019843990319 0 0.2446349919681006 0.16305112323470131 0 0.23786870866578541 0.15398669782836041 0 0.2339793796296343 0.16542019843990319 0 0.23923926915253971 0.1701376690183713 0 0.2446349919681006 0.16305112323470131 0 0.23206748755666681 0.17175973890584759 0 0.2339793796296343 0.16542019843990319 0 0.23923926915253971 0.1701376690183713 0 0.24408405510780229 0.1427207021204579 0 0.23786870866578541 0.15398669782836041 0 0.25543485903957819 0.1544462132424802 0 0.24408405510780229 0.1427207021204579 0 0.23786870866578541 0.15398669782836041 0 0.23248493025238581 0.14022881032103701 0 0.22694459721967769 0.15914217780054021 0 0.23786870866578541 0.15398669782836041 0 0.22710876165340799 0.14973610245483951 0 0.23786870866578541 0.15398669782836041 0 0.22710876165340799 0.14973610245483951 0 0.23248493025238581 0.14022881032103701 0 0.22710876165340799 0.14973610245483951 0 0.2193209912966799 0.14177448839356799 0 0.23248493025238581 0.14022881032103701 0 0.22710876165340799 0.14973610245483951 0 0.2193209912966799 0.14177448839356799 0 0.2187736252161564 0.15431041952742461 0 0.22694459721967769 0.15914217780054021 0 0.22710876165340799 0.14973610245483951 0 0.2187736252161564 0.15431041952742461 0 0.2243526157798536 0.1281753366943639 0 0.23248493025238581 0.14022881032103701 0 0.24033965028705309 0.12757397417549721 0 0.21408643943991251 0.1315545836761505 0 0.2193209912966799 0.14177448839356799 0 0.2243526157798536 0.1281753366943639 0 0.2193209912966799 0.14177448839356799 0 0.2243526157798536 0.1281753366943639 0 0.23248493025238581 0.14022881032103701 0 0.24408405510780229 0.1427207021204579 0 0.23248493025238581 0.14022881032103701 0 0.24033965028705309 0.12757397417549721 0 0.24408405510780229 0.1427207021204579 0 0.24033965028705309 0.12757397417549721 0 0.25429212729420919 0.1373678150349148 0 0.24276875721605651 0.11459409499753551 0 0.2379976633094642 0.1028396245190442 0 0.22503725007466349 0.1137694800966218 0 0.24033965028705309 0.12757397417549721 0 0.24276875721605651 0.11459409499753551 0 0.22503725007466349 0.1137694800966218 0 0.24033965028705309 0.12757397417549721 0 0.24276875721605651 0.11459409499753551 0 0.25585331699957098 0.12272237909345909 0 0.24276875721605651 0.11459409499753551 0 0.2379976633094642 0.1028396245190442 0 0.25461590540953027 0.10606501710305551 0 0.2379976633094642 0.1028396245190442 0 0.24272997527991999 0.091205400909066731 0 0.25461590540953027 0.10606501710305551 0 0.2379976633094642 0.1028396245190442 0 0.22481203278121151 0.087246299868924668 0 0.24272997527991999 0.091205400909066731 0 0.2379976633094642 0.1028396245190442 0 0.2102242251334803 0.098306453972017871 0 0.2379976633094642 0.1028396245190442 0 0.2102242251334803 0.098306453972017871 0 0.22481203278121151 0.087246299868924668 0 0.2379976633094642 0.1028396245190442 0 0.22503725007466349 0.1137694800966218 0 0.2102242251334803 0.098306453972017871 0 0.2243526157798536 0.1281753366943639 0 0.24033965028705309 0.12757397417549721 0 0.22503725007466349 0.1137694800966218 0 0.2243526157798536 0.1281753366943639 0 0.22503725007466349 0.1137694800966218 0 0.21236962900983361 0.1213060413860667 0 0.22503725007466349 0.1137694800966218 0 0.21236962900983361 0.1213060413860667 0 0.20686700075453451 0.1123893393372416 0 0.21236962900983361 0.1213060413860667 0 0.20686700075453451 0.1123893393372416 0 0.19957040454304231 0.12061819003292321 0 0.20598551444134069 0.1293379919129482 0 0.21236962900983361 0.1213060413860667 0 0.19957040454304231 0.12061819003292321 0 0.22503725007466349 0.1137694800966218 0 0.20686700075453451 0.1123893393372416 0 0.2102242251334803 0.098306453972017871 0 0.2102242251334803 0.098306453972017871 0 0.19028465540128089 0.1134241960833017 0 0.2102242251334803 0.098306453972017871 0 0.182396260560336 0.093764383646148503 0 0.20686700075453451 0.1123893393372416 0 0.2102242251334803 0.098306453972017871 0 0.19028465540128089 0.1134241960833017 0 0.2102242251334803 0.098306453972017871 0 0.1883315582798675 0.1036261534992409 0 0.19028465540128089 0.1134241960833017 0 0.2102242251334803 0.098306453972017871 0 0.1883315582798675 0.1036261534992409 0 0.182396260560336 0.093764383646148503 0 0.20686700075453451 0.1123893393372416 0 0.19028465540128089 0.1134241960833017 0 0.19957040454304231 0.12061819003292321 0 0.1874582289227715 0.1273740841456501 0 0.19028465540128089 0.1134241960833017 0 0.19957040454304231 0.12061819003292321 0 0.19746843757066229 0.063390907442872652 0 0.19734936496451841 0.078239839177698417 0 0.21230246936870051 0.062715294709248054 0 0.19746843757066229 0.063390907442872652 0 0.19734936496451841 0.078239839177698417 0 0.185081987029481 0.068060442037255253 0 0.19734936496451841 0.078239839177698417 0 0.18223796886446539 0.079241054866614841 0 0.185081987029481 0.068060442037255253 0 0.2102242251334803 0.098306453972017871 0 0.19734936496451841 0.078239839177698417 0 0.182396260560336 0.093764383646148503 0 0.19734936496451841 0.078239839177698417 0 0.182396260560336 0.093764383646148503 0 0.2102242251334803 0.098306453972017871 0 0.2147190896243964 0.077783971198504734 0 0.22481203278121151 0.087246299868924668 0 0.2102242251334803 0.098306453972017871 0 0.19734936496451841 0.078239839177698417 0 0.2147190896243964 0.077783971198504734 0 0.2102242251334803 0.098306453972017871 0 0.22481203278121151 0.087246299868924668 0 0.19734936496451841 0.078239839177698417 0 0.2147190896243964 0.077783971198504734 0 0.21230246936870051 0.062715294709248054 0 0.19734936496451841 0.078239839177698417 0 0.21230246936870051 0.062715294709248054 0 0.2147190896243964 0.077783971198504734 0 0.21230246936870051 0.062715294709248054 0 0.21922930633447599 0.067954759782312898 0 0.21230246936870051 0.062715294709248054 0 0.21922930633447599 0.067954759782312898 0 0.21922930633447599 0.067954759782312898 0 0.22813775459035671 0.066665546269972009 0 0.21867321183994479 0.05610109125567081 0 0.21922930633447599 0.067954759782312898 0 0.22313545356192679 0.075395768618754327 0 0.22813775459035671 0.066665546269972009 0 0.2147190896243964 0.077783971198504734 0 0.21922930633447599 0.067954759782312898 0 0.22313545356192679 0.075395768618754327 0 0.22877908447919321 0.077328265974057286 0 0.22813775459035671 0.066665546269972009 0 0.23939984042894419 0.076186145765833435 0 0.23321791162326341 0.0682029647760828 0 0.22813775459035671 0.066665546269972009 0 0.23939984042894419 0.076186145765833435 0 0.22313545356192679 0.075395768618754327 0 0.22877908447919321 0.077328265974057286 0 0.22813775459035671 0.066665546269972009 0 0.22813775459035671 0.066665546269972009 0 0.23939984042894419 0.076186145765833435 0 0.23321791162326341 0.0682029647760828 0 0.22813775459035671 0.066665546269972009 0 0.21867321183994479 0.05610109125567081 0 0.22313545356192679 0.075395768618754327 0 0.22877908447919321 0.077328265974057286 0 0.22481203278121151 0.087246299868924668 0 0.2147190896243964 0.077783971198504734 0 0.22313545356192679 0.075395768618754327 0 0.22481203278121151 0.087246299868924668 0 0.22877908447919321 0.077328265974057286 0 0.22481203278121151 0.087246299868924668 0 0.23939984042894419 0.076186145765833435 0 0.22481203278121151 0.087246299868924668 0 0.23939984042894419 0.076186145765833435 0 0.24272997527991999 0.091205400909066731 0 0.23939984042894419 0.076186145765833435 0 0.25667270258804281 0.090788059223164463 0 0.22481203278121151 0.087246299868924668 0 0.24272997527991999 0.091205400909066731 0 0.23939984042894419 0.076186145765833435 0 0.23939984042894419 0.076186145765833435 0 0.25667270258804281 0.090788059223164463 0 0.23939984042894419 0.076186145765833435 0 0.24475928146162321 0.072122735748421596 0 0.25667270258804281 0.090788059223164463 0 0.23321791162326341 0.0682029647760828 0 0.24114624299425449 0.063902367923327347 0 0.23383885887754599 0.05988553872429403 0 0.23321791162326341 0.0682029647760828 0 0.24114624299425449 0.063902367923327347 0 0.23963081912702131 0.070103553553416298 0 0.24114624299425449 0.063902367923327347 0 0.23963081912702131 0.070103553553416298 0 0.24475928146162321 0.072122735748421596 0 0.23321791162326341 0.0682029647760828 0 0.23963081912702131 0.070103553553416298 0 0.23939984042894419 0.076186145765833435 0 0.23939984042894419 0.076186145765833435 0 0.24475928146162321 0.072122735748421596 0 0.23963081912702131 0.070103553553416298 0 0.23939984042894419 0.076186145765833435 0 0.24475928146162321 0.072122735748421596 0 0.24114624299425449 0.063902367923327347 0 0.24475928146162321 0.072122735748421596 0 0.2498958451883965 0.06385198700084381 0 0.24475928146162321 0.072122735748421596 0 0.2498958451883965 0.06385198700084381 0 0.25260649980770278 0.068686253075548681 0 0.24114624299425449 0.063902367923327347 0 0.2498958451883965 0.06385198700084381 0 0.24219402533239179 0.054650131246814337 0 0.2498958451883965 0.06385198700084381 0 0.24219402533239179 0.054650131246814337 0 0.25540203894483232 0.053078758300303452 0 0.24114624299425449 0.063902367923327347 0 0.24219402533239179 0.054650131246814337 0 0.23383885887754599 0.05988553872429403 0 0.24219402533239179 0.054650131246814337 0 0.23383885887754599 0.05988553872429403 0 0.23222961530372871 0.05328671000269708 0 0.24219402533239179 0.054650131246814337 0 0.2333457215179586 0.040867864575570192 0 0.23222961530372871 0.05328671000269708 0 0.24219402533239179 0.054650131246814337 0 0.24931080225938379 0.044873619513579023 0 0.25540203894483232 0.053078758300303452 0 0.24931080225938379 0.044873619513579023 0 0.2333457215179586 0.040867864575570192 0 0.25267133858014368 0.033426358080367632 0 0.2333457215179586 0.040867864575570192 0 0.24606589177604729 0.023412238736487911 0 0.25267133858014368 0.033426358080367632 0 0.24219402533239179 0.054650131246814337 0 0.24931080225938379 0.044873619513579023 0 0.2333457215179586 0.040867864575570192 0 0.2333457215179586 0.040867864575570192 0 0.21867321183994479 0.05610109125567081 0 0.21784305476063359 0.040073467835779392 0 0.2333457215179586 0.040867864575570192 0 0.224387406455446 0.02460240409890389 0 0.21784305476063359 0.040073467835779392 0 0.2333457215179586 0.040867864575570192 0 0.21867321183994479 0.05610109125567081 0 0.23321791162326341 0.0682029647760828 0 0.21867321183994479 0.05610109125567081 0 0.23383885887754599 0.05988553872429403 0 0.23222961530372871 0.05328671000269708 0 0.21867321183994479 0.05610109125567081 0 0.23321791162326341 0.0682029647760828 0 0.23383885887754599 0.05988553872429403 0 0.21867321183994479 0.05610109125567081 0 0.2333457215179586 0.040867864575570192 0 0.23222961530372871 0.05328671000269708 0 0.21867321183994479 0.05610109125567081 0 0.24330934550254571 0.01063109568502886 0 0.22830704903319021 0.009552556987691951 0 0.24454710423508169 -0.0040543885157620588 0 0.24330934550254571 0.01063109568502886 0 0.2600103086440948 0.0077887484030499934 0 0.24454710423508169 -0.0040543885157620588 0 0.24330934550254571 0.01063109568502886 0 0.2352311601260918 0.017984200813824101 0 0.22830704903319021 0.009552556987691951 0 0.2333457215179586 0.040867864575570192 0 0.2352311601260918 0.017984200813824101 0 0.24606589177604729 0.023412238736487911 0 0.24330934550254571 0.01063109568502886 0 0.2352311601260918 0.017984200813824101 0 0.24606589177604729 0.023412238736487911 0 0.24330934550254571 0.01063109568502886 0 0.24606589177604729 0.023412238736487911 0 0.25245314076482023 0.016273305507581552 0 0.224387406455446 0.02460240409890389 0 0.22040854931318621 0.0093777932992746577 0 0.21357971495542391 0.027094896629626091 0 0.2333457215179586 0.040867864575570192 0 0.2352311601260918 0.017984200813824101 0 0.224387406455446 0.02460240409890389 0 0.2352311601260918 0.017984200813824101 0 0.224387406455446 0.02460240409890389 0 0.22830704903319021 0.009552556987691951 0 0.22040854931318621 0.0093777932992746577 0 0.24454710423508169 -0.0040543885157620588 0 0.22830704903319021 0.009552556987691951 0 0.22040854931318621 0.0093777932992746577 0 0.24454710423508169 -0.0040543885157620588 0 0.224387406455446 0.02460240409890389 0 0.22830704903319021 0.009552556987691951 0 0.22040854931318621 0.0093777932992746577 0 0.22830704903319021 0.009552556987691951 0 0.22040854931318621 0.0093777932992746577 0 0.22040854931318621 0.0093777932992746577 0 0.20306361649223731 0.019029584467987581 0 0.193411862040101 0.0087804595257519359 0 0.22040854931318621 0.0093777932992746577 0 0.193411862040101 0.0087804595257519359 0 0.20649695332801041 -0.011123257156358399 0 0.22040854931318621 0.0093777932992746577 0 0.193411862040101 0.0087804595257519359 0 0.22040854931318621 0.0093777932992746577 0 0.20306361649223731 0.019029584467987581 0 0.22040854931318621 0.0093777932992746577 0 0.21357971495542391 0.027094896629626091 0 0.20306361649223731 0.019029584467987581 0 0.21357971495542391 0.027094896629626091 0 0.20306361649223731 0.019029584467987581 0 0.20219594775561611 0.04239123344618418 0 0.224387406455446 0.02460240409890389 0 0.21357971495542391 0.027094896629626091 0 0.21784305476063359 0.040073467835779392 0 0.20306361649223731 0.019029584467987581 0 0.1857186836712871 0.028681375636698089 0 0.20306361649223731 0.019029584467987581 0 0.20219594775561611 0.04239123344618418 0 0.1857186836712871 0.028681375636698089 0 0.19103655183180529 0.01816300107205299 0 0.20306361649223731 0.019029584467987581 0 0.1857186836712871 0.028681375636698089 0 0.19103655183180529 0.01816300107205299 0 0.20306361649223731 0.019029584467987581 0 0.193411862040101 0.0087804595257519359 0 0.19103655183180529 0.01816300107205299 0 0.193411862040101 0.0087804595257519359 0 0.18195204512359561 0.01616058465777492 0 0.21867321183994479 0.05610109125567081 0 0.20219594775561611 0.04239123344618418 0 0.21230246936870051 0.062715294709248054 0 0.19408147390000821 0.048932919026612259 0 0.21230246936870051 0.062715294709248054 0 0.21867321183994479 0.05610109125567081 0 0.20219594775561611 0.04239123344618418 0 0.21230246936870051 0.062715294709248054 0 0.21922930633447599 0.067954759782312898 0 0.21867321183994479 0.05610109125567081 0 0.21230246936870051 0.062715294709248054 0 0.21867321183994479 0.05610109125567081 0 0.21867321183994479 0.05610109125567081 0 0.21784305476063359 0.040073467835779392 0 0.20219594775561611 0.04239123344618418 0 0.21357971495542391 0.027094896629626091 0 0.21784305476063359 0.040073467835779392 0 0.20219594775561611 0.04239123344618418 0 0.20219594775561611 0.04239123344618418 0 0.18857085335167251 0.037606629154794922 0 0.1857186836712871 0.028681375636698089 0 0.20219594775561611 0.04239123344618418 0 0.1857186836712871 0.028681375636698089 0 0.20219594775561611 0.04239123344618418 0 0.18857085335167251 0.037606629154794922 0 0.19408147390000821 0.048932919026612259 0 0.21230246936870051 0.062715294709248054 0 0.20219594775561611 0.04239123344618418 0 0.19408147390000821 0.048932919026612259 0 0.19746843757066229 0.063390907442872652 0 0.21230246936870051 0.062715294709248054 0 0.19408147390000821 0.048932919026612259 0 0.19746843757066229 0.063390907442872652 0 0.19408147390000821 0.048932919026612259 0 0.18077630511812789 0.054232683145736107 0 0.19746843757066229 0.063390907442872652 0 0.18077630511812789 0.054232683145736107 0 0.185081987029481 0.068060442037255253 0 0.18077630511812789 0.054232683145736107 0 0.17586047843131589 0.035150543343976527 0 0.16063154061213489 0.056174381905899212 0 0.19408147390000821 0.048932919026612259 0 0.18077630511812789 0.054232683145736107 0 0.17586047843131589 0.035150543343976527 0 0.18857085335167251 0.037606629154794922 0 0.19408147390000821 0.048932919026612259 0 0.17586047843131589 0.035150543343976527 0 0.19408147390000821 0.048932919026612259 0 0.17586047843131589 0.035150543343976527 0 0.18857085335167251 0.037606629154794922 0 0.1857186836712871 0.028681375636698089 0 0.18293758457948511 0.03022895082368212 0 0.18857085335167251 0.037606629154794922 0 0.17586047843131589 0.035150543343976527 0 0.18293758457948511 0.03022895082368212 0 0.17586047843131589 0.035150543343976527 0 0.16063154061213489 0.056174381905899212 0 0.15563504439580611 0.039588181347732863 0 0.17586047843131589 0.035150543343976527 0 0.1576394829626237 0.02136816766134084 0 0.15563504439580611 0.039588181347732863 0 0.18077630511812789 0.054232683145736107 0 0.16063154061213489 0.056174381905899212 0 0.16885246017312111 0.071920123459970384 0 0.193411862040101 0.0087804595257519359 0 0.1664151747670157 0.0081831257522299462 0 0.193411862040101 0.0087804595257519359 0 0.18195204512359561 0.01616058465777492 0 0.1664151747670157 0.0081831257522299462 0 0.193411862040101 0.0087804595257519359 0 0.1664151747670157 0.0081831257522299462 0 0.17365852882115621 -0.0099512103645301598 0 0.18195204512359561 0.01616058465777492 0 0.1710494689959349 0.016475899876483451 0 0.1664151747670157 0.0081831257522299462 0 0.1857186836712871 0.028681375636698089 0 0.1710494689959349 0.016475899876483451 0 0.18195204512359561 0.01616058465777492 0 0.1857186836712871 0.028681375636698089 0 0.1710494689959349 0.016475899876483451 0 0.19103655183180529 0.01816300107205299 0 0.18195204512359561 0.01616058465777492 0 0.1857186836712871 0.028681375636698089 0 0.1857186836712871 0.028681375636698089 0 0.18293758457948511 0.03022895082368212 0 0.1744403844365871 0.02555935757827961 0 0.1857186836712871 0.028681375636698089 0 0.18293758457948511 0.03022895082368212 0 0.17586047843131589 0.035150543343976527 0 0.18293758457948511 0.03022895082368212 0 0.1744403844365871 0.02555935757827961 0 0.1857186836712871 0.028681375636698089 0 0.1744403844365871 0.02555935757827961 0 0.1710494689959349 0.016475899876483451 0 0.1744403844365871 0.02555935757827961 0 0.1576394829626237 0.02136816766134084 0 0.1710494689959349 0.016475899876483451 0 0.17586047843131589 0.035150543343976527 0 0.1744403844365871 0.02555935757827961 0 0.1576394829626237 0.02136816766134084 0 0.17586047843131589 0.035150543343976527 0 0.1576394829626237 0.02136816766134084 0 0.1576394829626237 0.02136816766134084 0 0.1710494689959349 0.016475899876483451 0 0.1664151747670157 0.0081831257522299462 0 0.1576394829626237 0.02136816766134084 0 0.1664151747670157 0.0081831257522299462 0 0.1394184874939306 0.0075857919787062364 0 0.1664151747670157 0.0081831257522299462 0 0.1394184874939306 0.0075857919787062364 0 0.1576394829626237 0.02136816766134084 0 0.1394184874939306 0.0075857919787062364 0 0.1664151747670157 0.0081831257522299462 0 0.1394184874939306 0.0075857919787062364 0 0.1499659599275856 -0.0028357427761619 0 0.1576394829626237 0.02136816766134084 0 0.13489757955544901 0.022762920038338141 0 0.1394184874939306 0.0075857919787062364 0 0.1576394829626237 0.02136816766134084 0 0.13489757955544901 0.022762920038338141 0 0.14086860608248869 0.035609688409989182 0 0.1192050179883003 0.025289878379008021 0 0.1239353080246805 0.015523316410563801 0 0.13489757955544901 0.022762920038338141 0 0.1192050179883003 0.025289878379008021 0 0.13489757955544901 0.022762920038338141 0 0.12657754096894899 0.033169311984437747 0 0.13489757955544901 0.022762920038338141 0 0.14086860608248869 0.035609688409989182 0 0.12657754096894899 0.033169311984437747 0 0.1112154668307228 0.0069617666460044213 0 0.1394184874939306 0.0075857919787062364 0 0.1239353080246805 0.015523316410563801 0 0.13489757955544901 0.022762920038338141 0 0.1394184874939306 0.0075857919787062364 0 0.16063154061213489 0.056174381905899212 0 0.14405331399684659 0.050771027327864218 0 0.14660636398072779 0.065044930325254532 0 0.16063154061213489 0.056174381905899212 0 0.14405331399684659 0.050771027327864218 0 0.15563504439580611 0.039588181347732863 0 0.14405331399684659 0.050771027327864218 0 0.13133004901314721 0.062710481960249712 0 0.14660636398072779 0.065044930325254532 0 0.1576394829626237 0.02136816766134084 0 0.15563504439580611 0.039588181347732863 0 0.14086860608248869 0.035609688409989182 0 0.14405331399684659 0.050771027327864218 0 0.15563504439580611 0.039588181347732863 0 0.14086860608248869 0.035609688409989182 0 0.14405331399684659 0.050771027327864218 0 0.14086860608248869 0.035609688409989182 0 0.12924827989677509 0.045498500018059863 0 0.14086860608248869 0.035609688409989182 0 0.12657754096894899 0.033169311984437747 0 0.12924827989677509 0.045498500018059863 0 0.1213180390941878 0.039610316036882427 0 0.12657754096894899 0.033169311984437747 0 0.12924827989677509 0.045498500018059863 0 0.14405331399684659 0.050771027327864218 0 0.12924827989677509 0.045498500018059863 0 0.13133004901314721 0.062710481960249712 0 0.1183353402422497 0.057783242689010132 0 0.12924827989677509 0.045498500018059863 0 0.13133004901314721 0.062710481960249712 0 0.11939743099048709 0.067795358029729025 0 0.13133004901314721 0.062710481960249712 0 0.12601201663717829 0.073782779713414431 0 0.13133004901314721 0.062710481960249712 0 0.12601201663717829 0.073782779713414431 0 0.13944808601470179 0.078198726497700696 0 0.13133004901314721 0.062710481960249712 0 0.14660636398072779 0.065044930325254532 0 0.13944808601470179 0.078198726497700696 0 0.14660636398072779 0.065044930325254532 0 0.15547642347051649 0.076013162308598489 0 0.13944808601470179 0.078198726497700696 0 0.16063154061213489 0.056174381905899212 0 0.14660636398072779 0.065044930325254532 0 0.15547642347051649 0.076013162308598489 0 0.15547642347051649 0.076013162308598489 0 0.14977700857270221 0.088440281119146702 0 0.13944808601470179 0.078198726497700696 0 0.14977700857270221 0.088440281119146702 0 0.15692861522811491 0.089607563774205062 0 0.15547642347051649 0.076013162308598489 0 0.14977700857270221 0.088440281119146702 0 0.15692861522811491 0.089607563774205062 0 0.14977700857270221 0.088440281119146702 0 0.1406164045630961 0.088301266881400414 0 0.13944808601470179 0.078198726497700696 0 0.14977700857270221 0.088440281119146702 0 0.1406164045630961 0.088301266881400414 0 0.1415112004627925 0.096038635875734371 0 0.12277357628353951 0.084307659091952911 0 0.12601201663717829 0.073782779713414431 0 0.13944808601470179 0.078198726497700696 0 0.1406164045630961 0.088301266881400414 0 0.13172932320218789 0.090527424033019929 0 0.1415112004627925 0.096038635875734371 0 0.12277357628353951 0.084307659091952911 0 0.13944808601470179 0.078198726497700696 0 0.13172932320218789 0.090527424033019929 0 0.1406164045630961 0.088301266881400414 0 0.13944808601470179 0.078198726497700696 0 0.13172932320218789 0.090527424033019929 0 0.12619853450777779 0.1078330730874123 0 0.14552415294983839 0.10652456888398559 0 0.13172932320218789 0.090527424033019929 0 0.12619853450777779 0.1078330730874123 0 0.1415112004627925 0.096038635875734371 0 0.1196566717525884 0.095935737169380891 0 0.13172932320218789 0.090527424033019929 0 0.12619853450777779 0.1078330730874123 0 0.12619853450777779 0.1078330730874123 0 0.14552415294983839 0.10652456888398559 0 0.1415112004627925 0.096038635875734371 0 0.13190173259588339 0.12673162022164239 0 0.14552415294983839 0.10652456888398559 0 0.13190173259588339 0.12673162022164239 0 0.12619853450777779 0.1078330730874123 0 0.14552415294983839 0.10652456888398559 0 0.13190173259588339 0.12673162022164239 0 0.15566547781771581 0.1200913342755673 0 0.14552415294983839 0.10652456888398559 0 0.14552415294983839 0.10652456888398559 0 0.15692861522811491 0.089607563774205062 0 0.14977700857270221 0.088440281119146702 0 0.14552415294983839 0.10652456888398559 0 0.1415112004627925 0.096038635875734371 0 0.14977700857270221 0.088440281119146702 0 0.14552415294983839 0.10652456888398559 0 0.15692861522811491 0.089607563774205062 0 0.17182071975368271 0.1047440738223813 0 0.182396260560336 0.093764383646148503 0 0.15692861522811491 0.089607563774205062 0 0.14552415294983839 0.10652456888398559 0 0.17182071975368271 0.1047440738223813 0 0.15692861522811491 0.089607563774205062 0 0.14552415294983839 0.10652456888398559 0 0.16810812436087241 0.1085985478306644 0 0.17182071975368271 0.1047440738223813 0 0.14552415294983839 0.10652456888398559 0 0.17182071975368271 0.1047440738223813 0 0.16810812436087241 0.1085985478306644 0 0.17182071975368271 0.1047440738223813 0 0.15566547781771581 0.1200913342755673 0 0.14552415294983839 0.10652456888398559 0 0.16810812436087241 0.1085985478306644 0 0.15566547781771581 0.1200913342755673 0 0.16810812436087241 0.1085985478306644 0 0.16834415181085521 0.1182094382610944 0 0.16810812436087241 0.1085985478306644 0 0.16834415181085521 0.1182094382610944 0 0.17637873106888929 0.11416330178083681 0 0.1703450856690828 0.12854193819458701 0 0.15566547781771581 0.1200913342755673 0 0.16834415181085521 0.1182094382610944 0 0.1703450856690828 0.12854193819458701 0 0.16834415181085521 0.1182094382610944 0 0.17637873106888929 0.11416330178083681 0 0.1703450856690828 0.12854193819458701 0 0.19028465540128089 0.1134241960833017 0 0.1874582289227715 0.1273740841456501 0 0.1703450856690828 0.12854193819458701 0 0.19028465540128089 0.1134241960833017 0 0.1703450856690828 0.12854193819458701 0 0.19028465540128089 0.1134241960833017 0 0.17637873106888929 0.11416330178083681 0 0.19028465540128089 0.1134241960833017 0 0.17637873106888929 0.11416330178083681 0 0.18170391612593009 0.10898943129644 0 0.1883315582798675 0.1036261534992409 0 0.17182071975368271 0.1047440738223813 0 0.182396260560336 0.093764383646148503 0 0.1883315582798675 0.1036261534992409 0 0.17182071975368271 0.1047440738223813 0 0.1883315582798675 0.1036261534992409 0 0.17182071975368271 0.1047440738223813 0 0.18170391612593009 0.10898943129644 0 0.17182071975368271 0.1047440738223813 0 0.182396260560336 0.093764383646148503 0 0.17182071975368271 0.1047440738223813 0 0.17637873106888929 0.11416330178083681 0 0.18170391612593009 0.10898943129644 0 0.16810812436087241 0.1085985478306644 0 0.17182071975368271 0.1047440738223813 0 0.17637873106888929 0.11416330178083681 0 0.1883315582798675 0.1036261534992409 0 0.19028465540128089 0.1134241960833017 0 0.18170391612593009 0.10898943129644 0 0.182396260560336 0.093764383646148503 0 0.17285984043307301 0.083731682631741799 0 0.18223796886446539 0.079241054866614841 0 0.17285984043307301 0.083731682631741799 0 0.18223796886446539 0.079241054866614841 0 0.16885246017312111 0.071920123459970384 0 0.19734936496451841 0.078239839177698417 0 0.182396260560336 0.093764383646148503 0 0.18223796886446539 0.079241054866614841 0 0.18077630511812789 0.054232683145736107 0 0.185081987029481 0.068060442037255253 0 0.16885246017312111 0.071920123459970384 0 0.18077630511812789 0.054232683145736107 0 0.16885246017312111 0.071920123459970384 0 0.18223796886446539 0.079241054866614841 0 0.185081987029481 0.068060442037255253 0 0.16885246017312111 0.071920123459970384 0 0.16063154061213489 0.056174381905899212 0 0.15547642347051649 0.076013162308598489 0 0.16885246017312111 0.071920123459970384 0 0.182396260560336 0.093764383646148503 0 0.15692861522811491 0.089607563774205062 0 0.15547642347051649 0.076013162308598489 0 0.16885246017312111 0.071920123459970384 0 0.15692861522811491 0.089607563774205062 0 0.17285984043307301 0.083731682631741799 0 0.16885246017312111 0.071920123459970384 0 0.15692861522811491 0.089607563774205062 0 0.182396260560336 0.093764383646148503 0 0.17285984043307301 0.083731682631741799 0 0.15692861522811491 0.089607563774205062 0 0.16885246017312111 0.071920123459970384 0 0.15692861522811491 0.089607563774205062 0 0.1044835014096759 0.47734756365600922 0 0.089878094677345824 0.46845281852689552 0 0.087590331635736762 0.48187231733454222 0 0.1044835014096759 0.47734756365600922 0 0.10375911119544989 0.46169208423840707 0 0.089878094677345824 0.46845281852689552 0 0.1044835014096759 0.47734756365600922 0 0.091184291132313577 0.49999999999999878 0 0.1034385873595831 0.49999999999999822 0 0.1120455250558608 0.48045706548225359 0 0.1044835014096759 0.47734756365600922 0 0.1034385873595831 0.49999999999999822 0 0.1120455250558608 0.48045706548225359 0 0.1044835014096759 0.47734756365600922 0 0.087590331635736762 0.48187231733454222 0 0.091184291132313577 0.49999999999999878 0 0.1044835014096759 0.47734756365600922 0 0.1034385873595831 0.49999999999999822 0 0.091184291132313577 0.49999999999999878 0 0.12399992399529371 0.48303337357331672 0 0.1120455250558608 0.48045706548225359 0 0.12915559468890389 0.5 0 0.1034385873595831 0.49999999999999822 0 0.1120455250558608 0.48045706548225359 0 0.12915559468890389 0.5 0 0.12399992399529371 0.48303337357331672 0 0.1120455250558608 0.48045706548225359 0 0.1232568145545315 0.47318152767312721 0 0.1044835014096759 0.47734756365600922 0 0.1120455250558608 0.48045706548225359 0 0.1206524627521391 0.46091413096450928 0 0.1120455250558608 0.48045706548225359 0 0.1206524627521391 0.46091413096450928 0 0.1120455250558608 0.48045706548225359 0 0.1232568145545315 0.47318152767312721 0 0.1206524627521391 0.46091413096450928 0 0.1232568145545315 0.47318152767312721 0 0.1206524627521391 0.46091413096450928 0 0.1303484766562954 0.46586162432778377 0 0.1044835014096759 0.47734756365600922 0 0.1177827116870388 0.45469512731202 0 0.1044835014096759 0.47734756365600922 0 0.1177827116870388 0.45469512731202 0 0.1206524627521391 0.46091413096450928 0 0.1177827116870388 0.45469512731202 0 0.1206524627521391 0.46091413096450928 0 0.1278632788434825 0.45577296128510503 0 0.1177827116870388 0.45469512731202 0 0.1085542672691443 0.45288073103457499 0 0.10375911119544989 0.46169208423840707 0 0.1177827116870388 0.45469512731202 0 0.1310819219644016 0.43204269096803077 0 0.1177827116870388 0.45469512731202 0 0.1193906732136185 0.44081408720424309 0 0.1310819219644016 0.43204269096803077 0 0.1177827116870388 0.45469512731202 0 0.1289094797012322 0.44711971241893372 0 0.1278632788434825 0.45577296128510503 0 0.1177827116870388 0.45469512731202 0 0.1193906732136185 0.44081408720424309 0 0.1133873753874745 0.44711352789891201 0 0.1177827116870388 0.45469512731202 0 0.1133873753874745 0.44711352789891201 0 0.1085542672691443 0.45288073103457499 0 0.1193906732136185 0.44081408720424309 0 0.1133873753874745 0.44711352789891201 0 0.11280312783646219 0.43748516267452098 0 0.1133873753874745 0.44711352789891201 0 0.1055620420874188 0.44634621164118382 0 0.11280312783646219 0.43748516267452098 0 0.1055620420874188 0.44634621164118382 0 0.099337691303681225 0.4374707705946943 0 0.11280312783646219 0.43748516267452098 0 0.1133873753874745 0.44711352789891201 0 0.1055620420874188 0.44634621164118382 0 0.1085542672691443 0.45288073103457499 0 0.1055620420874188 0.44634621164118382 0 0.1085542672691443 0.45288073103457499 0 0.1012109816942646 0.45379336565934708 0 0.1055620420874188 0.44634621164118382 0 0.094088013200529869 0.44889931535774519 0 0.1012109816942646 0.45379336565934708 0 0.1055620420874188 0.44634621164118382 0 0.094088013200529869 0.44889931535774519 0 0.099337691303681225 0.4374707705946943 0 0.1044835014096759 0.47734756365600922 0 0.1177827116870388 0.45469512731202 0 0.10375911119544989 0.46169208423840707 0 0.1085542672691443 0.45288073103457499 0 0.10375911119544989 0.46169208423840707 0 0.1012109816942646 0.45379336565934708 0 0.10375911119544989 0.46169208423840707 0 0.09409147471878021 0.45914848602482411 0 0.1012109816942646 0.45379336565934708 0 0.094088013200529869 0.44889931535774519 0 0.09409147471878021 0.45914848602482411 0 0.1012109816942646 0.45379336565934708 0 0.10375911119544989 0.46169208423840707 0 0.09409147471878021 0.45914848602482411 0 0.089878094677345824 0.46845281852689552 0 0.09409147471878021 0.45914848602482411 0 0.089878094677345824 0.46845281852689552 0 0.080214128666006621 0.45552629217638252 0 0.089878094677345824 0.46845281852689552 0 0.080214128666006621 0.45552629217638252 0 0.074102941378371603 0.47288946850061031 0 0.094088013200529869 0.44889931535774519 0 0.09409147471878021 0.45914848602482411 0 0.080214128666006621 0.45552629217638252 0 0.094088013200529869 0.44889931535774519 0 0.085796496059863905 0.44174499657163302 0 0.099337691303681225 0.4374707705946943 0 0.094088013200529869 0.44889931535774519 0 0.080214128666006621 0.45552629217638252 0 0.085796496059863905 0.44174499657163302 0 0.080214128666006621 0.45552629217638252 0 0.06525684597390341 0.44147936260094622 0 0.058990630125098087 0.45933022751847918 0 0.080214128666006621 0.45552629217638252 0 0.085796496059863905 0.44174499657163302 0 0.06525684597390341 0.44147936260094622 0 0.080214128666006621 0.45552629217638252 0 0.074102941378371603 0.47288946850061031 0 0.058990630125098087 0.45933022751847918 0 0.074102941378371603 0.47288946850061031 0 0.055632374657373099 0.48049688766291121 0 0.058990630125098087 0.45933022751847918 0 0.074102941378371603 0.47288946850061031 0 0.074845676588152429 0.48705173469961283 0 0.055632374657373099 0.48049688766291121 0 0.089878094677345824 0.46845281852689552 0 0.074102941378371603 0.47288946850061031 0 0.087590331635736762 0.48187231733454222 0 0.074102941378371603 0.47288946850061031 0 0.087590331635736762 0.48187231733454222 0 0.074845676588152429 0.48705173469961283 0 0.087590331635736762 0.48187231733454222 0 0.091184291132313577 0.49999999999999878 0 0.074845676588152429 0.48705173469961283 0 0.091184291132313577 0.49999999999999878 0 0.065718444136967091 0.5 0 0.074845676588152429 0.48705173469961283 0 0.065718444136967091 0.5 0 0.074845676588152429 0.48705173469961283 0 0.055632374657373099 0.48049688766291121 0 0.065718444136967091 0.5 0 0.055632374657373099 0.48049688766291121 0 0.04025259714162055 0.5 0 0.034127288248844749 0.48389355689233382 0 0.02042232855942323 0.47553651491327759 0 0.039542390739532807 0.46343438188548008 0 0.055632374657373099 0.48049688766291121 0 0.034127288248844749 0.48389355689233382 0 0.039542390739532807 0.46343438188548008 0 0.055632374657373099 0.48049688766291121 0 0.034127288248844749 0.48389355689233382 0 0.04025259714162055 0.5 0 0.034127288248844749 0.48389355689233382 0 0.04025259714162055 0.5 0 0.01478675014627406 0.5 0 0.034127288248844749 0.48389355689233382 0 0.02042232855942323 0.47553651491327759 0 0.01478675014627406 0.5 0 -0.0076889094467738816 0.46478000118795137 0 0.0017979149220028511 0.48165652148318122 0 0.0079421228958620176 0.46777507337897378 0 0.02042232855942323 0.47553651491327759 0 0.0017979149220028511 0.48165652148318122 0 0.0079421228958620176 0.46777507337897378 0 0.02042232855942323 0.47553651491327759 0 0.0017979149220028511 0.48165652148318122 0 0.01478675014627406 0.5 0 -0.01067909684907253 0.5 0 0.0017979149220028511 0.48165652148318122 0 0.01478675014627406 0.5 0 0.011312768916354391 0.43772440232287579 0 0.0067190561514857416 0.45457892549911538 0 0.023041811005143759 0.45366467292976881 0 -0.0049807791518667174 0.44616128958802082 0 0.011312768916354391 0.43772440232287579 0 0.0067190561514857416 0.45457892549911538 0 0.0067190561514857416 0.45457892549911538 0 0.0079421228958620176 0.46777507337897378 0 0.023041811005143759 0.45366467292976881 0 -0.0076889094467738816 0.46478000118795137 0 0.0067190561514857416 0.45457892549911538 0 0.0079421228958620176 0.46777507337897378 0 0.02042232855942323 0.47553651491327759 0 0.0079421228958620176 0.46777507337897378 0 0.023041811005143759 0.45366467292976881 0 0.02042232855942323 0.47553651491327759 0 0.023041811005143759 0.45366467292976881 0 0.039542390739532807 0.46343438188548008 0 0.011312768916354391 0.43772440232287579 0 0.023041811005143759 0.45366467292976881 0 0.030863212570951249 0.43098769711629731 0 0.023041811005143759 0.45366467292976881 0 0.043918160576270973 0.4455988348402663 0 0.030863212570951249 0.43098769711629731 0 0.023041811005143759 0.45366467292976881 0 0.043918160576270973 0.4455988348402663 0 0.039542390739532807 0.46343438188548008 0 0.055632374657373099 0.48049688766291121 0 0.039542390739532807 0.46343438188548008 0 0.058990630125098087 0.45933022751847918 0 0.043918160576270973 0.4455988348402663 0 0.039542390739532807 0.46343438188548008 0 0.058990630125098087 0.45933022751847918 0 0.06525684597390341 0.44147936260094622 0 0.043918160576270973 0.4455988348402663 0 0.049032727924684757 0.42871516414597882 0 0.06525684597390341 0.44147936260094622 0 0.043918160576270973 0.4455988348402663 0 0.058990630125098087 0.45933022751847918 0 0.06525684597390341 0.44147936260094622 0 0.049032727924684757 0.42871516414597882 0 0.063610358874117465 0.41791495627810887 0 0.049032727924684757 0.42871516414597882 0 0.041515061628180673 0.40759496989427513 0 0.063610358874117465 0.41791495627810887 0 0.041515061628180673 0.40759496989427513 0 0.064716269034845619 0.40131594062684278 0 0.063610358874117465 0.41791495627810887 0 0.043918160576270973 0.4455988348402663 0 0.049032727924684757 0.42871516414597882 0 0.030863212570951249 0.43098769711629731 0 0.049032727924684757 0.42871516414597882 0 0.041515061628180673 0.40759496989427513 0 0.030863212570951249 0.43098769711629731 0 0.011312768916354391 0.43772440232287579 0 0.030863212570951249 0.43098769711629731 0 0.015011072959699071 0.41747729397939609 0 0.041515061628180673 0.40759496989427513 0 0.030863212570951249 0.43098769711629731 0 0.015011072959699071 0.41747729397939609 0 0.041515061628180673 0.40759496989427513 0 0.015011072959699071 0.41747729397939609 0 0.019033898045706241 0.39766682092803818 0 -0.0073143073136647503 0.39745635484607128 0 -0.0040682684714412696 0.42417482241573168 0 0.015011072959699071 0.41747729397939609 0 -0.0040682684714412696 0.42417482241573168 0 0.011312768916354391 0.43772440232287579 0 0.015011072959699071 0.41747729397939609 0 -0.0040682684714412696 0.42417482241573168 0 -0.0049807791518667174 0.44616128958802082 0 0.011312768916354391 0.43772440232287579 0 -0.0045426006561533408 0.37315282105005088 0 -0.0073143073136647503 0.39745635484607128 0 0.014001025567275621 0.37909340418670179 0 -0.0073143073136647503 0.39745635484607128 0 0.015011072959699071 0.41747729397939609 0 0.019033898045706241 0.39766682092803818 0 -0.0073143073136647503 0.39745635484607128 0 0.014001025567275621 0.37909340418670179 0 0.019033898045706241 0.39766682092803818 0 0.014001025567275621 0.37909340418670179 0 0.036124081043280833 0.38477791248574361 0 0.030137676786885371 0.36323561939607268 0 0.014001025567275621 0.37909340418670179 0 0.019033898045706241 0.39766682092803818 0 0.036124081043280833 0.38477791248574361 0 0.041515061628180673 0.40759496989427513 0 0.019033898045706241 0.39766682092803818 0 0.036124081043280833 0.38477791248574361 0 0.041515061628180673 0.40759496989427513 0 0.036124081043280833 0.38477791248574361 0 0.057521362331255939 0.38418237138078187 0 0.041515061628180673 0.40759496989427513 0 0.057521362331255939 0.38418237138078187 0 0.064716269034845619 0.40131594062684278 0 0.036124081043280833 0.38477791248574361 0 0.057521362331255939 0.38418237138078187 0 0.051895898819732562 0.3655483780338773 0 0.057521362331255939 0.38418237138078187 0 0.076442675652300882 0.38951436985395682 0 0.072934867021814037 0.37048482413808809 0 0.076442675652300882 0.38951436985395682 0 0.091344151214667046 0.37861621337884399 0 0.072934867021814037 0.37048482413808809 0 0.076442675652300882 0.38951436985395682 0 0.091344151214667046 0.37861621337884399 0 0.09002638350580125 0.39336069720050493 0 0.09002638350580125 0.39336069720050493 0 0.084491886688373152 0.4073730357270911 0 0.10537341450262901 0.39683111517607372 0 0.076442675652300882 0.38951436985395682 0 0.09002638350580125 0.39336069720050493 0 0.084491886688373152 0.4073730357270911 0 0.076442675652300882 0.38951436985395682 0 0.064716269034845619 0.40131594062684278 0 0.084491886688373152 0.4073730357270911 0 0.057521362331255939 0.38418237138078187 0 0.076442675652300882 0.38951436985395682 0 0.064716269034845619 0.40131594062684278 0 0.064716269034845619 0.40131594062684278 0 0.063610358874117465 0.41791495627810887 0 0.084491886688373152 0.4073730357270911 0 0.063610358874117465 0.41791495627810887 0 0.084491886688373152 0.4073730357270911 0 0.06525684597390341 0.44147936260094622 0 0.063610358874117465 0.41791495627810887 0 0.090085801155198403 0.42534924212839631 0 0.06525684597390341 0.44147936260094622 0 0.090085801155198403 0.42534924212839631 0 0.085796496059863905 0.44174499657163302 0 0.090085801155198403 0.42534924212839631 0 0.099337691303681225 0.4374707705946943 0 0.085796496059863905 0.44174499657163302 0 0.06525684597390341 0.44147936260094622 0 0.090085801155198403 0.42534924212839631 0 0.063610358874117465 0.41791495627810887 0 0.090085801155198403 0.42534924212839631 0 0.084491886688373152 0.4073730357270911 0 0.090085801155198403 0.42534924212839631 0 0.1149147563364927 0.40921912165584551 0 0.090085801155198403 0.42534924212839631 0 0.084491886688373152 0.4073730357270911 0 0.1149147563364927 0.40921912165584551 0 0.090085801155198403 0.42534924212839631 0 0.10647788949289599 0.42820355227591261 0 0.1149147563364927 0.40921912165584551 0 0.090085801155198403 0.42534924212839631 0 0.099337691303681225 0.4374707705946943 0 0.10647788949289599 0.42820355227591261 0 0.099337691303681225 0.4374707705946943 0 0.10647788949289599 0.42820355227591261 0 0.11280312783646219 0.43748516267452098 0 0.11280312783646219 0.43748516267452098 0 0.1154726380132403 0.43008562952921969 0 0.12189822919271549 0.43273392716773151 0 0.10647788949289599 0.42820355227591261 0 0.11280312783646219 0.43748516267452098 0 0.1154726380132403 0.43008562952921969 0 0.10647788949289599 0.42820355227591261 0 0.1154726380132403 0.43008562952921969 0 0.11454012450913161 0.42325854988357298 0 0.1154726380132403 0.43008562952921969 0 0.11454012450913161 0.42325854988357298 0 0.1200445665086587 0.42524675917483989 0 0.1200445665086587 0.42524675917483989 0 0.12189822919271549 0.43273392716773151 0 0.12820989238683431 0.42648086894557052 0 0.1154726380132403 0.43008562952921969 0 0.1200445665086587 0.42524675917483989 0 0.12189822919271549 0.43273392716773151 0 0.1193906732136185 0.44081408720424309 0 0.12189822919271549 0.43273392716773151 0 0.1310819219644016 0.43204269096803077 0 0.1193906732136185 0.44081408720424309 0 0.11280312783646219 0.43748516267452098 0 0.12189822919271549 0.43273392716773151 0 0.1200445665086587 0.42524675917483989 0 0.1149147563364927 0.40921912165584551 0 0.12820989238683431 0.42648086894557052 0 0.11454012450913161 0.42325854988357298 0 0.1200445665086587 0.42524675917483989 0 0.1149147563364927 0.40921912165584551 0 0.1149147563364927 0.40921912165584551 0 0.12820989238683431 0.42648086894557052 0 0.1149147563364927 0.40921912165584551 0 0.13159634717604471 0.39838193306087633 0 0.12785651279979629 0.41300216094147868 0 0.1149147563364927 0.40921912165584551 0 0.12785651279979629 0.41300216094147868 0 0.12820989238683431 0.42648086894557052 0 0.10647788949289599 0.42820355227591261 0 0.11454012450913161 0.42325854988357298 0 0.1149147563364927 0.40921912165584551 0 0.1187340050918187 0.39808465074103683 0 0.1230515023521087 0.38790643307135231 0 0.10537341450262901 0.39683111517607372 0 0.1149147563364927 0.40921912165584551 0 0.1187340050918187 0.39808465074103683 0 0.13159634717604471 0.39838193306087633 0 0.1149147563364927 0.40921912165584551 0 0.13159634717604471 0.39838193306087633 0 0.1230515023521087 0.38790643307135231 0 0.10537341450262901 0.39683111517607372 0 0.1149147563364927 0.40921912165584551 0 0.10537341450262901 0.39683111517607372 0 0.1149147563364927 0.40921912165584551 0 0.1187340050918187 0.39808465074103683 0 0.10537341450262901 0.39683111517607372 0 0.1187340050918187 0.39808465074103683 0 0.1230515023521087 0.38790643307135231 0 0.13159634717604471 0.39838193306087633 0 0.1230515023521087 0.38790643307135231 0 0.1069934566565998 0.38326473010002832 0 0.1082047585569946 0.36970515877384352 0 0.1230515023521087 0.38790643307135231 0 0.1082047585569946 0.36970515877384352 0 0.12259354375719241 0.37413907305387872 0 0.1230515023521087 0.38790643307135231 0 0.1069934566565998 0.38326473010002832 0 0.10537341450262901 0.39683111517607372 0 0.1230515023521087 0.38790643307135231 0 0.1082047585569946 0.36970515877384352 0 0.091344151214667046 0.37861621337884399 0 0.10537341450262901 0.39683111517607372 0 0.091344151214667046 0.37861621337884399 0 0.1069934566565998 0.38326473010002832 0 0.10537341450262901 0.39683111517607372 0 0.091344151214667046 0.37861621337884399 0 0.1069934566565998 0.38326473010002832 0 0.1082047585569946 0.36970515877384352 0 0.091344151214667046 0.37861621337884399 0 0.09002638350580125 0.39336069720050493 0 0.10537341450262901 0.39683111517607372 0 0.084491886688373152 0.4073730357270911 0 0.1149147563364927 0.40921912165584551 0 0.10537341450262901 0.39683111517607372 0 0.084491886688373152 0.4073730357270911 0 0.10537341450262901 0.39683111517607372 0 0.1074919993606331 0.34871795754240809 0 0.093588325277989742 0.3407126276234701 0 0.086254338645664438 0.35655743928289718 0 0.1074919993606331 0.34871795754240809 0 0.1082047585569946 0.36970515877384352 0 0.086254338645664438 0.35655743928289718 0 0.091344151214667046 0.37861621337884399 0 0.1082047585569946 0.36970515877384352 0 0.086254338645664438 0.35655743928289718 0 0.1074919993606331 0.34871795754240809 0 0.1082047585569946 0.36970515877384352 0 0.11912377200784589 0.36127178378947528 0 0.1082047585569946 0.36970515877384352 0 0.12259354375719241 0.37413907305387872 0 0.11912377200784589 0.36127178378947528 0 0.12259354375719241 0.37413907305387872 0 0.11912377200784589 0.36127178378947528 0 0.13106500545686789 0.36818218262621399 0 0.1074919993606331 0.34871795754240809 0 0.11912377200784589 0.36127178378947528 0 0.12684940380070661 0.34811607624412538 0 0.1074919993606331 0.34871795754240809 0 0.11677578538958611 0.32858815155352089 0 0.12684940380070661 0.34811607624412538 0 0.1074919993606331 0.34871795754240809 0 0.11677578538958611 0.32858815155352089 0 0.11677578538958611 0.32858815155352089 0 0.10134673425831529 0.31880463838711542 0 0.1260595714185391 0.30845834556463358 0 0.11677578538958611 0.32858815155352089 0 0.1260595714185391 0.30845834556463358 0 0.1074919993606331 0.34871795754240809 0 0.11677578538958611 0.32858815155352089 0 0.093588325277989742 0.3407126276234701 0 0.11677578538958611 0.32858815155352089 0 0.10134673425831529 0.31880463838711542 0 0.093588325277989742 0.3407126276234701 0 0.093588325277989742 0.3407126276234701 0 0.084690111897916642 0.32750125129326119 0 0.069657064573866889 0.3451348850327845 0 0.10134673425831529 0.31880463838711542 0 0.093588325277989742 0.3407126276234701 0 0.084690111897916642 0.32750125129326119 0 0.10134673425831529 0.31880463838711542 0 0.084690111897916642 0.32750125129326119 0 0.083287383589029415 0.30552314496701782 0 0.084690111897916642 0.32750125129326119 0 0.068084422134792655 0.32410936680732472 0 0.083287383589029415 0.30552314496701782 0 0.068084422134792655 0.32410936680732472 0 0.069657064573866889 0.3451348850327845 0 0.054427660062659422 0.33016284131930868 0 0.084690111897916642 0.32750125129326119 0 0.068084422134792655 0.32410936680732472 0 0.069657064573866889 0.3451348850327845 0 0.069657064573866889 0.3451348850327845 0 0.086254338645664438 0.35655743928289718 0 0.072934867021814037 0.37048482413808809 0 0.093588325277989742 0.3407126276234701 0 0.069657064573866889 0.3451348850327845 0 0.086254338645664438 0.35655743928289718 0 0.091344151214667046 0.37861621337884399 0 0.086254338645664438 0.35655743928289718 0 0.072934867021814037 0.37048482413808809 0 0.069657064573866889 0.3451348850327845 0 0.072934867021814037 0.37048482413808809 0 0.051895898819732562 0.3655483780338773 0 0.057521362331255939 0.38418237138078187 0 0.072934867021814037 0.37048482413808809 0 0.051895898819732562 0.3655483780338773 0 0.069657064573866889 0.3451348850327845 0 0.051895898819732562 0.3655483780338773 0 0.044207655234939171 0.34578099224228481 0 0.051895898819732562 0.3655483780338773 0 0.044207655234939171 0.34578099224228481 0 0.030137676786885371 0.36323561939607268 0 0.044207655234939171 0.34578099224228481 0 0.030137676786885371 0.36323561939607268 0 0.024004318777567289 0.34264140371824309 0 0.036124081043280833 0.38477791248574361 0 0.051895898819732562 0.3655483780338773 0 0.030137676786885371 0.36323561939607268 0 0.014001025567275621 0.37909340418670179 0 0.030137676786885371 0.36323561939607268 0 0.010567405497599351 0.35827089641423382 0 0.030137676786885371 0.36323561939607268 0 0.010567405497599351 0.35827089641423382 0 0.024004318777567289 0.34264140371824309 0 0.010567405497599351 0.35827089641423382 0 0.0045422153079443823 0.33974475314486291 0 0.024004318777567289 0.34264140371824309 0 -0.012589133325050361 0.35629326518858673 0 0.010567405497599351 0.35827089641423382 0 0.0045422153079443823 0.33974475314486291 0 -0.0045426006561533408 0.37315282105005088 0 0.014001025567275621 0.37909340418670179 0 0.010567405497599351 0.35827089641423382 0 0.0055870851428569644 0.32343914427593701 0 0.017944173120133109 0.32535870744741108 0 0.0075209757127229632 0.30476535896382217 0 -0.007659023569372596 0.32388775754765192 0 0.0055870851428569644 0.32343914427593701 0 0.0075209757127229632 0.30476535896382217 0 0.0055870851428569644 0.32343914427593701 0 0.0045422153079443823 0.33974475314486291 0 0.017944173120133109 0.32535870744741108 0 -0.007659023569372596 0.32388775754765192 0 0.0055870851428569644 0.32343914427593701 0 0.0045422153079443823 0.33974475314486291 0 0.0045422153079443823 0.33974475314486291 0 0.024004318777567289 0.34264140371824309 0 0.017944173120133109 0.32535870744741108 0 0.024004318777567289 0.34264140371824309 0 0.017944173120133109 0.32535870744741108 0 0.036982616856123453 0.32701656465478818 0 0.017944173120133109 0.32535870744741108 0 0.030856539192908809 0.30965331467277157 0 0.0075209757127229632 0.30476535896382217 0 0.017944173120133109 0.32535870744741108 0 0.036982616856123453 0.32701656465478818 0 0.030856539192908809 0.30965331467277157 0 0.036982616856123453 0.32701656465478818 0 0.056925150447974658 0.3068798752620937 0 0.030856539192908809 0.30965331467277157 0 0.044207655234939171 0.34578099224228481 0 0.024004318777567289 0.34264140371824309 0 0.036982616856123453 0.32701656465478818 0 0.044207655234939171 0.34578099224228481 0 0.036982616856123453 0.32701656465478818 0 0.054427660062659422 0.33016284131930868 0 0.069657064573866889 0.3451348850327845 0 0.044207655234939171 0.34578099224228481 0 0.054427660062659422 0.33016284131930868 0 0.068084422134792655 0.32410936680732472 0 0.054427660062659422 0.33016284131930868 0 0.056925150447974658 0.3068798752620937 0 0.036982616856123453 0.32701656465478818 0 0.054427660062659422 0.33016284131930868 0 0.056925150447974658 0.3068798752620937 0 0.056925150447974658 0.3068798752620937 0 0.04697788762358112 0.29093226150359208 0 0.060994388039847643 0.27964924890532172 0 0.04697788762358112 0.29093226150359208 0 0.030442752602165141 0.29278767904064967 0 0.043550020392550168 0.27115507005570127 0 0.030442752602165141 0.29278767904064967 0 0.043550020392550168 0.27115507005570127 0 0.04697788762358112 0.29093226150359208 0 0.030856539192908809 0.30965331467277157 0 0.030442752602165141 0.29278767904064967 0 0.056925150447974658 0.3068798752620937 0 0.04697788762358112 0.29093226150359208 0 0.030856539192908809 0.30965331467277157 0 0.030856539192908809 0.30965331467277157 0 0.030442752602165141 0.29278767904064967 0 0.0075209757127229632 0.30476535896382217 0 0.030442752602165141 0.29278767904064967 0 0.0059730323149553791 0.28997367436947741 0 0.01235737625438715 0.27566787937973941 0 -0.0091796179168699803 0.28065720455182208 0 0.0059730323149553791 0.28997367436947741 0 0.01235737625438715 0.27566787937973941 0 0.030442752602165141 0.29278767904064967 0 0.0059730323149553791 0.28997367436947741 0 0.0075209757127229632 0.30476535896382217 0 -0.01127632507762838 0.29599024991135331 0 0.0059730323149553791 0.28997367436947741 0 0.0075209757127229632 0.30476535896382217 0 -0.0034903985393868221 0.25853639811177698 0 0.02096260163955577 0.25463352423389651 0 -0.0034903985393868221 0.25853639811177698 0 0.01235737625438715 0.27566787937973941 0 0.02096260163955577 0.25463352423389651 0 -0.0034903985393868221 0.25853639811177698 0 0.0055636717745417936 0.2409115006921535 0 0.02096260163955577 0.25463352423389651 0 0.01235737625438715 0.27566787937973941 0 0.02096260163955577 0.25463352423389651 0 0.043550020392550168 0.27115507005570127 0 0.030442752602165141 0.29278767904064967 0 0.01235737625438715 0.27566787937973941 0 0.043550020392550168 0.27115507005570127 0 0.040613191062103551 0.24305050687108271 0 0.02096260163955577 0.25463352423389651 0 0.043550020392550168 0.27115507005570127 0 0.04697788762358112 0.29093226150359208 0 0.043550020392550168 0.27115507005570127 0 0.060994388039847643 0.27964924890532172 0 0.043550020392550168 0.27115507005570127 0 0.060994388039847643 0.27964924890532172 0 0.065535500037705613 0.25850494927377837 0 0.056657288182935181 0.24952246107075299 0 0.043550020392550168 0.27115507005570127 0 0.065535500037705613 0.25850494927377837 0 0.056657288182935181 0.24952246107075299 0 0.043550020392550168 0.27115507005570127 0 0.056657288182935181 0.24952246107075299 0 0.040613191062103551 0.24305050687108271 0 0.043550020392550168 0.27115507005570127 0 0.056657288182935181 0.24952246107075299 0 0.067650028005513965 0.2431974006797919 0 0.065535500037705613 0.25850494927377837 0 0.065535500037705613 0.25850494927377837 0 0.078115913588821362 0.25064488401743651 0 0.075898142593205445 0.26809310849946899 0 0.067650028005513965 0.2431974006797919 0 0.065535500037705613 0.25850494927377837 0 0.067650028005513965 0.2431974006797919 0 0.065535500037705613 0.25850494927377837 0 0.078115913588821362 0.25064488401743651 0 0.078115913588821362 0.25064488401743651 0 0.088490737566981031 0.25902975098640618 0 0.075898142593205445 0.26809310849946899 0 0.094884398846433154 0.2416421449733272 0 0.078115913588821362 0.25064488401743651 0 0.088490737566981031 0.25902975098640618 0 0.085977061812165967 0.27459433841328568 0 0.075898142593205445 0.26809310849946899 0 0.075599292219866304 0.28740018272195927 0 0.088490737566981031 0.25902975098640618 0 0.085977061812165967 0.27459433841328568 0 0.095609492428275183 0.26879135164110268 0 0.088490737566981031 0.25902975098640618 0 0.085977061812165967 0.27459433841328568 0 0.075898142593205445 0.26809310849946899 0 0.060994388039847643 0.27964924890532172 0 0.075898142593205445 0.26809310849946899 0 0.075599292219866304 0.28740018272195927 0 0.060994388039847643 0.27964924890532172 0 0.065535500037705613 0.25850494927377837 0 0.075898142593205445 0.26809310849946899 0 0.056925150447974658 0.3068798752620937 0 0.060994388039847643 0.27964924890532172 0 0.075599292219866304 0.28740018272195927 0 0.068084422134792655 0.32410936680732472 0 0.056925150447974658 0.3068798752620937 0 0.083287383589029415 0.30552314496701782 0 0.056925150447974658 0.3068798752620937 0 0.075599292219866304 0.28740018272195927 0 0.083287383589029415 0.30552314496701782 0 0.083287383589029415 0.30552314496701782 0 0.090513626836974795 0.28966138028456839 0 0.1041270569579129 0.30023128918997549 0 0.085977061812165967 0.27459433841328568 0 0.090513626836974795 0.28966138028456839 0 0.10290137731205461 0.28182264945197738 0 0.075599292219866304 0.28740018272195927 0 0.083287383589029415 0.30552314496701782 0 0.090513626836974795 0.28966138028456839 0 0.085977061812165967 0.27459433841328568 0 0.075599292219866304 0.28740018272195927 0 0.090513626836974795 0.28966138028456839 0 0.090513626836974795 0.28966138028456839 0 0.10290137731205461 0.28182264945197738 0 0.1041270569579129 0.30023128918997549 0 0.10290137731205461 0.28182264945197738 0 0.1041270569579129 0.30023128918997549 0 0.11783084426913561 0.29079745392212059 0 0.10134673425831529 0.31880463838711542 0 0.083287383589029415 0.30552314496701782 0 0.1041270569579129 0.30023128918997549 0 0.10134673425831529 0.31880463838711542 0 0.1041270569579129 0.30023128918997549 0 0.1260595714185391 0.30845834556463358 0 0.1041270569579129 0.30023128918997549 0 0.11783084426913561 0.29079745392212059 0 0.1260595714185391 0.30845834556463358 0 0.10290137731205461 0.28182264945197738 0 0.11783084426913561 0.29079745392212059 0 0.1207228582096794 0.27514644582827008 0 0.11783084426913561 0.29079745392212059 0 0.1207228582096794 0.27514644582827008 0 0.13534335744749229 0.28832853957574661 0 0.10290137731205461 0.28182264945197738 0 0.1207228582096794 0.27514644582827008 0 0.1063340217304687 0.27193119975053609 0 0.1207228582096794 0.27514644582827008 0 0.1155036305604184 0.26143449438416938 0 0.10610235897186571 0.26196435208079449 0 0.1207228582096794 0.27514644582827008 0 0.10610235897186571 0.26196435208079449 0 0.1063340217304687 0.27193119975053609 0 0.1207228582096794 0.27514644582827008 0 0.10610235897186571 0.26196435208079449 0 0.1207228582096794 0.27514644582827008 0 0.12442646880705829 0.25842656913830703 0 0.1155036305604184 0.26143449438416938 0 0.118467602947705 0.24904918409112489 0 0.12442646880705829 0.25842656913830703 0 0.1094825115753742 0.25419496519862578 0 0.12442646880705829 0.25842656913830703 0 0.1094825115753742 0.25419496519862578 0 0.1094825115753742 0.25419496519862578 0 0.1155036305604184 0.26143449438416938 0 0.10610235897186571 0.26196435208079449 0 0.12442646880705829 0.25842656913830703 0 0.1094825115753742 0.25419496519862578 0 0.1155036305604184 0.26143449438416938 0 0.094884398846433154 0.2416421449733272 0 0.088490737566981031 0.25902975098640618 0 0.099659974724104566 0.25447815284378172 0 0.1094825115753742 0.25419496519862578 0 0.10610235897186571 0.26196435208079449 0 0.099659974724104566 0.25447815284378172 0 0.10895274041773891 0.2447373791024183 0 0.1094825115753742 0.25419496519862578 0 0.099659974724104566 0.25447815284378172 0 0.10610235897186571 0.26196435208079449 0 0.099659974724104566 0.25447815284378172 0 0.095609492428275183 0.26879135164110268 0 0.088490737566981031 0.25902975098640618 0 0.099659974724104566 0.25447815284378172 0 0.095609492428275183 0.26879135164110268 0 0.085977061812165967 0.27459433841328568 0 0.10290137731205461 0.28182264945197738 0 0.095609492428275183 0.26879135164110268 0 0.10290137731205461 0.28182264945197738 0 0.095609492428275183 0.26879135164110268 0 0.1063340217304687 0.27193119975053609 0 0.10610235897186571 0.26196435208079449 0 0.095609492428275183 0.26879135164110268 0 0.1063340217304687 0.27193119975053609 0 0.1548543748536344 0.27383275120343131 0 0.14628006667464999 0.26461474067807977 0 0.16629324626033401 0.2702817703856325 0 0.14764912719116979 0.27304601650075339 0 0.1412742656296975 0.27546869654690292 0 0.14628006667464999 0.26461474067807977 0 0.1412742656296975 0.27546869654690292 0 0.14628006667464999 0.26461474067807977 0 0.1412742656296975 0.27546869654690292 0 0.14628006667464999 0.26461474067807977 0 0.1393704260387422 0.26265817307798911 0 0.14764912719116979 0.27304601650075339 0 0.1412742656296975 0.27546869654690292 0 0.14881011566982741 0.28057677743968762 0 0.14881011566982741 0.28057677743968762 0 0.1548543748536344 0.27383275120343131 0 0.1558739982941251 0.28404332934978971 0 0.14764912719116979 0.27304601650075339 0 0.14881011566982741 0.28057677743968762 0 0.1548543748536344 0.27383275120343131 0 0.14764912719116979 0.27304601650075339 0 0.1548543748536344 0.27383275120343131 0 0.14628006667464999 0.26461474067807977 0 0.15172676458886999 0.25280479892033159 0 0.14628006667464999 0.26461474067807977 0 0.15172676458886999 0.25280479892033159 0 0.14628006667464999 0.26461474067807977 0 0.15814103351836811 0.26175019231237301 0 0.13696268387962379 0.24645699857620559 0 0.15172676458886999 0.25280479892033159 0 0.1447728055966479 0.25675862936796578 0 0.15172676458886999 0.25280479892033159 0 0.1447728055966479 0.25675862936796578 0 0.14628006667464999 0.26461474067807977 0 0.1447728055966479 0.25675862936796578 0 0.14628006667464999 0.26461474067807977 0 0.1393704260387422 0.26265817307798911 0 0.14628006667464999 0.26461474067807977 0 0.1393704260387422 0.26265817307798911 0 0.13696268387962379 0.24645699857620559 0 0.1447728055966479 0.25675862936796578 0 0.1393704260387422 0.26265817307798911 0 0.13696268387962379 0.24645699857620559 0 0.1393704260387422 0.26265817307798911 0 0.13696268387962379 0.24645699857620559 0 0.12442646880705829 0.25842656913830703 0 0.1393704260387422 0.26265817307798911 0 0.118467602947705 0.24904918409112489 0 0.13696268387962379 0.24645699857620559 0 0.12442646880705829 0.25842656913830703 0 0.12442646880705829 0.25842656913830703 0 0.1393704260387422 0.26265817307798911 0 0.13189817428241701 0.2715577015521099 0 0.12442646880705829 0.25842656913830703 0 0.1393704260387422 0.26265817307798911 0 0.1412742656296975 0.27546869654690292 0 0.13189817428241701 0.2715577015521099 0 0.13534335744749229 0.28832853957574661 0 0.1207228582096794 0.27514644582827008 0 0.13189817428241701 0.2715577015521099 0 0.13534335744749229 0.28832853957574661 0 0.1207228582096794 0.27514644582827008 0 0.12442646880705829 0.25842656913830703 0 0.13189817428241701 0.2715577015521099 0 0.1412742656296975 0.27546869654690292 0 0.1393704260387422 0.26265817307798911 0 0.1412742656296975 0.27546869654690292 0 0.1393704260387422 0.26265817307798911 0 0.13189817428241701 0.2715577015521099 0 0.1207228582096794 0.27514644582827008 0 0.13534335744749229 0.28832853957574661 0 0.1412742656296975 0.27546869654690292 0 0.13534335744749229 0.28832853957574661 0 0.1443988123805095 0.29649309359756082 0 0.11783084426913561 0.29079745392212059 0 0.13534335744749229 0.28832853957574661 0 0.1260595714185391 0.30845834556463358 0 0.13534335744749229 0.28832853957574661 0 0.1443988123805095 0.29649309359756082 0 0.1412742656296975 0.27546869654690292 0 0.13534335744749229 0.28832853957574661 0 0.13534335744749229 0.28832853957574661 0 0.1260595714185391 0.30845834556463358 0 0.13534335744749229 0.28832853957574661 0 0.13849423625557111 0.30748008015468442 0 0.1443988123805095 0.29649309359756082 0 0.13534335744749229 0.28832853957574661 0 0.13849423625557111 0.30748008015468442 0 0.1260595714185391 0.30845834556463358 0 0.1443988123805095 0.29649309359756082 0 0.16054514941712481 0.29462370488206902 0 0.15666093554675081 0.30754883488869622 0 0.1443988123805095 0.29649309359756082 0 0.14733872537721801 0.31627513018289288 0 0.1443988123805095 0.29649309359756082 0 0.15666093554675081 0.30754883488869622 0 0.14733872537721801 0.31627513018289288 0 0.13849423625557111 0.30748008015468442 0 0.1443988123805095 0.29649309359756082 0 0.14733872537721801 0.31627513018289288 0 0.1443988123805095 0.29649309359756082 0 0.15666093554675081 0.30754883488869622 0 0.1412742656296975 0.27546869654690292 0 0.1443988123805095 0.29649309359756082 0 0.1443988123805095 0.29649309359756082 0 0.1558739982941251 0.28404332934978971 0 0.16054514941712481 0.29462370488206902 0 0.1412742656296975 0.27546869654690292 0 0.14881011566982741 0.28057677743968762 0 0.1443988123805095 0.29649309359756082 0 0.14881011566982741 0.28057677743968762 0 0.1443988123805095 0.29649309359756082 0 0.1558739982941251 0.28404332934978971 0 0.1558739982941251 0.28404332934978971 0 0.16054514941712481 0.29462370488206902 0 0.16472720905392171 0.27992120782293523 0 0.1711200679077283 0.29140769510077319 0 0.17470757171250159 0.28145018559341328 0 0.16472720905392171 0.27992120782293523 0 0.16054514941712481 0.29462370488206902 0 0.1711200679077283 0.29140769510077319 0 0.16472720905392171 0.27992120782293523 0 0.15666093554675081 0.30754883488869622 0 0.1726299962791647 0.30578642283112872 0 0.1689230587129929 0.31860457617983051 0 0.16054514941712481 0.29462370488206902 0 0.15666093554675081 0.30754883488869622 0 0.1726299962791647 0.30578642283112872 0 0.16054514941712481 0.29462370488206902 0 0.1711200679077283 0.29140769510077319 0 0.1726299962791647 0.30578642283112872 0 0.179661353888142 0.29837245047558852 0 0.1850909094945056 0.28969145456454171 0 0.18980444187116949 0.3066042294059102 0 0.1726299962791647 0.30578642283112872 0 0.18980444187116949 0.3066042294059102 0 0.18267204274410481 0.32160349766379798 0 0.1726299962791647 0.30578642283112872 0 0.179661353888142 0.29837245047558852 0 0.18980444187116949 0.3066042294059102 0 0.1711200679077283 0.29140769510077319 0 0.1726299962791647 0.30578642283112872 0 0.179661353888142 0.29837245047558852 0 0.1711200679077283 0.29140769510077319 0 0.17470757171250159 0.28145018559341328 0 0.1850909094945056 0.28969145456454171 0 0.1711200679077283 0.29140769510077319 0 0.179661353888142 0.29837245047558852 0 0.1850909094945056 0.28969145456454171 0 0.17470757171250159 0.28145018559341328 0 0.1850909094945056 0.28969145456454171 0 0.18630642584601839 0.27594880009318379 0 0.18630642584601839 0.27594880009318379 0 0.16629324626033401 0.2702817703856325 0 0.17470757171250159 0.28145018559341328 0 0.18630642584601839 0.27594880009318379 0 0.16629324626033401 0.2702817703856325 0 0.18630642584601839 0.27594880009318379 0 0.16629324626033401 0.2702817703856325 0 0.1784243084323017 0.26391080748666362 0 0.14628006667464999 0.26461474067807977 0 0.16629324626033401 0.2702817703856325 0 0.17470757171250159 0.28145018559341328 0 0.16472720905392171 0.27992120782293523 0 0.16629324626033401 0.2702817703856325 0 0.1548543748536344 0.27383275120343131 0 0.1558739982941251 0.28404332934978971 0 0.16472720905392171 0.27992120782293523 0 0.1548543748536344 0.27383275120343131 0 0.16472720905392171 0.27992120782293523 0 0.16629324626033401 0.2702817703856325 0 0.14628006667464999 0.26461474067807977 0 0.16629324626033401 0.2702817703856325 0 0.15814103351836811 0.26175019231237301 0 0.1656078887783792 0.24286487100056081 0 0.1652459078110701 0.25860162266235109 0 0.1784243084323017 0.26391080748666362 0 0.1656078887783792 0.24286487100056081 0 0.15172676458886999 0.25280479892033159 0 0.1652459078110701 0.25860162266235109 0 0.15172676458886999 0.25280479892033159 0 0.15814103351836811 0.26175019231237301 0 0.1652459078110701 0.25860162266235109 0 0.16629324626033401 0.2702817703856325 0 0.15814103351836811 0.26175019231237301 0 0.1652459078110701 0.25860162266235109 0 0.16629324626033401 0.2702817703856325 0 0.1652459078110701 0.25860162266235109 0 0.1784243084323017 0.26391080748666362 0 0.1656078887783792 0.24286487100056081 0 0.1784243084323017 0.26391080748666362 0 0.18515818986685109 0.24523198137830499 0 0.1656078887783792 0.24286487100056081 0 0.1784243084323017 0.26391080748666362 0 0.18515818986685109 0.24523198137830499 0 0.1784243084323017 0.26391080748666362 0 0.2001597603643252 0.25953991024648271 0 0.18630642584601839 0.27594880009318379 0 0.20631960543170261 0.28161582980073652 0 0.18630642584601839 0.27594880009318379 0 0.2001597603643252 0.25953991024648271 0 0.20631960543170261 0.28161582980073652 0 0.18630642584601839 0.27594880009318379 0 0.1784243084323017 0.26391080748666362 0 0.2001597603643252 0.25953991024648271 0 0.2001597603643252 0.25953991024648271 0 0.20631960543170261 0.28161582980073652 0 0.2001597603643252 0.25953991024648271 0 0.21743518236273929 0.26827176205905862 0 0.20631960543170261 0.28161582980073652 0 0.21743518236273929 0.26827176205905862 0 0.22625310063890561 0.28726029569037098 0 0.20631960543170261 0.28161582980073652 0 0.2001597603643252 0.25953991024648271 0 0.21743518236273929 0.26827176205905862 0 0.21441946711031809 0.25343142140150932 0 0.20388057309864299 0.2420260524210241 0 0.2001597603643252 0.25953991024648271 0 0.21441946711031809 0.25343142140150932 0 0.21743518236273929 0.26827176205905862 0 0.21441946711031809 0.25343142140150932 0 0.23143636026737621 0.25829091581815028 0 0.22311456895561979 0.24210018387613991 0 0.21441946711031809 0.25343142140150932 0 0.23143636026737621 0.25829091581815028 0 0.21743518236273929 0.26827176205905862 0 0.23143636026737621 0.25829091581815028 0 0.23691269892240399 0.27649675811381591 0 0.21743518236273929 0.26827176205905862 0 0.23691269892240399 0.27649675811381591 0 0.22625310063890561 0.28726029569037098 0 0.23143636026737621 0.25829091581815028 0 0.23691269892240399 0.27649675811381591 0 0.2490231873831896 0.26987704113164152 0 0.23691269892240399 0.27649675811381591 0 0.2490231873831896 0.26987704113164152 0 0.25239385184284652 0.28364063616437057 0 0.23143636026737621 0.25829091581815028 0 0.2490231873831896 0.26987704113164152 0 0.24833316285785609 0.25613966282899547 0 0.23892470514704739 0.24618996043878821 0 0.23143636026737621 0.25829091581815028 0 0.24833316285785609 0.25613966282899547 0 0.23335302439001659 0.30239607188981099 0 0.22979332921272569 0.3183598782236674 0 0.24096053071102699 0.31548588195579419 0 0.23335302439001659 0.30239607188981099 0 0.24096053071102699 0.31548588195579419 0 0.25354031088216911 0.30701755471271791 0 0.24618659584610841 0.29290476158000678 0 0.23335302439001659 0.30239607188981099 0 0.25354031088216911 0.30701755471271791 0 0.24096053071102699 0.31548588195579419 0 0.25354031088216911 0.30701755471271791 0 0.23691269892240399 0.27649675811381591 0 0.24618659584610841 0.29290476158000678 0 0.22625310063890561 0.28726029569037098 0 0.24618659584610841 0.29290476158000678 0 0.22625310063890561 0.28726029569037098 0 0.23335302439001659 0.30239607188981099 0 0.23691269892240399 0.27649675811381591 0 0.24618659584610841 0.29290476158000678 0 0.25239385184284652 0.28364063616437057 0 0.24618659584610841 0.29290476158000678 0 0.22625310063890561 0.28726029569037098 0 0.22625310063890561 0.28726029569037098 0 0.23335302439001659 0.30239607188981099 0 0.21381535808511951 0.3084794328241004 0 0.23335302439001659 0.30239607188981099 0 0.21381535808511951 0.3084794328241004 0 0.22979332921272569 0.3183598782236674 0 0.21381535808511951 0.3084794328241004 0 0.20631960543170261 0.28161582980073652 0 0.18980444187116949 0.3066042294059102 0 0.22625310063890561 0.28726029569037098 0 0.20631960543170261 0.28161582980073652 0 0.22625310063890561 0.28726029569037098 0 0.21381535808511951 0.3084794328241004 0 0.20631960543170261 0.28161582980073652 0 0.21381535808511951 0.3084794328241004 0 0.20631960543170261 0.28161582980073652 0 0.1850909094945056 0.28969145456454171 0 0.18630642584601839 0.27594880009318379 0 0.20631960543170261 0.28161582980073652 0 0.1850909094945056 0.28969145456454171 0 0.20631960543170261 0.28161582980073652 0 0.18980444187116949 0.3066042294059102 0 0.18980444187116949 0.3066042294059102 0 0.19811683110691561 0.32355197243010148 0 0.18267204274410481 0.32160349766379798 0 0.21381535808511951 0.3084794328241004 0 0.18980444187116949 0.3066042294059102 0 0.19811683110691561 0.32355197243010148 0 0.19811683110691561 0.32355197243010148 0 0.18647608270984681 0.33663245738680009 0 0.18267204274410481 0.32160349766379798 0 0.19811683110691561 0.32355197243010148 0 0.20201013790873629 0.3422882781513561 0 0.18647608270984681 0.33663245738680009 0 0.20201013790873629 0.3422882781513561 0 0.1896181102713666 0.34763024771210649 0 0.18647608270984681 0.33663245738680009 0 0.19811683110691561 0.32355197243010148 0 0.20201013790873629 0.3422882781513561 0 0.2213111107385371 0.33534303584746422 0 0.21381535808511951 0.3084794328241004 0 0.2213111107385371 0.33534303584746422 0 0.21381535808511951 0.3084794328241004 0 0.19811683110691561 0.32355197243010148 0 0.2213111107385371 0.33534303584746422 0 0.21381535808511951 0.3084794328241004 0 0.22979332921272569 0.3183598782236674 0 0.2213111107385371 0.33534303584746422 0 0.22979332921272569 0.3183598782236674 0 0.2213111107385371 0.33534303584746422 0 0.23952662213892831 0.33009496860116722 0 0.2213111107385371 0.33534303584746422 0 0.23952662213892831 0.33009496860116722 0 0.23834910845387339 0.34472695301636741 0 0.23952662213892831 0.33009496860116722 0 0.23834910845387339 0.34472695301636741 0 0.25374534734518489 0.33498022951000839 0 0.23952662213892831 0.33009496860116722 0 0.24096053071102699 0.31548588195579419 0 0.25720481198535439 0.32113418170008962 0 0.22979332921272569 0.3183598782236674 0 0.23952662213892831 0.33009496860116722 0 0.24096053071102699 0.31548588195579419 0 0.2409177267930851 0.36400786241940369 0 0.2366965334705492 0.38251935774357498 0 0.25990332666269178 0.37613588478237919 0 0.2409177267930851 0.36400786241940369 0 0.23834910845387339 0.34472695301636741 0 0.26254243031922792 0.35308660851405449 0 0.2213111107385371 0.33534303584746422 0 0.23834910845387339 0.34472695301636741 0 0.2138210520610625 0.35733750059482949 0 0.2409177267930851 0.36400786241940369 0 0.23834910845387339 0.34472695301636741 0 0.2138210520610625 0.35733750059482949 0 0.2409177267930851 0.36400786241940369 0 0.21929302326694231 0.37492911632475301 0 0.2138210520610625 0.35733750059482949 0 0.2409177267930851 0.36400786241940369 0 0.21929302326694231 0.37492911632475301 0 0.2366965334705492 0.38251935774357498 0 0.2409177267930851 0.36400786241940369 0 0.21929302326694231 0.37492911632475301 0 0.21929302326694231 0.37492911632475301 0 0.2138210520610625 0.35733750059482949 0 0.2027666737773991 0.37057750211341361 0 0.2138210520610625 0.35733750059482949 0 0.2027666737773991 0.37057750211341361 0 0.19401471704427961 0.36011119324617991 0 0.20201013790873629 0.3422882781513561 0 0.2213111107385371 0.33534303584746422 0 0.2138210520610625 0.35733750059482949 0 0.20201013790873629 0.3422882781513561 0 0.2138210520610625 0.35733750059482949 0 0.19401471704427961 0.36011119324617991 0 0.20201013790873629 0.3422882781513561 0 0.1896181102713666 0.34763024771210649 0 0.19401471704427961 0.36011119324617991 0 0.1896181102713666 0.34763024771210649 0 0.19401471704427961 0.36011119324617991 0 0.18275074910594699 0.3578930892992106 0 0.2027666737773991 0.37057750211341361 0 0.19401471704427961 0.36011119324617991 0 0.1936135702509654 0.37378639617068948 0 0.19401471704427961 0.36011119324617991 0 0.1936135702509654 0.37378639617068948 0 0.1829798169385233 0.36953791966168409 0 0.16943657420624769 0.36228686356366457 0 0.19063832375382569 0.38285499560206743 0 0.1829798169385233 0.36953791966168409 0 0.16943657420624769 0.36228686356366457 0 0.19063832375382569 0.38285499560206743 0 0.1829798169385233 0.36953791966168409 0 0.17756212911578281 0.36185711801639298 0 0.18275074910594699 0.3578930892992106 0 0.19401471704427961 0.36011119324617991 0 0.1829798169385233 0.36953791966168409 0 0.18275074910594699 0.3578930892992106 0 0.1829798169385233 0.36953791966168409 0 0.17756212911578281 0.36185711801639298 0 0.16943657420624769 0.36228686356366457 0 0.17756212911578281 0.36185711801639298 0 0.16943657420624769 0.36228686356366457 0 0.17508137621241321 0.35771059954101292 0 0.16943657420624769 0.36228686356366457 0 0.16956030108160311 0.38679440391486619 0 0.16943657420624769 0.36228686356366457 0 0.16021666677770491 0.37480778059607978 0 0.16956030108160311 0.38679440391486619 0 0.16943657420624769 0.36228686356366457 0 0.15962139215004409 0.36473330110984159 0 0.161174109070954 0.35427132345533319 0 0.15962139215004409 0.36473330110984159 0 0.161174109070954 0.35427132345533319 0 0.1512868580121898 0.360944777063198 0 0.15962139215004409 0.36473330110984159 0 0.16021666677770491 0.37480778059607978 0 0.15138650798922951 0.37262670779345008 0 0.16943657420624769 0.36228686356366457 0 0.15962139215004409 0.36473330110984159 0 0.16021666677770491 0.37480778059607978 0 0.161174109070954 0.35427132345533319 0 0.1659322857367673 0.34715081841908552 0 0.1538918133135645 0.34746626170015532 0 0.16943657420624769 0.36228686356366457 0 0.161174109070954 0.35427132345533319 0 0.16939969270313029 0.3549814586281585 0 0.16943657420624769 0.36228686356366457 0 0.161174109070954 0.35427132345533319 0 0.161174109070954 0.35427132345533319 0 0.16939969270313029 0.3549814586281585 0 0.1659322857367673 0.34715081841908552 0 0.16943657420624769 0.36228686356366457 0 0.16939969270313029 0.3549814586281585 0 0.16943657420624769 0.36228686356366457 0 0.16939969270313029 0.3549814586281585 0 0.17508137621241321 0.35771059954101292 0 0.16939969270313029 0.3549814586281585 0 0.1659322857367673 0.34715081841908552 0 0.1766428345670637 0.34819509673548599 0 0.16939969270313029 0.3549814586281585 0 0.1766428345670637 0.34819509673548599 0 0.17508137621241321 0.35771059954101292 0 0.1766428345670637 0.34819509673548599 0 0.17508137621241321 0.35771059954101292 0 0.18275074910594699 0.3578930892992106 0 0.17756212911578281 0.36185711801639298 0 0.17508137621241321 0.35771059954101292 0 0.18275074910594699 0.3578930892992106 0 0.1896181102713666 0.34763024771210649 0 0.1766428345670637 0.34819509673548599 0 0.18275074910594699 0.3578930892992106 0 0.1896181102713666 0.34763024771210649 0 0.1766428345670637 0.34819509673548599 0 0.18647608270984681 0.33663245738680009 0 0.1766428345670637 0.34819509673548599 0 0.18647608270984681 0.33663245738680009 0 0.16773334685767191 0.3349578407141392 0 0.18647608270984681 0.33663245738680009 0 0.18267204274410481 0.32160349766379798 0 0.16773334685767191 0.3349578407141392 0 0.1726299962791647 0.30578642283112872 0 0.18267204274410481 0.32160349766379798 0 0.1689230587129929 0.31860457617983051 0 0.18267204274410481 0.32160349766379798 0 0.1689230587129929 0.31860457617983051 0 0.16773334685767191 0.3349578407141392 0 0.15732572906392889 0.32490038508387747 0 0.1689230587129929 0.31860457617983051 0 0.16773334685767191 0.3349578407141392 0 0.15666093554675081 0.30754883488869622 0 0.15732572906392889 0.32490038508387747 0 0.1689230587129929 0.31860457617983051 0 0.15666093554675081 0.30754883488869622 0 0.1689230587129929 0.31860457617983051 0 0.16773334685767191 0.3349578407141392 0 0.15027863837392541 0.33605716676822522 0 0.1538918133135645 0.34746626170015532 0 0.15732572906392889 0.32490038508387747 0 0.16773334685767191 0.3349578407141392 0 0.15027863837392541 0.33605716676822522 0 0.1659322857367673 0.34715081841908552 0 0.1766428345670637 0.34819509673548599 0 0.16773334685767191 0.3349578407141392 0 0.1659322857367673 0.34715081841908552 0 0.16773334685767191 0.3349578407141392 0 0.1538918133135645 0.34746626170015532 0 0.15027863837392541 0.33605716676822522 0 0.13455516697234191 0.32801023536261231 0 0.140479697680892 0.34380717161338592 0 0.15027863837392541 0.33605716676822522 0 0.140479697680892 0.34380717161338592 0 0.1538918133135645 0.34746626170015532 0 0.15666093554675081 0.30754883488869622 0 0.15732572906392889 0.32490038508387747 0 0.14733872537721801 0.31627513018289288 0 0.15027863837392541 0.33605716676822522 0 0.14733872537721801 0.31627513018289288 0 0.15732572906392889 0.32490038508387747 0 0.15027863837392541 0.33605716676822522 0 0.14733872537721801 0.31627513018289288 0 0.15027863837392541 0.33605716676822522 0 0.14733872537721801 0.31627513018289288 0 0.13455516697234191 0.32801023536261231 0 0.13849423625557111 0.30748008015468442 0 0.1260595714185391 0.30845834556463358 0 0.13455516697234191 0.32801023536261231 0 0.11677578538958611 0.32858815155352089 0 0.1260595714185391 0.30845834556463358 0 0.13455516697234191 0.32801023536261231 0 0.13849423625557111 0.30748008015468442 0 0.14733872537721801 0.31627513018289288 0 0.13455516697234191 0.32801023536261231 0 0.11677578538958611 0.32858815155352089 0 0.13455516697234191 0.32801023536261231 0 0.12684940380070661 0.34811607624412538 0 0.13455516697234191 0.32801023536261231 0 0.12684940380070661 0.34811607624412538 0 0.140479697680892 0.34380717161338592 0 0.11912377200784589 0.36127178378947528 0 0.12684940380070661 0.34811607624412538 0 0.13106500545686789 0.36818218262621399 0 0.12684940380070661 0.34811607624412538 0 0.14034945963988329 0.35649632470055198 0 0.13106500545686789 0.36818218262621399 0 0.12684940380070661 0.34811607624412538 0 0.140479697680892 0.34380717161338592 0 0.14034945963988329 0.35649632470055198 0 0.13106500545686789 0.36818218262621399 0 0.14318139983983311 0.36741407581057151 0 0.14181916810099479 0.37882038686944353 0 0.14034945963988329 0.35649632470055198 0 0.13106500545686789 0.36818218262621399 0 0.14318139983983311 0.36741407581057151 0 0.14034945963988329 0.35649632470055198 0 0.14318139983983311 0.36741407581057151 0 0.1512868580121898 0.360944777063198 0 0.14318139983983311 0.36741407581057151 0 0.15138650798922951 0.37262670779345008 0 0.14181916810099479 0.37882038686944353 0 0.15962139215004409 0.36473330110984159 0 0.15138650798922951 0.37262670779345008 0 0.1512868580121898 0.360944777063198 0 0.14318139983983311 0.36741407581057151 0 0.15138650798922951 0.37262670779345008 0 0.1512868580121898 0.360944777063198 0 0.161174109070954 0.35427132345533319 0 0.1512868580121898 0.360944777063198 0 0.1538918133135645 0.34746626170015532 0 0.14034945963988329 0.35649632470055198 0 0.1512868580121898 0.360944777063198 0 0.1538918133135645 0.34746626170015532 0 0.140479697680892 0.34380717161338592 0 0.14034945963988329 0.35649632470055198 0 0.1538918133135645 0.34746626170015532 0 0.14696051354150619 0.4010571848091018 0 0.15107855846140009 0.38759762659857672 0 0.13742663768774349 0.39459428723941581 0 0.14696051354150619 0.4010571848091018 0 0.13742663768774349 0.39459428723941581 0 0.1409726081133148 0.40987670252409319 0 0.14696051354150619 0.4010571848091018 0 0.15514379307366311 0.41430656902749702 0 0.15756555711544329 0.40035211846116892 0 0.14696051354150619 0.4010571848091018 0 0.15107855846140009 0.38759762659857672 0 0.15756555711544329 0.40035211846116892 0 0.15107855846140009 0.38759762659857672 0 0.14181916810099479 0.37882038686944353 0 0.13742663768774349 0.39459428723941581 0 0.16021666677770491 0.37480778059607978 0 0.15138650798922951 0.37262670779345008 0 0.15107855846140009 0.38759762659857672 0 0.15138650798922951 0.37262670779345008 0 0.15107855846140009 0.38759762659857672 0 0.14181916810099479 0.37882038686944353 0 0.13152268041214521 0.38362980700850879 0 0.13087364563641449 0.391009295011368 0 0.13742663768774349 0.39459428723941581 0 0.13106500545686789 0.36818218262621399 0 0.14181916810099479 0.37882038686944353 0 0.13742663768774349 0.39459428723941581 0 0.13106500545686789 0.36818218262621399 0 0.13152268041214521 0.38362980700850879 0 0.13742663768774349 0.39459428723941581 0 0.13106500545686789 0.36818218262621399 0 0.13742663768774349 0.39459428723941581 0 0.12259354375719241 0.37413907305387872 0 0.13106500545686789 0.36818218262621399 0 0.13152268041214521 0.38362980700850879 0 0.1230515023521087 0.38790643307135231 0 0.12259354375719241 0.37413907305387872 0 0.13152268041214521 0.38362980700850879 0 0.1230515023521087 0.38790643307135231 0 0.13152268041214521 0.38362980700850879 0 0.13087364563641449 0.391009295011368 0 0.1230515023521087 0.38790643307135231 0 0.13152268041214521 0.38362980700850879 0 0.1230515023521087 0.38790643307135231 0 0.13159634717604471 0.39838193306087633 0 0.13087364563641449 0.391009295011368 0 0.1230515023521087 0.38790643307135231 0 0.13159634717604471 0.39838193306087633 0 0.13159634717604471 0.39838193306087633 0 0.13742663768774349 0.39459428723941581 0 0.13159634717604471 0.39838193306087633 0 0.13087364563641449 0.391009295011368 0 0.13742663768774349 0.39459428723941581 0 0.13159634717604471 0.39838193306087633 0 0.13742663768774349 0.39459428723941581 0 0.1409726081133148 0.40987670252409319 0 0.13742663768774349 0.39459428723941581 0 0.1409726081133148 0.40987670252409319 0 0.13159634717604471 0.39838193306087633 0 0.1409726081133148 0.40987670252409319 0 0.12785651279979629 0.41300216094147868 0 0.1320170161155424 0.41978085101881102 0 0.12820989238683431 0.42648086894557052 0 0.12785651279979629 0.41300216094147868 0 0.1320170161155424 0.41978085101881102 0 0.1409726081133148 0.40987670252409319 0 0.1320170161155424 0.41978085101881102 0 0.13845622872016419 0.42114958356054633 0 0.1409726081133148 0.40987670252409319 0 0.13159634717604471 0.39838193306087633 0 0.12785651279979629 0.41300216094147868 0 0.1409726081133148 0.40987670252409319 0 0.12820989238683431 0.42648086894557052 0 0.13661482233365571 0.43012252975247361 0 0.1415050284371758 0.44374261623529548 0 0.12820989238683431 0.42648086894557052 0 0.1415050284371758 0.44374261623529548 0 0.1310819219644016 0.43204269096803077 0 0.12820989238683431 0.42648086894557052 0 0.1415050284371758 0.44374261623529548 0 0.12189822919271549 0.43273392716773151 0 0.1310819219644016 0.43204269096803077 0 0.12820989238683431 0.42648086894557052 0 0.1320170161155424 0.41978085101881102 0 0.12820989238683431 0.42648086894557052 0 0.13661482233365571 0.43012252975247361 0 0.13845622872016419 0.42114958356054633 0 0.13661482233365571 0.43012252975247361 0 0.14577468956715989 0.43008547427962202 0 0.1320170161155424 0.41978085101881102 0 0.13845622872016419 0.42114958356054633 0 0.13661482233365571 0.43012252975247361 0 0.13661482233365571 0.43012252975247361 0 0.14244301126070141 0.43738377985683652 0 0.1415050284371758 0.44374261623529548 0 0.14577468956715989 0.43008547427962202 0 0.1409726081133148 0.40987670252409319 0 0.15663576075635949 0.42907884823052428 0 0.13661482233365571 0.43012252975247361 0 0.14577468956715989 0.43008547427962202 0 0.14244301126070141 0.43738377985683652 0 0.14577468956715989 0.43008547427962202 0 0.15663576075635949 0.42907884823052428 0 0.1574192125709406 0.44220836653073031 0 0.13845622872016419 0.42114958356054633 0 0.14577468956715989 0.43008547427962202 0 0.1409726081133148 0.40987670252409319 0 0.1409726081133148 0.40987670252409319 0 0.15663576075635949 0.42907884823052428 0 0.1409726081133148 0.40987670252409319 0 0.15514379307366311 0.41430656902749702 0 0.15663576075635949 0.42907884823052428 0 0.14577468956715989 0.43008547427962202 0 0.1409726081133148 0.40987670252409319 0 0.14696051354150619 0.4010571848091018 0 0.1409726081133148 0.40987670252409319 0 0.15514379307366311 0.41430656902749702 0 0.15514379307366311 0.41430656902749702 0 0.16968402795695811 0.41130194426606781 0 0.15756555711544329 0.40035211846116892 0 0.15514379307366311 0.41430656902749702 0 0.16968402795695811 0.41130194426606781 0 0.15663576075635949 0.42907884823052428 0 0.16968402795695811 0.41130194426606781 0 0.15663576075635949 0.42907884823052428 0 0.16980775483231311 0.43580948461726943 0 0.16968402795695811 0.41130194426606781 0 0.16980775483231311 0.43580948461726943 0 0.16968402795695811 0.41130194426606781 0 0.16980775483231311 0.43580948461726943 0 0.1800483564617418 0.42619736273269559 0 0.16980775483231311 0.43580948461726943 0 0.1800483564617418 0.42619736273269559 0 0.1825722018012306 0.43974436893479618 0 0.1800483564617418 0.42619736273269559 0 0.18866715979851839 0.41508535217895548 0 0.19087746318714899 0.42895707148877488 0 0.1800483564617418 0.42619736273269559 0 0.19087746318714899 0.42895707148877488 0 0.1825722018012306 0.43974436893479618 0 0.16968402795695811 0.41130194426606781 0 0.1800483564617418 0.42619736273269559 0 0.18866715979851839 0.41508535217895548 0 0.16968402795695811 0.41130194426606781 0 0.1827417349136998 0.39903029382955812 0 0.18866715979851839 0.41508535217895548 0 0.16968402795695811 0.41130194426606781 0 0.1827417349136998 0.39903029382955812 0 0.16956030108160311 0.38679440391486619 0 0.1827417349136998 0.39903029382955812 0 0.18083529634214829 0.38876262256662247 0 0.18782447772175001 0.39270790261049698 0 0.1827417349136998 0.39903029382955812 0 0.16956030108160311 0.38679440391486619 0 0.18083529634214829 0.38876262256662247 0 0.16968402795695811 0.41130194426606781 0 0.15756555711544329 0.40035211846116892 0 0.16956030108160311 0.38679440391486619 0 0.16968402795695811 0.41130194426606781 0 0.16956030108160311 0.38679440391486619 0 0.15107855846140009 0.38759762659857672 0 0.15756555711544329 0.40035211846116892 0 0.16956030108160311 0.38679440391486619 0 0.16021666677770491 0.37480778059607978 0 0.15107855846140009 0.38759762659857672 0 0.16956030108160311 0.38679440391486619 0 0.16943657420624769 0.36228686356366457 0 0.18083529634214829 0.38876262256662247 0 0.19063832375382569 0.38285499560206743 0 0.16943657420624769 0.36228686356366457 0 0.16956030108160311 0.38679440391486619 0 0.18083529634214829 0.38876262256662247 0 0.18083529634214829 0.38876262256662247 0 0.19063832375382569 0.38285499560206743 0 0.18782447772175001 0.39270790261049698 0 0.1936135702509654 0.37378639617068948 0 0.1829798169385233 0.36953791966168409 0 0.19063832375382569 0.38285499560206743 0 0.1936135702509654 0.37378639617068948 0 0.19063832375382569 0.38285499560206743 0 0.19766831974079949 0.38585037023010232 0 0.2027666737773991 0.37057750211341361 0 0.1936135702509654 0.37378639617068948 0 0.19766831974079949 0.38585037023010232 0 0.1827417349136998 0.39903029382955812 0 0.19708255587732609 0.40018369844374041 0 0.18866715979851839 0.41508535217895548 0 0.19063832375382569 0.38285499560206743 0 0.19708255587732609 0.40018369844374041 0 0.21184007330140389 0.40342312764046989 0 0.19063832375382569 0.38285499560206743 0 0.18782447772175001 0.39270790261049698 0 0.19708255587732609 0.40018369844374041 0 0.19063832375382569 0.38285499560206743 0 0.19766831974079949 0.38585037023010232 0 0.21184007330140389 0.40342312764046989 0 0.19063832375382569 0.38285499560206743 0 0.21184007330140389 0.40342312764046989 0 0.1827417349136998 0.39903029382955812 0 0.18782447772175001 0.39270790261049698 0 0.19708255587732609 0.40018369844374041 0 0.19766831974079949 0.38585037023010232 0 0.21184007330140389 0.40342312764046989 0 0.2191281480346321 0.38951242746100873 0 0.19708255587732609 0.40018369844374041 0 0.21184007330140389 0.40342312764046989 0 0.2022355846961276 0.4123682309018718 0 0.21929302326694231 0.37492911632475301 0 0.19766831974079949 0.38585037023010232 0 0.2191281480346321 0.38951242746100873 0 0.21929302326694231 0.37492911632475301 0 0.19766831974079949 0.38585037023010232 0 0.21929302326694231 0.37492911632475301 0 0.2027666737773991 0.37057750211341361 0 0.19766831974079949 0.38585037023010232 0 0.21929302326694231 0.37492911632475301 0 0.2191281480346321 0.38951242746100873 0 0.2366965334705492 0.38251935774357498 0 0.21184007330140389 0.40342312764046989 0 0.2191281480346321 0.38951242746100873 0 0.23014279039346569 0.40084016536614292 0 0.2191281480346321 0.38951242746100873 0 0.23014279039346569 0.40084016536614292 0 0.2366965334705492 0.38251935774357498 0 0.23014279039346569 0.40084016536614292 0 0.2366965334705492 0.38251935774357498 0 0.25662051655349949 0.40588912727565313 0 0.2330418228489822 0.42399125967887258 0 0.2325547373500236 0.43471448961401971 0 0.25248675094361039 0.44285507314058958 0 0.2330418228489822 0.42399125967887258 0 0.25248675094361039 0.44285507314058958 0 0.2330418228489822 0.42399125967887258 0 0.25248675094361039 0.44285507314058958 0 0.2545560161662293 0.4247162672585425 0 0.2330418228489822 0.42399125967887258 0 0.2545560161662293 0.4247162672585425 0 0.25662051655349949 0.40588912727565313 0 0.23014279039346569 0.40084016536614292 0 0.2330418228489822 0.42399125967887258 0 0.25662051655349949 0.40588912727565313 0 0.2330418228489822 0.42399125967887258 0 0.25662051655349949 0.40588912727565313 0 0.21184007330140389 0.40342312764046989 0 0.23014279039346569 0.40084016536614292 0 0.2330418228489822 0.42399125967887258 0 0.21184007330140389 0.40342312764046989 0 0.2330418228489822 0.42399125967887258 0 0.21184007330140389 0.40342312764046989 0 0.2330418228489822 0.42399125967887258 0 0.21205925849395429 0.42023600460402399 0 0.2330418228489822 0.42399125967887258 0 0.21651939840817411 0.4264615115224662 0 0.21205925849395429 0.42023600460402399 0 0.22021502326739339 0.42948765036661313 0 0.2330418228489822 0.42399125967887258 0 0.22368621925718701 0.43117386177944078 0 0.22021502326739339 0.42948765036661313 0 0.2330418228489822 0.42399125967887258 0 0.21651939840817411 0.4264615115224662 0 0.2330418228489822 0.42399125967887258 0 0.22368621925718701 0.43117386177944078 0 0.2325547373500236 0.43471448961401971 0 0.2213213262176795 0.43356862453258033 0 0.232237567482659 0.44198362893861542 0 0.2330418228489822 0.42399125967887258 0 0.2325547373500236 0.43471448961401971 0 0.22368621925718701 0.43117386177944078 0 0.2325547373500236 0.43471448961401971 0 0.22368621925718701 0.43117386177944078 0 0.2213213262176795 0.43356862453258033 0 0.22021502326739339 0.42948765036661313 0 0.2213213262176795 0.43356862453258033 0 0.21479883295488689 0.43157491050234009 0 0.22021502326739339 0.42948765036661313 0 0.22368621925718701 0.43117386177944078 0 0.2213213262176795 0.43356862453258033 0 0.2213213262176795 0.43356862453258033 0 0.21294528949129629 0.43733461572514332 0 0.21479883295488689 0.43157491050234009 0 0.21294528949129629 0.43733461572514332 0 0.21479883295488689 0.43157491050234009 0 0.2083222157070605 0.4337358440723883 0 0.22021502326739339 0.42948765036661313 0 0.21479883295488689 0.43157491050234009 0 0.21651939840817411 0.4264615115224662 0 0.21651939840817411 0.4264615115224662 0 0.20888108539909439 0.42789716848918041 0 0.21205925849395429 0.42023600460402399 0 0.21479883295488689 0.43157491050234009 0 0.21651939840817411 0.4264615115224662 0 0.20888108539909439 0.42789716848918041 0 0.20888108539909439 0.42789716848918041 0 0.20119780753115671 0.43223516017375291 0 0.20054745651145789 0.42314435130880101 0 0.20888108539909439 0.42789716848918041 0 0.21205925849395429 0.42023600460402399 0 0.20054745651145789 0.42314435130880101 0 0.2083222157070605 0.4337358440723883 0 0.20119780753115671 0.43223516017375291 0 0.2038007030511956 0.44257602444976041 0 0.20888108539909439 0.42789716848918041 0 0.2083222157070605 0.4337358440723883 0 0.20119780753115671 0.43223516017375291 0 0.21479883295488689 0.43157491050234009 0 0.20888108539909439 0.42789716848918041 0 0.2083222157070605 0.4337358440723883 0 0.21184007330140389 0.40342312764046989 0 0.21205925849395429 0.42023600460402399 0 0.2022355846961276 0.4123682309018718 0 0.21205925849395429 0.42023600460402399 0 0.2022355846961276 0.4123682309018718 0 0.20054745651145789 0.42314435130880101 0 0.19708255587732609 0.40018369844374041 0 0.2022355846961276 0.4123682309018718 0 0.18866715979851839 0.41508535217895548 0 0.2022355846961276 0.4123682309018718 0 0.18866715979851839 0.41508535217895548 0 0.20054745651145789 0.42314435130880101 0 0.19567063487281791 0.43712798362606348 0 0.20119780753115671 0.43223516017375291 0 0.2038007030511956 0.44257602444976041 0 0.19567063487281791 0.43712798362606348 0 0.20119780753115671 0.43223516017375291 0 0.19087746318714899 0.42895707148877488 0 0.20119780753115671 0.43223516017375291 0 0.20054745651145789 0.42314435130880101 0 0.19087746318714899 0.42895707148877488 0 0.18866715979851839 0.41508535217895548 0 0.20054745651145789 0.42314435130880101 0 0.19087746318714899 0.42895707148877488 0 0.19567063487281791 0.43712798362606348 0 0.19087746318714899 0.42895707148877488 0 0.1825722018012306 0.43974436893479618 0 0.19185286162135129 0.44326506572919788 0 0.19184167252806941 0.45205460906254907 0 0.1825722018012306 0.43974436893479618 0 0.19567063487281791 0.43712798362606348 0 0.19185286162135129 0.44326506572919788 0 0.1825722018012306 0.43974436893479618 0 0.19184167252806941 0.45205460906254907 0 0.2114921813364736 0.4561269406614431 0 0.2038007030511956 0.44257602444976041 0 0.19185286162135129 0.44326506572919788 0 0.19184167252806941 0.45205460906254907 0 0.2038007030511956 0.44257602444976041 0 0.19567063487281791 0.43712798362606348 0 0.19185286162135129 0.44326506572919788 0 0.2038007030511956 0.44257602444976041 0 0.19184167252806941 0.45205460906254907 0 0.2114921813364736 0.4561269406614431 0 0.20425922449366779 0.47017885373425983 0 0.19184167252806941 0.45205460906254907 0 0.187962066042448 0.46748313964338689 0 0.20425922449366779 0.47017885373425983 0 0.2114921813364736 0.4561269406614431 0 0.2196006170683914 0.47284047090027281 0 0.20425922449366779 0.47017885373425983 0 0.21294528949129629 0.43733461572514332 0 0.2083222157070605 0.4337358440723883 0 0.2038007030511956 0.44257602444976041 0 0.2114921813364736 0.4561269406614431 0 0.2038007030511956 0.44257602444976041 0 0.21648336952565911 0.44521767506864779 0 0.21294528949129629 0.43733461572514332 0 0.2038007030511956 0.44257602444976041 0 0.21648336952565911 0.44521767506864779 0 0.2213213262176795 0.43356862453258033 0 0.21294528949129629 0.43733461572514332 0 0.21648336952565911 0.44521767506864779 0 0.2114921813364736 0.4561269406614431 0 0.21648336952565911 0.44521767506864779 0 0.23346109459028919 0.45571241635505322 0 0.2213213262176795 0.43356862453258033 0 0.232237567482659 0.44198362893861542 0 0.23346109459028919 0.45571241635505322 0 0.2213213262176795 0.43356862453258033 0 0.23346109459028919 0.45571241635505322 0 0.2213213262176795 0.43356862453258033 0 0.21648336952565911 0.44521767506864779 0 0.23346109459028919 0.45571241635505322 0 0.2114921813364736 0.4561269406614431 0 0.23346109459028919 0.45571241635505322 0 0.2196006170683914 0.47284047090027281 0 0.23346109459028919 0.45571241635505322 0 0.25248675094361039 0.44285507314058958 0 0.25888779467650253 0.46200971677157049 0 0.23346109459028919 0.45571241635505322 0 0.2456008629628989 0.47785620817752622 0 0.25888779467650253 0.46200971677157049 0 0.23346109459028919 0.45571241635505322 0 0.2456008629628989 0.47785620817752622 0 0.232237567482659 0.44198362893861542 0 0.23346109459028919 0.45571241635505322 0 0.25248675094361039 0.44285507314058958 0 0.2325547373500236 0.43471448961401971 0 0.232237567482659 0.44198362893861542 0 0.25248675094361039 0.44285507314058958 0 0.2456008629628989 0.47785620817752622 0 0.2320236240061874 0.5 0 0.25774063133550817 0.49999999999999922 0 0.23346109459028919 0.45571241635505322 0 0.2456008629628989 0.47785620817752622 0 0.2196006170683914 0.47284047090027281 0 0.2456008629628989 0.47785620817752622 0 0.2196006170683914 0.47284047090027281 0 0.22032137928971079 0.48894907610414201 0 0.22032137928971079 0.48894907610414201 0 0.2320236240061874 0.5 0 0.20630661667686659 0.5 0 0.2456008629628989 0.47785620817752622 0 0.22032137928971079 0.48894907610414201 0 0.2320236240061874 0.5 0 0.22032137928971079 0.48894907610414201 0 0.20362521868549219 0.48668528534981809 0 0.20630661667686659 0.5 0 0.2196006170683914 0.47284047090027281 0 0.20362521868549219 0.48668528534981809 0 0.20425922449366779 0.47017885373425983 0 0.2196006170683914 0.47284047090027281 0 0.22032137928971079 0.48894907610414201 0 0.20362521868549219 0.48668528534981809 0 0.187962066042448 0.46748313964338689 0 0.20362521868549219 0.48668528534981809 0 0.187962066042448 0.46748313964338689 0 0.20362521868549219 0.48668528534981809 0 0.18876198478167661 0.4863488263478718 0 0.187962066042448 0.46748313964338689 0 0.20362521868549219 0.48668528534981809 0 0.20425922449366779 0.47017885373425983 0 0.20630661667686659 0.5 0 0.18876198478167661 0.4863488263478718 0 0.1805896093475457 0.5 0 0.20362521868549219 0.48668528534981809 0 0.20630661667686659 0.5 0 0.18876198478167661 0.4863488263478718 0 0.18876198478167661 0.4863488263478718 0 0.1805896093475457 0.5 0 0.1685279909132999 0.48202199510768562 0 0.1805896093475457 0.5 0 0.1685279909132999 0.48202199510768562 0 0.15487260201822481 0.5 0 0.1685279909132999 0.48202199510768562 0 0.14553969593460611 0.48534968774448001 0 0.15487260201822481 0.5 0 0.1685279909132999 0.48202199510768562 0 0.16958815421915241 0.46486203978031798 0 0.15537885247485089 0.47050301779067938 0 0.1685279909132999 0.48202199510768562 0 0.14553969593460611 0.48534968774448001 0 0.15537885247485089 0.47050301779067938 0 0.187962066042448 0.46748313964338689 0 0.18876198478167661 0.4863488263478718 0 0.1685279909132999 0.48202199510768562 0 0.187962066042448 0.46748313964338689 0 0.1685279909132999 0.48202199510768562 0 0.16958815421915241 0.46486203978031798 0 0.187962066042448 0.46748313964338689 0 0.17229891339940381 0.44828099393695559 0 0.16958815421915241 0.46486203978031798 0 0.187962066042448 0.46748313964338689 0 0.17229891339940381 0.44828099393695559 0 0.19184167252806941 0.45205460906254907 0 0.187962066042448 0.46748313964338689 0 0.17229891339940381 0.44828099393695559 0 0.19184167252806941 0.45205460906254907 0 0.1825722018012306 0.43974436893479618 0 0.17229891339940381 0.44828099393695559 0 0.16980775483231311 0.43580948461726943 0 0.1825722018012306 0.43974436893479618 0 0.17229891339940381 0.44828099393695559 0 0.15663576075635949 0.42907884823052428 0 0.17229891339940381 0.44828099393695559 0 0.15663576075635949 0.42907884823052428 0 0.16980775483231311 0.43580948461726943 0 0.17229891339940381 0.44828099393695559 0 0.15663576075635949 0.42907884823052428 0 0.17229891339940381 0.44828099393695559 0 0.1574192125709406 0.44220836653073031 0 0.1574192125709406 0.44220836653073031 0 0.16176828227095999 0.45496965122179761 0 0.15057677102100539 0.45029424603515072 0 0.17229891339940381 0.44828099393695559 0 0.1574192125709406 0.44220836653073031 0 0.16176828227095999 0.45496965122179761 0 0.17229891339940381 0.44828099393695559 0 0.16958815421915241 0.46486203978031798 0 0.16176828227095999 0.45496965122179761 0 0.16958815421915241 0.46486203978031798 0 0.16176828227095999 0.45496965122179761 0 0.15537885247485089 0.47050301779067938 0 0.16176828227095999 0.45496965122179761 0 0.15057677102100539 0.45029424603515072 0 0.15537885247485089 0.47050301779067938 0 0.15057677102100539 0.45029424603515072 0 0.15537885247485089 0.47050301779067938 0 0.1451956909017281 0.46177972422515612 0 0.15057677102100539 0.45029424603515072 0 0.15537885247485089 0.47050301779067938 0 0.1451956909017281 0.46177972422515612 0 0.14185353071546769 0.45299154734665331 0 0.13665083275859011 0.45878346622317789 0 0.1451956909017281 0.46177972422515612 0 0.15057677102100539 0.45029424603515072 0 0.14185353071546769 0.45299154734665331 0 0.1451956909017281 0.46177972422515612 0 0.15537885247485089 0.47050301779067938 0 0.1418037136198764 0.47053511633433082 0 0.1451956909017281 0.46177972422515612 0 0.13665083275859011 0.45878346622317789 0 0.1418037136198764 0.47053511633433082 0 0.14577468956715989 0.43008547427962202 0 0.15057677102100539 0.45029424603515072 0 0.14577468956715989 0.43008547427962202 0 0.1574192125709406 0.44220836653073031 0 0.15057677102100539 0.45029424603515072 0 0.14577468956715989 0.43008547427962202 0 0.14244301126070141 0.43738377985683652 0 0.15057677102100539 0.45029424603515072 0 0.15057677102100539 0.45029424603515072 0 0.14185353071546769 0.45299154734665331 0 0.1415050284371758 0.44374261623529548 0 0.14244301126070141 0.43738377985683652 0 0.15057677102100539 0.45029424603515072 0 0.1415050284371758 0.44374261623529548 0 0.1177827116870388 0.45469512731202 0 0.1310819219644016 0.43204269096803077 0 0.1289094797012322 0.44711971241893372 0 0.1310819219644016 0.43204269096803077 0 0.1415050284371758 0.44374261623529548 0 0.13460064240520381 0.44382145305305998 0 0.14185353071546769 0.45299154734665331 0 0.1415050284371758 0.44374261623529548 0 0.1353393304588392 0.45035768401448589 0 0.13460064240520381 0.44382145305305998 0 0.1353393304588392 0.45035768401448589 0 0.1289094797012322 0.44711971241893372 0 0.1415050284371758 0.44374261623529548 0 0.13460064240520381 0.44382145305305998 0 0.1353393304588392 0.45035768401448589 0 0.1353393304588392 0.45035768401448589 0 0.1289094797012322 0.44711971241893372 0 0.1278632788434825 0.45577296128510503 0 0.1310819219644016 0.43204269096803077 0 0.13460064240520381 0.44382145305305998 0 0.1289094797012322 0.44711971241893372 0 0.13665083275859011 0.45878346622317789 0 0.1303484766562954 0.46586162432778377 0 0.1418037136198764 0.47053511633433082 0 0.14185353071546769 0.45299154734665331 0 0.1353393304588392 0.45035768401448589 0 0.13665083275859011 0.45878346622317789 0 0.1353393304588392 0.45035768401448589 0 0.13665083275859011 0.45878346622317789 0 0.1278632788434825 0.45577296128510503 0 0.1206524627521391 0.46091413096450928 0 0.1278632788434825 0.45577296128510503 0 0.1303484766562954 0.46586162432778377 0 0.13665083275859011 0.45878346622317789 0 0.1278632788434825 0.45577296128510503 0 0.1303484766562954 0.46586162432778377 0 0.1232568145545315 0.47318152767312721 0 0.1303484766562954 0.46586162432778377 0 0.13154176168187859 0.47849490113788568 0 0.1303484766562954 0.46586162432778377 0 0.13154176168187859 0.47849490113788568 0 0.1418037136198764 0.47053511633433082 0 0.13154176168187859 0.47849490113788568 0 0.14553969593460611 0.48534968774448001 0 0.1418037136198764 0.47053511633433082 0 0.12399992399529371 0.48303337357331672 0 0.1232568145545315 0.47318152767312721 0 0.13154176168187859 0.47849490113788568 0 0.12399992399529371 0.48303337357331672 0 0.13154176168187859 0.47849490113788568 0 0.12915559468890389 0.5 0 0.13154176168187859 0.47849490113788568 0 0.12915559468890389 0.5 0 0.14553969593460611 0.48534968774448001 0 0.12915559468890389 0.5 0 0.14553969593460611 0.48534968774448001 0 0.15487260201822481 0.5 0 0.14553969593460611 0.48534968774448001 0 0.15537885247485089 0.47050301779067938 0 0.1418037136198764 0.47053511633433082 0 0.37140767887233378 0.4678189721668945 0 0.34017712450639898 0.5 0 0.40698052407234181 0.5 0 0.37140767887233378 0.4678189721668945 0 0.33870138069491529 0.44783345474697678 0 0.34017712450639898 0.5 0 0.37140767887233378 0.4678189721668945 0 0.36309873048063318 0.44470524342430268 0 0.33870138069491529 0.44783345474697678 0 0.37140767887233378 0.4678189721668945 0 0.36309873048063318 0.44470524342430268 0 0.38273982735140999 0.44187078628995502 0 0.36309873048063318 0.44470524342430268 0 0.33870138069491529 0.44783345474697678 0 0.35954603500387389 0.42129776049338469 0 0.33870138069491529 0.44783345474697678 0 0.31189158865263977 0.47253855364956249 0 0.30101076996119791 0.44067716493098691 0 0.34017712450639898 0.5 0 0.31189158865263977 0.47253855364956249 0 0.29219929140461393 0.5 0 0.33870138069491529 0.44783345474697678 0 0.34017712450639898 0.5 0 0.31189158865263977 0.47253855364956249 0 0.31189158865263977 0.47253855364956249 0 0.29219929140461393 0.5 0 0.28380171857469633 0.46742895806275941 0 0.29219929140461393 0.5 0 0.26764605979084399 0.48145897660237119 0 0.28380171857469633 0.46742895806275941 0 0.29219929140461393 0.5 0 0.26764605979084399 0.48145897660237119 0 0.25774063133550817 0.49999999999999922 0 0.26764605979084399 0.48145897660237119 0 0.25888779467650253 0.46200971677157049 0 0.28380171857469633 0.46742895806275941 0 0.2456008629628989 0.47785620817752622 0 0.26764605979084399 0.48145897660237119 0 0.25888779467650253 0.46200971677157049 0 0.2456008629628989 0.47785620817752622 0 0.25774063133550817 0.49999999999999922 0 0.2456008629628989 0.47785620817752622 0 0.26764605979084399 0.48145897660237119 0 0.25774063133550817 0.49999999999999922 0 0.25248675094361039 0.44285507314058958 0 0.25888779467650253 0.46200971677157049 0 0.27359697404942912 0.4472877546465629 0 0.25888779467650253 0.46200971677157049 0 0.27359697404942912 0.4472877546465629 0 0.28380171857469633 0.46742895806275941 0 0.25248675094361039 0.44285507314058958 0 0.27359697404942912 0.4472877546465629 0 0.27607497431882527 0.42612960893905483 0 0.31189158865263977 0.47253855364956249 0 0.28380171857469633 0.46742895806275941 0 0.30101076996119791 0.44067716493098691 0 0.27359697404942912 0.4472877546465629 0 0.28380171857469633 0.46742895806275941 0 0.30101076996119791 0.44067716493098691 0 0.27359697404942912 0.4472877546465629 0 0.30101076996119791 0.44067716493098691 0 0.27607497431882527 0.42612960893905483 0 0.30101076996119791 0.44067716493098691 0 0.30290764054280722 0.40965476357556418 0 0.32982119997677611 0.41920325813381309 0 0.30290764054280722 0.40965476357556418 0 0.27607497431882527 0.42612960893905483 0 0.28051479305636751 0.406548723826547 0 0.30101076996119791 0.44067716493098691 0 0.30290764054280722 0.40965476357556418 0 0.27607497431882527 0.42612960893905483 0 0.27607497431882527 0.42612960893905483 0 0.28051479305636751 0.406548723826547 0 0.25662051655349949 0.40588912727565313 0 0.27607497431882527 0.42612960893905483 0 0.2545560161662293 0.4247162672585425 0 0.25662051655349949 0.40588912727565313 0 0.25248675094361039 0.44285507314058958 0 0.27607497431882527 0.42612960893905483 0 0.2545560161662293 0.4247162672585425 0 0.2366965334705492 0.38251935774357498 0 0.25990332666269178 0.37613588478237919 0 0.25662051655349949 0.40588912727565313 0 0.25990332666269178 0.37613588478237919 0 0.25662051655349949 0.40588912727565313 0 0.28019921025801658 0.38778699487243351 0 0.28051479305636751 0.406548723826547 0 0.25662051655349949 0.40588912727565313 0 0.28019921025801658 0.38778699487243351 0 0.25662051655349949 0.40588912727565313 0 0.28019921025801658 0.38778699487243351 0 0.25990332666269178 0.37613588478237919 0 0.28019921025801658 0.38778699487243351 0 0.28244354258177229 0.36352535786915602 0 0.28019921025801658 0.38778699487243351 0 0.29824703326904711 0.39054571441728991 0 0.30377790396253368 0.36968486246921378 0 0.28019921025801658 0.38778699487243351 0 0.30377790396253368 0.36968486246921378 0 0.28051479305636751 0.406548723826547 0 0.28019921025801658 0.38778699487243351 0 0.29824703326904711 0.39054571441728991 0 0.30290764054280722 0.40965476357556418 0 0.28051479305636751 0.406548723826547 0 0.29824703326904711 0.39054571441728991 0 0.30290764054280722 0.40965476357556418 0 0.29824703326904711 0.39054571441728991 0 0.31617478422655793 0.38709170304351959 0 0.29824703326904711 0.39054571441728991 0 0.31617478422655793 0.38709170304351959 0 0.30377790396253368 0.36968486246921378 0 0.31617478422655793 0.38709170304351959 0 0.33828311085495688 0.38365150975364681 0 0.32733238658797448 0.39997530256722508 0 0.31617478422655793 0.38709170304351959 0 0.33828311085495688 0.38365150975364681 0 0.33268215028962311 0.36198950899366972 0 0.33828311085495688 0.38365150975364681 0 0.32733238658797448 0.39997530256722508 0 0.34947519733877402 0.40027527832958171 0 0.30290764054280722 0.40965476357556418 0 0.31617478422655793 0.38709170304351959 0 0.32733238658797448 0.39997530256722508 0 0.33870138069491529 0.44783345474697678 0 0.30101076996119791 0.44067716493098691 0 0.32982119997677611 0.41920325813381309 0 0.30290764054280722 0.40965476357556418 0 0.32733238658797448 0.39997530256722508 0 0.32982119997677611 0.41920325813381309 0 0.33870138069491529 0.44783345474697678 0 0.32982119997677611 0.41920325813381309 0 0.35954603500387389 0.42129776049338469 0 0.32733238658797448 0.39997530256722508 0 0.32982119997677611 0.41920325813381309 0 0.34947519733877402 0.40027527832958171 0 0.32982119997677611 0.41920325813381309 0 0.35954603500387389 0.42129776049338469 0 0.34947519733877402 0.40027527832958171 0 0.36309873048063318 0.44470524342430268 0 0.35954603500387389 0.42129776049338469 0 0.38273982735140999 0.44187078628995502 0 0.35954603500387389 0.42129776049338469 0 0.37463909598514877 0.4003032861346042 0 0.38985399368029139 0.41738848607403761 0 0.35954603500387389 0.42129776049338469 0 0.37463909598514877 0.4003032861346042 0 0.34947519733877402 0.40027527832958171 0 0.37463909598514877 0.4003032861346042 0 0.36113088264334731 0.38040034102844728 0 0.34947519733877402 0.40027527832958171 0 0.36113088264334731 0.38040034102844728 0 0.37542620182073411 0.36441149642875542 0 0.37979488271611062 0.38194681550263959 0 0.37463909598514877 0.4003032861346042 0 0.36113088264334731 0.38040034102844728 0 0.37979488271611062 0.38194681550263959 0 0.33828311085495688 0.38365150975364681 0 0.36113088264334731 0.38040034102844728 0 0.34568327512434921 0.37018301487302879 0 0.33828311085495688 0.38365150975364681 0 0.36113088264334731 0.38040034102844728 0 0.34947519733877402 0.40027527832958171 0 0.35114724236986239 0.35495345382494609 0 0.34467554603413081 0.35600332315886613 0 0.34918951635268819 0.33688731494381968 0 0.3579077422498943 0.34589988222591461 0 0.35114724236986239 0.35495345382494609 0 0.34918951635268819 0.33688731494381968 0 0.3579077422498943 0.34589988222591461 0 0.35114724236986239 0.35495345382494609 0 0.36227377041986891 0.36017740945169519 0 0.35114724236986239 0.35495345382494609 0 0.34467554603413081 0.35600332315886613 0 0.34568327512434921 0.37018301487302879 0 0.35114724236986239 0.35495345382494609 0 0.34568327512434921 0.37018301487302879 0 0.36227377041986891 0.36017740945169519 0 0.36113088264334731 0.38040034102844728 0 0.34568327512434921 0.37018301487302879 0 0.36227377041986891 0.36017740945169519 0 0.36113088264334731 0.38040034102844728 0 0.36227377041986891 0.36017740945169519 0 0.37542620182073411 0.36441149642875542 0 0.36227377041986891 0.36017740945169519 0 0.37472086759645967 0.35443798927705811 0 0.37542620182073411 0.36441149642875542 0 0.36227377041986891 0.36017740945169519 0 0.37472086759645967 0.35443798927705811 0 0.36716237452420092 0.34807005901943899 0 0.3579077422498943 0.34589988222591461 0 0.36227377041986891 0.36017740945169519 0 0.36716237452420092 0.34807005901943899 0 0.3579077422498943 0.34589988222591461 0 0.36716237452420092 0.34807005901943899 0 0.36809563518312871 0.33924815598321029 0 0.36716237452420092 0.34807005901943899 0 0.36809563518312871 0.33924815598321029 0 0.37690348633093412 0.3403058453498084 0 0.36809563518312871 0.33924815598321029 0 0.37269425213457158 0.33345783606452611 0 0.37690348633093412 0.3403058453498084 0 0.37269425213457158 0.33345783606452611 0 0.36654990342609561 0.32723645120163408 0 0.37922798359812843 0.32704089172345152 0 0.36809563518312871 0.33924815598321029 0 0.37269425213457158 0.33345783606452611 0 0.36654990342609561 0.32723645120163408 0 0.36809563518312871 0.33924815598321029 0 0.36043569930295172 0.33731795108864471 0 0.36654990342609561 0.32723645120163408 0 0.3579077422498943 0.34589988222591461 0 0.36809563518312871 0.33924815598321029 0 0.36043569930295172 0.33731795108864471 0 0.36654990342609561 0.32723645120163408 0 0.35128050809384431 0.33370761442451202 0 0.36569688241575388 0.31178512089397031 0 0.37385616417817402 0.31823241320891321 0 0.36654990342609561 0.32723645120163408 0 0.36569688241575388 0.31178512089397031 0 0.37385616417817402 0.31823241320891321 0 0.36569688241575388 0.31178512089397031 0 0.3747307118871962 0.31007092728642682 0 0.37385616417817402 0.31823241320891321 0 0.36654990342609561 0.32723645120163408 0 0.37922798359812843 0.32704089172345152 0 0.36654990342609561 0.32723645120163408 0 0.36569688241575388 0.31178512089397031 0 0.35225630932364449 0.31724576517309849 0 0.35128050809384431 0.33370761442451202 0 0.36569688241575388 0.31178512089397031 0 0.35225630932364449 0.31724576517309849 0 0.34117342460695732 0.32246180659744739 0 0.34246709834719702 0.30518107207717871 0 0.35225630932364449 0.31724576517309849 0 0.34636463110412358 0.32579844890658177 0 0.35128050809384431 0.33370761442451202 0 0.35128050809384431 0.33370761442451202 0 0.36569688241575388 0.31178512089397031 0 0.35225630932364449 0.31724576517309849 0 0.34636463110412358 0.32579844890658177 0 0.34117342460695732 0.32246180659744739 0 0.36654990342609561 0.32723645120163408 0 0.35128050809384431 0.33370761442451202 0 0.34918951635268819 0.33688731494381968 0 0.36043569930295172 0.33731795108864471 0 0.36654990342609561 0.32723645120163408 0 0.34918951635268819 0.33688731494381968 0 0.3579077422498943 0.34589988222591461 0 0.36043569930295172 0.33731795108864471 0 0.34918951635268819 0.33688731494381968 0 0.35128050809384431 0.33370761442451202 0 0.34918951635268819 0.33688731494381968 0 0.34636463110412358 0.32579844890658177 0 0.35128050809384431 0.33370761442451202 0 0.34109349911432441 0.33000562619300711 0 0.35128050809384431 0.33370761442451202 0 0.33596622269653548 0.33762045363156501 0 0.32735659766705089 0.35158273006599411 0 0.35128050809384431 0.33370761442451202 0 0.34918951635268819 0.33688731494381968 0 0.32735659766705089 0.35158273006599411 0 0.35128050809384431 0.33370761442451202 0 0.32735659766705089 0.35158273006599411 0 0.35128050809384431 0.33370761442451202 0 0.33596622269653548 0.33762045363156501 0 0.34109349911432441 0.33000562619300711 0 0.33596622269653548 0.33762045363156501 0 0.32921282414963943 0.32959340899420658 0 0.32780486508305218 0.33975673570926651 0 0.33596622269653548 0.33762045363156501 0 0.34109349911432441 0.33000562619300711 0 0.32921282414963943 0.32959340899420658 0 0.33596622269653548 0.33762045363156501 0 0.32780486508305218 0.33975673570926651 0 0.32735659766705089 0.35158273006599411 0 0.34117342460695732 0.32246180659744739 0 0.33264306588191361 0.31662950225249731 0 0.34246709834719702 0.30518107207717871 0 0.34109349911432441 0.33000562619300711 0 0.32921282414963943 0.32959340899420658 0 0.34117342460695732 0.32246180659744739 0 0.34636463110412358 0.32579844890658177 0 0.34109349911432441 0.33000562619300711 0 0.34117342460695732 0.32246180659744739 0 0.32921282414963943 0.32959340899420658 0 0.34117342460695732 0.32246180659744739 0 0.33264306588191361 0.31662950225249731 0 0.32921282414963943 0.32959340899420658 0 0.3057918373715135 0.33124410070335608 0 0.31984653327915108 0.30961220749674317 0 0.32921282414963943 0.32959340899420658 0 0.33264306588191361 0.31662950225249731 0 0.31984653327915108 0.30961220749674317 0 0.32921282414963943 0.32959340899420658 0 0.31868381581898331 0.34023035014530018 0 0.3057918373715135 0.33124410070335608 0 0.32921282414963943 0.32959340899420658 0 0.32780486508305218 0.33975673570926651 0 0.31868381581898331 0.34023035014530018 0 0.31868381581898331 0.34023035014530018 0 0.32735659766705089 0.35158273006599411 0 0.30477245840268319 0.35005350039644589 0 0.32780486508305218 0.33975673570926651 0 0.31868381581898331 0.34023035014530018 0 0.32735659766705089 0.35158273006599411 0 0.34918951635268819 0.33688731494381968 0 0.33268215028962311 0.36198950899366972 0 0.34467554603413081 0.35600332315886613 0 0.34918951635268819 0.33688731494381968 0 0.33268215028962311 0.36198950899366972 0 0.34918951635268819 0.33688731494381968 0 0.32735659766705089 0.35158273006599411 0 0.33268215028962311 0.36198950899366972 0 0.33828311085495688 0.38365150975364681 0 0.34568327512434921 0.37018301487302879 0 0.33268215028962311 0.36198950899366972 0 0.34467554603413081 0.35600332315886613 0 0.34568327512434921 0.37018301487302879 0 0.33268215028962311 0.36198950899366972 0 0.31617478422655793 0.38709170304351959 0 0.33268215028962311 0.36198950899366972 0 0.32735659766705089 0.35158273006599411 0 0.30377790396253368 0.36968486246921378 0 0.32735659766705089 0.35158273006599411 0 0.33268215028962311 0.36198950899366972 0 0.30377790396253368 0.36968486246921378 0 0.31617478422655793 0.38709170304351959 0 0.33268215028962311 0.36198950899366972 0 0.30377790396253368 0.36968486246921378 0 0.30377790396253368 0.36968486246921378 0 0.30477245840268319 0.35005350039644589 0 0.28244354258177229 0.36352535786915602 0 0.32735659766705089 0.35158273006599411 0 0.30377790396253368 0.36968486246921378 0 0.30477245840268319 0.35005350039644589 0 0.30477245840268319 0.35005350039644589 0 0.28244354258177229 0.36352535786915602 0 0.28416713384537068 0.34216535460870529 0 0.28019921025801658 0.38778699487243351 0 0.30377790396253368 0.36968486246921378 0 0.28244354258177229 0.36352535786915602 0 0.25990332666269178 0.37613588478237919 0 0.28244354258177229 0.36352535786915602 0 0.26254243031922792 0.35308660851405449 0 0.26254243031922792 0.35308660851405449 0 0.26943446094499091 0.33628572972844761 0 0.28416713384537068 0.34216535460870529 0 0.28244354258177229 0.36352535786915602 0 0.26254243031922792 0.35308660851405449 0 0.28416713384537068 0.34216535460870529 0 0.26254243031922792 0.35308660851405449 0 0.28416713384537068 0.34216535460870529 0 0.23834910845387339 0.34472695301636741 0 0.26254243031922792 0.35308660851405449 0 0.25374534734518489 0.33498022951000839 0 0.2409177267930851 0.36400786241940369 0 0.26254243031922792 0.35308660851405449 0 0.2409177267930851 0.36400786241940369 0 0.25990332666269178 0.37613588478237919 0 0.26254243031922792 0.35308660851405449 0 0.24096053071102699 0.31548588195579419 0 0.25720481198535439 0.32113418170008962 0 0.25354031088216911 0.30701755471271791 0 0.25720481198535439 0.32113418170008962 0 0.27277621843843719 0.32231759939912852 0 0.26439558201671598 0.30956530779622649 0 0.25720481198535439 0.32113418170008962 0 0.25354031088216911 0.30701755471271791 0 0.26439558201671598 0.30956530779622649 0 0.26254243031922792 0.35308660851405449 0 0.25374534734518489 0.33498022951000839 0 0.26943446094499091 0.33628572972844761 0 0.23952662213892831 0.33009496860116722 0 0.25720481198535439 0.32113418170008962 0 0.25374534734518489 0.33498022951000839 0 0.25720481198535439 0.32113418170008962 0 0.25374534734518489 0.33498022951000839 0 0.26943446094499091 0.33628572972844761 0 0.26943446094499091 0.33628572972844761 0 0.27277621843843719 0.32231759939912852 0 0.28416713384537068 0.34216535460870529 0 0.27277621843843719 0.32231759939912852 0 0.28605411928036528 0.31833020051890742 0 0.28416713384537068 0.34216535460870529 0 0.25720481198535439 0.32113418170008962 0 0.26943446094499091 0.33628572972844761 0 0.27277621843843719 0.32231759939912852 0 0.27277621843843719 0.32231759939912852 0 0.27551918185798202 0.31071558940949778 0 0.26439558201671598 0.30956530779622649 0 0.27277621843843719 0.32231759939912852 0 0.28605411928036528 0.31833020051890742 0 0.27551918185798202 0.31071558940949778 0 0.28605411928036528 0.31833020051890742 0 0.29963270931922881 0.31642581994941421 0 0.29467487969737061 0.30983224745181193 0 0.28605411928036528 0.31833020051890742 0 0.28416713384537068 0.34216535460870529 0 0.3057918373715135 0.33124410070335608 0 0.28416713384537068 0.34216535460870529 0 0.3057918373715135 0.33124410070335608 0 0.31868381581898331 0.34023035014530018 0 0.30477245840268319 0.35005350039644589 0 0.3057918373715135 0.33124410070335608 0 0.30477245840268319 0.35005350039644589 0 0.28416713384537068 0.34216535460870529 0 0.3057918373715135 0.33124410070335608 0 0.28605411928036528 0.31833020051890742 0 0.3057918373715135 0.33124410070335608 0 0.29963270931922881 0.31642581994941421 0 0.3057918373715135 0.33124410070335608 0 0.29963270931922881 0.31642581994941421 0 0.31984653327915108 0.30961220749674317 0 0.30671939620164562 0.30597954553287599 0 0.3106920420600161 0.29233443947487192 0 0.29377873867569237 0.30173015221249178 0 0.29963270931922881 0.31642581994941421 0 0.30671939620164562 0.30597954553287599 0 0.31984653327915108 0.30961220749674317 0 0.30671939620164562 0.30597954553287599 0 0.3106920420600161 0.29233443947487192 0 0.31984653327915108 0.30961220749674317 0 0.30671939620164562 0.30597954553287599 0 0.29467487969737061 0.30983224745181193 0 0.29377873867569237 0.30173015221249178 0 0.29963270931922881 0.31642581994941421 0 0.30671939620164562 0.30597954553287599 0 0.29467487969737061 0.30983224745181193 0 0.3106920420600161 0.29233443947487192 0 0.29753984166867631 0.28879579973930358 0 0.30199768788179682 0.27439751523736111 0 0.3106920420600161 0.29233443947487192 0 0.30199768788179682 0.27439751523736111 0 0.32015314000251788 0.28049612034490712 0 0.3106920420600161 0.29233443947487192 0 0.29753984166867631 0.28879579973930358 0 0.29377873867569237 0.30173015221249178 0 0.29753984166867631 0.28879579973930358 0 0.28369089805719983 0.28672109203248969 0 0.30199768788179682 0.27439751523736111 0 0.29753984166867631 0.28879579973930358 0 0.28369089805719983 0.28672109203248969 0 0.29377873867569237 0.30173015221249178 0 0.28369089805719983 0.28672109203248969 0 0.29377873867569237 0.30173015221249178 0 0.28369089805719983 0.28672109203248969 0 0.29377873867569237 0.30173015221249178 0 0.2882498985010804 0.30481561186358491 0 0.28605411928036528 0.31833020051890742 0 0.29467487969737061 0.30983224745181193 0 0.2882498985010804 0.30481561186358491 0 0.29467487969737061 0.30983224745181193 0 0.29377873867569237 0.30173015221249178 0 0.2882498985010804 0.30481561186358491 0 0.28605411928036528 0.31833020051890742 0 0.2882498985010804 0.30481561186358491 0 0.27551918185798202 0.31071558940949778 0 0.2882498985010804 0.30481561186358491 0 0.26612009105331152 0.29854922746964191 0 0.2882498985010804 0.30481561186358491 0 0.27551918185798202 0.31071558940949778 0 0.26612009105331152 0.29854922746964191 0 0.27551918185798202 0.31071558940949778 0 0.26612009105331152 0.29854922746964191 0 0.26439558201671598 0.30956530779622649 0 0.28369089805719983 0.28672109203248969 0 0.2882498985010804 0.30481561186358491 0 0.26612009105331152 0.29854922746964191 0 0.28369089805719983 0.28672109203248969 0 0.26612009105331152 0.29854922746964191 0 0.26372668600921911 0.2803753925267472 0 0.28369089805719983 0.28672109203248969 0 0.26612009105331152 0.29854922746964191 0 0.24618659584610841 0.29290476158000678 0 0.26612009105331152 0.29854922746964191 0 0.25239385184284652 0.28364063616437057 0 0.24618659584610841 0.29290476158000678 0 0.26612009105331152 0.29854922746964191 0 0.26612009105331152 0.29854922746964191 0 0.25239385184284652 0.28364063616437057 0 0.26372668600921911 0.2803753925267472 0 0.24618659584610841 0.29290476158000678 0 0.26612009105331152 0.29854922746964191 0 0.25354031088216911 0.30701755471271791 0 0.26612009105331152 0.29854922746964191 0 0.25354031088216911 0.30701755471271791 0 0.26439558201671598 0.30956530779622649 0 0.26612009105331152 0.29854922746964191 0 0.25354031088216911 0.30701755471271791 0 0.24833316285785609 0.25613966282899547 0 0.26865748651628951 0.26435382959629539 0 0.25362407497537798 0.24198656716010189 0 0.26865748651628951 0.26435382959629539 0 0.26751790208001708 0.24888402836805171 0 0.25362407497537798 0.24198656716010189 0 0.26865748651628951 0.26435382959629539 0 0.25362407497537798 0.24198656716010189 0 0.2490231873831896 0.26987704113164152 0 0.24833316285785609 0.25613966282899547 0 0.26865748651628951 0.26435382959629539 0 0.2490231873831896 0.26987704113164152 0 0.26372668600921911 0.2803753925267472 0 0.26865748651628951 0.26435382959629539 0 0.2490231873831896 0.26987704113164152 0 0.25239385184284652 0.28364063616437057 0 0.26372668600921911 0.2803753925267472 0 0.28369089805719983 0.28672109203248969 0 0.26372668600921911 0.2803753925267472 0 0.26865748651628951 0.26435382959629539 0 0.28369089805719983 0.28672109203248969 0 0.26865748651628951 0.26435382959629539 0 0.28369089805719983 0.28672109203248969 0 0.26865748651628951 0.26435382959629539 0 0.28659601773002719 0.26765962618185329 0 0.26865748651628951 0.26435382959629539 0 0.28245996340297719 0.25304914615146101 0 0.28659601773002719 0.26765962618185329 0 0.26865748651628951 0.26435382959629539 0 0.28245996340297719 0.25304914615146101 0 0.26751790208001708 0.24888402836805171 0 0.28245996340297719 0.25304914615146101 0 0.28659601773002719 0.26765962618185329 0 0.29866360681950233 0.26056392980329079 0 0.28245996340297719 0.25304914615146101 0 0.29866360681950233 0.26056392980329079 0 0.30195988737631652 0.24563942300354619 0 0.28369089805719983 0.28672109203248969 0 0.30199768788179682 0.27439751523736111 0 0.28369089805719983 0.28672109203248969 0 0.28659601773002719 0.26765962618185329 0 0.30199768788179682 0.27439751523736111 0 0.28659601773002719 0.26765962618185329 0 0.30199768788179682 0.27439751523736111 0 0.29866360681950233 0.26056392980329079 0 0.30199768788179682 0.27439751523736111 0 0.32030447770639381 0.26207393844223242 0 0.30199768788179682 0.27439751523736111 0 0.29866360681950233 0.26056392980329079 0 0.32030447770639381 0.26207393844223242 0 0.29866360681950233 0.26056392980329079 0 0.32030447770639381 0.26207393844223242 0 0.30195988737631652 0.24563942300354619 0 0.32030447770639381 0.26207393844223242 0 0.33861126753099069 0.24975036164710371 0 0.31719882278570838 0.23891526540108851 0 0.32030447770639381 0.26207393844223242 0 0.35011037640450471 0.26366625953798178 0 0.33861126753099069 0.24975036164710371 0 0.32030447770639381 0.26207393844223242 0 0.33861126753099069 0.24975036164710371 0 0.32030447770639381 0.26207393844223242 0 0.33854163499105328 0.27994847795588301 0 0.35011037640450471 0.26366625953798178 0 0.30199768788179682 0.27439751523736111 0 0.32030447770639381 0.26207393844223242 0 0.32015314000251788 0.28049612034490712 0 0.32030447770639381 0.26207393844223242 0 0.33854163499105328 0.27994847795588301 0 0.32015314000251788 0.28049612034490712 0 0.3106920420600161 0.29233443947487192 0 0.32015314000251788 0.28049612034490712 0 0.3292298573733291 0.29372623061418701 0 0.3106920420600161 0.29233443947487192 0 0.31984653327915108 0.30961220749674317 0 0.3292298573733291 0.29372623061418701 0 0.33264306588191361 0.31662950225249731 0 0.31984653327915108 0.30961220749674317 0 0.34246709834719702 0.30518107207717871 0 0.31984653327915108 0.30961220749674317 0 0.34246709834719702 0.30518107207717871 0 0.3292298573733291 0.29372623061418701 0 0.31984653327915108 0.30961220749674317 0 0.34246709834719702 0.30518107207717871 0 0.34246709834719702 0.30518107207717871 0 0.3292298573733291 0.29372623061418701 0 0.3514077083073372 0.29086852976110572 0 0.33854163499105328 0.27994847795588301 0 0.3292298573733291 0.29372623061418701 0 0.3514077083073372 0.29086852976110572 0 0.33854163499105328 0.27994847795588301 0 0.32015314000251788 0.28049612034490712 0 0.3292298573733291 0.29372623061418701 0 0.33854163499105328 0.27994847795588301 0 0.3514077083073372 0.29086852976110572 0 0.36369661966943051 0.27555304686427518 0 0.34246709834719702 0.30518107207717871 0 0.36508766341524351 0.30074993665761629 0 0.34246709834719702 0.30518107207717871 0 0.3514077083073372 0.29086852976110572 0 0.36508766341524351 0.30074993665761629 0 0.35225630932364449 0.31724576517309849 0 0.34246709834719702 0.30518107207717871 0 0.36508766341524351 0.30074993665761629 0 0.36508766341524351 0.30074993665761629 0 0.38237199884401968 0.29736411359388037 0 0.36508766341524351 0.30074993665761629 0 0.37321167364270152 0.3003576316808339 0 0.38237199884401968 0.29736411359388037 0 0.35225630932364449 0.31724576517309849 0 0.36569688241575388 0.31178512089397031 0 0.36508766341524351 0.30074993665761629 0 0.36569688241575388 0.31178512089397031 0 0.36508766341524351 0.30074993665761629 0 0.36569688241575388 0.31178512089397031 0 0.36508766341524351 0.30074993665761629 0 0.37321167364270152 0.3003576316808339 0 0.36569688241575388 0.31178512089397031 0 0.37321167364270152 0.3003576316808339 0 0.36569688241575388 0.31178512089397031 0 0.37321167364270152 0.3003576316808339 0 0.3747307118871962 0.31007092728642682 0 0.36508766341524351 0.30074993665761629 0 0.37558339054310558 0.28715513877437437 0 0.38237199884401968 0.29736411359388037 0 0.3514077083073372 0.29086852976110572 0 0.36508766341524351 0.30074993665761629 0 0.36369661966943051 0.27555304686427518 0 0.36508766341524351 0.30074993665761629 0 0.36369661966943051 0.27555304686427518 0 0.37558339054310558 0.28715513877437437 0 0.36508766341524351 0.30074993665761629 0 0.36369661966943051 0.27555304686427518 0 0.36369661966943051 0.27555304686427518 0 0.37103327202197922 0.26251117002766122 0 0.38052372977493981 0.27570756151612791 0 0.36369661966943051 0.27555304686427518 0 0.38052372977493981 0.27570756151612791 0 0.37558339054310558 0.28715513877437437 0 0.37103327202197922 0.26251117002766122 0 0.36230557592361717 0.250356157070934 0 0.3709836007202828 0.23729508748735409 0 0.36369661966943051 0.27555304686427518 0 0.36230557592361717 0.250356157070934 0 0.36369661966943051 0.27555304686427518 0 0.37103327202197922 0.26251117002766122 0 0.36230557592361717 0.250356157070934 0 0.35011037640450471 0.26366625953798178 0 0.33861126753099069 0.24975036164710371 0 0.35062680961752463 0.24346715051183601 0 0.36369661966943051 0.27555304686427518 0 0.36230557592361717 0.250356157070934 0 0.35011037640450471 0.26366625953798178 0 0.36230557592361717 0.250356157070934 0 0.35011037640450471 0.26366625953798178 0 0.35062680961752463 0.24346715051183601 0 0.33854163499105328 0.27994847795588301 0 0.36369661966943051 0.27555304686427518 0 0.35011037640450471 0.26366625953798178 0 0.40441355270960472 0.26761773357626151 0 0.38619176983072928 0.26047575165399511 0 0.40139993894117582 0.28365641582063622 0 0.40441355270960472 0.26761773357626151 0 0.40139993894117582 0.28365641582063622 0 0.41280579251651262 0.27878674758567712 0 0.38619176983072928 0.26047575165399511 0 0.40139993894117582 0.28365641582063622 0 0.40441355270960472 0.26761773357626151 0 0.38619176983072928 0.26047575165399511 0 0.40681097746815043 0.24944788258450881 0 0.38619176983072928 0.26047575165399511 0 0.38805339756136181 0.24091082639879571 0 0.40681097746815043 0.24944788258450881 0 0.37103327202197922 0.26251117002766122 0 0.38619176983072928 0.26047575165399511 0 0.3709836007202828 0.23729508748735409 0 0.37103327202197922 0.26251117002766122 0 0.38619176983072928 0.26047575165399511 0 0.38052372977493981 0.27570756151612791 0 0.38619176983072928 0.26047575165399511 0 0.38052372977493981 0.27570756151612791 0 0.40139993894117582 0.28365641582063622 0 0.38052372977493981 0.27570756151612791 0 0.3869509077038058 0.28747759901436271 0 0.40139993894117582 0.28365641582063622 0 0.3869509077038058 0.28747759901436271 0 0.38237199884401968 0.29736411359388037 0 0.39965633427279618 0.2939782905301464 0 0.38052372977493981 0.27570756151612791 0 0.37558339054310558 0.28715513877437437 0 0.3869509077038058 0.28747759901436271 0 0.37558339054310558 0.28715513877437437 0 0.3869509077038058 0.28747759901436271 0 0.38237199884401968 0.29736411359388037 0 0.3747307118871962 0.31007092728642682 0 0.38118859000119681 0.305856901547644 0 0.38307533956369538 0.31502867493908338 0 0.37321167364270152 0.3003576316808339 0 0.3747307118871962 0.31007092728642682 0 0.38118859000119681 0.305856901547644 0 0.37321167364270152 0.3003576316808339 0 0.38118859000119681 0.305856901547644 0 0.38237199884401968 0.29736411359388037 0 0.38118859000119681 0.305856901547644 0 0.38237199884401968 0.29736411359388037 0 0.39255322606837117 0.30646316023799558 0 0.38118859000119681 0.305856901547644 0 0.39255322606837117 0.30646316023799558 0 0.38307533956369538 0.31502867493908338 0 0.38237199884401968 0.29736411359388037 0 0.39255322606837117 0.30646316023799558 0 0.39965633427279618 0.2939782905301464 0 0.39255322606837117 0.30646316023799558 0 0.40439469230525998 0.30574836003509509 0 0.39965633427279618 0.2939782905301464 0 0.39965633427279618 0.2939782905301464 0 0.40139993894117582 0.28365641582063622 0 0.41660810805162241 0.30683707998727727 0 0.38237199884401968 0.29736411359388037 0 0.39965633427279618 0.2939782905301464 0 0.3869509077038058 0.28747759901436271 0 0.39965633427279618 0.2939782905301464 0 0.40139993894117582 0.28365641582063622 0 0.40139993894117582 0.28365641582063622 0 0.41464087202507938 0.29028068493103498 0 0.41280579251651262 0.27878674758567712 0 0.40139993894117582 0.28365641582063622 0 0.41464087202507938 0.29028068493103498 0 0.41660810805162241 0.30683707998727727 0 0.40139993894117582 0.28365641582063622 0 0.41660810805162241 0.30683707998727727 0 0.41464087202507938 0.29028068493103498 0 0.42043798511647629 0.29525520944793682 0 0.42195253549960959 0.28686797181364782 0 0.41464087202507938 0.29028068493103498 0 0.42195253549960959 0.28686797181364782 0 0.41280579251651262 0.27878674758567712 0 0.40439469230525998 0.30574836003509509 0 0.39965633427279618 0.2939782905301464 0 0.41660810805162241 0.30683707998727727 0 0.41464087202507938 0.29028068493103498 0 0.42043798511647629 0.29525520944793682 0 0.41660810805162241 0.30683707998727727 0 0.41660810805162241 0.30683707998727727 0 0.43116992368473539 0.29763207065728697 0 0.42973467267887527 0.31487202105601769 0 0.42043798511647629 0.29525520944793682 0 0.41660810805162241 0.30683707998727727 0 0.43116992368473539 0.29763207065728697 0 0.43116992368473539 0.29763207065728697 0 0.42195253549960959 0.28686797181364782 0 0.43325721770093989 0.28163781796365162 0 0.43116992368473539 0.29763207065728697 0 0.43325721770093989 0.28163781796365162 0 0.44385931827711211 0.2888039680942458 0 0.42043798511647629 0.29525520944793682 0 0.43116992368473539 0.29763207065728697 0 0.42195253549960959 0.28686797181364782 0 0.43521126246971009 0.27008715467975902 0 0.42413874710495247 0.27327829716177238 0 0.42682444425688543 0.2568086017734223 0 0.43325721770093989 0.28163781796365162 0 0.43521126246971009 0.27008715467975902 0 0.42413874710495247 0.27327829716177238 0 0.42195253549960959 0.28686797181364782 0 0.43325721770093989 0.28163781796365162 0 0.42413874710495247 0.27327829716177238 0 0.42195253549960959 0.28686797181364782 0 0.42413874710495247 0.27327829716177238 0 0.41280579251651262 0.27878674758567712 0 0.42413874710495247 0.27327829716177238 0 0.41485928479145512 0.26572187023649008 0 0.41280579251651262 0.27878674758567712 0 0.40441355270960472 0.26761773357626151 0 0.41485928479145512 0.26572187023649008 0 0.41280579251651262 0.27878674758567712 0 0.41485928479145512 0.26572187023649008 0 0.42682444425688543 0.2568086017734223 0 0.40681097746815043 0.24944788258450881 0 0.40441355270960472 0.26761773357626151 0 0.41485928479145512 0.26572187023649008 0 0.40681097746815043 0.24944788258450881 0 0.42682444425688543 0.2568086017734223 0 0.44144799578287552 0.25063407380050812 0 0.42551448812707099 0.2427765896032141 0 0.42413874710495247 0.27327829716177238 0 0.41485928479145512 0.26572187023649008 0 0.42682444425688543 0.2568086017734223 0 0.43521126246971009 0.27008715467975902 0 0.42682444425688543 0.2568086017734223 0 0.43660547741770611 0.26004515013266138 0 0.42682444425688543 0.2568086017734223 0 0.43660547741770611 0.26004515013266138 0 0.44144799578287552 0.25063407380050812 0 0.43521126246971009 0.27008715467975902 0 0.43660547741770611 0.26004515013266138 0 0.44531054430199107 0.26489027758499728 0 0.43660547741770611 0.26004515013266138 0 0.44144799578287552 0.25063407380050812 0 0.44531054430199107 0.26489027758499728 0 0.44531054430199107 0.26489027758499728 0 0.45381995667613301 0.27241310458770751 0 0.45318009078529609 0.25750025464848258 0 0.44144799578287552 0.25063407380050812 0 0.44531054430199107 0.26489027758499728 0 0.45318009078529609 0.25750025464848258 0 0.44144799578287552 0.25063407380050812 0 0.45318009078529609 0.25750025464848258 0 0.45233578662085638 0.24345101764042529 0 0.43325721770093989 0.28163781796365162 0 0.43521126246971009 0.27008715467975902 0 0.44454231896971419 0.27725584667109537 0 0.43521126246971009 0.27008715467975902 0 0.44531054430199107 0.26489027758499728 0 0.44454231896971419 0.27725584667109537 0 0.44531054430199107 0.26489027758499728 0 0.44454231896971419 0.27725584667109537 0 0.45381995667613301 0.27241310458770751 0 0.44454231896971419 0.27725584667109537 0 0.45381995667613301 0.27241310458770751 0 0.45587366899779719 0.28594313819822459 0 0.46226671923173979 0.27441678407397702 0 0.47140070530682121 0.26588540816193718 0 0.46925309592816628 0.28306729418006071 0 0.45381995667613301 0.27241310458770751 0 0.46226671923173979 0.27441678407397702 0 0.45587366899779719 0.28594313819822459 0 0.45381995667613301 0.27241310458770751 0 0.46226671923173979 0.27441678407397702 0 0.46104061765968662 0.26336652099148539 0 0.46226671923173979 0.27441678407397702 0 0.46104061765968662 0.26336652099148539 0 0.47140070530682121 0.26588540816193718 0 0.46226671923173979 0.27441678407397702 0 0.46925309592816628 0.28306729418006071 0 0.45587366899779719 0.28594313819822459 0 0.45318009078529609 0.25750025464848258 0 0.46104061765968662 0.26336652099148539 0 0.46453561629844292 0.24661705348532301 0 0.46104061765968662 0.26336652099148539 0 0.47140070530682121 0.26588540816193718 0 0.46453561629844292 0.24661705348532301 0 0.47140070530682121 0.26588540816193718 0 0.46453561629844292 0.24661705348532301 0 0.45381995667613301 0.27241310458770751 0 0.45318009078529609 0.25750025464848258 0 0.46104061765968662 0.26336652099148539 0 0.47140070530682121 0.26588540816193718 0 0.46453561629844292 0.24661705348532301 0 0.47400380033395922 0.24505942253569801 0 0.47140070530682121 0.26588540816193718 0 0.48432671999912003 0.27074297083439619 0 0.48722746125550248 0.25680108687804298 0 0.47140070530682121 0.26588540816193718 0 0.47400380033395922 0.24505942253569801 0 0.47140070530682121 0.26588540816193718 0 0.48722746125550248 0.25680108687804298 0 0.47400380033395922 0.24505942253569801 0 0.47140070530682121 0.26588540816193718 0 0.47738422579558121 0.28267945043167297 0 0.46925309592816628 0.28306729418006071 0 0.47140070530682121 0.26588540816193718 0 0.47738422579558121 0.28267945043167297 0 0.47140070530682121 0.26588540816193718 0 0.46925309592816628 0.28306729418006071 0 0.47140070530682121 0.26588540816193718 0 0.48432671999912003 0.27074297083439619 0 0.47738422579558121 0.28267945043167297 0 0.48432671999912003 0.27074297083439619 0 0.48824932686768302 0.27788652692554627 0 0.47738422579558121 0.28267945043167297 0 0.5 0.27093445387433468 0 0.48824932686768302 0.27788652692554627 0 0.49128636167603063 0.28718923256178158 0 0.48432671999912003 0.27074297083439619 0 0.5 0.27093445387433468 0 0.48824932686768302 0.27788652692554627 0 0.48432671999912003 0.27074297083439619 0 0.5 0.27093445387433468 0 0.48722746125550248 0.25680108687804298 0 0.5 0.27093445387433468 0 0.48722746125550248 0.25680108687804298 0 0.5 0.2429459620465986 0 0.5 0.29892294570207067 0 0.48336774628434093 0.29947349270140883 0 0.48572280556457909 0.31674877684638503 0 0.5 0.27093445387433468 0 0.5 0.29892294570207067 0 0.49128636167603063 0.28718923256178158 0 0.5 0.29892294570207067 0 0.49128636167603063 0.28718923256178158 0 0.48336774628434093 0.29947349270140883 0 0.48824932686768302 0.27788652692554627 0 0.49128636167603063 0.28718923256178158 0 0.47738422579558121 0.28267945043167297 0 0.47738422579558121 0.28267945043167297 0 0.48336774628434093 0.29947349270140883 0 0.49128636167603063 0.28718923256178158 0 0.47738422579558121 0.28267945043167297 0 0.48336774628434093 0.29947349270140883 0 0.47738422579558121 0.28267945043167297 0 0.47366304688259409 0.29009341251698623 0 0.48336774628434093 0.29947349270140883 0 0.47738422579558121 0.28267945043167297 0 0.46925309592816628 0.28306729418006071 0 0.47366304688259409 0.29009341251698623 0 0.47366304688259409 0.29009341251698623 0 0.46924741423809552 0.29666607615803448 0 0.48336774628434093 0.29947349270140883 0 0.46925309592816628 0.28306729418006071 0 0.47366304688259409 0.29009341251698623 0 0.46924741423809552 0.29666607615803448 0 0.48336774628434093 0.29947349270140883 0 0.46942884594068313 0.31081165325195081 0 0.48572280556457909 0.31674877684638503 0 0.46924741423809552 0.29666607615803448 0 0.48336774628434093 0.29947349270140883 0 0.46942884594068313 0.31081165325195081 0 0.46942884594068313 0.31081165325195081 0 0.4561502658528459 0.30215510890912239 0 0.4507753780588396 0.32421278417098742 0 0.46924741423809552 0.29666607615803448 0 0.46942884594068313 0.31081165325195081 0 0.4561502658528459 0.30215510890912239 0 0.46924741423809552 0.29666607615803448 0 0.4561502658528459 0.30215510890912239 0 0.45587366899779719 0.28594313819822459 0 0.46925309592816628 0.28306729418006071 0 0.46924741423809552 0.29666607615803448 0 0.45587366899779719 0.28594313819822459 0 0.43116992368473539 0.29763207065728697 0 0.4561502658528459 0.30215510890912239 0 0.44385931827711211 0.2888039680942458 0 0.4561502658528459 0.30215510890912239 0 0.45587366899779719 0.28594313819822459 0 0.44385931827711211 0.2888039680942458 0 0.44454231896971419 0.27725584667109537 0 0.45587366899779719 0.28594313819822459 0 0.44385931827711211 0.2888039680942458 0 0.43325721770093989 0.28163781796365162 0 0.44454231896971419 0.27725584667109537 0 0.44385931827711211 0.2888039680942458 0 0.4561502658528459 0.30215510890912239 0 0.42973467267887527 0.31487202105601769 0 0.43116992368473539 0.29763207065728697 0 0.4561502658528459 0.30215510890912239 0 0.42973467267887527 0.31487202105601769 0 0.4561502658528459 0.30215510890912239 0 0.4507753780588396 0.32421278417098742 0 0.42973467267887527 0.31487202105601769 0 0.4507753780588396 0.32421278417098742 0 0.46113793839215989 0.33891326342542871 0 0.44266120926801639 0.35195184514841588 0 0.4507753780588396 0.32421278417098742 0 0.44266120926801639 0.35195184514841588 0 0.42911489360418081 0.33588118081906881 0 0.4507753780588396 0.32421278417098742 0 0.46113793839215989 0.33891326342542871 0 0.47130946564539788 0.3256136807257668 0 0.46942884594068313 0.31081165325195081 0 0.4507753780588396 0.32421278417098742 0 0.47130946564539788 0.3256136807257668 0 0.47130946564539788 0.3256136807257668 0 0.48515430038063212 0.33961612908598438 0 0.48572280556457909 0.31674877684638503 0 0.46942884594068313 0.31081165325195081 0 0.47130946564539788 0.3256136807257668 0 0.48572280556457909 0.31674877684638503 0 0.46113793839215989 0.33891326342542871 0 0.47130946564539788 0.3256136807257668 0 0.48515430038063212 0.33961612908598438 0 0.48515430038063212 0.33961612908598438 0 0.5 0.32691143752980678 0 0.50000000000000011 0.35489992935754278 0 0.5 0.29892294570207067 0 0.48572280556457909 0.31674877684638503 0 0.5 0.32691143752980678 0 0.48515430038063212 0.33961612908598438 0 0.48572280556457909 0.31674877684638503 0 0.5 0.32691143752980678 0 0.48515430038063212 0.33961612908598438 0 0.50000000000000011 0.35489992935754278 0 0.47133060463400828 0.3534258872529793 0 0.50000000000000011 0.35489992935754278 0 0.47133060463400828 0.3534258872529793 0 0.46113793839215989 0.33891326342542871 0 0.48515430038063212 0.33961612908598438 0 0.47133060463400828 0.3534258872529793 0 0.50000000000000011 0.35489992935754278 0 0.47133060463400828 0.3534258872529793 0 0.46962228214009721 0.3821705107567076 0 0.47133060463400828 0.3534258872529793 0 0.45077515504990678 0.37217729755309331 0 0.46962228214009721 0.3821705107567076 0 0.46113793839215989 0.33891326342542871 0 0.47133060463400828 0.3534258872529793 0 0.44266120926801639 0.35195184514841588 0 0.47133060463400828 0.3534258872529793 0 0.44266120926801639 0.35195184514841588 0 0.45077515504990678 0.37217729755309331 0 0.47133060463400828 0.3534258872529793 0 0.44266120926801639 0.35195184514841588 0 0.44266120926801639 0.35195184514841588 0 0.45077515504990678 0.37217729755309331 0 0.42558359003088531 0.37622174522676632 0 0.44266120926801639 0.35195184514841588 0 0.41399181390202461 0.35047780304385251 0 0.42558359003088531 0.37622174522676632 0 0.40810779316890422 0.36958752992744393 0 0.41399181390202461 0.35047780304385251 0 0.42558359003088531 0.37622174522676632 0 0.40810779316890422 0.36958752992744393 0 0.41399181390202461 0.35047780304385251 0 0.40025485599907118 0.35986697102707321 0 0.44266120926801639 0.35195184514841588 0 0.41399181390202461 0.35047780304385251 0 0.44266120926801639 0.35195184514841588 0 0.41399181390202461 0.35047780304385251 0 0.42911489360418081 0.33588118081906881 0 0.4507753780588396 0.32421278417098742 0 0.42911489360418081 0.33588118081906881 0 0.42973467267887527 0.31487202105601769 0 0.41660810805162241 0.30683707998727727 0 0.42973467267887527 0.31487202105601769 0 0.4033190795049047 0.32758893320291299 0 0.40439469230525998 0.30574836003509509 0 0.41660810805162241 0.30683707998727727 0 0.4033190795049047 0.32758893320291299 0 0.42911489360418081 0.33588118081906881 0 0.42973467267887527 0.31487202105601769 0 0.4033190795049047 0.32758893320291299 0 0.42973467267887527 0.31487202105601769 0 0.4033190795049047 0.32758893320291299 0 0.41399181390202461 0.35047780304385251 0 0.42911489360418081 0.33588118081906881 0 0.4033190795049047 0.32758893320291299 0 0.41399181390202461 0.35047780304385251 0 0.3966448986950365 0.3430116422991098 0 0.4033190795049047 0.32758893320291299 0 0.3966448986950365 0.3430116422991098 0 0.4033190795049047 0.32758893320291299 0 0.38394628283718418 0.34497607201038472 0 0.39255322606837117 0.30646316023799558 0 0.4033190795049047 0.32758893320291299 0 0.38307533956369538 0.31502867493908338 0 0.39255322606837117 0.30646316023799558 0 0.40439469230525998 0.30574836003509509 0 0.4033190795049047 0.32758893320291299 0 0.4033190795049047 0.32758893320291299 0 0.38307533956369538 0.31502867493908338 0 0.37922798359812843 0.32704089172345152 0 0.37385616417817402 0.31823241320891321 0 0.3747307118871962 0.31007092728642682 0 0.38307533956369538 0.31502867493908338 0 0.37385616417817402 0.31823241320891321 0 0.38307533956369538 0.31502867493908338 0 0.37922798359812843 0.32704089172345152 0 0.4033190795049047 0.32758893320291299 0 0.37922798359812843 0.32704089172345152 0 0.37690348633093412 0.3403058453498084 0 0.4033190795049047 0.32758893320291299 0 0.37690348633093412 0.3403058453498084 0 0.38394628283718418 0.34497607201038472 0 0.4033190795049047 0.32758893320291299 0 0.37690348633093412 0.3403058453498084 0 0.37269425213457158 0.33345783606452611 0 0.37922798359812843 0.32704089172345152 0 0.37690348633093412 0.3403058453498084 0 0.36716237452420092 0.34807005901943899 0 0.38532241853603277 0.34900376093928898 0 0.36716237452420092 0.34807005901943899 0 0.38394628283718418 0.34497607201038472 0 0.38532241853603277 0.34900376093928898 0 0.37472086759645967 0.35443798927705811 0 0.36716237452420092 0.34807005901943899 0 0.38532241853603277 0.34900376093928898 0 0.36716237452420092 0.34807005901943899 0 0.37690348633093412 0.3403058453498084 0 0.38394628283718418 0.34497607201038472 0 0.3966448986950365 0.3430116422991098 0 0.38394628283718418 0.34497607201038472 0 0.38532241853603277 0.34900376093928898 0 0.38394628283718418 0.34497607201038472 0 0.38532241853603277 0.34900376093928898 0 0.37472086759645967 0.35443798927705811 0 0.38532241853603277 0.34900376093928898 0 0.37542620182073411 0.36441149642875542 0 0.38532241853603277 0.34900376093928898 0 0.39268150166194582 0.37054240546244621 0 0.37542620182073411 0.36441149642875542 0 0.39268150166194582 0.37054240546244621 0 0.37979488271611062 0.38194681550263959 0 0.38532241853603277 0.34900376093928898 0 0.37542620182073411 0.36441149642875542 0 0.39268150166194582 0.37054240546244621 0 0.38532241853603277 0.34900376093928898 0 0.39268150166194582 0.37054240546244621 0 0.40025485599907118 0.35986697102707321 0 0.40810779316890422 0.36958752992744393 0 0.39268150166194582 0.37054240546244621 0 0.40025485599907118 0.35986697102707321 0 0.41399181390202461 0.35047780304385251 0 0.3966448986950365 0.3430116422991098 0 0.38532241853603277 0.34900376093928898 0 0.41399181390202461 0.35047780304385251 0 0.38532241853603277 0.34900376093928898 0 0.40025485599907118 0.35986697102707321 0 0.41399181390202461 0.35047780304385251 0 0.38532241853603277 0.34900376093928898 0 0.40004058478785892 0.39208104998560339 0 0.40739966791377191 0.41361969450876063 0 0.40810779316890422 0.36958752992744393 0 0.39268150166194582 0.37054240546244621 0 0.40004058478785892 0.39208104998560339 0 0.39268150166194582 0.37054240546244621 0 0.40004058478785892 0.39208104998560339 0 0.37979488271611062 0.38194681550263959 0 0.39268150166194582 0.37054240546244621 0 0.40004058478785892 0.39208104998560339 0 0.37463909598514877 0.4003032861346042 0 0.40004058478785892 0.39208104998560339 0 0.37979488271611062 0.38194681550263959 0 0.37463909598514877 0.4003032861346042 0 0.40004058478785892 0.39208104998560339 0 0.38985399368029139 0.41738848607403761 0 0.38985399368029139 0.41738848607403761 0 0.4147587510396849 0.43515833903191781 0 0.38273982735140999 0.44187078628995502 0 0.35954603500387389 0.42129776049338469 0 0.38985399368029139 0.41738848607403761 0 0.38273982735140999 0.44187078628995502 0 0.38985399368029139 0.41738848607403761 0 0.40739966791377191 0.41361969450876063 0 0.4147587510396849 0.43515833903191781 0 0.40004058478785892 0.39208104998560339 0 0.38985399368029139 0.41738848607403761 0 0.40739966791377191 0.41361969450876063 0 0.40739966791377191 0.41361969450876063 0 0.43098981447030699 0.41756063158309642 0 0.42240068125390279 0.39931451018979658 0 0.40739966791377191 0.41361969450876063 0 0.4147587510396849 0.43515833903191781 0 0.43098981447030699 0.41756063158309642 0 0.40739966791377191 0.41361969450876063 0 0.4147587510396849 0.43515833903191781 0 0.4147587510396849 0.43515833903191781 0 0.43517982953899748 0.43698210956832301 0 0.43098981447030699 0.41756063158309642 0 0.42240068125390279 0.39931451018979658 0 0.42558359003088531 0.37622174522676632 0 0.44467808917652729 0.3971164993805974 0 0.43098981447030699 0.41756063158309642 0 0.42240068125390279 0.39931451018979658 0 0.44467808917652729 0.3971164993805974 0 0.40004058478785892 0.39208104998560339 0 0.40739966791377191 0.41361969450876063 0 0.42240068125390279 0.39931451018979658 0 0.40810779316890422 0.36958752992744393 0 0.40004058478785892 0.39208104998560339 0 0.42558359003088531 0.37622174522676632 0 0.40004058478785892 0.39208104998560339 0 0.42240068125390279 0.39931451018979658 0 0.42558359003088531 0.37622174522676632 0 0.50000000000000011 0.35489992935754278 0 0.49091572235028907 0.39454473684102742 0 0.5 0.43534704771476829 0 0.45077515504990678 0.37217729755309331 0 0.42558359003088531 0.37622174522676632 0 0.44467808917652729 0.3971164993805974 0 0.44467808917652729 0.3971164993805974 0 0.46962228214009721 0.3821705107567076 0 0.4643576351474219 0.40898138550871538 0 0.45077515504990678 0.37217729755309331 0 0.44467808917652729 0.3971164993805974 0 0.46962228214009721 0.3821705107567076 0 0.50000000000000011 0.35489992935754278 0 0.46962228214009721 0.3821705107567076 0 0.49091572235028907 0.39454473684102742 0 0.46962228214009721 0.3821705107567076 0 0.47989063395239873 0.4063752928604436 0 0.4643576351474219 0.40898138550871538 0 0.46962228214009721 0.3821705107567076 0 0.49091572235028907 0.39454473684102742 0 0.47989063395239873 0.4063752928604436 0 0.49091572235028907 0.39454473684102742 0 0.5 0.43534704771476829 0 0.49084446497230649 0.42240290667806868 0 0.49084446497230649 0.42240290667806868 0 0.47575785709702961 0.43624957780652712 0 0.49077320759432391 0.45026107651510999 0 0.5 0.43534704771476829 0 0.49084446497230649 0.42240290667806868 0 0.49077320759432391 0.45026107651510999 0 0.49084446497230649 0.42240290667806868 0 0.49077320759432391 0.45026107651510999 0 0.49091572235028907 0.39454473684102742 0 0.49084446497230649 0.42240290667806868 0 0.47989063395239873 0.4063752928604436 0 0.49091572235028907 0.39454473684102742 0 0.49084446497230649 0.42240290667806868 0 0.49084446497230649 0.42240290667806868 0 0.47989063395239873 0.4063752928604436 0 0.47527987411704481 0.42048789944690401 0 0.47989063395239873 0.4063752928604436 0 0.47527987411704481 0.42048789944690401 0 0.4643576351474219 0.40898138550871538 0 0.49084446497230649 0.42240290667806868 0 0.47527987411704481 0.42048789944690401 0 0.47575785709702961 0.43624957780652712 0 0.47527987411704481 0.42048789944690401 0 0.47575785709702961 0.43624957780652712 0 0.46449902756008232 0.42654050111804448 0 0.47575785709702961 0.43624957780652712 0 0.46449902756008232 0.42654050111804448 0 0.4569326817410051 0.44263875232240579 0 0.46449902756008232 0.42654050111804448 0 0.45000180411319679 0.42131958752857712 0 0.4569326817410051 0.44263875232240579 0 0.47527987411704481 0.42048789944690401 0 0.46449902756008232 0.42654050111804448 0 0.4643576351474219 0.40898138550871538 0 0.46449902756008232 0.42654050111804448 0 0.4643576351474219 0.40898138550871538 0 0.45000180411319679 0.42131958752857712 0 0.43098981447030699 0.41756063158309642 0 0.44467808917652729 0.3971164993805974 0 0.45000180411319679 0.42131958752857712 0 0.44467808917652729 0.3971164993805974 0 0.4643576351474219 0.40898138550871538 0 0.45000180411319679 0.42131958752857712 0 0.43517982953899748 0.43698210956832301 0 0.45000180411319679 0.42131958752857712 0 0.4569326817410051 0.44263875232240579 0 0.43517982953899748 0.43698210956832301 0 0.43098981447030699 0.41756063158309642 0 0.45000180411319679 0.42131958752857712 0 0.5 0.5 0 0.46055704912556211 0.47210705674341608 0 0.40698052407234181 0.5 0 0.4569326817410051 0.44263875232240579 0 0.46055704912556211 0.47210705674341608 0 0.42920372833319081 0.45884020176861162 0 0.43517982953899748 0.43698210956832301 0 0.4569326817410051 0.44263875232240579 0 0.42920372833319081 0.45884020176861162 0 0.5 0.43534704771476829 0 0.5 0.5 0 0.49070195021634128 0.47811924635215147 0 0.4569326817410051 0.44263875232240579 0 0.47494454915485229 0.45587514194792211 0 0.46055704912556211 0.47210705674341608 0 0.5 0.43534704771476829 0 0.49077320759432391 0.45026107651510999 0 0.49070195021634128 0.47811924635215147 0 0.47575785709702961 0.43624957780652712 0 0.4569326817410051 0.44263875232240579 0 0.47494454915485229 0.45587514194792211 0 0.47575785709702961 0.43624957780652712 0 0.47494454915485229 0.45587514194792211 0 0.49077320759432391 0.45026107651510999 0 0.47494454915485229 0.45587514194792211 0 0.49070195021634128 0.47811924635215147 0 0.46055704912556211 0.47210705674341608 0 0.49077320759432391 0.45026107651510999 0 0.49070195021634128 0.47811924635215147 0 0.47494454915485229 0.45587514194792211 0 0.49077320759432391 0.45026107651510999 0 0.49070195021634128 0.47811924635215147 0 0.5 0.5 0 0.49070195021634128 0.47811924635215147 0 0.46055704912556211 0.47210705674341608 0 0.40698052407234181 0.5 0 0.42920372833319081 0.45884020176861162 0 0.40101810193379228 0.46073765985147591 0 0.46055704912556211 0.47210705674341608 0 0.40698052407234181 0.5 0 0.42920372833319081 0.45884020176861162 0 0.4147587510396849 0.43515833903191781 0 0.43517982953899748 0.43698210956832301 0 0.42920372833319081 0.45884020176861162 0 0.4147587510396849 0.43515833903191781 0 0.42920372833319081 0.45884020176861162 0 0.40101810193379228 0.46073765985147591 0 0.4147587510396849 0.43515833903191781 0 0.40101810193379228 0.46073765985147591 0 0.38273982735140999 0.44187078628995502 0 0.37140767887233378 0.4678189721668945 0 0.40101810193379228 0.46073765985147591 0 0.38273982735140999 0.44187078628995502 0 0.37140767887233378 0.4678189721668945 0 0.40698052407234181 0.5 0 0.40101810193379228 0.46073765985147591 0 0.33045006035331009 0.078691448835017053 0 0.32982883334218988 0.089258981000778143 0 0.33848474441423959 0.083155094931469234 0 0.33045006035331009 0.078691448835017053 0 0.33848474441423959 0.083155094931469234 0 0.33685661047516158 0.072687529884603225 0 0.33848474441423959 0.083155094931469234 0 0.34119351951095578 0.096226331280685987 0 0.34835959161986918 0.084673188682757514 0 0.32982883334218988 0.089258981000778143 0 0.33848474441423959 0.083155094931469234 0 0.34119351951095578 0.096226331280685987 0 0.33848474441423959 0.083155094931469234 0 0.33685661047516158 0.072687529884603225 0 0.34536281903177263 0.076699082704647883 0 0.33685661047516158 0.072687529884603225 0 0.34391902298020371 0.067932157386910996 0 0.34536281903177263 0.076699082704647883 0 0.33685661047516158 0.072687529884603225 0 0.34391902298020371 0.067932157386910996 0 0.33662296950832232 0.060164064639178637 0 0.33685661047516158 0.072687529884603225 0 0.32682774302441669 0.069019416200788677 0 0.33662296950832232 0.060164064639178637 0 0.33045006035331009 0.078691448835017053 0 0.33685661047516158 0.072687529884603225 0 0.32682774302441669 0.069019416200788677 0 0.33045006035331009 0.078691448835017053 0 0.32682774302441669 0.069019416200788677 0 0.32025237051054273 0.079336222157445971 0 0.32682774302441669 0.069019416200788677 0 0.31508517942847492 0.064820201797660695 0 0.32025237051054273 0.079336222157445971 0 0.32682774302441669 0.069019416200788677 0 0.31508517942847492 0.064820201797660695 0 0.32351484960425658 0.055818178810672282 0 0.31508517942847492 0.064820201797660695 0 0.32025237051054273 0.079336222157445971 0 0.30587997590519178 0.074980209488775984 0 0.32025237051054273 0.079336222157445971 0 0.31294491830095822 0.086072842240225267 0 0.30587997590519178 0.074980209488775984 0 0.33045006035331009 0.078691448835017053 0 0.32982883334218988 0.089258981000778143 0 0.32025237051054273 0.079336222157445971 0 0.32982883334218988 0.089258981000778143 0 0.32025237051054273 0.079336222157445971 0 0.31926346223124358 0.094445006620937244 0 0.32025237051054273 0.079336222157445971 0 0.31294491830095822 0.086072842240225267 0 0.31926346223124358 0.094445006620937244 0 0.31294491830095822 0.086072842240225267 0 0.31926346223124358 0.094445006620937244 0 0.30632450721106791 0.09720713675217231 0 0.31926346223124358 0.094445006620937244 0 0.31608678259692408 0.1110028163126368 0 0.3285794455534875 0.10317024490824769 0 0.31926346223124358 0.094445006620937244 0 0.31608678259692408 0.1110028163126368 0 0.30632450721106791 0.09720713675217231 0 0.32982883334218988 0.089258981000778143 0 0.31926346223124358 0.094445006620937244 0 0.3285794455534875 0.10317024490824769 0 0.31608678259692408 0.1110028163126368 0 0.32678166688432908 0.11634076463756909 0 0.31883649747246962 0.1267791566742949 0 0.31608678259692408 0.1110028163126368 0 0.30636543685551509 0.12686377281768879 0 0.31883649747246962 0.1267791566742949 0 0.31608678259692408 0.1110028163126368 0 0.32678166688432908 0.11634076463756909 0 0.3285794455534875 0.10317024490824769 0 0.32678166688432908 0.11634076463756909 0 0.33104275048739362 0.1292100661940139 0 0.31883649747246962 0.1267791566742949 0 0.34817965043660121 0.1079417689784621 0 0.33104275048739362 0.1292100661940139 0 0.32678166688432908 0.11634076463756909 0 0.33515540657455339 0.1105778351997958 0 0.33104275048739362 0.1292100661940139 0 0.33515540657455339 0.1105778351997958 0 0.34817965043660121 0.1079417689784621 0 0.33104275048739362 0.1292100661940139 0 0.34817965043660121 0.1079417689784621 0 0.34577693238427848 0.1237294979255172 0 0.33104275048739362 0.1292100661940139 0 0.32678166688432908 0.11634076463756909 0 0.33515540657455339 0.1105778351997958 0 0.3285794455534875 0.10317024490824769 0 0.32982883334218988 0.089258981000778143 0 0.3285794455534875 0.10317024490824769 0 0.34119351951095578 0.096226331280685987 0 0.33515540657455339 0.1105778351997958 0 0.3285794455534875 0.10317024490824769 0 0.34119351951095578 0.096226331280685987 0 0.33515540657455339 0.1105778351997958 0 0.34119351951095578 0.096226331280685987 0 0.34817965043660121 0.1079417689784621 0 0.34817965043660121 0.1079417689784621 0 0.36531655038580868 0.086673471762910501 0 0.35820472338473969 0.092726284300042705 0 0.34817965043660121 0.1079417689784621 0 0.36332160295925692 0.10222037117131 0 0.36531655038580868 0.086673471762910501 0 0.34119351951095578 0.096226331280685987 0 0.34817965043660121 0.1079417689784621 0 0.34985084696874869 0.092894608368561934 0 0.34817965043660121 0.1079417689784621 0 0.36531655038580868 0.086673471762910501 0 0.34817965043660121 0.1079417689784621 0 0.35820472338473969 0.092726284300042705 0 0.34985084696874869 0.092894608368561934 0 0.34817965043660121 0.1079417689784621 0 0.34577693238427848 0.1237294979255172 0 0.35961963696877319 0.1197714866938895 0 0.34817965043660121 0.1079417689784621 0 0.35961963696877319 0.1197714866938895 0 0.36332160295925692 0.10222037117131 0 0.37497358229320049 0.10154830355207579 0 0.36977539180858737 0.12938051713115239 0 0.35961963696877319 0.1197714866938895 0 0.37497358229320049 0.10154830355207579 0 0.36977539180858737 0.12938051713115239 0 0.35961963696877319 0.1197714866938895 0 0.37497358229320049 0.10154830355207579 0 0.35961963696877319 0.1197714866938895 0 0.36332160295925692 0.10222037117131 0 0.37497358229320049 0.10154830355207579 0 0.36332160295925692 0.10222037117131 0 0.36933037215504722 0.09474598502700303 0 0.36531655038580868 0.086673471762910501 0 0.36332160295925692 0.10222037117131 0 0.37497358229320049 0.10154830355207579 0 0.36933037215504722 0.09474598502700303 0 0.37497358229320049 0.10154830355207579 0 0.36933037215504722 0.09474598502700303 0 0.37684180320149779 0.091545452851138936 0 0.37199198662207139 0.089080455090655153 0 0.36531655038580868 0.086673471762910501 0 0.37647922074593232 0.083356910721568186 0 0.3686285935653984 0.082562954753238868 0 0.36531655038580868 0.086673471762910501 0 0.38800965188138797 0.067359575457755852 0 0.36933037215504722 0.09474598502700303 0 0.37199198662207139 0.089080455090655153 0 0.36531655038580868 0.086673471762910501 0 0.36933037215504722 0.09474598502700303 0 0.37199198662207139 0.089080455090655153 0 0.37684180320149779 0.091545452851138936 0 0.3686285935653984 0.082562954753238868 0 0.36344916698627688 0.0813333739240375 0 0.3664313866567897 0.074083432266429411 0 0.3686285935653984 0.082562954753238868 0 0.36344916698627688 0.0813333739240375 0 0.36531655038580868 0.086673471762910501 0 0.3686285935653984 0.082562954753238868 0 0.36531655038580868 0.086673471762910501 0 0.36344916698627688 0.0813333739240375 0 0.36531655038580868 0.086673471762910501 0 0.35788297275373993 0.085501793090345432 0 0.36344916698627688 0.0813333739240375 0 0.35788297275373993 0.085501793090345432 0 0.35898633156964799 0.077845217747263273 0 0.36531655038580868 0.086673471762910501 0 0.35820472338473969 0.092726284300042705 0 0.36531655038580868 0.086673471762910501 0 0.35820472338473969 0.092726284300042705 0 0.35788297275373993 0.085501793090345432 0 0.35820472338473969 0.092726284300042705 0 0.35788297275373993 0.085501793090345432 0 0.34985084696874869 0.092894608368561934 0 0.35788297275373993 0.085501793090345432 0 0.34835959161986918 0.084673188682757514 0 0.34985084696874869 0.092894608368561934 0 0.35788297275373993 0.085501793090345432 0 0.35268958346742479 0.079299313954674461 0 0.34835959161986918 0.084673188682757514 0 0.35788297275373993 0.085501793090345432 0 0.35268958346742479 0.079299313954674461 0 0.35898633156964799 0.077845217747263273 0 0.35268958346742479 0.079299313954674461 0 0.34835959161986918 0.084673188682757514 0 0.34536281903177263 0.076699082704647883 0 0.33848474441423959 0.083155094931469234 0 0.34835959161986918 0.084673188682757514 0 0.34536281903177263 0.076699082704647883 0 0.34119351951095578 0.096226331280685987 0 0.34835959161986918 0.084673188682757514 0 0.34985084696874869 0.092894608368561934 0 0.34391902298020371 0.067932157386910996 0 0.35073266194139169 0.06137377874550997 0 0.33662296950832232 0.060164064639178637 0 0.34391902298020371 0.067932157386910996 0 0.35186736123373658 0.072447211387471941 0 0.35073266194139169 0.06137377874550997 0 0.34391902298020371 0.067932157386910996 0 0.34536281903177263 0.076699082704647883 0 0.35186736123373658 0.072447211387471941 0 0.35268958346742479 0.079299313954674461 0 0.34536281903177263 0.076699082704647883 0 0.35186736123373658 0.072447211387471941 0 0.35186736123373658 0.072447211387471941 0 0.35898633156964799 0.077845217747263273 0 0.35996923520747798 0.068093361081839721 0 0.35268958346742479 0.079299313954674461 0 0.35186736123373658 0.072447211387471941 0 0.35898633156964799 0.077845217747263273 0 0.35186736123373658 0.072447211387471941 0 0.35996923520747798 0.068093361081839721 0 0.35073266194139169 0.06137377874550997 0 0.35996923520747798 0.068093361081839721 0 0.36906116384796089 0.065350349372853944 0 0.36273650599534107 0.057460176971509833 0 0.35996923520747798 0.068093361081839721 0 0.3664313866567897 0.074083432266429411 0 0.36906116384796089 0.065350349372853944 0 0.35898633156964799 0.077845217747263273 0 0.35996923520747798 0.068093361081839721 0 0.3664313866567897 0.074083432266429411 0 0.36344916698627688 0.0813333739240375 0 0.35898633156964799 0.077845217747263273 0 0.3664313866567897 0.074083432266429411 0 0.3686285935653984 0.082562954753238868 0 0.3664313866567897 0.074083432266429411 0 0.37368610641380767 0.069298039188229563 0 0.36906116384796089 0.065350349372853944 0 0.37368610641380767 0.069298039188229563 0 0.37629973611750162 0.057133884090869731 0 0.3664313866567897 0.074083432266429411 0 0.36906116384796089 0.065350349372853944 0 0.37368610641380767 0.069298039188229563 0 0.36273650599534107 0.057460176971509833 0 0.37051694284251602 0.045934513972437287 0 0.35116023099583488 0.04635088329888936 0 0.36906116384796089 0.065350349372853944 0 0.36273650599534107 0.057460176971509833 0 0.37629973611750162 0.057133884090869731 0 0.36273650599534107 0.057460176971509833 0 0.37051694284251602 0.045934513972437287 0 0.37629973611750162 0.057133884090869731 0 0.37051694284251602 0.045934513972437287 0 0.36660895407805488 0.032420410302755692 0 0.35116023099583488 0.04635088329888936 0 0.36660895407805488 0.032420410302755692 0 0.35116023099583488 0.04635088329888936 0 0.3452421180709313 0.02876578474876142 0 0.35116023099583488 0.04635088329888936 0 0.35073266194139169 0.06137377874550997 0 0.33662296950832232 0.060164064639178637 0 0.36273650599534107 0.057460176971509833 0 0.35116023099583488 0.04635088329888936 0 0.35073266194139169 0.06137377874550997 0 0.35996923520747798 0.068093361081839721 0 0.36273650599534107 0.057460176971509833 0 0.35073266194139169 0.06137377874550997 0 0.36029791100668068 0.016572440619523982 0 0.38809510434950978 0.014186894499208531 0 0.36528524993471517 -0.00050110304122203656 0 0.36660895407805488 0.032420410302755692 0 0.36029791100668068 0.016572440619523982 0 0.38809510434950978 0.014186894499208531 0 0.36660895407805488 0.032420410302755692 0 0.36029791100668068 0.016572440619523982 0 0.3452421180709313 0.02876578474876142 0 0.36029791100668068 0.016572440619523982 0 0.3452421180709313 0.02876578474876142 0 0.34114019158844411 0.0080730073898155515 0 0.36029791100668068 0.016572440619523982 0 0.34114019158844411 0.0080730073898155515 0 0.36528524993471517 -0.00050110304122203656 0 0.34114019158844411 0.0080730073898155515 0 0.31263439184484548 0.0093702238746103741 0 0.33125961192901288 -0.010090923622196969 0 0.3452421180709313 0.02876578474876142 0 0.34114019158844411 0.0080730073898155515 0 0.32534433912657179 0.025186145237551728 0 0.32534433912657179 0.025186145237551728 0 0.31263439184484548 0.0093702238746103741 0 0.30072048126169421 0.032930185378121341 0 0.34114019158844411 0.0080730073898155515 0 0.32534433912657179 0.025186145237551728 0 0.31263439184484548 0.0093702238746103741 0 0.33662296950832232 0.060164064639178637 0 0.33346096345915788 0.043079032094737429 0 0.32351484960425658 0.055818178810672282 0 0.35116023099583488 0.04635088329888936 0 0.33662296950832232 0.060164064639178637 0 0.33346096345915788 0.043079032094737429 0 0.32682774302441669 0.069019416200788677 0 0.33662296950832232 0.060164064639178637 0 0.32351484960425658 0.055818178810672282 0 0.35116023099583488 0.04635088329888936 0 0.3452421180709313 0.02876578474876142 0 0.33346096345915788 0.043079032094737429 0 0.3452421180709313 0.02876578474876142 0 0.32534433912657179 0.025186145237551728 0 0.33346096345915788 0.043079032094737429 0 0.32534433912657179 0.025186145237551728 0 0.33346096345915788 0.043079032094737429 0 0.3188812734490305 0.042189135833371173 0 0.32534433912657179 0.025186145237551728 0 0.3188812734490305 0.042189135833371173 0 0.30072048126169421 0.032930185378121341 0 0.3188812734490305 0.042189135833371173 0 0.32351484960425658 0.055818178810672282 0 0.30909518155543192 0.051906742889003828 0 0.33346096345915788 0.043079032094737429 0 0.3188812734490305 0.042189135833371173 0 0.32351484960425658 0.055818178810672282 0 0.31508517942847492 0.064820201797660695 0 0.32351484960425658 0.055818178810672282 0 0.30909518155543192 0.051906742889003828 0 0.30316472603848582 0.06244260786721572 0 0.30909518155543192 0.051906742889003828 0 0.29320010016678028 0.053048580535769517 0 0.31508517942847492 0.064820201797660695 0 0.30316472603848582 0.06244260786721572 0 0.30909518155543192 0.051906742889003828 0 0.3188812734490305 0.042189135833371173 0 0.30909518155543192 0.051906742889003828 0 0.30072048126169421 0.032930185378121341 0 0.30909518155543192 0.051906742889003828 0 0.30072048126169421 0.032930185378121341 0 0.29320010016678028 0.053048580535769517 0 0.30072048126169421 0.032930185378121341 0 0.29320010016678028 0.053048580535769517 0 0.27960992045081501 0.03743350510670844 0 0.29320010016678028 0.053048580535769517 0 0.28102878200050152 0.051385871327039298 0 0.27960992045081501 0.03743350510670844 0 0.28139869080602908 0.062047317579015077 0 0.29320010016678028 0.053048580535769517 0 0.28102878200050152 0.051385871327039298 0 0.28139869080602908 0.062047317579015077 0 0.29320010016678028 0.053048580535769517 0 0.29256319313654983 0.067457304624868569 0 0.30316472603848582 0.06244260786721572 0 0.29320010016678028 0.053048580535769517 0 0.29256319313654983 0.067457304624868569 0 0.31263439184484548 0.0093702238746103741 0 0.29523021928075988 0.0065372478438925187 0 0.30634635689462569 -0.0054163935952359233 0 0.31263439184484548 0.0093702238746103741 0 0.30072048126169421 0.032930185378121341 0 0.29523021928075988 0.0065372478438925187 0 0.30072048126169421 0.032930185378121341 0 0.28263521761145799 0.01424596700316768 0 0.30072048126169421 0.032930185378121341 0 0.28263521761145799 0.01424596700316768 0 0.29523021928075988 0.0065372478438925187 0 0.30072048126169421 0.032930185378121341 0 0.28263521761145799 0.01424596700316768 0 0.27960992045081501 0.03743350510670844 0 0.28263521761145799 0.01424596700316768 0 0.29523021928075988 0.0065372478438925187 0 0.28095057553946728 -0.001276924975998437 0 0.28263521761145799 0.01424596700316768 0 0.26454995396122188 -0.0044382513717859551 0 0.28095057553946728 -0.001276924975998437 0 0.28263521761145799 0.01424596700316768 0 0.2600103086440948 0.0077887484030499934 0 0.26454995396122188 -0.0044382513717859551 0 0.28263521761145799 0.01424596700316768 0 0.27547351305310808 0.019631885321861772 0 0.2600103086440948 0.0077887484030499934 0 0.28263521761145799 0.01424596700316768 0 0.26454995396122188 -0.0044382513717859551 0 0.27547351305310808 0.019631885321861772 0 0.2600103086440948 0.0077887484030499934 0 0.27547351305310808 0.019631885321861772 0 0.27960992045081501 0.03743350510670844 0 0.26827388004368552 0.031478346191413077 0 0.28263521761145799 0.01424596700316768 0 0.27547351305310808 0.019631885321861772 0 0.27960992045081501 0.03743350510670844 0 0.27547351305310808 0.019631885321861772 0 0.26042701713659289 0.023261139205759441 0 0.26827388004368552 0.031478346191413077 0 0.26042701713659289 0.023261139205759441 0 0.26827388004368552 0.031478346191413077 0 0.25267133858014368 0.033426358080367632 0 0.24606589177604729 0.023412238736487911 0 0.26042701713659289 0.023261139205759441 0 0.25267133858014368 0.033426358080367632 0 0.25245314076482023 0.016273305507581552 0 0.26042701713659289 0.023261139205759441 0 0.2600103086440948 0.0077887484030499934 0 0.24606589177604729 0.023412238736487911 0 0.25245314076482023 0.016273305507581552 0 0.26042701713659289 0.023261139205759441 0 0.27547351305310808 0.019631885321861772 0 0.26042701713659289 0.023261139205759441 0 0.2600103086440948 0.0077887484030499934 0 0.24330934550254571 0.01063109568502886 0 0.25245314076482023 0.016273305507581552 0 0.2600103086440948 0.0077887484030499934 0 0.2600103086440948 0.0077887484030499934 0 0.24454710423508169 -0.0040543885157620588 0 0.26990641657838182 0.05301408208666418 0 0.25893346694594882 0.064011177639818242 0 0.26926780585961241 0.067694655635386125 0 0.28139869080602908 0.062047317579015077 0 0.26990641657838182 0.05301408208666418 0 0.26926780585961241 0.067694655635386125 0 0.28139869080602908 0.062047317579015077 0 0.26990641657838182 0.05301408208666418 0 0.28102878200050152 0.051385871327039298 0 0.26990641657838182 0.05301408208666418 0 0.28102878200050152 0.051385871327039298 0 0.27960992045081501 0.03743350510670844 0 0.26990641657838182 0.05301408208666418 0 0.27960992045081501 0.03743350510670844 0 0.2629408869215929 0.042344985364839487 0 0.27960992045081501 0.03743350510670844 0 0.26827388004368552 0.031478346191413077 0 0.2629408869215929 0.042344985364839487 0 0.26827388004368552 0.031478346191413077 0 0.2629408869215929 0.042344985364839487 0 0.25267133858014368 0.033426358080367632 0 0.24931080225938379 0.044873619513579023 0 0.2629408869215929 0.042344985364839487 0 0.25267133858014368 0.033426358080367632 0 0.24931080225938379 0.044873619513579023 0 0.2629408869215929 0.042344985364839487 0 0.25540203894483232 0.053078758300303452 0 0.26990641657838182 0.05301408208666418 0 0.2629408869215929 0.042344985364839487 0 0.25540203894483232 0.053078758300303452 0 0.26990641657838182 0.05301408208666418 0 0.25540203894483232 0.053078758300303452 0 0.25893346694594882 0.064011177639818242 0 0.2498958451883965 0.06385198700084381 0 0.25540203894483232 0.053078758300303452 0 0.25893346694594882 0.064011177639818242 0 0.25260649980770278 0.068686253075548681 0 0.25683740563484292 0.074759111913111076 0 0.25893346694594882 0.064011177639818242 0 0.2498958451883965 0.06385198700084381 0 0.25260649980770278 0.068686253075548681 0 0.25893346694594882 0.064011177639818242 0 0.24475928146162321 0.072122735748421596 0 0.25260649980770278 0.068686253075548681 0 0.25683740563484292 0.074759111913111076 0 0.25683740563484292 0.074759111913111076 0 0.26926780585961241 0.067694655635386125 0 0.26991739555729649 0.077215572672218624 0 0.25683740563484292 0.074759111913111076 0 0.25893346694594882 0.064011177639818242 0 0.26926780585961241 0.067694655635386125 0 0.24475928146162321 0.072122735748421596 0 0.25683740563484292 0.074759111913111076 0 0.25667270258804281 0.090788059223164463 0 0.25683740563484292 0.074759111913111076 0 0.25667270258804281 0.090788059223164463 0 0.26588882808572761 0.083319535008861703 0 0.25683740563484292 0.074759111913111076 0 0.26588882808572761 0.083319535008861703 0 0.26991739555729649 0.077215572672218624 0 0.25667270258804281 0.090788059223164463 0 0.27089753873940398 0.090137214046706604 0 0.26588882808572761 0.083319535008861703 0 0.25667270258804281 0.090788059223164463 0 0.27089753873940398 0.090137214046706604 0 0.27377241013019687 0.096695294095733866 0 0.27089753873940398 0.090137214046706604 0 0.26588882808572761 0.083319535008861703 0 0.27511909790905148 0.083697717189107748 0 0.26588882808572761 0.083319535008861703 0 0.27511909790905148 0.083697717189107748 0 0.26991739555729649 0.077215572672218624 0 0.27511909790905148 0.083697717189107748 0 0.2797873655771318 0.074949476474826429 0 0.28323133256771621 0.084665337655090059 0 0.27511909790905148 0.083697717189107748 0 0.26991739555729649 0.077215572672218624 0 0.2797873655771318 0.074949476474826429 0 0.27089753873940398 0.090137214046706604 0 0.27511909790905148 0.083697717189107748 0 0.27886969235272441 0.090924908242748917 0 0.27511909790905148 0.083697717189107748 0 0.27886969235272441 0.090924908242748917 0 0.28323133256771621 0.084665337655090059 0 0.27089753873940398 0.090137214046706604 0 0.27886969235272441 0.090924908242748917 0 0.27377241013019687 0.096695294095733866 0 0.26926780585961241 0.067694655635386125 0 0.26991739555729649 0.077215572672218624 0 0.2797873655771318 0.074949476474826429 0 0.28139869080602908 0.062047317579015077 0 0.26926780585961241 0.067694655635386125 0 0.2797873655771318 0.074949476474826429 0 0.28139869080602908 0.062047317579015077 0 0.2797873655771318 0.074949476474826429 0 0.29256319313654983 0.067457304624868569 0 0.2797873655771318 0.074949476474826429 0 0.29256319313654983 0.067457304624868569 0 0.29280487624479179 0.081332777947157764 0 0.2797873655771318 0.074949476474826429 0 0.28323133256771621 0.084665337655090059 0 0.29280487624479179 0.081332777947157764 0 0.28323133256771621 0.084665337655090059 0 0.28776728620730713 0.091688898810040581 0 0.29280487624479179 0.081332777947157764 0 0.27886969235272441 0.090924908242748917 0 0.28323133256771621 0.084665337655090059 0 0.28776728620730713 0.091688898810040581 0 0.27886969235272441 0.090924908242748917 0 0.28776728620730713 0.091688898810040581 0 0.28226611676058472 0.098046353770736186 0 0.28776728620730713 0.091688898810040581 0 0.2966496991855882 0.09151408767448814 0 0.29280487624479179 0.081332777947157764 0 0.29280487624479179 0.081332777947157764 0 0.3039160785015283 0.085170166807102765 0 0.30587997590519178 0.074980209488775984 0 0.2966496991855882 0.09151408767448814 0 0.29280487624479179 0.081332777947157764 0 0.3039160785015283 0.085170166807102765 0 0.2966496991855882 0.09151408767448814 0 0.3039160785015283 0.085170166807102765 0 0.30632450721106791 0.09720713675217231 0 0.31294491830095822 0.086072842240225267 0 0.3039160785015283 0.085170166807102765 0 0.30632450721106791 0.09720713675217231 0 0.31294491830095822 0.086072842240225267 0 0.3039160785015283 0.085170166807102765 0 0.30587997590519178 0.074980209488775984 0 0.31508517942847492 0.064820201797660695 0 0.30316472603848582 0.06244260786721572 0 0.30587997590519178 0.074980209488775984 0 0.30316472603848582 0.06244260786721572 0 0.29256319313654983 0.067457304624868569 0 0.30587997590519178 0.074980209488775984 0 0.29256319313654983 0.067457304624868569 0 0.29280487624479179 0.081332777947157764 0 0.30587997590519178 0.074980209488775984 0 0.31608678259692408 0.1110028163126368 0 0.30226897586842949 0.11165514509164209 0 0.30636543685551509 0.12686377281768879 0 0.30226897586842949 0.11165514509164209 0 0.29121842690624289 0.1199918861378227 0 0.30636543685551509 0.12686377281768879 0 0.31608678259692408 0.1110028163126368 0 0.30226897586842949 0.11165514509164209 0 0.30632450721106791 0.09720713675217231 0 0.2966496991855882 0.09151408767448814 0 0.30632450721106791 0.09720713675217231 0 0.29238750780743022 0.102165206236234 0 0.30226897586842949 0.11165514509164209 0 0.30632450721106791 0.09720713675217231 0 0.29238750780743022 0.102165206236234 0 0.29238750780743022 0.102165206236234 0 0.28371607822966122 0.1055314772531229 0 0.29121842690624289 0.1199918861378227 0 0.28776728620730713 0.091688898810040581 0 0.2966496991855882 0.09151408767448814 0 0.29238750780743022 0.102165206236234 0 0.28776728620730713 0.091688898810040581 0 0.29238750780743022 0.102165206236234 0 0.28226611676058472 0.098046353770736186 0 0.29238750780743022 0.102165206236234 0 0.28226611676058472 0.098046353770736186 0 0.28371607822966122 0.1055314772531229 0 0.28226611676058472 0.098046353770736186 0 0.28371607822966122 0.1055314772531229 0 0.27842504246689642 0.1014157744500216 0 0.30226897586842949 0.11165514509164209 0 0.29238750780743022 0.102165206236234 0 0.29121842690624289 0.1199918861378227 0 0.28371607822966122 0.1055314772531229 0 0.29121842690624289 0.1199918861378227 0 0.27394556474714288 0.1053899726804936 0 0.29121842690624289 0.1199918861378227 0 0.27394556474714288 0.1053899726804936 0 0.27048261809334728 0.1048230907475068 0 0.26380988298070351 0.116927196367008 0 0.27428769142036519 0.1340982985240107 0 0.27048261809334728 0.1048230907475068 0 0.27428769142036519 0.1340982985240107 0 0.27048261809334728 0.1048230907475068 0 0.27394556474714288 0.1053899726804936 0 0.27428769142036519 0.1340982985240107 0 0.29121842690624289 0.1199918861378227 0 0.27394556474714288 0.1053899726804936 0 0.27428769142036519 0.1340982985240107 0 0.25667270258804281 0.090788059223164463 0 0.27048261809334728 0.1048230907475068 0 0.27394556474714288 0.1053899726804936 0 0.25667270258804281 0.090788059223164463 0 0.27377241013019687 0.096695294095733866 0 0.27394556474714288 0.1053899726804936 0 0.27886969235272441 0.090924908242748917 0 0.28226611676058472 0.098046353770736186 0 0.27377241013019687 0.096695294095733866 0 0.28226611676058472 0.098046353770736186 0 0.27377241013019687 0.096695294095733866 0 0.27842504246689642 0.1014157744500216 0 0.27377241013019687 0.096695294095733866 0 0.27842504246689642 0.1014157744500216 0 0.27394556474714288 0.1053899726804936 0 0.28371607822966122 0.1055314772531229 0 0.27842504246689642 0.1014157744500216 0 0.27394556474714288 0.1053899726804936 0 0.25667270258804281 0.090788059223164463 0 0.27394556474714288 0.1053899726804936 0 0.25667270258804281 0.090788059223164463 0 0.27048261809334728 0.1048230907475068 0 0.25461590540953027 0.10606501710305551 0 0.27048261809334728 0.1048230907475068 0 0.25461590540953027 0.10606501710305551 0 0.26380988298070351 0.116927196367008 0 0.24272997527991999 0.091205400909066731 0 0.25667270258804281 0.090788059223164463 0 0.25461590540953027 0.10606501710305551 0 0.25461590540953027 0.10606501710305551 0 0.26380988298070351 0.116927196367008 0 0.25585331699957098 0.12272237909345909 0 0.24276875721605651 0.11459409499753551 0 0.25461590540953027 0.10606501710305551 0 0.25585331699957098 0.12272237909345909 0 0.26380988298070351 0.116927196367008 0 0.25585331699957098 0.12272237909345909 0 0.27428769142036519 0.1340982985240107 0 0.24033965028705309 0.12757397417549721 0 0.25585331699957098 0.12272237909345909 0 0.25429212729420919 0.1373678150349148 0 0.25585331699957098 0.12272237909345909 0 0.25429212729420919 0.1373678150349148 0 0.27428769142036519 0.1340982985240107 0 0.27428769142036519 0.1340982985240107 0 0.25543485903957819 0.1544462132424802 0 0.27809276474738309 0.16337350630051459 0 0.27428769142036519 0.1340982985240107 0 0.27809276474738309 0.16337350630051459 0 0.24408405510780229 0.1427207021204579 0 0.25429212729420919 0.1373678150349148 0 0.25543485903957819 0.1544462132424802 0 0.25429212729420919 0.1373678150349148 0 0.27428769142036519 0.1340982985240107 0 0.25543485903957819 0.1544462132424802 0 0.25543485903957819 0.1544462132424802 0 0.25572559596713329 0.17051997537177971 0 0.27809276474738309 0.16337350630051459 0 0.2446349919681006 0.16305112323470131 0 0.25543485903957819 0.1544462132424802 0 0.25572559596713329 0.17051997537177971 0 0.25572559596713329 0.17051997537177971 0 0.27809276474738309 0.16337350630051459 0 0.26231380384649222 0.18759160671752401 0 0.24894719752453329 0.18612638269812559 0 0.25572559596713329 0.17051997537177971 0 0.26231380384649222 0.18759160671752401 0 0.27809276474738309 0.16337350630051459 0 0.26231380384649222 0.18759160671752401 0 0.28189783807440111 0.19264871407701831 0 0.27809276474738309 0.16337350630051459 0 0.28189783807440111 0.19264871407701831 0 0.27809276474738309 0.16337350630051459 0 0.29994344191447703 0.18269133817603059 0 0.30231687763786452 0.163307755818417 0 0.27809276474738309 0.16337350630051459 0 0.30231687763786452 0.163307755818417 0 0.2938794932850527 0.14274375592569949 0 0.27809276474738309 0.16337350630051459 0 0.29994344191447703 0.18269133817603059 0 0.28189783807440111 0.19264871407701831 0 0.29994344191447703 0.18269133817603059 0 0.31683025157673023 0.19361267197804941 0 0.31611331061617581 0.175143027450849 0 0.29994344191447703 0.18269133817603059 0 0.30231687763786452 0.163307755818417 0 0.31611331061617581 0.175143027450849 0 0.30231687763786452 0.163307755818417 0 0.31390585053818609 0.15047836340956569 0 0.31915578157318941 0.1620529440382649 0 0.30231687763786452 0.163307755818417 0 0.2938794932850527 0.14274375592569949 0 0.31390585053818609 0.15047836340956569 0 0.29121842690624289 0.1199918861378227 0 0.30636543685551509 0.12686377281768879 0 0.2938794932850527 0.14274375592569949 0 0.30636543685551509 0.12686377281768879 0 0.2938794932850527 0.14274375592569949 0 0.31390585053818609 0.15047836340956569 0 0.29121842690624289 0.1199918861378227 0 0.27428769142036519 0.1340982985240107 0 0.2938794932850527 0.14274375592569949 0 0.27428769142036519 0.1340982985240107 0 0.27809276474738309 0.16337350630051459 0 0.2938794932850527 0.14274375592569949 0 0.28245996340297719 0.25304914615146101 0 0.26751790208001708 0.24888402836805171 0 0.26458074502139528 0.23130050403551469 0 0.28245996340297719 0.25304914615146101 0 0.26458074502139528 0.23130050403551469 0 0.28245996340297719 0.25304914615146101 0 0.26458074502139528 0.23130050403551469 0 0.28628037986651023 0.23273869652766591 0 0.26751790208001708 0.24888402836805171 0 0.25362407497537798 0.24198656716010189 0 0.26458074502139528 0.23130050403551469 0 0.24670152663981329 0.2095518619195684 0 0.26458074502139528 0.23130050403551469 0 0.23859066343446639 0.21961930472390831 0 0.25362407497537798 0.24198656716010189 0 0.26458074502139528 0.23130050403551469 0 0.26458074502139528 0.23130050403551469 0 0.27676906571698401 0.22210582289095929 0 0.28628037986651023 0.23273869652766591 0 0.26458074502139528 0.23130050403551469 0 0.27676906571698401 0.22210582289095929 0 0.26837033744455119 0.20825181950577951 0 0.26837033744455119 0.20825181950577951 0 0.28189783807440111 0.19264871407701831 0 0.29189290525347911 0.21556298540689831 0 0.27676906571698401 0.22210582289095929 0 0.26837033744455119 0.20825181950577951 0 0.29189290525347911 0.21556298540689831 0 0.24670152663981329 0.2095518619195684 0 0.26458074502139528 0.23130050403551469 0 0.26837033744455119 0.20825181950577951 0 0.24670152663981329 0.2095518619195684 0 0.26837033744455119 0.20825181950577951 0 0.25318772352235269 0.19758411353432501 0 0.26837033744455119 0.20825181950577951 0 0.25318772352235269 0.19758411353432501 0 0.26231380384649222 0.18759160671752401 0 0.24894719752453329 0.18612638269812559 0 0.25318772352235269 0.19758411353432501 0 0.26231380384649222 0.18759160671752401 0 0.26837033744455119 0.20825181950577951 0 0.26231380384649222 0.18759160671752401 0 0.28189783807440111 0.19264871407701831 0 0.28189783807440111 0.19264871407701831 0 0.3003848762377721 0.19904239824392181 0 0.29189290525347911 0.21556298540689831 0 0.29994344191447703 0.18269133817603059 0 0.28189783807440111 0.19264871407701831 0 0.3003848762377721 0.19904239824392181 0 0.3003848762377721 0.19904239824392181 0 0.31135994436977299 0.21069628158161249 0 0.31683025157673023 0.19361267197804941 0 0.29994344191447703 0.18269133817603059 0 0.3003848762377721 0.19904239824392181 0 0.31683025157673023 0.19361267197804941 0 0.31135994436977299 0.21069628158161249 0 0.29189290525347911 0.21556298540689831 0 0.30852392428572512 0.22354246128785349 0 0.3003848762377721 0.19904239824392181 0 0.31135994436977299 0.21069628158161249 0 0.29189290525347911 0.21556298540689831 0 0.29189290525347911 0.21556298540689831 0 0.28628037986651023 0.23273869652766591 0 0.29989037345074909 0.23274463385031169 0 0.27676906571698401 0.22210582289095929 0 0.29189290525347911 0.21556298540689831 0 0.28628037986651023 0.23273869652766591 0 0.29189290525347911 0.21556298540689831 0 0.29989037345074909 0.23274463385031169 0 0.30852392428572512 0.22354246128785349 0 0.29989037345074909 0.23274463385031169 0 0.30852392428572512 0.22354246128785349 0 0.31719882278570838 0.23891526540108851 0 0.29989037345074909 0.23274463385031169 0 0.30195988737631652 0.24563942300354619 0 0.31719882278570838 0.23891526540108851 0 0.28628037986651023 0.23273869652766591 0 0.29989037345074909 0.23274463385031169 0 0.30195988737631652 0.24563942300354619 0 0.28245996340297719 0.25304914615146101 0 0.28628037986651023 0.23273869652766591 0 0.30195988737631652 0.24563942300354619 0 0.33861126753099069 0.24975036164710371 0 0.33146184547798141 0.23255971870488401 0 0.34545949465649323 0.23128354637688131 0 0.33861126753099069 0.24975036164710371 0 0.31719882278570838 0.23891526540108851 0 0.33146184547798141 0.23255971870488401 0 0.32030447770639381 0.26207393844223242 0 0.30195988737631652 0.24563942300354619 0 0.31719882278570838 0.23891526540108851 0 0.31719882278570838 0.23891526540108851 0 0.32180788981997582 0.22217354582829071 0 0.33146184547798141 0.23255971870488401 0 0.30852392428572512 0.22354246128785349 0 0.31719882278570838 0.23891526540108851 0 0.32180788981997582 0.22217354582829071 0 0.31135994436977299 0.21069628158161249 0 0.30852392428572512 0.22354246128785349 0 0.32180788981997582 0.22217354582829071 0 0.32180788981997582 0.22217354582829071 0 0.33146184547798141 0.23255971870488401 0 0.33663015242655647 0.21974138276287719 0 0.33146184547798141 0.23255971870488401 0 0.33663015242655647 0.21974138276287719 0 0.34545949465649323 0.23128354637688131 0 0.33663015242655647 0.21974138276287719 0 0.33724265126033698 0.20711678845792111 0 0.34508184181261359 0.21479342956207489 0 0.33724265126033698 0.20711678845792111 0 0.34671954139267919 0.20031121345834399 0 0.34508184181261359 0.21479342956207489 0 0.33663015242655647 0.21974138276287719 0 0.33724265126033698 0.20711678845792111 0 0.3256726495741108 0.2075861652314287 0 0.32180788981997582 0.22217354582829071 0 0.33663015242655647 0.21974138276287719 0 0.3256726495741108 0.2075861652314287 0 0.31135994436977299 0.21069628158161249 0 0.3256726495741108 0.2075861652314287 0 0.31683025157673023 0.19361267197804941 0 0.31135994436977299 0.21069628158161249 0 0.32180788981997582 0.22217354582829071 0 0.3256726495741108 0.2075861652314287 0 0.31683025157673023 0.19361267197804941 0 0.33368194430919179 0.19290643219686379 0 0.32770663971386949 0.18152772759853469 0 0.3256726495741108 0.2075861652314287 0 0.31683025157673023 0.19361267197804941 0 0.33368194430919179 0.19290643219686379 0 0.33724265126033698 0.20711678845792111 0 0.3256726495741108 0.2075861652314287 0 0.33368194430919179 0.19290643219686379 0 0.33724265126033698 0.20711678845792111 0 0.33368194430919179 0.19290643219686379 0 0.34671954139267919 0.20031121345834399 0 0.33368194430919179 0.19290643219686379 0 0.34551353380974631 0.1883981607682633 0 0.34671954139267919 0.20031121345834399 0 0.34551353380974631 0.1883981607682633 0 0.34671954139267919 0.20031121345834399 0 0.35824731445427571 0.19110428659113041 0 0.34671954139267919 0.20031121345834399 0 0.35824731445427571 0.19110428659113041 0 0.35698828248314413 0.20344644674920431 0 0.35824731445427571 0.19110428659113041 0 0.37710264885385569 0.18195160658395659 0 0.37736777437545532 0.19580619808172939 0 0.35824731445427571 0.19110428659113041 0 0.36772040959694341 0.20375978200797679 0 0.37736777437545532 0.19580619808172939 0 0.35824731445427571 0.19110428659113041 0 0.36772040959694341 0.20375978200797679 0 0.35698828248314413 0.20344644674920431 0 0.35577543160983688 0.21411442332071259 0 0.380879142443036 0.21252042386305911 0 0.36772040959694341 0.20375978200797679 0 0.35577543160983688 0.21411442332071259 0 0.35698828248314413 0.20344644674920431 0 0.35577543160983688 0.21411442332071259 0 0.37227916757123858 0.22300749187684549 0 0.380879142443036 0.21252042386305911 0 0.36772040959694341 0.20375978200797679 0 0.35577543160983688 0.21411442332071259 0 0.380879142443036 0.21252042386305911 0 0.34671954139267919 0.20031121345834399 0 0.35577543160983688 0.21411442332071259 0 0.35698828248314413 0.20344644674920431 0 0.34671954139267919 0.20031121345834399 0 0.35577543160983688 0.21411442332071259 0 0.34671954139267919 0.20031121345834399 0 0.35577543160983688 0.21411442332071259 0 0.34508184181261359 0.21479342956207489 0 0.35577543160983688 0.21411442332071259 0 0.34508184181261359 0.21479342956207489 0 0.35093768363265682 0.2224708468078479 0 0.35577543160983688 0.21411442332071259 0 0.34508184181261359 0.21479342956207489 0 0.34545949465649323 0.23128354637688131 0 0.36091453217780389 0.22515926727759289 0 0.35062680961752463 0.24346715051183601 0 0.33663015242655647 0.21974138276287719 0 0.34508184181261359 0.21479342956207489 0 0.35093768363265682 0.2224708468078479 0 0.33663015242655647 0.21974138276287719 0 0.35093768363265682 0.2224708468078479 0 0.34545949465649323 0.23128354637688131 0 0.35093768363265682 0.2224708468078479 0 0.34545949465649323 0.23128354637688131 0 0.36091453217780389 0.22515926727759289 0 0.35577543160983688 0.21411442332071259 0 0.35093768363265682 0.2224708468078479 0 0.36091453217780389 0.22515926727759289 0 0.35577543160983688 0.21411442332071259 0 0.3709836007202828 0.23729508748735409 0 0.35577543160983688 0.21411442332071259 0 0.36091453217780389 0.22515926727759289 0 0.3709836007202828 0.23729508748735409 0 0.35577543160983688 0.21411442332071259 0 0.37227916757123858 0.22300749187684549 0 0.3709836007202828 0.23729508748735409 0 0.37227916757123858 0.22300749187684549 0 0.3709836007202828 0.23729508748735409 0 0.38109556909281761 0.22842225584997369 0 0.36230557592361717 0.250356157070934 0 0.36091453217780389 0.22515926727759289 0 0.3709836007202828 0.23729508748735409 0 0.36230557592361717 0.250356157070934 0 0.36091453217780389 0.22515926727759289 0 0.36230557592361717 0.250356157070934 0 0.36091453217780389 0.22515926727759289 0 0.35062680961752463 0.24346715051183601 0 0.33861126753099069 0.24975036164710371 0 0.34545949465649323 0.23128354637688131 0 0.35062680961752463 0.24346715051183601 0 0.33105460538042181 0.15367455141680961 0 0.34572341344717711 0.14959050594544329 0 0.34426569164434612 0.13799466983570349 0 0.33105460538042181 0.15367455141680961 0 0.33650562593217559 0.1406151001273809 0 0.34426569164434612 0.13799466983570349 0 0.33105460538042181 0.15367455141680961 0 0.34426569164434612 0.13799466983570349 0 0.33105460538042181 0.15367455141680961 0 0.34371433190408601 0.1600555114592698 0 0.34572341344717711 0.14959050594544329 0 0.33650562593217559 0.1406151001273809 0 0.33104275048739362 0.1292100661940139 0 0.34426569164434612 0.13799466983570349 0 0.33650562593217559 0.1406151001273809 0 0.34426569164434612 0.13799466983570349 0 0.34577693238427848 0.1237294979255172 0 0.33104275048739362 0.1292100661940139 0 0.34426569164434612 0.13799466983570349 0 0.33104275048739362 0.1292100661940139 0 0.31883649747246962 0.1267791566742949 0 0.31390585053818609 0.15047836340956569 0 0.33650562593217559 0.1406151001273809 0 0.33104275048739362 0.1292100661940139 0 0.31390585053818609 0.15047836340956569 0 0.33104275048739362 0.1292100661940139 0 0.31390585053818609 0.15047836340956569 0 0.30636543685551509 0.12686377281768879 0 0.31883649747246962 0.1267791566742949 0 0.31390585053818609 0.15047836340956569 0 0.33105460538042181 0.15367455141680961 0 0.33650562593217559 0.1406151001273809 0 0.31390585053818609 0.15047836340956569 0 0.33105460538042181 0.15367455141680961 0 0.31390585053818609 0.15047836340956569 0 0.31915578157318941 0.1620529440382649 0 0.30231687763786452 0.163307755818417 0 0.31915578157318941 0.1620529440382649 0 0.31611331061617581 0.175143027450849 0 0.31915578157318941 0.1620529440382649 0 0.31611331061617581 0.175143027450849 0 0.33238826369329832 0.16766102209568329 0 0.33105460538042181 0.15367455141680961 0 0.31915578157318941 0.1620529440382649 0 0.33238826369329832 0.16766102209568329 0 0.31611331061617581 0.175143027450849 0 0.32770663971386949 0.18152772759853469 0 0.33238826369329832 0.16766102209568329 0 0.31683025157673023 0.19361267197804941 0 0.31611331061617581 0.175143027450849 0 0.32770663971386949 0.18152772759853469 0 0.33368194430919179 0.19290643219686379 0 0.32770663971386949 0.18152772759853469 0 0.33951942837395183 0.1783154842712282 0 0.32770663971386949 0.18152772759853469 0 0.33951942837395183 0.1783154842712282 0 0.33238826369329832 0.16766102209568329 0 0.33951942837395183 0.1783154842712282 0 0.33238826369329832 0.16766102209568329 0 0.34596638474908348 0.16981411757007819 0 0.33368194430919179 0.19290643219686379 0 0.34551353380974631 0.1883981607682633 0 0.33951942837395183 0.1783154842712282 0 0.33105460538042181 0.15367455141680961 0 0.33238826369329832 0.16766102209568329 0 0.34371433190408601 0.1600555114592698 0 0.33238826369329832 0.16766102209568329 0 0.34371433190408601 0.1600555114592698 0 0.34596638474908348 0.16981411757007819 0 0.34371433190408601 0.1600555114592698 0 0.35326334663627812 0.16480768889146191 0 0.3534817694335462 0.15482633235905849 0 0.34371433190408601 0.1600555114592698 0 0.34596638474908348 0.16981411757007819 0 0.35326334663627812 0.16480768889146191 0 0.34596638474908348 0.16981411757007819 0 0.35326334663627812 0.16480768889146191 0 0.35687583822493169 0.17078833866341009 0 0.35326334663627812 0.16480768889146191 0 0.35877811616074262 0.1676701619984915 0 0.36021888800942742 0.1650125334578301 0 0.35326334663627812 0.16480768889146191 0 0.35687583822493169 0.17078833866341009 0 0.35877811616074262 0.1676701619984915 0 0.35326334663627812 0.16480768889146191 0 0.36021888800942742 0.1650125334578301 0 0.3534817694335462 0.15482633235905849 0 0.35824731445427571 0.19110428659113041 0 0.35687583822493169 0.17078833866341009 0 0.36266254664266501 0.16746419767323401 0 0.35824731445427571 0.19110428659113041 0 0.35687583822493169 0.17078833866341009 0 0.3493994405186327 0.17935338732375031 0 0.34551353380974631 0.1883981607682633 0 0.35824731445427571 0.19110428659113041 0 0.3493994405186327 0.17935338732375031 0 0.34551353380974631 0.1883981607682633 0 0.33951942837395183 0.1783154842712282 0 0.3493994405186327 0.17935338732375031 0 0.33951942837395183 0.1783154842712282 0 0.34596638474908348 0.16981411757007819 0 0.3493994405186327 0.17935338732375031 0 0.34596638474908348 0.16981411757007819 0 0.35687583822493169 0.17078833866341009 0 0.3493994405186327 0.17935338732375031 0 0.35824731445427571 0.19110428659113041 0 0.36266254664266501 0.16746419767323401 0 0.37710264885385569 0.18195160658395659 0 0.35824731445427571 0.19110428659113041 0 0.36266254664266501 0.16746419767323401 0 0.36266254664266501 0.16746419767323401 0 0.37710264885385569 0.18195160658395659 0 0.36266254664266501 0.16746419767323401 0 0.37516658400280412 0.16842953842616229 0 0.37710264885385569 0.18195160658395659 0 0.36266254664266501 0.16746419767323401 0 0.36621896922562552 0.14842235740219301 0 0.36266254664266501 0.16746419767323401 0 0.37218955561025707 0.1594579937669085 0 0.36621896922562552 0.14842235740219301 0 0.36021888800942742 0.1650125334578301 0 0.36266254664266501 0.16746419767323401 0 0.36621896922562552 0.14842235740219301 0 0.35877811616074262 0.1676701619984915 0 0.36021888800942742 0.1650125334578301 0 0.36266254664266501 0.16746419767323401 0 0.36021888800942742 0.1650125334578301 0 0.36266254664266501 0.16746419767323401 0 0.35687583822493169 0.17078833866341009 0 0.35877811616074262 0.1676701619984915 0 0.36266254664266501 0.16746419767323401 0 0.36266254664266501 0.16746419767323401 0 0.37218955561025707 0.1594579937669085 0 0.37516658400280412 0.16842953842616229 0 0.37218955561025707 0.1594579937669085 0 0.36621896922562552 0.14842235740219301 0 0.37590656515625159 0.1525836312199606 0 0.36021888800942742 0.1650125334578301 0 0.36621896922562552 0.14842235740219301 0 0.3534817694335462 0.15482633235905849 0 0.3534817694335462 0.15482633235905849 0 0.35589304711185649 0.1440428765347101 0 0.34572341344717711 0.14959050594544329 0 0.36621896922562552 0.14842235740219301 0 0.3534817694335462 0.15482633235905849 0 0.35589304711185649 0.1440428765347101 0 0.35589304711185649 0.1440428765347101 0 0.34572341344717711 0.14959050594544329 0 0.34426569164434612 0.13799466983570349 0 0.34371433190408601 0.1600555114592698 0 0.3534817694335462 0.15482633235905849 0 0.34572341344717711 0.14959050594544329 0 0.34577693238427848 0.1237294979255172 0 0.35961963696877319 0.1197714866938895 0 0.34426569164434612 0.13799466983570349 0 0.35961963696877319 0.1197714866938895 0 0.34426569164434612 0.13799466983570349 0 0.35589304711185649 0.1440428765347101 0 0.34426569164434612 0.13799466983570349 0 0.36977539180858737 0.12938051713115239 0 0.34426569164434612 0.13799466983570349 0 0.36977539180858737 0.12938051713115239 0 0.35961963696877319 0.1197714866938895 0 0.34426569164434612 0.13799466983570349 0 0.36977539180858737 0.12938051713115239 0 0.36621896922562552 0.14842235740219301 0 0.35589304711185649 0.1440428765347101 0 0.36977539180858737 0.12938051713115239 0 0.36621896922562552 0.14842235740219301 0 0.36977539180858737 0.12938051713115239 0 0.36621896922562552 0.14842235740219301 0 0.36977539180858737 0.12938051713115239 0 0.38408249808457839 0.1438677586787106 0 0.36977539180858737 0.12938051713115239 0 0.38408249808457839 0.1438677586787106 0 0.39399621849110639 0.1212015931010629 0 0.36977539180858737 0.12938051713115239 0 0.39399621849110639 0.1212015931010629 0 0.40262835380947959 0.1400517654867543 0 0.38408249808457839 0.1438677586787106 0 0.39399621849110639 0.1212015931010629 0 0.40262835380947959 0.1400517654867543 0 0.42005462278282413 0.1284513351679232 0 0.39399621849110639 0.1212015931010629 0 0.40262835380947959 0.1400517654867543 0 0.39758892080297259 0.15707889797138999 0 0.41741950888591628 0.1496592425146849 0 0.40262835380947959 0.1400517654867543 0 0.38408249808457839 0.1438677586787106 0 0.39758892080297259 0.15707889797138999 0 0.36621896922562552 0.14842235740219301 0 0.38408249808457839 0.1438677586787106 0 0.37590656515625159 0.1525836312199606 0 0.38408249808457839 0.1438677586787106 0 0.38094306912231768 0.16102539519783859 0 0.39758892080297259 0.15707889797138999 0 0.38408249808457839 0.1438677586787106 0 0.37590656515625159 0.1525836312199606 0 0.38094306912231768 0.16102539519783859 0 0.37218955561025707 0.1594579937669085 0 0.37590656515625159 0.1525836312199606 0 0.38094306912231768 0.16102539519783859 0 0.37218955561025707 0.1594579937669085 0 0.38094306912231768 0.16102539519783859 0 0.37516658400280412 0.16842953842616229 0 0.38094306912231768 0.16102539519783859 0 0.38453266138099051 0.17089934015349209 0 0.39758892080297259 0.15707889797138999 0 0.38094306912231768 0.16102539519783859 0 0.37516658400280412 0.16842953842616229 0 0.38453266138099051 0.17089934015349209 0 0.37710264885385569 0.18195160658395659 0 0.39636578081788848 0.1750803629615818 0 0.39154275106504588 0.1964390154946799 0 0.38453266138099051 0.17089934015349209 0 0.37710264885385569 0.18195160658395659 0 0.39636578081788848 0.1750803629615818 0 0.37516658400280412 0.16842953842616229 0 0.38453266138099051 0.17089934015349209 0 0.37710264885385569 0.18195160658395659 0 0.39636578081788848 0.1750803629615818 0 0.41405428663192739 0.1799859333857135 0 0.39154275106504588 0.1964390154946799 0 0.39636578081788848 0.1750803629615818 0 0.39758892080297259 0.15707889797138999 0 0.4133734161725387 0.16412738418025849 0 0.38453266138099051 0.17089934015349209 0 0.39636578081788848 0.1750803629615818 0 0.39758892080297259 0.15707889797138999 0 0.4133734161725387 0.16412738418025849 0 0.43458146272079701 0.164405790237516 0 0.41741950888591628 0.1496592425146849 0 0.39758892080297259 0.15707889797138999 0 0.4133734161725387 0.16412738418025849 0 0.41741950888591628 0.1496592425146849 0 0.4133734161725387 0.16412738418025849 0 0.41405428663192739 0.1799859333857135 0 0.43458146272079701 0.164405790237516 0 0.39636578081788848 0.1750803629615818 0 0.4133734161725387 0.16412738418025849 0 0.41405428663192739 0.1799859333857135 0 0.41405428663192739 0.1799859333857135 0 0.43458146272079701 0.164405790237516 0 0.44179583938944123 0.18279295940366361 0 0.41405428663192739 0.1799859333857135 0 0.41865141384508697 0.19663205850688731 0 0.44179583938944123 0.18279295940366361 0 0.43458146272079701 0.164405790237516 0 0.41741950888591628 0.1496592425146849 0 0.44004096708711732 0.14308074597372439 0 0.42005462278282413 0.1284513351679232 0 0.41741950888591628 0.1496592425146849 0 0.44004096708711732 0.14308074597372439 0 0.42005462278282413 0.1284513351679232 0 0.44004096708711732 0.14308074597372439 0 0.42005462278282413 0.1284513351679232 0 0.44004096708711732 0.14308074597372439 0 0.43023583737169768 0.1199684096028463 0 0.40262835380947959 0.1400517654867543 0 0.42005462278282413 0.1284513351679232 0 0.41741950888591628 0.1496592425146849 0 0.39518507069482911 0.22891315441814669 0 0.41045727945377247 0.23224532373583689 0 0.40681097746815043 0.24944788258450881 0 0.38805339756136181 0.24091082639879571 0 0.39518507069482911 0.22891315441814669 0 0.40681097746815043 0.24944788258450881 0 0.3709836007202828 0.23729508748735409 0 0.38805339756136181 0.24091082639879571 0 0.38109556909281761 0.22842225584997369 0 0.38619176983072928 0.26047575165399511 0 0.3709836007202828 0.23729508748735409 0 0.38619176983072928 0.26047575165399511 0 0.3709836007202828 0.23729508748735409 0 0.38805339756136181 0.24091082639879571 0 0.38805339756136181 0.24091082639879571 0 0.38109556909281761 0.22842225584997369 0 0.39518507069482911 0.22891315441814669 0 0.38109556909281761 0.22842225584997369 0 0.39518507069482911 0.22891315441814669 0 0.380879142443036 0.21252042386305911 0 0.37227916757123858 0.22300749187684549 0 0.38109556909281761 0.22842225584997369 0 0.380879142443036 0.21252042386305911 0 0.39518507069482911 0.22891315441814669 0 0.4059828532762349 0.21092642440540429 0 0.41045727945377247 0.23224532373583689 0 0.39518507069482911 0.22891315441814669 0 0.4059828532762349 0.21092642440540429 0 0.380879142443036 0.21252042386305911 0 0.4059828532762349 0.21092642440540429 0 0.380879142443036 0.21252042386305911 0 0.39154275106504588 0.1964390154946799 0 0.4059828532762349 0.21092642440540429 0 0.380879142443036 0.21252042386305911 0 0.4059828532762349 0.21092642440540429 0 0.39154275106504588 0.1964390154946799 0 0.36772040959694341 0.20375978200797679 0 0.380879142443036 0.21252042386305911 0 0.37736777437545532 0.19580619808172939 0 0.380879142443036 0.21252042386305911 0 0.37736777437545532 0.19580619808172939 0 0.39154275106504588 0.1964390154946799 0 0.37710264885385569 0.18195160658395659 0 0.37736777437545532 0.19580619808172939 0 0.39154275106504588 0.1964390154946799 0 0.37710264885385569 0.18195160658395659 0 0.39154275106504588 0.1964390154946799 0 0.4059828532762349 0.21092642440540429 0 0.39154275106504588 0.1964390154946799 0 0.41865141384508697 0.19663205850688731 0 0.41405428663192739 0.1799859333857135 0 0.39154275106504588 0.1964390154946799 0 0.41865141384508697 0.19663205850688731 0 0.41865141384508697 0.19663205850688731 0 0.43564675486478838 0.1989987418994322 0 0.44179583938944123 0.18279295940366361 0 0.41865141384508697 0.19663205850688731 0 0.43564675486478838 0.1989987418994322 0 0.42839414577896018 0.20950338426875159 0 0.4059828532762349 0.21092642440540429 0 0.42839414577896018 0.20950338426875159 0 0.4059828532762349 0.21092642440540429 0 0.42839414577896018 0.20950338426875159 0 0.42613138493428321 0.23114096394339739 0 0.4059828532762349 0.21092642440540429 0 0.41865141384508697 0.19663205850688731 0 0.42839414577896018 0.20950338426875159 0 0.4059828532762349 0.21092642440540429 0 0.41045727945377247 0.23224532373583689 0 0.42613138493428321 0.23114096394339739 0 0.4059828532762349 0.21092642440540429 0 0.42613138493428321 0.23114096394339739 0 0.42839414577896018 0.20950338426875159 0 0.42613138493428321 0.23114096394339739 0 0.44107831352899007 0.22240315743779901 0 0.42613138493428321 0.23114096394339739 0 0.44141484686645971 0.2363826917816115 0 0.44107831352899007 0.22240315743779901 0 0.44144799578287552 0.25063407380050812 0 0.42551448812707099 0.2427765896032141 0 0.44141484686645971 0.2363826917816115 0 0.42613138493428321 0.23114096394339739 0 0.42551448812707099 0.2427765896032141 0 0.44141484686645971 0.2363826917816115 0 0.41045727945377247 0.23224532373583689 0 0.42551448812707099 0.2427765896032141 0 0.40681097746815043 0.24944788258450881 0 0.41045727945377247 0.23224532373583689 0 0.42613138493428321 0.23114096394339739 0 0.42551448812707099 0.2427765896032141 0 0.42682444425688543 0.2568086017734223 0 0.42551448812707099 0.2427765896032141 0 0.40681097746815043 0.24944788258450881 0 0.46453561629844292 0.24661705348532301 0 0.45233578662085638 0.24345101764042529 0 0.45767052729006419 0.22734869880870889 0 0.46453561629844292 0.24661705348532301 0 0.46744138198431612 0.23472461049082541 0 0.45767052729006419 0.22734869880870889 0 0.46453561629844292 0.24661705348532301 0 0.45767052729006419 0.22734869880870889 0 0.46453561629844292 0.24661705348532301 0 0.46744138198431612 0.23472461049082541 0 0.47400380033395922 0.24505942253569801 0 0.45318009078529609 0.25750025464848258 0 0.46453561629844292 0.24661705348532301 0 0.45233578662085638 0.24345101764042529 0 0.45233578662085638 0.24345101764042529 0 0.44141484686645971 0.2363826917816115 0 0.45767052729006419 0.22734869880870889 0 0.44144799578287552 0.25063407380050812 0 0.45233578662085638 0.24345101764042529 0 0.44141484686645971 0.2363826917816115 0 0.44107831352899007 0.22240315743779901 0 0.45767052729006419 0.22734869880870889 0 0.45080543828168518 0.208080344132095 0 0.44141484686645971 0.2363826917816115 0 0.44107831352899007 0.22240315743779901 0 0.45767052729006419 0.22734869880870889 0 0.45767052729006419 0.22734869880870889 0 0.45948663533737172 0.21724718246994451 0 0.47660689536109763 0.22423343690945899 0 0.46744138198431612 0.23472461049082541 0 0.45767052729006419 0.22734869880870889 0 0.47660689536109763 0.22423343690945899 0 0.45767052729006419 0.22734869880870889 0 0.45948663533737172 0.21724718246994451 0 0.45080543828168518 0.208080344132095 0 0.45767052729006419 0.22734869880870889 0 0.45080543828168518 0.208080344132095 0 0.46733143084421991 0.21056630783729521 0 0.45948663533737172 0.21724718246994451 0 0.47660689536109763 0.22423343690945899 0 0.46733143084421991 0.21056630783729521 0 0.45552062363709628 0.2077809460491119 0 0.46643421116001149 0.19933698748422499 0 0.45552062363709628 0.2077809460491119 0 0.45080543828168518 0.208080344132095 0 0.4542965334241944 0.19533530954417791 0 0.45552062363709628 0.2077809460491119 0 0.45080543828168518 0.208080344132095 0 0.45552062363709628 0.2077809460491119 0 0.45948663533737172 0.21724718246994451 0 0.45080543828168518 0.208080344132095 0 0.46733143084421991 0.21056630783729521 0 0.45552062363709628 0.2077809460491119 0 0.45948663533737172 0.21724718246994451 0 0.43564675486478838 0.1989987418994322 0 0.42839414577896018 0.20950338426875159 0 0.45080543828168518 0.208080344132095 0 0.42839414577896018 0.20950338426875159 0 0.44107831352899007 0.22240315743779901 0 0.45080543828168518 0.208080344132095 0 0.42839414577896018 0.20950338426875159 0 0.45080543828168518 0.208080344132095 0 0.43564675486478838 0.1989987418994322 0 0.45080543828168518 0.208080344132095 0 0.44179583938944123 0.18279295940366361 0 0.45080543828168518 0.208080344132095 0 0.4542965334241944 0.19533530954417791 0 0.44179583938944123 0.18279295940366361 0 0.45080543828168518 0.208080344132095 0 0.44179583938944123 0.18279295940366361 0 0.45552062363709628 0.2077809460491119 0 0.4542965334241944 0.19533530954417791 0 0.46643421116001149 0.19933698748422499 0 0.4542965334241944 0.19533530954417791 0 0.46643421116001149 0.19933698748422499 0 0.46615628348580662 0.18630483239621581 0 0.46643421116001149 0.19933698748422499 0 0.47955332675774759 0.18787199624996051 0 0.46615628348580662 0.18630483239621581 0 0.46643421116001149 0.19933698748422499 0 0.47955332675774759 0.18787199624996051 0 0.47920999038823597 0.20340745128321991 0 0.5 0.21495747021886261 0 0.47920999038823597 0.20340745128321991 0 0.49999999999999772 0.18696897839112661 0 0.47955332675774759 0.18787199624996051 0 0.47920999038823597 0.20340745128321991 0 0.49999999999999772 0.18696897839112661 0 0.5 0.21495747021886261 0 0.47920999038823597 0.20340745128321991 0 0.47660689536109763 0.22423343690945899 0 0.47920999038823597 0.20340745128321991 0 0.47660689536109763 0.22423343690945899 0 0.46733143084421991 0.21056630783729521 0 0.47920999038823597 0.20340745128321991 0 0.47660689536109763 0.22423343690945899 0 0.46733143084421991 0.21056630783729521 0 0.46643421116001149 0.19933698748422499 0 0.47920999038823597 0.20340745128321991 0 0.5 0.21495747021886261 0 0.5 0.2429459620465986 0 0.4863535157909134 0.236027369455687 0 0.5 0.21495747021886261 0 0.47660689536109763 0.22423343690945899 0 0.4863535157909134 0.236027369455687 0 0.48722746125550248 0.25680108687804298 0 0.5 0.2429459620465986 0 0.4863535157909134 0.236027369455687 0 0.46744138198431612 0.23472461049082541 0 0.47660689536109763 0.22423343690945899 0 0.47400380033395922 0.24505942253569801 0 0.47660689536109763 0.22423343690945899 0 0.47400380033395922 0.24505942253569801 0 0.47660689536109763 0.22423343690945899 0 0.4863535157909134 0.236027369455687 0 0.47400380033395922 0.24505942253569801 0 0.48722746125550248 0.25680108687804298 0 0.4863535157909134 0.236027369455687 0 0.47400380033395922 0.24505942253569801 0 0.45716933912721103 0.13370858556600251 0 0.46002731139141051 0.15771015677952541 0 0.47931511875825011 0.1451181435214558 0 0.45716933912721103 0.13370858556600251 0 0.47221165969688461 0.126594440717054 0 0.46016341372968672 0.1163658273432065 0 0.44004096708711732 0.14308074597372439 0 0.44522783739417299 0.1149429434068895 0 0.43023583737169768 0.1199684096028463 0 0.45716933912721103 0.13370858556600251 0 0.44004096708711732 0.14308074597372439 0 0.44522783739417299 0.1149429434068895 0 0.44004096708711732 0.14308074597372439 0 0.46002731139141051 0.15771015677952541 0 0.45716933912721103 0.13370858556600251 0 0.44004096708711732 0.14308074597372439 0 0.46002731139141051 0.15771015677952541 0 0.43458146272079701 0.164405790237516 0 0.44004096708711732 0.14308074597372439 0 0.46002731139141051 0.15771015677952541 0 0.43458146272079701 0.164405790237516 0 0.45564545159023978 0.17457642960216599 0 0.46002731139141051 0.15771015677952541 0 0.4542965334241944 0.19533530954417791 0 0.44179583938944123 0.18279295940366361 0 0.45564545159023978 0.17457642960216599 0 0.43458146272079701 0.164405790237516 0 0.44179583938944123 0.18279295940366361 0 0.45564545159023978 0.17457642960216599 0 0.45564545159023978 0.17457642960216599 0 0.46615628348580662 0.18630483239621581 0 0.4800136556957037 0.17233956758532659 0 0.4542965334241944 0.19533530954417791 0 0.45564545159023978 0.17457642960216599 0 0.46615628348580662 0.18630483239621581 0 0.45564545159023978 0.17457642960216599 0 0.46002731139141051 0.15771015677952541 0 0.4800136556957037 0.17233956758532659 0 0.46002731139141051 0.15771015677952541 0 0.4800136556957037 0.17233956758532659 0 0.46002731139141051 0.15771015677952541 0 0.4800136556957037 0.17233956758532659 0 0.47931511875825011 0.1451181435214558 0 0.47955332675774759 0.18787199624996051 0 0.46615628348580662 0.18630483239621581 0 0.4800136556957037 0.17233956758532659 0 0.47955332675774759 0.18787199624996051 0 0.4800136556957037 0.17233956758532659 0 0.49999999999999772 0.18696897839112661 0 0.4800136556957037 0.17233956758532659 0 0.49999999999999772 0.18696897839112661 0 0.4800136556957037 0.17233956758532659 0 0.49999999999999772 0.18696897839112661 0 0.5 0.16239412046184379 0 0.4800136556957037 0.17233956758532659 0 0.5 0.16239412046184379 0 0.47931511875825011 0.1451181435214558 0 0.5 0.16239412046184379 0 0.47931511875825011 0.1451181435214558 0 0.5 0.1378192625325608 0 0.45716933912721103 0.13370858556600251 0 0.47931511875825011 0.1451181435214558 0 0.47221165969688461 0.126594440717054 0 0.47931511875825011 0.1451181435214558 0 0.47221165969688461 0.126594440717054 0 0.48769762428109181 0.12567083168264331 0 0.47931511875825011 0.1451181435214558 0 0.48769762428109181 0.12567083168264331 0 0.5 0.1378192625325608 0 0.48769762428109181 0.12567083168264331 0 0.5 0.1378192625325608 0 0.5 0.113244404603278 0 0.48769762428109181 0.12567083168264331 0 0.5 0.113244404603278 0 0.47969202172286129 0.10755279225286429 0 0.5 0.113244404603278 0 0.47969202172286129 0.10755279225286429 0 0.5 0.08866954667399507 0 0.47969202172286129 0.10755279225286429 0 0.4785733246148749 0.083062926926930625 0 0.45994878521928068 0.099413419383832857 0 0.47221165969688461 0.126594440717054 0 0.48769762428109181 0.12567083168264331 0 0.47969202172286129 0.10755279225286429 0 0.47221165969688461 0.126594440717054 0 0.47969202172286129 0.10755279225286429 0 0.46016341372968672 0.1163658273432065 0 0.49999999999999922 0.064094688744712261 0 0.4785733246148749 0.083062926926930625 0 0.47843642230431782 0.060569764201273593 0 0.47969202172286129 0.10755279225286429 0 0.5 0.08866954667399507 0 0.4785733246148749 0.083062926926930625 0 0.49999999999999922 0.064094688744712261 0 0.5 0.08866954667399507 0 0.4785733246148749 0.083062926926930625 0 0.4785733246148749 0.083062926926930625 0 0.45716194001537619 0.077603774503307521 0 0.47843642230431782 0.060569764201273593 0 0.45716194001537619 0.077603774503307521 0 0.45687284460863642 0.057044839657834773 0 0.47843642230431782 0.060569764201273593 0 0.45716194001537619 0.077603774503307521 0 0.45994878521928068 0.099413419383832857 0 0.4447284279767767 0.094956887415673166 0 0.4785733246148749 0.083062926926930625 0 0.45716194001537619 0.077603774503307521 0 0.45994878521928068 0.099413419383832857 0 0.45716194001537619 0.077603774503307521 0 0.4377967514900582 0.081529970841515378 0 0.4447284279767767 0.094956887415673166 0 0.45716194001537619 0.077603774503307521 0 0.44346528053295098 0.067375836776747203 0 0.45687284460863642 0.057044839657834773 0 0.45716194001537619 0.077603774503307521 0 0.4377967514900582 0.081529970841515378 0 0.44346528053295098 0.067375836776747203 0 0.45716933912721103 0.13370858556600251 0 0.46016341372968672 0.1163658273432065 0 0.44522783739417299 0.1149429434068895 0 0.46016341372968672 0.1163658273432065 0 0.45994878521928068 0.099413419383832857 0 0.44522783739417299 0.1149429434068895 0 0.47969202172286129 0.10755279225286429 0 0.46016341372968672 0.1163658273432065 0 0.45994878521928068 0.099413419383832857 0 0.45994878521928068 0.099413419383832857 0 0.4447284279767767 0.094956887415673166 0 0.44522783739417299 0.1149429434068895 0 0.4447284279767767 0.094956887415673166 0 0.44522783739417299 0.1149429434068895 0 0.42763871442074808 0.10034435439472079 0 0.44522783739417299 0.1149429434068895 0 0.43023583737169768 0.1199684096028463 0 0.42763871442074808 0.10034435439472079 0 0.43023583737169768 0.1199684096028463 0 0.4182170451736254 0.11302266907097359 0 0.42763871442074808 0.10034435439472079 0 0.42005462278282413 0.1284513351679232 0 0.43023583737169768 0.1199684096028463 0 0.4182170451736254 0.11302266907097359 0 0.42005462278282413 0.1284513351679232 0 0.4182170451736254 0.11302266907097359 0 0.39399621849110639 0.1212015931010629 0 0.4182170451736254 0.11302266907097359 0 0.40766102265843601 0.10376479596222531 0 0.39399621849110639 0.1212015931010629 0 0.4182170451736254 0.11302266907097359 0 0.40766102265843601 0.10376479596222531 0 0.42763871442074808 0.10034435439472079 0 0.40766102265843601 0.10376479596222531 0 0.42763871442074808 0.10034435439472079 0 0.41212267280118409 0.089566440000335756 0 0.40766102265843601 0.10376479596222531 0 0.41212267280118409 0.089566440000335756 0 0.39938615103699437 0.093818713285511349 0 0.4377967514900582 0.081529970841515378 0 0.42763871442074808 0.10034435439472079 0 0.42403865869792601 0.086093439238671798 0 0.4377967514900582 0.081529970841515378 0 0.4447284279767767 0.094956887415673166 0 0.42763871442074808 0.10034435439472079 0 0.4377967514900582 0.081529970841515378 0 0.42403865869792601 0.086093439238671798 0 0.42641479738374982 0.071194279203422042 0 0.4377967514900582 0.081529970841515378 0 0.44346528053295098 0.067375836776747203 0 0.42641479738374982 0.071194279203422042 0 0.44346528053295098 0.067375836776747203 0 0.42641479738374982 0.071194279203422042 0 0.43530926691295491 0.053519915114395938 0 0.42641479738374982 0.071194279203422042 0 0.41408751184818288 0.076274642995838526 0 0.41668109015078048 0.060321018968651587 0 0.41408751184818288 0.076274642995838526 0 0.40288127288982228 0.068425419103723073 0 0.41668109015078048 0.060321018968651587 0 0.42403865869792601 0.086093439238671798 0 0.42641479738374982 0.071194279203422042 0 0.41408751184818288 0.076274642995838526 0 0.41408751184818288 0.076274642995838526 0 0.40238657916563447 0.082047261460226881 0 0.40288127288982228 0.068425419103723073 0 0.42763871442074808 0.10034435439472079 0 0.42403865869792601 0.086093439238671798 0 0.41212267280118409 0.089566440000335756 0 0.42403865869792601 0.086093439238671798 0 0.41408751184818288 0.076274642995838526 0 0.41212267280118409 0.089566440000335756 0 0.41408751184818288 0.076274642995838526 0 0.41212267280118409 0.089566440000335756 0 0.40238657916563447 0.082047261460226881 0 0.41212267280118409 0.089566440000335756 0 0.40238657916563447 0.082047261460226881 0 0.39938615103699437 0.093818713285511349 0 0.40238657916563447 0.082047261460226881 0 0.40288127288982228 0.068425419103723073 0 0.38892742759151128 0.084986861327899371 0 0.40238657916563447 0.082047261460226881 0 0.38892742759151128 0.084986861327899371 0 0.39938615103699437 0.093818713285511349 0 0.38892742759151128 0.084986861327899371 0 0.38826326685636209 0.098652864225125911 0 0.39938615103699437 0.093818713285511349 0 0.40288127288982228 0.068425419103723073 0 0.38800965188138797 0.067359575457755852 0 0.40432212744439028 0.05347617298120954 0 0.40288127288982228 0.068425419103723073 0 0.38892742759151128 0.084986861327899371 0 0.38798879278853271 0.080339117347540331 0 0.40288127288982228 0.068425419103723073 0 0.38892742759151128 0.084986861327899371 0 0.40288127288982228 0.068425419103723073 0 0.38800965188138797 0.067359575457755852 0 0.38798879278853271 0.080339117347540331 0 0.3686285935653984 0.082562954753238868 0 0.37368610641380767 0.069298039188229563 0 0.38800965188138797 0.067359575457755852 0 0.36531655038580868 0.086673471762910501 0 0.38800965188138797 0.067359575457755852 0 0.38800965188138797 0.067359575457755852 0 0.37647922074593232 0.083356910721568186 0 0.38213324459839199 0.081483758981058085 0 0.38800965188138797 0.067359575457755852 0 0.38798879278853271 0.080339117347540331 0 0.38800965188138797 0.067359575457755852 0 0.38798879278853271 0.080339117347540331 0 0.38213324459839199 0.081483758981058085 0 0.37368610641380767 0.069298039188229563 0 0.38800965188138797 0.067359575457755852 0 0.37629973611750162 0.057133884090869731 0 0.37497358229320049 0.10154830355207579 0 0.38892742759151128 0.084986861327899371 0 0.37497358229320049 0.10154830355207579 0 0.38892742759151128 0.084986861327899371 0 0.37684180320149779 0.091545452851138936 0 0.36531655038580868 0.086673471762910501 0 0.38800965188138797 0.067359575457755852 0 0.37647922074593232 0.083356910721568186 0 0.38892742759151128 0.084986861327899371 0 0.3849242374013872 0.08337667236388048 0 0.37684180320149779 0.091545452851138936 0 0.38892742759151128 0.084986861327899371 0 0.38798879278853271 0.080339117347540331 0 0.3849242374013872 0.08337667236388048 0 0.38798879278853271 0.080339117347540331 0 0.3849242374013872 0.08337667236388048 0 0.38213324459839199 0.081483758981058085 0 0.3849242374013872 0.08337667236388048 0 0.38213324459839199 0.081483758981058085 0 0.37684180320149779 0.091545452851138936 0 0.37647922074593232 0.083356910721568186 0 0.38213324459839199 0.081483758981058085 0 0.37684180320149779 0.091545452851138936 0 0.37199198662207139 0.089080455090655153 0 0.37647922074593232 0.083356910721568186 0 0.37684180320149779 0.091545452851138936 0 0.37497358229320049 0.10154830355207579 0 0.38892742759151128 0.084986861327899371 0 0.38826326685636209 0.098652864225125911 0 0.37497358229320049 0.10154830355207579 0 0.37684180320149779 0.091545452851138936 0 0.37497358229320049 0.10154830355207579 0 0.38826326685636209 0.098652864225125911 0 0.38533294109085808 0.11055412036022549 0 0.38826326685636209 0.098652864225125911 0 0.38533294109085808 0.11055412036022549 0 0.39460533402695769 0.10463500592074761 0 0.37497358229320049 0.10154830355207579 0 0.36977539180858737 0.12938051713115239 0 0.38533294109085808 0.11055412036022549 0 0.36977539180858737 0.12938051713115239 0 0.38533294109085808 0.11055412036022549 0 0.39399621849110639 0.1212015931010629 0 0.40766102265843601 0.10376479596222531 0 0.39399621849110639 0.1212015931010629 0 0.39460533402695769 0.10463500592074761 0 0.38533294109085808 0.11055412036022549 0 0.39399621849110639 0.1212015931010629 0 0.39460533402695769 0.10463500592074761 0 0.4182170451736254 0.11302266907097359 0 0.39399621849110639 0.1212015931010629 0 0.40766102265843601 0.10376479596222531 0 0.39938615103699437 0.093818713285511349 0 0.39460533402695769 0.10463500592074761 0 0.38826326685636209 0.098652864225125911 0 0.39938615103699437 0.093818713285511349 0 0.39460533402695769 0.10463500592074761 0 0.38809510434950978 0.014186894499208531 0 0.40227664223542231 0.03346882998773771 0 0.41027899826036868 0.019315076975124329 0 0.38809510434950978 0.014186894499208531 0 0.38805237811544963 0.040773234978482217 0 0.40227664223542231 0.03346882998773771 0 0.38809510434950978 0.014186894499208531 0 0.41027899826036868 0.019315076975124329 0 0.41153685578036397 -0.0019629210903366261 0 0.38809510434950978 0.014186894499208531 0 0.38813783058356999 -0.012399445980065191 0 0.36528524993471517 -0.00050110304122203656 0 0.38809510434950978 0.014186894499208531 0 0.38813783058356999 -0.012399445980065191 0 0.36660895407805488 0.032420410302755692 0 0.38809510434950978 0.014186894499208531 0 0.38805237811544963 0.040773234978482217 0 0.38809510434950978 0.014186894499208531 0 0.38805237811544963 0.040773234978482217 0 0.37051694284251602 0.045934513972437287 0 0.36660895407805488 0.032420410302755692 0 0.38805237811544963 0.040773234978482217 0 0.37051694284251602 0.045934513972437287 0 0.38805237811544963 0.040773234978482217 0 0.37629973611750162 0.057133884090869731 0 0.38800965188138797 0.067359575457755852 0 0.38805237811544963 0.040773234978482217 0 0.38800965188138797 0.067359575457755852 0 0.38805237811544963 0.040773234978482217 0 0.37629973611750162 0.057133884090869731 0 0.38800965188138797 0.067359575457755852 0 0.38805237811544963 0.040773234978482217 0 0.40432212744439028 0.05347617298120954 0 0.38800965188138797 0.067359575457755852 0 0.40432212744439028 0.05347617298120954 0 0.38805237811544963 0.040773234978482217 0 0.40432212744439028 0.05347617298120954 0 0.40227664223542231 0.03346882998773771 0 0.40432212744439028 0.05347617298120954 0 0.40227664223542231 0.03346882998773771 0 0.42063460300739319 0.039592770504663921 0 0.40432212744439028 0.05347617298120954 0 0.42063460300739319 0.039592770504663921 0 0.40432212744439028 0.05347617298120954 0 0.42063460300739319 0.039592770504663921 0 0.41668109015078048 0.060321018968651587 0 0.40288127288982228 0.068425419103723073 0 0.40432212744439028 0.05347617298120954 0 0.41668109015078048 0.060321018968651587 0 0.42063460300739319 0.039592770504663921 0 0.41668109015078048 0.060321018968651587 0 0.43530926691295491 0.053519915114395938 0 0.42641479738374982 0.071194279203422042 0 0.41668109015078048 0.060321018968651587 0 0.43530926691295491 0.053519915114395938 0 0.42063460300739319 0.039592770504663921 0 0.43530926691295491 0.053519915114395938 0 0.44546029297815198 0.036401673327624867 0 0.42063460300739319 0.039592770504663921 0 0.43003026873756373 0.016124490894639638 0 0.44546029297815198 0.036401673327624867 0 0.42063460300739319 0.039592770504663921 0 0.43003026873756373 0.016124490894639638 0 0.41027899826036868 0.019315076975124329 0 0.40227664223542231 0.03346882998773771 0 0.42063460300739319 0.039592770504663921 0 0.41027899826036868 0.019315076975124329 0 0.43003026873756373 0.016124490894639638 0 0.41027899826036868 0.019315076975124329 0 0.41153685578036397 -0.0019629210903366261 0 0.43003026873756373 0.016124490894639638 0 0.41153685578036397 -0.0019629210903366261 0 0.43640101268708648 -0.0046410089372440266 0 0.43003026873756373 0.016124490894639638 0 0.4616163053097625 0.012947415970674491 0 0.44546029297815198 0.036401673327624867 0 0.43003026873756373 0.016124490894639638 0 0.4616163053097625 0.012947415970674491 0 0.43640101268708648 -0.0046410089372440266 0 0.4616163053097625 0.012947415970674491 0 0.44546029297815198 0.036401673327624867 0 0.46829846929260133 0.039180607823540471 0 0.4616163053097625 0.012947415970674491 0 0.46829846929260133 0.039180607823540471 0 0.43530926691295491 0.053519915114395938 0 0.44546029297815198 0.036401673327624867 0 0.45687284460863642 0.057044839657834773 0 0.43530926691295491 0.053519915114395938 0 0.45687284460863642 0.057044839657834773 0 0.44346528053295098 0.067375836776747203 0 0.43530926691295491 0.053519915114395938 0 0.45687284460863642 0.057044839657834773 0 0.44546029297815198 0.036401673327624867 0 0.46829846929260133 0.039180607823540471 0 0.45687284460863642 0.057044839657834773 0 0.45687284460863642 0.057044839657834773 0 0.47843642230431782 0.060569764201273593 0 0.46829846929260133 0.039180607823540471 0 0.45687284460863642 0.057044839657834773 0 0.47843642230431782 0.060569764201273593 0 0.46829846929260133 0.039180607823540471 0 0.47843642230431782 0.060569764201273593 0 0.48441281478572717 0.044639942984937397 0 0.46829846929260133 0.039180607823540471 0 0.48441281478572717 0.044639942984937397 0 0.48216351925400569 0.023912142869640291 0 0.5 0.037819669664003852 0 0.48441281478572717 0.044639942984937397 0 0.48216351925400569 0.023912142869640291 0 0.49999999999999922 0.064094688744712261 0 0.5 0.037819669664003852 0 0.48441281478572717 0.044639942984937397 0 0.49999999999999922 0.064094688744712261 0 0.47843642230431782 0.060569764201273593 0 0.49999999999999922 0.064094688744712261 0 0.47843642230431782 0.060569764201273593 0 0.48441281478572717 0.044639942984937397 0 0.4616163053097625 0.012947415970674491 0 0.48216351925400569 0.023912142869640291 0 0.47865352613594309 -0.0026594298086097842 0 0.4616163053097625 0.012947415970674491 0 0.46829846929260133 0.039180607823540471 0 0.48216351925400569 0.023912142869640291 0 0.5 0.037819669664003852 0 0.48216351925400569 0.023912142869640291 0 0.5 0.01154465058329535 0 0.48216351925400569 0.023912142869640291 0 0.5 0.01154465058329535 0 0.47865352613594309 -0.0026594298086097842 0 0.5 -0.01473036849741316 0 0.47865352613594309 -0.0026594298086097842 0 0.47637292076687249 -0.028438805409210361 0 0.5 0.01154465058329535 0 0.5 -0.01473036849741316 0 0.47865352613594309 -0.0026594298086097842 0 0.47865352613594309 -0.0026594298086097842 0 0.47637292076687249 -0.028438805409210361 0 0.45493414132692372 -0.0132857758821915 0 0.5 -0.01473036849741316 0 0.47637292076687249 -0.028438805409210361 0 0.5 -0.041005387578121673 0 0.47637292076687249 -0.028438805409210361 0 0.5 -0.041005387578121673 0 0.47713553681715642 -0.054702060209816189 0 0.5 -0.041005387578121673 0 0.47713553681715642 -0.054702060209816189 0 0.5 -0.067280406658830172 0 0.47637292076687249 -0.028438805409210361 0 0.47713553681715642 -0.054702060209816189 0 0.44825197734408501 -0.039518967735057448 0 0.47713553681715642 -0.054702060209816189 0 0.44825197734408501 -0.039518967735057448 0 0.45584838815641732 -0.069674586969383084 0 0.44825197734408501 -0.039518967735057448 0 0.45584838815641732 -0.069674586969383084 0 0.42702021602578372 -0.062854792704602702 0 0.44825197734408501 -0.039518967735057448 0 0.43765992936385267 -0.022868423134524252 0 0.45493414132692372 -0.0132857758821915 0 0.44825197734408501 -0.039518967735057448 0 0.45493414132692372 -0.0132857758821915 0 0.4616163053097625 0.012947415970674491 0 0.45493414132692372 -0.0132857758821915 0 0.43640101268708648 -0.0046410089372440266 0 0.43765992936385267 -0.022868423134524252 0 0.45493414132692372 -0.0132857758821915 0 0.43640101268708648 -0.0046410089372440266 0 0.4616163053097625 0.012947415970674491 0 0.45493414132692372 -0.0132857758821915 0 0.4616163053097625 0.012947415970674491 0 0.47865352613594309 -0.0026594298086097842 0 0.45493414132692372 -0.0132857758821915 0 0.47637292076687249 -0.028438805409210361 0 0.44825197734408501 -0.039518967735057448 0 0.45493414132692372 -0.0132857758821915 0 0.47219540412757982 -0.12133300917517389 0 0.48551511635360911 -0.1098011170494502 0 0.46336125576880138 -0.1073076282294157 0 0.47219540412757982 -0.12133300917517389 0 0.48551511635360911 -0.1098011170494502 0 0.50000000000000111 -0.1198304448202472 0 0.47219540412757982 -0.12133300917517389 0 0.50000000000000111 -0.1198304448202472 0 0.48551511635360911 -0.1098011170494502 0 0.47402371149438649 -0.094761193712666822 0 0.5 -0.093555425739538678 0 0.48551511635360911 -0.1098011170494502 0 0.50000000000000111 -0.1198304448202472 0 0.5 -0.093555425739538678 0 0.48551511635360911 -0.1098011170494502 0 0.47402371149438649 -0.094761193712666822 0 0.46336125576880138 -0.1073076282294157 0 0.47402371149438649 -0.094761193712666822 0 0.48140152729359209 -0.075994734658046986 0 0.45584838815641732 -0.069674586969383084 0 0.47402371149438649 -0.094761193712666822 0 0.5 -0.093555425739538678 0 0.48140152729359209 -0.075994734658046986 0 0.5 -0.093555425739538678 0 0.5 -0.067280406658830172 0 0.48140152729359209 -0.075994734658046986 0 0.47713553681715642 -0.054702060209816189 0 0.5 -0.067280406658830172 0 0.48140152729359209 -0.075994734658046986 0 0.47713553681715642 -0.054702060209816189 0 0.48140152729359209 -0.075994734658046986 0 0.45584838815641732 -0.069674586969383084 0 0.45584838815641732 -0.069674586969383084 0 0.43875520968287468 -0.077792743136954376 0 0.42702021602578372 -0.062854792704602702 0 0.45584838815641732 -0.069674586969383084 0 0.42702021602578372 -0.062854792704602702 0 0.45584838815641732 -0.069674586969383084 0 0.43875520968287468 -0.077792743136954376 0 0.44905983508247022 -0.093296283725555457 0 0.43875520968287468 -0.077792743136954376 0 0.44905983508247022 -0.093296283725555457 0 0.42996435585364629 -0.09151025468520603 0 0.47402371149438649 -0.094761193712666822 0 0.45584838815641732 -0.069674586969383084 0 0.44905983508247022 -0.093296283725555457 0 0.47402371149438649 -0.094761193712666822 0 0.44905983508247022 -0.093296283725555457 0 0.46336125576880138 -0.1073076282294157 0 0.44905983508247022 -0.093296283725555457 0 0.46336125576880138 -0.1073076282294157 0 0.4467404477327433 -0.1065753807857043 0 0.44905983508247022 -0.093296283725555457 0 0.43484047071750342 -0.1017266282080657 0 0.42996435585364629 -0.09151025468520603 0 0.44905983508247022 -0.093296283725555457 0 0.4467404477327433 -0.1065753807857043 0 0.43484047071750342 -0.1017266282080657 0 0.4467404477327433 -0.1065753807857043 0 0.43419680927889298 -0.1132191862857576 0 0.43484047071750342 -0.1017266282080657 0 0.45263301982202042 -0.1180787849279437 0 0.44439080825515859 -0.12283557353010061 0 0.4293401992409106 -0.1207018246503703 0 0.45263301982202042 -0.1180787849279437 0 0.4293401992409106 -0.1207018246503703 0 0.43419680927889298 -0.1132191862857576 0 0.45263301982202042 -0.1180787849279437 0 0.4293401992409106 -0.1207018246503703 0 0.4467404477327433 -0.1065753807857043 0 0.45263301982202042 -0.1180787849279437 0 0.43419680927889298 -0.1132191862857576 0 0.47219540412757982 -0.12133300917517389 0 0.45263301982202042 -0.1180787849279437 0 0.44439080825515859 -0.12283557353010061 0 0.47219540412757982 -0.12133300917517389 0 0.44439080825515859 -0.12283557353010061 0 0.45535272626567053 -0.13009024679139411 0 0.46336125576880138 -0.1073076282294157 0 0.4467404477327433 -0.1065753807857043 0 0.45263301982202042 -0.1180787849279437 0 0.47219540412757982 -0.12133300917517389 0 0.46336125576880138 -0.1073076282294157 0 0.45263301982202042 -0.1180787849279437 0 0.47219540412757982 -0.12133300917517389 0 0.44439080825515859 -0.12283557353010061 0 0.4293401992409106 -0.1207018246503703 0 0.40604737865980089 -0.1233248643727969 0 0.41658621238273741 -0.1243381378850273 0 0.4293401992409106 -0.1207018246503703 0 0.40604737865980089 -0.1233248643727969 0 0.41814796911551211 -0.1147169554442739 0 0.4293401992409106 -0.1207018246503703 0 0.40604737865980089 -0.1233248643727969 0 0.40691455275819199 -0.1123068663543399 0 0.41814796911551211 -0.1147169554442739 0 0.41424090563976412 -0.104032035558105 0 0.40691455275819199 -0.1123068663543399 0 0.41814796911551211 -0.1147169554442739 0 0.40604737865980089 -0.1233248643727969 0 0.41814796911551211 -0.1147169554442739 0 0.43419680927889298 -0.1132191862857576 0 0.41424090563976412 -0.104032035558105 0 0.41814796911551211 -0.1147169554442739 0 0.4293401992409106 -0.1207018246503703 0 0.43419680927889298 -0.1132191862857576 0 0.44439080825515859 -0.12283557353010061 0 0.41658621238273741 -0.1243381378850273 0 0.4293401992409106 -0.1207018246503703 0 0.44439080825515859 -0.12283557353010061 0 0.41658621238273741 -0.1243381378850273 0 0.43419680927889298 -0.1132191862857576 0 0.41424090563976412 -0.104032035558105 0 0.43419680927889298 -0.1132191862857576 0 0.43484047071750342 -0.1017266282080657 0 0.41424090563976412 -0.104032035558105 0 0.43484047071750342 -0.1017266282080657 0 0.41424090563976412 -0.104032035558105 0 0.42996435585364629 -0.09151025468520603 0 0.41424090563976412 -0.104032035558105 0 0.41155663905142531 -0.079153950075025181 0 0.39428500200063521 -0.094844884830452503 0 0.41424090563976412 -0.104032035558105 0 0.41155663905142531 -0.079153950075025181 0 0.42996435585364629 -0.09151025468520603 0 0.43875520968287468 -0.077792743136954376 0 0.41155663905142531 -0.079153950075025181 0 0.42996435585364629 -0.09151025468520603 0 0.43875520968287468 -0.077792743136954376 0 0.41155663905142531 -0.079153950075025181 0 0.42702021602578372 -0.062854792704602702 0 0.41155663905142531 -0.079153950075025181 0 0.42702021602578372 -0.062854792704602702 0 0.39819204389515062 -0.056034998439820703 0 0.41155663905142531 -0.079153950075025181 0 0.38626057112832818 -0.070846366271309871 0 0.39819204389515062 -0.056034998439820703 0 0.38626057112832818 -0.070846366271309871 0 0.39819204389515062 -0.056034998439820703 0 0.38626057112832818 -0.070846366271309871 0 0.37516414371306678 -0.059402619742782117 0 0.36930545560665812 -0.067237671203730615 0 0.38626057112832818 -0.070846366271309871 0 0.36930545560665812 -0.067237671203730615 0 0.37432909836150652 -0.085657734102799615 0 0.39428500200063521 -0.094844884830452503 0 0.37432909836150652 -0.085657734102799615 0 0.38626057112832818 -0.070846366271309871 0 0.39428500200063521 -0.094844884830452503 0 0.37432909836150652 -0.085657734102799615 0 0.38626057112832818 -0.070846366271309871 0 0.37432909836150652 -0.085657734102799615 0 0.41155663905142531 -0.079153950075025181 0 0.38626057112832818 -0.070846366271309871 0 0.39428500200063521 -0.094844884830452503 0 0.40691455275819199 -0.1123068663543399 0 0.41424090563976412 -0.104032035558105 0 0.39428500200063521 -0.094844884830452503 0 0.41424090563976412 -0.104032035558105 0 0.39428500200063521 -0.094844884830452503 0 0.40691455275819199 -0.1123068663543399 0 0.39428500200063521 -0.094844884830452503 0 0.39298373892106192 -0.1120512636288724 0 0.39428500200063521 -0.094844884830452503 0 0.37861321738195958 -0.101859948064613 0 0.39298373892106192 -0.1120512636288724 0 0.39428500200063521 -0.094844884830452503 0 0.37861321738195958 -0.101859948064613 0 0.37432909836150652 -0.085657734102799615 0 0.37861321738195958 -0.101859948064613 0 0.39298373892106192 -0.1120512636288724 0 0.36959268086489411 -0.11562868785079231 0 0.39298373892106192 -0.1120512636288724 0 0.36959268086489411 -0.11562868785079231 0 0.38275455807869108 -0.1259479040952235 0 0.39298373892106192 -0.1120512636288724 0 0.40604737865980089 -0.1233248643727969 0 0.38275455807869108 -0.1259479040952235 0 0.40604737865980089 -0.1233248643727969 0 0.38275455807869108 -0.1259479040952235 0 0.40691455275819199 -0.1123068663543399 0 0.39298373892106192 -0.1120512636288724 0 0.40604737865980089 -0.1233248643727969 0 0.41153685578036397 -0.0019629210903366261 0 0.42262857560405298 -0.018800840381725911 0 0.40557789239388009 -0.026714704676441849 0 0.42262857560405298 -0.018800840381725911 0 0.4264756320105984 -0.037284612710550433 0 0.40557789239388009 -0.026714704676441849 0 0.41153685578036397 -0.0019629210903366261 0 0.43640101268708648 -0.0046410089372440266 0 0.42262857560405298 -0.018800840381725911 0 0.43765992936385267 -0.022868423134524252 0 0.43640101268708648 -0.0046410089372440266 0 0.42262857560405298 -0.018800840381725911 0 0.43765992936385267 -0.022868423134524252 0 0.42262857560405298 -0.018800840381725911 0 0.4264756320105984 -0.037284612710550433 0 0.44825197734408501 -0.039518967735057448 0 0.42702021602578372 -0.062854792704602702 0 0.4264756320105984 -0.037284612710550433 0 0.44825197734408501 -0.039518967735057448 0 0.43765992936385267 -0.022868423134524252 0 0.4264756320105984 -0.037284612710550433 0 0.42702021602578372 -0.062854792704602702 0 0.4264756320105984 -0.037284612710550433 0 0.41725077808298677 -0.050368520743631282 0 0.41725077808298677 -0.050368520743631282 0 0.4063532702048423 -0.045903900025463948 0 0.39819204389515062 -0.056034998439820703 0 0.42702021602578372 -0.062854792704602702 0 0.39819204389515062 -0.056034998439820703 0 0.42702021602578372 -0.062854792704602702 0 0.41725077808298677 -0.050368520743631282 0 0.39819204389515062 -0.056034998439820703 0 0.4264756320105984 -0.037284612710550433 0 0.4063532702048423 -0.045903900025463948 0 0.40557789239388009 -0.026714704676441849 0 0.4264756320105984 -0.037284612710550433 0 0.41725077808298677 -0.050368520743631282 0 0.4063532702048423 -0.045903900025463948 0 0.4063532702048423 -0.045903900025463948 0 0.3923965041484711 -0.040681716984608131 0 0.40557789239388009 -0.026714704676441849 0 0.3923965041484711 -0.040681716984608131 0 0.39139418061058789 -0.027619451336121491 0 0.40557789239388009 -0.026714704676441849 0 0.4063532702048423 -0.045903900025463948 0 0.3923965041484711 -0.040681716984608131 0 0.39819204389515062 -0.056034998439820703 0 0.4063532702048423 -0.045903900025463948 0 0.39819204389515062 -0.056034998439820703 0 0.39819204389515062 -0.056034998439820703 0 0.38335104799624842 -0.05252410852781822 0 0.3923965041484711 -0.040681716984608131 0 0.39819204389515062 -0.056034998439820703 0 0.38335104799624842 -0.05252410852781822 0 0.38626057112832818 -0.070846366271309871 0 0.39819204389515062 -0.056034998439820703 0 0.38335104799624842 -0.05252410852781822 0 0.38626057112832818 -0.070846366271309871 0 0.38335104799624842 -0.05252410852781822 0 0.37516414371306678 -0.059402619742782117 0 0.38335104799624842 -0.05252410852781822 0 0.37868257332427158 -0.042721707105043388 0 0.36851005209734689 -0.04901321861581287 0 0.38335104799624842 -0.05252410852781822 0 0.36851005209734689 -0.04901321861581287 0 0.38335104799624842 -0.05252410852781822 0 0.37516414371306678 -0.059402619742782117 0 0.37083519607560811 -0.051442718493276293 0 0.3923965041484711 -0.040681716984608131 0 0.37946449531643051 -0.030681937703370819 0 0.39139418061058789 -0.027619451336121491 0 0.3923965041484711 -0.040681716984608131 0 0.37868257332427158 -0.042721707105043388 0 0.37946449531643051 -0.030681937703370819 0 0.3923965041484711 -0.040681716984608131 0 0.38335104799624842 -0.05252410852781822 0 0.37868257332427158 -0.042721707105043388 0 0.37868257332427158 -0.042721707105043388 0 0.37946449531643051 -0.030681937703370819 0 0.37289325595349287 -0.039056669017988682 0 0.37946449531643051 -0.030681937703370819 0 0.38813783058356999 -0.012399445980065191 0 0.36593433835502842 -0.019955981096618291 0 0.37946449531643051 -0.030681937703370819 0 0.39139418061058789 -0.027619451336121491 0 0.38813783058356999 -0.012399445980065191 0 0.39139418061058789 -0.027619451336121491 0 0.40557789239388009 -0.026714704676441849 0 0.38813783058356999 -0.012399445980065191 0 0.38809510434950978 0.014186894499208531 0 0.41153685578036397 -0.0019629210903366261 0 0.38813783058356999 -0.012399445980065191 0 0.41153685578036397 -0.0019629210903366261 0 0.40557789239388009 -0.026714704676441849 0 0.38813783058356999 -0.012399445980065191 0 0.38813783058356999 -0.012399445980065191 0 0.36528524993471517 -0.00050110304122203656 0 0.36593433835502842 -0.019955981096618291 0 0.36528524993471517 -0.00050110304122203656 0 0.36593433835502842 -0.019955981096618291 0 0.34990566603329781 -0.01108715766655221 0 0.36593433835502842 -0.019955981096618291 0 0.34988483201318038 -0.02955207111900442 0 0.3649159030759227 -0.03380981264772763 0 0.37946449531643051 -0.030681937703370819 0 0.36593433835502842 -0.019955981096618291 0 0.3649159030759227 -0.03380981264772763 0 0.36593433835502842 -0.019955981096618291 0 0.34988483201318038 -0.02955207111900442 0 0.34990566603329781 -0.01108715766655221 0 0.34114019158844411 0.0080730073898155515 0 0.36528524993471517 -0.00050110304122203656 0 0.34990566603329781 -0.01108715766655221 0 0.34114019158844411 0.0080730073898155515 0 0.34990566603329781 -0.01108715766655221 0 0.33125961192901288 -0.010090923622196969 0 0.34988483201318038 -0.02955207111900442 0 0.34990566603329781 -0.01108715766655221 0 0.33125961192901288 -0.010090923622196969 0 0.34988483201318038 -0.02955207111900442 0 0.33125961192901288 -0.010090923622196969 0 0.34988483201318038 -0.02955207111900442 0 0.33125961192901288 -0.010090923622196969 0 0.32820977144403252 -0.030692999978933821 0 0.33125961192901288 -0.010090923622196969 0 0.32820977144403252 -0.030692999978933821 0 0.3070657392947222 -0.02133387501915943 0 0.32820977144403252 -0.030692999978933821 0 0.31259396283228069 -0.036598948287682627 0 0.3070657392947222 -0.02133387501915943 0 0.31263439184484548 0.0093702238746103741 0 0.33125961192901288 -0.010090923622196969 0 0.30634635689462569 -0.0054163935952359233 0 0.31263439184484548 0.0093702238746103741 0 0.33125961192901288 -0.010090923622196969 0 0.33125961192901288 -0.010090923622196969 0 0.30634635689462569 -0.0054163935952359233 0 0.3070657392947222 -0.02133387501915943 0 0.32981028989216699 -0.062414898119164869 0 0.3170933128650803 -0.071328783210542035 0 0.30906793128128213 -0.051696686089317448 0 0.32898940933167931 -0.046477463595267721 0 0.32981028989216699 -0.062414898119164869 0 0.30906793128128213 -0.051696686089317448 0 0.31259396283228069 -0.036598948287682627 0 0.32898940933167931 -0.046477463595267721 0 0.30906793128128213 -0.051696686089317448 0 0.32820977144403252 -0.030692999978933821 0 0.31259396283228069 -0.036598948287682627 0 0.32898940933167931 -0.046477463595267721 0 0.34988483201318038 -0.02955207111900442 0 0.32820977144403252 -0.030692999978933821 0 0.34273421968837581 -0.041392566005333448 0 0.32820977144403252 -0.030692999978933821 0 0.32898940933167931 -0.046477463595267721 0 0.34273421968837581 -0.041392566005333448 0 0.32898940933167931 -0.046477463595267721 0 0.32981028989216699 -0.062414898119164869 0 0.34625423470930577 -0.0558388659184718 0 0.32898940933167931 -0.046477463595267721 0 0.34273421968837581 -0.041392566005333448 0 0.34625423470930577 -0.0558388659184718 0 0.32981028989216699 -0.062414898119164869 0 0.34625423470930577 -0.0558388659184718 0 0.34248634442605969 -0.068923385539796017 0 0.34273421968837581 -0.041392566005333448 0 0.34625423470930577 -0.0558388659184718 0 0.35728557543413209 -0.046357877818413752 0 0.34625423470930577 -0.0558388659184718 0 0.35728557543413209 -0.046357877818413752 0 0.36013757195099422 -0.059353455351591908 0 0.34625423470930577 -0.0558388659184718 0 0.36013757195099422 -0.059353455351591908 0 0.35396856341333638 -0.06811901495295633 0 0.34988483201318038 -0.02955207111900442 0 0.36851005209734689 -0.04901321861581287 0 0.34988483201318038 -0.02955207111900442 0 0.35728557543413209 -0.046357877818413752 0 0.36851005209734689 -0.04901321861581287 0 0.34988483201318038 -0.02955207111900442 0 0.34273421968837581 -0.041392566005333448 0 0.35728557543413209 -0.046357877818413752 0 0.34988483201318038 -0.02955207111900442 0 0.3649159030759227 -0.03380981264772763 0 0.36851005209734689 -0.04901321861581287 0 0.3649159030759227 -0.03380981264772763 0 0.37289325595349287 -0.039056669017988682 0 0.36851005209734689 -0.04901321861581287 0 0.37868257332427158 -0.042721707105043388 0 0.37289325595349287 -0.039056669017988682 0 0.36851005209734689 -0.04901321861581287 0 0.37946449531643051 -0.030681937703370819 0 0.3649159030759227 -0.03380981264772763 0 0.37289325595349287 -0.039056669017988682 0 0.36013757195099422 -0.059353455351591908 0 0.36606844775849129 -0.054962234217775588 0 0.36930545560665812 -0.067237671203730615 0 0.35728557543413209 -0.046357877818413752 0 0.36606844775849129 -0.054962234217775588 0 0.36851005209734689 -0.04901321861581287 0 0.35728557543413209 -0.046357877818413752 0 0.36851005209734689 -0.04901321861581287 0 0.35728557543413209 -0.046357877818413752 0 0.36013757195099422 -0.059353455351591908 0 0.36606844775849129 -0.054962234217775588 0 0.36606844775849129 -0.054962234217775588 0 0.37083519607560811 -0.051442718493276293 0 0.36851005209734689 -0.04901321861581287 0 0.38335104799624842 -0.05252410852781822 0 0.37083519607560811 -0.051442718493276293 0 0.36851005209734689 -0.04901321861581287 0 0.37083519607560811 -0.051442718493276293 0 0.36851005209734689 -0.04901321861581287 0 0.37516414371306678 -0.059402619742782117 0 0.36606844775849129 -0.054962234217775588 0 0.36930545560665812 -0.067237671203730615 0 0.37516414371306678 -0.059402619742782117 0 0.36606844775849129 -0.054962234217775588 0 0.37083519607560811 -0.051442718493276293 0 0.36930545560665812 -0.067237671203730615 0 0.37432909836150652 -0.085657734102799615 0 0.35877510324204942 -0.078497101331481356 0 0.36013757195099422 -0.059353455351591908 0 0.36930545560665812 -0.067237671203730615 0 0.35396856341333638 -0.06811901495295633 0 0.36930545560665812 -0.067237671203730615 0 0.35877510324204942 -0.078497101331481356 0 0.35396856341333638 -0.06811901495295633 0 0.37432909836150652 -0.085657734102799615 0 0.3618755667617003 -0.1011171699101481 0 0.37432909836150652 -0.085657734102799615 0 0.35873054528186049 -0.090025728563237983 0 0.3618755667617003 -0.1011171699101481 0 0.37432909836150652 -0.085657734102799615 0 0.35877510324204942 -0.078497101331481356 0 0.37432909836150652 -0.085657734102799615 0 0.35877510324204942 -0.078497101331481356 0 0.35873054528186049 -0.090025728563237983 0 0.35877510324204942 -0.078497101331481356 0 0.35873054528186049 -0.090025728563237983 0 0.34652491029792148 -0.089165553694581817 0 0.35873054528186049 -0.090025728563237983 0 0.34652491029792148 -0.089165553694581817 0 0.35259789653537388 -0.099787995237162391 0 0.35877510324204942 -0.078497101331481356 0 0.34652491029792148 -0.089165553694581817 0 0.34741949537127992 -0.077668067985721373 0 0.34741949537127992 -0.077668067985721373 0 0.35396856341333638 -0.06811901495295633 0 0.34248634442605969 -0.068923385539796017 0 0.34625423470930577 -0.0558388659184718 0 0.35396856341333638 -0.06811901495295633 0 0.34248634442605969 -0.068923385539796017 0 0.35877510324204942 -0.078497101331481356 0 0.34741949537127992 -0.077668067985721373 0 0.35396856341333638 -0.06811901495295633 0 0.36959268086489411 -0.11562868785079231 0 0.3618755667617003 -0.1011171699101481 0 0.34942203516189407 -0.1165766057174966 0 0.36959268086489411 -0.11562868785079231 0 0.35946173749758142 -0.12857094381765011 0 0.38275455807869108 -0.1259479040952235 0 0.36959268086489411 -0.11562868785079231 0 0.34942203516189407 -0.1165766057174966 0 0.35946173749758142 -0.12857094381765011 0 0.37861321738195958 -0.101859948064613 0 0.36959268086489411 -0.11562868785079231 0 0.3618755667617003 -0.1011171699101481 0 0.37861321738195958 -0.101859948064613 0 0.37432909836150652 -0.085657734102799615 0 0.3618755667617003 -0.1011171699101481 0 0.35873054528186049 -0.090025728563237983 0 0.3618755667617003 -0.1011171699101481 0 0.35259789653537388 -0.099787995237162391 0 0.34652491029792148 -0.089165553694581817 0 0.35259789653537388 -0.099787995237162391 0 0.33752623480883642 -0.093817785157763567 0 0.3618755667617003 -0.1011171699101481 0 0.34942203516189407 -0.1165766057174966 0 0.3618755667617003 -0.1011171699101481 0 0.35259789653537388 -0.099787995237162391 0 0.3467612679658918 -0.10776421542099709 0 0.3618755667617003 -0.1011171699101481 0 0.3467612679658918 -0.10776421542099709 0 0.34942203516189407 -0.1165766057174966 0 0.3467612679658918 -0.10776421542099709 0 0.34942203516189407 -0.1165766057174966 0 0.34039343413178508 -0.1136312809131952 0 0.3467612679658918 -0.10776421542099709 0 0.34039343413178508 -0.1136312809131952 0 0.32951740723870537 -0.107708025326983 0 0.34942203516189407 -0.1165766057174966 0 0.33546973702598631 -0.1227856189256179 0 0.34039343413178508 -0.1136312809131952 0 0.34942203516189407 -0.1165766057174966 0 0.33546973702598631 -0.1227856189256179 0 0.34591842363940589 -0.13209506000560911 0 0.33546973702598631 -0.1227856189256179 0 0.32951740723870537 -0.107708025326983 0 0.32144209600849888 -0.1167487525384607 0 0.33546973702598631 -0.1227856189256179 0 0.34039343413178508 -0.1136312809131952 0 0.32951740723870537 -0.107708025326983 0 0.35259789653537388 -0.099787995237162391 0 0.32951740723870537 -0.107708025326983 0 0.33752623480883642 -0.093817785157763567 0 0.35259789653537388 -0.099787995237162391 0 0.3467612679658918 -0.10776421542099709 0 0.32951740723870537 -0.107708025326983 0 0.35259789653537388 -0.099787995237162391 0 0.32951740723870537 -0.107708025326983 0 0.32951740723870537 -0.107708025326983 0 0.33752623480883642 -0.093817785157763567 0 0.32402045323258583 -0.092203147168496397 0 0.32951740723870537 -0.107708025326983 0 0.31718203989373939 -0.1028549399298524 0 0.30643691794203631 -0.11562805541680229 0 0.31718203989373939 -0.1028549399298524 0 0.32402045323258583 -0.092203147168496397 0 0.30790996519788999 -0.093190488326120174 0 0.32951740723870537 -0.107708025326983 0 0.31718203989373939 -0.1028549399298524 0 0.32402045323258583 -0.092203147168496397 0 0.33546973702598631 -0.1227856189256179 0 0.32144209600849888 -0.1167487525384607 0 0.32378512794698189 -0.13261864383979041 0 0.32951740723870537 -0.107708025326983 0 0.32144209600849888 -0.1167487525384607 0 0.30643691794203631 -0.11562805541680229 0 0.32144209600849888 -0.1167487525384607 0 0.31321410009550821 -0.123016794088877 0 0.32378512794698189 -0.13261864383979041 0 0.32951740723870537 -0.107708025326983 0 0.30643691794203631 -0.11562805541680229 0 0.32144209600849888 -0.1167487525384607 0 0.30643691794203631 -0.11562805541680229 0 0.32144209600849888 -0.1167487525384607 0 0.31321410009550821 -0.123016794088877 0 0.30643691794203631 -0.11562805541680229 0 0.32981028989216699 -0.062414898119164869 0 0.34248634442605969 -0.068923385539796017 0 0.33497050673959522 -0.080224204361594234 0 0.34741949537127992 -0.077668067985721373 0 0.34248634442605969 -0.068923385539796017 0 0.33497050673959522 -0.080224204361594234 0 0.34652491029792148 -0.089165553694581817 0 0.34741949537127992 -0.077668067985721373 0 0.33497050673959522 -0.080224204361594234 0 0.34652491029792148 -0.089165553694581817 0 0.33752623480883642 -0.093817785157763567 0 0.33497050673959522 -0.080224204361594234 0 0.33752623480883642 -0.093817785157763567 0 0.33497050673959522 -0.080224204361594234 0 0.32402045323258583 -0.092203147168496397 0 0.3170933128650803 -0.071328783210542035 0 0.30790996519788999 -0.093190488326120174 0 0.32402045323258583 -0.092203147168496397 0 0.3170933128650803 -0.071328783210542035 0 0.30790996519788999 -0.093190488326120174 0 0.33497050673959522 -0.080224204361594234 0 0.32402045323258583 -0.092203147168496397 0 0.3170933128650803 -0.071328783210542035 0 0.32981028989216699 -0.062414898119164869 0 0.33497050673959522 -0.080224204361594234 0 0.3170933128650803 -0.071328783210542035 0 0.3170933128650803 -0.071328783210542035 0 0.29754087760392461 -0.078779201637065033 0 0.29438300668458722 -0.062161515683952562 0 0.3170933128650803 -0.071328783210542035 0 0.30790996519788999 -0.093190488326120174 0 0.29754087760392461 -0.078779201637065033 0 0.30790996519788999 -0.093190488326120174 0 0.29754087760392461 -0.078779201637065033 0 0.29391308840016561 -0.090684074479765703 0 0.29754087760392461 -0.078779201637065033 0 0.29391308840016561 -0.090684074479765703 0 0.28174900595544911 -0.087933810997892478 0 0.29754087760392461 -0.078779201637065033 0 0.28174900595544911 -0.087933810997892478 0 0.27916346047010532 -0.070215920421169434 0 0.29754087760392461 -0.078779201637065033 0 0.27916346047010532 -0.070215920421169434 0 0.29438300668458722 -0.062161515683952562 0 0.29714539334934209 -0.1188164260535145 0 0.30558087529402661 -0.1215762952184249 0 0.3055270897892205 -0.12884390531450771 0 0.29714539334934209 -0.1188164260535145 0 0.30643691794203631 -0.11562805541680229 0 0.29714539334934209 -0.1188164260535145 0 0.30558087529402661 -0.1215762952184249 0 0.30643691794203631 -0.11562805541680229 0 0.31321410009550821 -0.123016794088877 0 0.30558087529402661 -0.1215762952184249 0 0.3055270897892205 -0.12884390531450771 0 0.31321410009550821 -0.123016794088877 0 0.30558087529402661 -0.1215762952184249 0 0.30643691794203631 -0.11562805541680229 0 0.29714539334934209 -0.1188164260535145 0 0.30643691794203631 -0.11562805541680229 0 0.29872661753069968 -0.1150521934416984 0 0.30643691794203631 -0.11562805541680229 0 0.29872661753069968 -0.1150521934416984 0 0.29714539334934209 -0.1188164260535145 0 0.29872661753069968 -0.1150521934416984 0 0.30790996519788999 -0.093190488326120174 0 0.30643691794203631 -0.11562805541680229 0 0.29872661753069968 -0.1150521934416984 0 0.30790996519788999 -0.093190488326120174 0 0.29872661753069968 -0.1150521934416984 0 0.30790996519788999 -0.093190488326120174 0 0.29872661753069968 -0.1150521934416984 0 0.28845250484339879 -0.1028327969579851 0 0.31718203989373939 -0.1028549399298524 0 0.30790996519788999 -0.093190488326120174 0 0.30643691794203631 -0.11562805541680229 0 0.30790996519788999 -0.093190488326120174 0 0.29391308840016561 -0.090684074479765703 0 0.28845250484339879 -0.1028327969579851 0 0.29391308840016561 -0.090684074479765703 0 0.28174900595544911 -0.087933810997892478 0 0.28845250484339879 -0.1028327969579851 0 0.28174900595544911 -0.087933810997892478 0 0.28845250484339879 -0.1028327969579851 0 0.27689931994893968 -0.1014539882227902 0 0.29714539334934209 -0.1188164260535145 0 0.27647723479369601 -0.1133904458048746 0 0.27248199084697761 -0.12727963007944959 0 0.29714539334934209 -0.1188164260535145 0 0.29208637865099429 -0.1233753125873726 0 0.27248199084697761 -0.12727963007944959 0 0.29714539334934209 -0.1188164260535145 0 0.27248199084697761 -0.12727963007944959 0 0.29714539334934209 -0.1188164260535145 0 0.29872661753069968 -0.1150521934416984 0 0.27647723479369601 -0.1133904458048746 0 0.29872661753069968 -0.1150521934416984 0 0.27647723479369601 -0.1133904458048746 0 0.29872661753069968 -0.1150521934416984 0 0.28845250484339879 -0.1028327969579851 0 0.27647723479369601 -0.1133904458048746 0 0.27647723479369601 -0.1133904458048746 0 0.26207184556310509 -0.123545072290382 0 0.27248199084697761 -0.12727963007944959 0 0.27647723479369601 -0.1133904458048746 0 0.27689931994893968 -0.1014539882227902 0 0.2653759830645146 -0.1010547405684409 0 0.28845250484339879 -0.1028327969579851 0 0.27647723479369601 -0.1133904458048746 0 0.27689931994893968 -0.1014539882227902 0 0.27689931994893968 -0.1014539882227902 0 0.2653759830645146 -0.1010547405684409 0 0.26750621508679662 -0.090918290735669011 0 0.27647723479369601 -0.1133904458048746 0 0.2653759830645146 -0.1010547405684409 0 0.25422785205669218 -0.1117286981680507 0 0.2653759830645146 -0.1010547405684409 0 0.25247124487397088 -0.099797793390608916 0 0.25639012333762312 -0.088392770409926352 0 0.2653759830645146 -0.1010547405684409 0 0.25247124487397088 -0.099797793390608916 0 0.25422785205669218 -0.1117286981680507 0 0.25247124487397088 -0.099797793390608916 0 0.25422785205669218 -0.1117286981680507 0 0.2437523082264893 -0.10812919791445549 0 0.27647723479369601 -0.1133904458048746 0 0.25422785205669218 -0.1117286981680507 0 0.27647723479369601 -0.1133904458048746 0 0.25422785205669218 -0.1117286981680507 0 0.26207184556310509 -0.123545072290382 0 0.25422785205669218 -0.1117286981680507 0 0.2525608327608555 -0.12289103938169629 0 0.26207184556310509 -0.123545072290382 0 0.27916346047010532 -0.070215920421169434 0 0.2692971507020398 -0.080437347047954993 0 0.26320950599453519 -0.065117316592143704 0 0.27916346047010532 -0.070215920421169434 0 0.26320950599453519 -0.065117316592143704 0 0.27526297483459378 -0.053343621769309187 0 0.28174900595544911 -0.087933810997892478 0 0.27916346047010532 -0.070215920421169434 0 0.2692971507020398 -0.080437347047954993 0 0.28174900595544911 -0.087933810997892478 0 0.27689931994893968 -0.1014539882227902 0 0.26750621508679662 -0.090918290735669011 0 0.28174900595544911 -0.087933810997892478 0 0.26750621508679662 -0.090918290735669011 0 0.2692971507020398 -0.080437347047954993 0 0.2692971507020398 -0.080437347047954993 0 0.25639012333762312 -0.088392770409926352 0 0.24957985668624191 -0.073926873436579998 0 0.2653759830645146 -0.1010547405684409 0 0.26750621508679662 -0.090918290735669011 0 0.25639012333762312 -0.088392770409926352 0 0.26750621508679662 -0.090918290735669011 0 0.2692971507020398 -0.080437347047954993 0 0.25639012333762312 -0.088392770409926352 0 0.25247124487397088 -0.099797793390608916 0 0.25639012333762312 -0.088392770409926352 0 0.24464721597715799 -0.088843798637905619 0 0.25639012333762312 -0.088392770409926352 0 0.24957985668624191 -0.073926873436579998 0 0.24464721597715799 -0.088843798637905619 0 0.2692971507020398 -0.080437347047954993 0 0.26320950599453519 -0.065117316592143704 0 0.24957985668624191 -0.073926873436579998 0 0.26320950599453519 -0.065117316592143704 0 0.2489147091691396 -0.061047690623056629 0 0.24957985668624191 -0.073926873436579998 0 0.26320950599453519 -0.065117316592143704 0 0.25726925547570079 -0.051347076797932878 0 0.2489147091691396 -0.061047690623056629 0 0.26320950599453519 -0.065117316592143704 0 0.25726925547570079 -0.051347076797932878 0 0.27526297483459378 -0.053343621769309187 0 0.25726925547570079 -0.051347076797932878 0 0.27526297483459378 -0.053343621769309187 0 0.26524709831337012 -0.040594989694493287 0 0.27526297483459378 -0.053343621769309187 0 0.27838106438739169 -0.034674575141858469 0 0.28865657264910788 -0.048590191740407143 0 0.27526297483459378 -0.053343621769309187 0 0.27838106438739169 -0.034674575141858469 0 0.26524709831337012 -0.040594989694493287 0 0.27838106438739169 -0.034674575141858469 0 0.26524709831337012 -0.040594989694493287 0 0.26307674491673277 -0.02866835137320933 0 0.26524709831337012 -0.040594989694493287 0 0.25104537145499961 -0.037501163253547333 0 0.26307674491673277 -0.02866835137320933 0 0.25726925547570079 -0.051347076797932878 0 0.26524709831337012 -0.040594989694493287 0 0.25104537145499961 -0.037501163253547333 0 0.26473063513614431 -0.01817900462180996 0 0.26307674491673277 -0.02866835137320933 0 0.24646469031098589 -0.02312246974673951 0 0.25104537145499961 -0.037501163253547333 0 0.26307674491673277 -0.02866835137320933 0 0.24646469031098589 -0.02312246974673951 0 0.26454995396122188 -0.0044382513717859551 0 0.24646469031098589 -0.02312246974673951 0 0.26454995396122188 -0.0044382513717859551 0 0.24646469031098589 -0.02312246974673951 0 0.24986078142061541 -0.0070112464674283144 0 0.26473063513614431 -0.01817900462180996 0 0.26454995396122188 -0.0044382513717859551 0 0.24646469031098589 -0.02312246974673951 0 0.2600103086440948 0.0077887484030499934 0 0.24986078142061541 -0.0070112464674283144 0 0.24454710423508169 -0.0040543885157620588 0 0.2600103086440948 0.0077887484030499934 0 0.26454995396122188 -0.0044382513717859551 0 0.24986078142061541 -0.0070112464674283144 0 0.26454995396122188 -0.0044382513717859551 0 0.27670438441294692 -0.01266621844599196 0 0.28095057553946728 -0.001276924975998437 0 0.26473063513614431 -0.01817900462180996 0 0.26454995396122188 -0.0044382513717859551 0 0.27670438441294692 -0.01266621844599196 0 0.27838106438739169 -0.034674575141858469 0 0.26307674491673277 -0.02866835137320933 0 0.27285740207883358 -0.02199973217132304 0 0.26473063513614431 -0.01817900462180996 0 0.26307674491673277 -0.02866835137320933 0 0.27285740207883358 -0.02199973217132304 0 0.26473063513614431 -0.01817900462180996 0 0.27670438441294692 -0.01266621844599196 0 0.27285740207883358 -0.02199973217132304 0 0.27670438441294692 -0.01266621844599196 0 0.27285740207883358 -0.02199973217132304 0 0.28683897538264719 -0.023134584254674968 0 0.27838106438739169 -0.034674575141858469 0 0.27285740207883358 -0.02199973217132304 0 0.28683897538264719 -0.023134584254674968 0 0.28683897538264719 -0.023134584254674968 0 0.3070657392947222 -0.02133387501915943 0 0.29617525565979957 -0.035369412305818138 0 0.27838106438739169 -0.034674575141858469 0 0.28683897538264719 -0.023134584254674968 0 0.29617525565979957 -0.035369412305818138 0 0.28683897538264719 -0.023134584254674968 0 0.29064676294115022 -0.0096945001892937387 0 0.3070657392947222 -0.02133387501915943 0 0.29523021928075988 0.0065372478438925187 0 0.28095057553946728 -0.001276924975998437 0 0.29064676294115022 -0.0096945001892937387 0 0.27670438441294692 -0.01266621844599196 0 0.28095057553946728 -0.001276924975998437 0 0.29064676294115022 -0.0096945001892937387 0 0.27670438441294692 -0.01266621844599196 0 0.28683897538264719 -0.023134584254674968 0 0.29064676294115022 -0.0096945001892937387 0 0.29523021928075988 0.0065372478438925187 0 0.29064676294115022 -0.0096945001892937387 0 0.30634635689462569 -0.0054163935952359233 0 0.29064676294115022 -0.0096945001892937387 0 0.30634635689462569 -0.0054163935952359233 0 0.3070657392947222 -0.02133387501915943 0 0.31259396283228069 -0.036598948287682627 0 0.3070657392947222 -0.02133387501915943 0 0.29617525565979957 -0.035369412305818138 0 0.30906793128128213 -0.051696686089317448 0 0.28865657264910788 -0.048590191740407143 0 0.29617525565979957 -0.035369412305818138 0 0.31259396283228069 -0.036598948287682627 0 0.30906793128128213 -0.051696686089317448 0 0.29617525565979957 -0.035369412305818138 0 0.3170933128650803 -0.071328783210542035 0 0.30906793128128213 -0.051696686089317448 0 0.29438300668458722 -0.062161515683952562 0 0.30906793128128213 -0.051696686089317448 0 0.28865657264910788 -0.048590191740407143 0 0.29438300668458722 -0.062161515683952562 0 0.27916346047010532 -0.070215920421169434 0 0.27526297483459378 -0.053343621769309187 0 0.29438300668458722 -0.062161515683952562 0 0.27526297483459378 -0.053343621769309187 0 0.28865657264910788 -0.048590191740407143 0 0.29438300668458722 -0.062161515683952562 0 0.27838106438739169 -0.034674575141858469 0 0.28865657264910788 -0.048590191740407143 0 0.29617525565979957 -0.035369412305818138 0 0.2819317776496727 -0.21022401048871711 0 0.28945187163189179 -0.20030043613154899 0 0.27333833458215873 -0.20150979381431941 0 0.29266584447977001 -0.21228091551288511 0 0.28945187163189179 -0.20030043613154899 0 0.30299786424224051 -0.20778715529384639 0 0.29266584447977001 -0.21228091551288511 0 0.30118271727185708 -0.22162749785956051 0 0.28562823597899317 -0.2211863599248364 0 0.29266584447977001 -0.21228091551288511 0 0.2819317776496727 -0.21022401048871711 0 0.28562823597899317 -0.2211863599248364 0 0.29266584447977001 -0.21228091551288511 0 0.2819317776496727 -0.21022401048871711 0 0.28945187163189179 -0.20030043613154899 0 0.28945187163189179 -0.20030043613154899 0 0.27736833953052109 -0.18806332318182931 0 0.29170755148716238 -0.18713306148380379 0 0.28945187163189179 -0.20030043613154899 0 0.30341099355347839 -0.19473485263403981 0 0.29170755148716238 -0.18713306148380379 0 0.28945187163189179 -0.20030043613154899 0 0.30341099355347839 -0.19473485263403981 0 0.30299786424224051 -0.20778715529384639 0 0.30341099355347839 -0.19473485263403981 0 0.29170755148716238 -0.18713306148380379 0 0.30398065128611812 -0.18343602661035341 0 0.30341099355347839 -0.19473485263403981 0 0.31559690427448428 -0.20140105732059169 0 0.31604834541304649 -0.18901248646670341 0 0.30341099355347839 -0.19473485263403981 0 0.30398065128611812 -0.18343602661035341 0 0.31604834541304649 -0.18901248646670341 0 0.30341099355347839 -0.19473485263403981 0 0.30299786424224051 -0.20778715529384639 0 0.31559690427448428 -0.20140105732059169 0 0.30299786424224051 -0.20778715529384639 0 0.31291435347682789 -0.2134437666299773 0 0.31559690427448428 -0.20140105732059169 0 0.29266584447977001 -0.21228091551288511 0 0.30299786424224051 -0.20778715529384639 0 0.30118271727185708 -0.22162749785956051 0 0.30299786424224051 -0.20778715529384639 0 0.30118271727185708 -0.22162749785956051 0 0.31291435347682789 -0.2134437666299773 0 0.30118271727185708 -0.22162749785956051 0 0.31291435347682789 -0.2134437666299773 0 0.31768471564404049 -0.22543770841095939 0 0.30118271727185708 -0.22162749785956051 0 0.30686298038310278 -0.23653910699017769 0 0.31768471564404049 -0.22543770841095939 0 0.30118271727185708 -0.22162749785956051 0 0.30686298038310278 -0.23653910699017769 0 0.29201050768480769 -0.23473652826443059 0 0.30686298038310278 -0.23653910699017769 0 0.32146979424958622 -0.24479646355193069 0 0.30196716706522259 -0.25609733686400699 0 0.30686298038310278 -0.23653910699017769 0 0.29201050768480769 -0.23473652826443059 0 0.30196716706522259 -0.25609733686400699 0 0.27793269048731001 -0.24130386905901249 0 0.30196716706522259 -0.25609733686400699 0 0.29201050768480769 -0.23473652826443059 0 0.27793269048731001 -0.24130386905901249 0 0.30196716706522259 -0.25609733686400699 0 0.29201050768480769 -0.23473652826443059 0 0.27570498245888619 -0.22818108189754979 0 0.27793269048731001 -0.24130386905901249 0 0.29201050768480769 -0.23473652826443059 0 0.28562823597899317 -0.2211863599248364 0 0.27570498245888619 -0.22818108189754979 0 0.30118271727185708 -0.22162749785956051 0 0.29201050768480769 -0.23473652826443059 0 0.28562823597899317 -0.2211863599248364 0 0.27793269048731001 -0.24130386905901249 0 0.25389821390939737 -0.22651040125401781 0 0.27570498245888619 -0.22818108189754979 0 0.27793269048731001 -0.24130386905901249 0 0.25389821390939737 -0.22651040125401781 0 0.27570498245888619 -0.22818108189754979 0 0.25389821390939737 -0.22651040125401781 0 0.26905526423392301 -0.21716825098545159 0 0.28562823597899317 -0.2211863599248364 0 0.27570498245888619 -0.22818108189754979 0 0.26905526423392301 -0.21716825098545159 0 0.27793269048731001 -0.24130386905901249 0 0.26158936907359942 -0.24778181586443199 0 0.28255509982556509 -0.25796866242257632 0 0.27793269048731001 -0.24130386905901249 0 0.26158936907359942 -0.24778181586443199 0 0.25389821390939737 -0.22651040125401781 0 0.26158936907359942 -0.24778181586443199 0 0.2444299610463688 -0.25163298647013332 0 0.2473748297805245 -0.23965382761963189 0 0.26158936907359942 -0.24778181586443199 0 0.25389821390939737 -0.22651040125401781 0 0.2473748297805245 -0.23965382761963189 0 0.26158936907359942 -0.24778181586443199 0 0.25389821390939737 -0.22651040125401781 0 0.25389821390939737 -0.22651040125401781 0 0.25830604706402011 -0.2138927707089909 0 0.26905526423392301 -0.21716825098545159 0 0.25389821390939737 -0.22651040125401781 0 0.25830604706402011 -0.2138927707089909 0 0.2482240050903991 -0.21081725168179599 0 0.25389821390939737 -0.22651040125401781 0 0.2482240050903991 -0.21081725168179599 0 0.25830604706402011 -0.2138927707089909 0 0.26012861449852243 -0.20265090864453009 0 0.2482240050903991 -0.21081725168179599 0 0.25830604706402011 -0.2138927707089909 0 0.26905526423392301 -0.21716825098545159 0 0.26012861449852243 -0.20265090864453009 0 0.2819317776496727 -0.21022401048871711 0 0.26905526423392301 -0.21716825098545159 0 0.27333833458215873 -0.20150979381431941 0 0.2819317776496727 -0.21022401048871711 0 0.28562823597899317 -0.2211863599248364 0 0.26905526423392301 -0.21716825098545159 0 0.26905526423392301 -0.21716825098545159 0 0.27333833458215873 -0.20150979381431941 0 0.26012861449852243 -0.20265090864453009 0 0.27736833953052109 -0.18806332318182931 0 0.27333833458215873 -0.20150979381431941 0 0.26069798342982847 -0.18822576730094739 0 0.28945187163189179 -0.20030043613154899 0 0.27736833953052109 -0.18806332318182931 0 0.27333833458215873 -0.20150979381431941 0 0.26069798342982847 -0.18822576730094739 0 0.24968987140106341 -0.18092922336105319 0 0.24254979627140069 -0.19512410210957429 0 0.26069798342982847 -0.18822576730094739 0 0.26012861449852243 -0.20265090864453009 0 0.24254979627140069 -0.19512410210957429 0 0.26012861449852243 -0.20265090864453009 0 0.24254979627140069 -0.19512410210957429 0 0.2482240050903991 -0.21081725168179599 0 0.27333833458215873 -0.20150979381431941 0 0.26069798342982847 -0.18822576730094739 0 0.26012861449852243 -0.20265090864453009 0 0.26069798342982847 -0.18822576730094739 0 0.26031142399630458 -0.17458228913771301 0 0.24968987140106341 -0.18092922336105319 0 0.26031142399630458 -0.17458228913771301 0 0.25191763631458969 -0.1638194710615489 0 0.24968987140106341 -0.18092922336105319 0 0.26069798342982847 -0.18822576730094739 0 0.26031142399630458 -0.17458228913771301 0 0.27394945054791769 -0.1740362521757772 0 0.26031142399630458 -0.17458228913771301 0 0.25191763631458969 -0.1638194710615489 0 0.27049975582364538 -0.16030243163812241 0 0.25191763631458969 -0.1638194710615489 0 0.27049975582364538 -0.16030243163812241 0 0.27394945054791769 -0.1740362521757772 0 0.28554742194862948 -0.1464263391146457 0 0.26031142399630458 -0.17458228913771301 0 0.27049975582364538 -0.16030243163812241 0 0.27394945054791769 -0.1740362521757772 0 0.27049975582364538 -0.16030243163812241 0 0.27394945054791769 -0.1740362521757772 0 0.28554742194862948 -0.1464263391146457 0 0.27736833953052109 -0.18806332318182931 0 0.26069798342982847 -0.18822576730094739 0 0.27394945054791769 -0.1740362521757772 0 0.27736833953052109 -0.18806332318182931 0 0.27394945054791769 -0.1740362521757772 0 0.28504744604677701 -0.1775979481380251 0 0.26207184556310509 -0.123545072290382 0 0.25177330827706301 -0.13290269088953879 0 0.26383842199663587 -0.13449424326911771 0 0.2525608327608555 -0.12289103938169629 0 0.26207184556310509 -0.123545072290382 0 0.25177330827706301 -0.13290269088953879 0 0.25177330827706301 -0.13290269088953879 0 0.26383842199663587 -0.13449424326911771 0 0.25636076162935229 -0.1444542819800981 0 0.25191763631458969 -0.1638194710615489 0 0.25636076162935229 -0.1444542819800981 0 0.27200200748279202 -0.1435973918244608 0 0.25191763631458969 -0.1638194710615489 0 0.27200200748279202 -0.1435973918244608 0 0.25191763631458969 -0.1638194710615489 0 0.27049975582364538 -0.16030243163812241 0 0.27200200748279202 -0.1435973918244608 0 0.26383842199663587 -0.13449424326911771 0 0.25636076162935229 -0.1444542819800981 0 0.27200200748279202 -0.1435973918244608 0 0.25191763631458969 -0.1638194710615489 0 0.25636076162935229 -0.1444542819800981 0 0.24227243407568111 -0.14745761285582429 0 0.25177330827706301 -0.13290269088953879 0 0.25636076162935229 -0.1444542819800981 0 0.24227243407568111 -0.14745761285582429 0 0.27049975582364538 -0.16030243163812241 0 0.27200200748279202 -0.1435973918244608 0 0.28554742194862948 -0.1464263391146457 0 0.29208637865099429 -0.1233753125873726 0 0.27200200748279202 -0.1435973918244608 0 0.27248199084697761 -0.12727963007944959 0 0.26383842199663587 -0.13449424326911771 0 0.27200200748279202 -0.1435973918244608 0 0.27248199084697761 -0.12727963007944959 0 0.26207184556310509 -0.123545072290382 0 0.26383842199663587 -0.13449424326911771 0 0.27248199084697761 -0.12727963007944959 0 0.29208637865099429 -0.1233753125873726 0 0.27200200748279202 -0.1435973918244608 0 0.28554742194862948 -0.1464263391146457 0 0.29714539334934209 -0.1188164260535145 0 0.29208637865099429 -0.1233753125873726 0 0.28554742194862948 -0.1464263391146457 0 0.29714539334934209 -0.1188164260535145 0 0.28554742194862948 -0.1464263391146457 0 0.29714539334934209 -0.1188164260535145 0 0.28554742194862948 -0.1464263391146457 0 0.29976004520341409 -0.13583911174545699 0 0.29208637865099429 -0.1233753125873726 0 0.27200200748279202 -0.1435973918244608 0 0.28554742194862948 -0.1464263391146457 0 0.29409122134016258 -0.15461713558734611 0 0.2881134911778338 -0.1637451664648556 0 0.28554742194862948 -0.1464263391146457 0 0.30009301487739032 -0.14702844055967379 0 0.29976004520341409 -0.13583911174545699 0 0.28554742194862948 -0.1464263391146457 0 0.29409122134016258 -0.15461713558734611 0 0.30009301487739032 -0.14702844055967379 0 0.29409122134016258 -0.15461713558734611 0 0.30233828128556262 -0.1549053640018353 0 0.30009301487739032 -0.14702844055967379 0 0.30233828128556262 -0.1549053640018353 0 0.3103272041312074 -0.15049084711816549 0 0.30009301487739032 -0.14702844055967379 0 0.30233828128556262 -0.1549053640018353 0 0.3103272041312074 -0.15049084711816549 0 0.30921318983907109 -0.1619303015949832 0 0.3103272041312074 -0.15049084711816549 0 0.30009301487739032 -0.14702844055967379 0 0.30849391535536552 -0.13989184579059361 0 0.30009301487739032 -0.14702844055967379 0 0.29976004520341409 -0.13583911174545699 0 0.30849391535536552 -0.13989184579059361 0 0.29714539334934209 -0.1188164260535145 0 0.29976004520341409 -0.13583911174545699 0 0.3055270897892205 -0.12884390531450771 0 0.29976004520341409 -0.13583911174545699 0 0.30849391535536552 -0.13989184579059361 0 0.3055270897892205 -0.12884390531450771 0 0.30849391535536552 -0.13989184579059361 0 0.3055270897892205 -0.12884390531450771 0 0.31434405906126289 -0.13257085261651921 0 0.31321410009550821 -0.123016794088877 0 0.3055270897892205 -0.12884390531450771 0 0.31434405906126289 -0.13257085261651921 0 0.29409839749045019 -0.17501193738385951 0 0.28504744604677701 -0.1775979481380251 0 0.2881134911778338 -0.1637451664648556 0 0.29409839749045019 -0.17501193738385951 0 0.29170755148716238 -0.18713306148380379 0 0.30398065128611812 -0.18343602661035341 0 0.29409839749045019 -0.17501193738385951 0 0.29170755148716238 -0.18713306148380379 0 0.28504744604677701 -0.1775979481380251 0 0.27736833953052109 -0.18806332318182931 0 0.29170755148716238 -0.18713306148380379 0 0.28504744604677701 -0.1775979481380251 0 0.27394945054791769 -0.1740362521757772 0 0.28554742194862948 -0.1464263391146457 0 0.2881134911778338 -0.1637451664648556 0 0.27394945054791769 -0.1740362521757772 0 0.28504744604677701 -0.1775979481380251 0 0.2881134911778338 -0.1637451664648556 0 0.29409122134016258 -0.15461713558734611 0 0.2881134911778338 -0.1637451664648556 0 0.29863286295366082 -0.1636336358658762 0 0.29409839749045019 -0.17501193738385951 0 0.2881134911778338 -0.1637451664648556 0 0.29863286295366082 -0.1636336358658762 0 0.29409839749045019 -0.17501193738385951 0 0.29863286295366082 -0.1636336358658762 0 0.30607506283140151 -0.17260884288067169 0 0.29863286295366082 -0.1636336358658762 0 0.30921318983907109 -0.1619303015949832 0 0.30607506283140151 -0.17260884288067169 0 0.29409122134016258 -0.15461713558734611 0 0.30233828128556262 -0.1549053640018353 0 0.29863286295366082 -0.1636336358658762 0 0.30233828128556262 -0.1549053640018353 0 0.29863286295366082 -0.1636336358658762 0 0.30921318983907109 -0.1619303015949832 0 0.30921318983907109 -0.1619303015949832 0 0.30607506283140151 -0.17260884288067169 0 0.31965280828603237 -0.17293346664446799 0 0.30607506283140151 -0.17260884288067169 0 0.30398065128611812 -0.18343602661035341 0 0.3128488117429486 -0.17985172185067061 0 0.29409839749045019 -0.17501193738385951 0 0.30607506283140151 -0.17260884288067169 0 0.30398065128611812 -0.18343602661035341 0 0.30398065128611812 -0.18343602661035341 0 0.3128488117429486 -0.17985172185067061 0 0.31604834541304649 -0.18901248646670341 0 0.3128488117429486 -0.17985172185067061 0 0.32555222801186973 -0.18269946958701519 0 0.31604834541304649 -0.18901248646670341 0 0.32555222801186973 -0.18269946958701519 0 0.31965280828603237 -0.17293346664446799 0 0.33470628215790038 -0.16920422344781499 0 0.30607506283140151 -0.17260884288067169 0 0.3128488117429486 -0.17985172185067061 0 0.31965280828603237 -0.17293346664446799 0 0.3128488117429486 -0.17985172185067061 0 0.32555222801186973 -0.18269946958701519 0 0.31965280828603237 -0.17293346664446799 0 0.30921318983907109 -0.1619303015949832 0 0.31965280828603237 -0.17293346664446799 0 0.31914144714761072 -0.15743337502483831 0 0.3103272041312074 -0.15049084711816549 0 0.30921318983907109 -0.1619303015949832 0 0.31914144714761072 -0.15743337502483831 0 0.31914144714761072 -0.15743337502483831 0 0.32567026121334841 -0.16497646485239381 0 0.33071460594104202 -0.15659670772028461 0 0.31965280828603237 -0.17293346664446799 0 0.31914144714761072 -0.15743337502483831 0 0.32567026121334841 -0.16497646485239381 0 0.31965280828603237 -0.17293346664446799 0 0.32567026121334841 -0.16497646485239381 0 0.33470628215790038 -0.16920422344781499 0 0.32567026121334841 -0.16497646485239381 0 0.33470628215790038 -0.16920422344781499 0 0.33071460594104202 -0.15659670772028461 0 0.33470628215790038 -0.16920422344781499 0 0.33071460594104202 -0.15659670772028461 0 0.34392153500440198 -0.1566675827275382 0 0.32555222801186973 -0.18269946958701519 0 0.33691181363064993 -0.18163280134194151 0 0.32785030359678269 -0.19560954034647249 0 0.32555222801186973 -0.18269946958701519 0 0.33470628215790038 -0.16920422344781499 0 0.33691181363064993 -0.18163280134194151 0 0.32378512794698189 -0.13261864383979041 0 0.32058743505373111 -0.14450695899510921 0 0.33647935586674249 -0.14242679484300921 0 0.31321410009550821 -0.123016794088877 0 0.32378512794698189 -0.13261864383979041 0 0.31434405906126289 -0.13257085261651921 0 0.32378512794698189 -0.13261864383979041 0 0.31434405906126289 -0.13257085261651921 0 0.32058743505373111 -0.14450695899510921 0 0.30849391535536552 -0.13989184579059361 0 0.31434405906126289 -0.13257085261651921 0 0.32058743505373111 -0.14450695899510921 0 0.3103272041312074 -0.15049084711816549 0 0.30849391535536552 -0.13989184579059361 0 0.32058743505373111 -0.14450695899510921 0 0.3103272041312074 -0.15049084711816549 0 0.31914144714761072 -0.15743337502483831 0 0.32058743505373111 -0.14450695899510921 0 0.31914144714761072 -0.15743337502483831 0 0.33071460594104202 -0.15659670772028461 0 0.32058743505373111 -0.14450695899510921 0 0.33071460594104202 -0.15659670772028461 0 0.32058743505373111 -0.14450695899510921 0 0.33647935586674249 -0.14242679484300921 0 0.33071460594104202 -0.15659670772028461 0 0.33647935586674249 -0.14242679484300921 0 0.34392153500440198 -0.1566675827275382 0 0.32378512794698189 -0.13261864383979041 0 0.33647935586674249 -0.14242679484300921 0 0.33541316111977909 -0.1324815294035066 0 0.33647935586674249 -0.14242679484300921 0 0.33541316111977909 -0.1324815294035066 0 0.34591842363940589 -0.13209506000560911 0 0.33546973702598631 -0.1227856189256179 0 0.33541316111977909 -0.1324815294035066 0 0.34591842363940589 -0.13209506000560911 0 0.33546973702598631 -0.1227856189256179 0 0.32378512794698189 -0.13261864383979041 0 0.33541316111977909 -0.1324815294035066 0 0.33647935586674249 -0.14242679484300921 0 0.34591842363940589 -0.13209506000560911 0 0.35519418424247201 -0.14716408388195751 0 0.34591842363940589 -0.13209506000560911 0 0.35519418424247201 -0.14716408388195751 0 0.35946173749758142 -0.12857094381765011 0 0.34942203516189407 -0.1165766057174966 0 0.34591842363940589 -0.13209506000560911 0 0.35946173749758142 -0.12857094381765011 0 0.33647935586674249 -0.14242679484300921 0 0.35519418424247201 -0.14716408388195751 0 0.34392153500440198 -0.1566675827275382 0 0.35519418424247201 -0.14716408388195751 0 0.36251324681385289 -0.1679461037446246 0 0.37682003422194138 -0.14695723973624911 0 0.35519418424247201 -0.14716408388195751 0 0.35946173749758142 -0.12857094381765011 0 0.37682003422194138 -0.14695723973624911 0 0.35946173749758142 -0.12857094381765011 0 0.38275455807869108 -0.1259479040952235 0 0.37682003422194138 -0.14695723973624911 0 0.35946173749758142 -0.12857094381765011 0 0.38275455807869108 -0.1259479040952235 0 0.33691181363064993 -0.18163280134194151 0 0.36251324681385289 -0.1679461037446246 0 0.35997513491540112 -0.19073992405883769 0 0.33470628215790038 -0.16920422344781499 0 0.33691181363064993 -0.18163280134194151 0 0.36251324681385289 -0.1679461037446246 0 0.33470628215790038 -0.16920422344781499 0 0.36251324681385289 -0.1679461037446246 0 0.33470628215790038 -0.16920422344781499 0 0.34392153500440198 -0.1566675827275382 0 0.36251324681385289 -0.1679461037446246 0 0.35519418424247201 -0.14716408388195751 0 0.34392153500440198 -0.1566675827275382 0 0.36251324681385289 -0.1679461037446246 0 0.36251324681385289 -0.1679461037446246 0 0.35997513491540112 -0.19073992405883769 0 0.37708848150419372 -0.18216411619502271 0 0.35997513491540112 -0.19073992405883769 0 0.37951786791500408 -0.2016763387904105 0 0.37708848150419372 -0.18216411619502271 0 0.35997513491540112 -0.19073992405883769 0 0.36295230234299031 -0.21163302595727651 0 0.37951786791500408 -0.2016763387904105 0 0.36295230234299031 -0.21163302595727651 0 0.37453142961780778 -0.2235436289861121 0 0.37951786791500408 -0.2016763387904105 0 0.36295230234299031 -0.21163302595727651 0 0.34588296429912951 -0.20794601309765459 0 0.35485411496760888 -0.23425922485336759 0 0.35997513491540112 -0.19073992405883769 0 0.36295230234299031 -0.21163302595727651 0 0.34588296429912951 -0.20794601309765459 0 0.33691181363064993 -0.18163280134194151 0 0.35997513491540112 -0.19073992405883769 0 0.34588296429912951 -0.20794601309765459 0 0.33691181363064993 -0.18163280134194151 0 0.34588296429912951 -0.20794601309765459 0 0.33691181363064993 -0.18163280134194151 0 0.34588296429912951 -0.20794601309765459 0 0.32785030359678269 -0.19560954034647249 0 0.34588296429912951 -0.20794601309765459 0 0.32642679296558957 -0.21162652176753749 0 0.33674719048650759 -0.2257466425420348 0 0.34588296429912951 -0.20794601309765459 0 0.32642679296558957 -0.21162652176753749 0 0.32785030359678269 -0.19560954034647249 0 0.32642679296558957 -0.21162652176753749 0 0.31291435347682789 -0.2134437666299773 0 0.31768471564404049 -0.22543770841095939 0 0.32642679296558957 -0.21162652176753749 0 0.31291435347682789 -0.2134437666299773 0 0.31559690427448428 -0.20140105732059169 0 0.32642679296558957 -0.21162652176753749 0 0.31559690427448428 -0.20140105732059169 0 0.32785030359678269 -0.19560954034647249 0 0.31559690427448428 -0.20140105732059169 0 0.31604834541304649 -0.18901248646670341 0 0.32785030359678269 -0.19560954034647249 0 0.32555222801186973 -0.18269946958701519 0 0.31604834541304649 -0.18901248646670341 0 0.32785030359678269 -0.19560954034647249 0 0.30686298038310278 -0.23653910699017769 0 0.32146979424958622 -0.24479646355193069 0 0.31768471564404049 -0.22543770841095939 0 0.32146979424958622 -0.24479646355193069 0 0.31768471564404049 -0.22543770841095939 0 0.33674719048650759 -0.2257466425420348 0 0.32642679296558957 -0.21162652176753749 0 0.31768471564404049 -0.22543770841095939 0 0.33674719048650759 -0.2257466425420348 0 0.32146979424958622 -0.24479646355193069 0 0.33674719048650759 -0.2257466425420348 0 0.3426862872816076 -0.2448529739803291 0 0.35485411496760888 -0.23425922485336759 0 0.36382526563608841 -0.26057243660908053 0 0.33674719048650759 -0.2257466425420348 0 0.3426862872816076 -0.2448529739803291 0 0.35485411496760888 -0.23425922485336759 0 0.3426862872816076 -0.2448529739803291 0 0.35485411496760888 -0.23425922485336759 0 0.36382526563608841 -0.26057243660908053 0 0.34588296429912951 -0.20794601309765459 0 0.33674719048650759 -0.2257466425420348 0 0.35485411496760888 -0.23425922485336759 0 0.34588296429912951 -0.20794601309765459 0 0.35485411496760888 -0.23425922485336759 0 0.35485411496760888 -0.23425922485336759 0 0.37453142961780778 -0.2235436289861121 0 0.3728553354896833 -0.24170966668946789 0 0.36295230234299031 -0.21163302595727651 0 0.35485411496760888 -0.23425922485336759 0 0.37453142961780778 -0.2235436289861121 0 0.35485411496760888 -0.23425922485336759 0 0.3728553354896833 -0.24170966668946789 0 0.36382526563608841 -0.26057243660908053 0 0.3728553354896833 -0.24170966668946789 0 0.38660095623609481 -0.23623481095186549 0 0.38323898802897471 -0.25369016854328119 0 0.38660095623609481 -0.23623481095186549 0 0.39533181906631742 -0.2475883596766216 0 0.38323898802897471 -0.25369016854328119 0 0.38660095623609481 -0.23623481095186549 0 0.39533181906631742 -0.2475883596766216 0 0.40470473351129671 -0.23187684708743431 0 0.39533181906631742 -0.2475883596766216 0 0.40470473351129671 -0.23187684708743431 0 0.4099601707076016 -0.25146853119345353 0 0.38660095623609481 -0.23623481095186549 0 0.40470473351129671 -0.23187684708743431 0 0.39417498830075931 -0.21531073547332569 0 0.40470473351129671 -0.23187684708743431 0 0.39417498830075931 -0.21531073547332569 0 0.41671928957882243 -0.20990428530352859 0 0.37453142961780778 -0.2235436289861121 0 0.3728553354896833 -0.24170966668946789 0 0.38660095623609481 -0.23623481095186549 0 0.37453142961780778 -0.2235436289861121 0 0.38660095623609481 -0.23623481095186549 0 0.39417498830075931 -0.21531073547332569 0 0.37453142961780778 -0.2235436289861121 0 0.37951786791500408 -0.2016763387904105 0 0.39417498830075931 -0.21531073547332569 0 0.37951786791500408 -0.2016763387904105 0 0.40297565294553039 -0.1886285017206035 0 0.37708848150419372 -0.18216411619502271 0 0.37951786791500408 -0.2016763387904105 0 0.40297565294553039 -0.1886285017206035 0 0.39417498830075931 -0.21531073547332569 0 0.40297565294553039 -0.1886285017206035 0 0.39417498830075931 -0.21531073547332569 0 0.41671928957882243 -0.20990428530352859 0 0.40297565294553039 -0.1886285017206035 0 0.41671928957882243 -0.20990428530352859 0 0.42972086176690349 -0.19122612890714011 0 0.41671928957882243 -0.20990428530352859 0 0.42972086176690349 -0.19122612890714011 0 0.44083587097413179 -0.213119303041235 0 0.41671928957882243 -0.20990428530352859 0 0.43312976515129792 -0.2267342990419057 0 0.44083587097413179 -0.213119303041235 0 0.41671928957882243 -0.20990428530352859 0 0.43312976515129792 -0.2267342990419057 0 0.42257618002097241 -0.2357129766342545 0 0.43312976515129792 -0.2267342990419057 0 0.4359575627209073 -0.24029889897392279 0 0.42257618002097241 -0.2357129766342545 0 0.4359575627209073 -0.24029889897392279 0 0.42257618002097241 -0.2357129766342545 0 0.42843307046312168 -0.26152166796498072 0 0.42257618002097241 -0.2357129766342545 0 0.42843307046312168 -0.26152166796498072 0 0.42257618002097241 -0.2357129766342545 0 0.4099601707076016 -0.25146853119345353 0 0.42843307046312168 -0.26152166796498072 0 0.40470473351129671 -0.23187684708743431 0 0.42257618002097241 -0.2357129766342545 0 0.4099601707076016 -0.25146853119345353 0 0.40470473351129671 -0.23187684708743431 0 0.41671928957882243 -0.20990428530352859 0 0.42257618002097241 -0.2357129766342545 0 0.41671928957882243 -0.20990428530352859 0 0.42257618002097241 -0.2357129766342545 0 0.40604737865980089 -0.1233248643727969 0 0.3956826072182752 -0.1360174485408103 0 0.38275455807869108 -0.1259479040952235 0 0.40604737865980089 -0.1233248643727969 0 0.3956826072182752 -0.1360174485408103 0 0.40977480719282472 -0.1334225837494743 0 0.3956826072182752 -0.1360174485408103 0 0.4108033893338191 -0.147102156480934 0 0.40977480719282472 -0.1334225837494743 0 0.3956826072182752 -0.1360174485408103 0 0.38275455807869108 -0.1259479040952235 0 0.37682003422194138 -0.14695723973624911 0 0.3956826072182752 -0.1360174485408103 0 0.37682003422194138 -0.14695723973624911 0 0.39032021146980539 -0.16668798404143431 0 0.3956826072182752 -0.1360174485408103 0 0.39032021146980539 -0.16668798404143431 0 0.4108033893338191 -0.147102156480934 0 0.39032021146980539 -0.16668798404143431 0 0.41812717612575778 -0.165429864338244 0 0.36251324681385289 -0.1679461037446246 0 0.39032021146980539 -0.16668798404143431 0 0.36251324681385289 -0.1679461037446246 0 0.37682003422194138 -0.14695723973624911 0 0.39032021146980539 -0.16668798404143431 0 0.36251324681385289 -0.1679461037446246 0 0.39032021146980539 -0.16668798404143431 0 0.37708848150419372 -0.18216411619502271 0 0.40297565294553039 -0.1886285017206035 0 0.39032021146980539 -0.16668798404143431 0 0.37708848150419372 -0.18216411619502271 0 0.40297565294553039 -0.1886285017206035 0 0.39032021146980539 -0.16668798404143431 0 0.41812717612575778 -0.165429864338244 0 0.40297565294553039 -0.1886285017206035 0 0.42972086176690349 -0.19122612890714011 0 0.41812717612575778 -0.165429864338244 0 0.42972086176690349 -0.19122612890714011 0 0.41812717612575778 -0.165429864338244 0 0.44446831043725987 -0.17443883014544381 0 0.41812717612575778 -0.165429864338244 0 0.44589625631238322 -0.15210811832757709 0 0.44446831043725987 -0.17443883014544381 0 0.39032021146980539 -0.16668798404143431 0 0.41812717612575778 -0.165429864338244 0 0.4108033893338191 -0.147102156480934 0 0.41812717612575778 -0.165429864338244 0 0.4108033893338191 -0.147102156480934 0 0.43020699471623802 -0.14431477047598459 0 0.4108033893338191 -0.147102156480934 0 0.43020699471623802 -0.14431477047598459 0 0.41975444836949111 -0.13633031146780331 0 0.41812717612575778 -0.165429864338244 0 0.43020699471623802 -0.14431477047598459 0 0.44589625631238322 -0.15210811832757709 0 0.44439080825515859 -0.12283557353010061 0 0.41658621238273741 -0.1243381378850273 0 0.43073090512410861 -0.1329949377618819 0 0.43020699471623802 -0.14431477047598459 0 0.43073090512410861 -0.1329949377618819 0 0.41975444836949111 -0.13633031146780331 0 0.43020699471623802 -0.14431477047598459 0 0.43073090512410861 -0.1329949377618819 0 0.44394941909502461 -0.1370247884400089 0 0.41658621238273741 -0.1243381378850273 0 0.43073090512410861 -0.1329949377618819 0 0.41975444836949111 -0.13633031146780331 0 0.41658621238273741 -0.1243381378850273 0 0.41975444836949111 -0.13633031146780331 0 0.40977480719282472 -0.1334225837494743 0 0.4108033893338191 -0.147102156480934 0 0.41975444836949111 -0.13633031146780331 0 0.40977480719282472 -0.1334225837494743 0 0.41658621238273741 -0.1243381378850273 0 0.40604737865980089 -0.1233248643727969 0 0.40977480719282472 -0.1334225837494743 0 0.46087527358491931 -0.13916761602029279 0 0.45535272626567053 -0.13009024679139411 0 0.44394941909502461 -0.1370247884400089 0 0.47219540412757982 -0.12133300917517389 0 0.46087527358491931 -0.13916761602029279 0 0.45535272626567053 -0.13009024679139411 0 0.44439080825515859 -0.12283557353010061 0 0.45535272626567053 -0.13009024679139411 0 0.44394941909502461 -0.1370247884400089 0 0.44439080825515859 -0.12283557353010061 0 0.43073090512410861 -0.1329949377618819 0 0.44394941909502461 -0.1370247884400089 0 0.43020699471623802 -0.14431477047598459 0 0.44394941909502461 -0.1370247884400089 0 0.44589625631238322 -0.15210811832757709 0 0.46087527358491931 -0.13916761602029279 0 0.44394941909502461 -0.1370247884400089 0 0.44589625631238322 -0.15210811832757709 0 0.46087527358491931 -0.13916761602029279 0 0.44589625631238322 -0.15210811832757709 0 0.46063812572462631 -0.15990847021204549 0 0.46087527358491931 -0.13916761602029279 0 0.46063812572462631 -0.15990847021204549 0 0.48104457852073262 -0.15191042169367391 0 0.46063812572462631 -0.15990847021204549 0 0.46228021718085432 -0.1763269472782758 0 0.47871266037648841 -0.17266393857974571 0 0.46063812572462631 -0.15990847021204549 0 0.44446831043725987 -0.17443883014544381 0 0.46228021718085432 -0.1763269472782758 0 0.44589625631238322 -0.15210811832757709 0 0.46063812572462631 -0.15990847021204549 0 0.44446831043725987 -0.17443883014544381 0 0.42972086176690349 -0.19122612890714011 0 0.44446831043725987 -0.17443883014544381 0 0.45519887053991892 -0.19583598889378581 0 0.46228021718085432 -0.1763269472782758 0 0.45519887053991892 -0.19583598889378581 0 0.47322619671005661 -0.18753025527162909 0 0.44446831043725987 -0.17443883014544381 0 0.46228021718085432 -0.1763269472782758 0 0.45519887053991892 -0.19583598889378581 0 0.47871266037648841 -0.17266393857974571 0 0.47322619671005661 -0.18753025527162909 0 0.48904219948170591 -0.19271593688653241 0 0.46228021718085432 -0.1763269472782758 0 0.47871266037648841 -0.17266393857974571 0 0.47322619671005661 -0.18753025527162909 0 0.47871266037648841 -0.17266393857974571 0 0.50000000000000178 -0.16520530693749039 0 0.48904219948170591 -0.19271593688653241 0 0.50000000000000178 -0.16520530693749039 0 0.48904219948170591 -0.19271593688653241 0 0.50000000000000178 -0.16520530693749039 0 0.48904219948170591 -0.19271593688653241 0 0.5 -0.19062189139745289 0 0.47871266037648841 -0.17266393857974571 0 0.50000000000000178 -0.16520530693749039 0 0.48104457852073262 -0.15191042169367391 0 0.46063812572462631 -0.15990847021204549 0 0.47871266037648841 -0.17266393857974571 0 0.48104457852073262 -0.15191042169367391 0 0.46087527358491931 -0.13916761602029279 0 0.48104457852073262 -0.15191042169367391 0 0.48282305124664632 -0.13495187351765131 0 0.48104457852073262 -0.15191042169367391 0 0.5 -0.1425178758788688 0 0.48282305124664632 -0.13495187351765131 0 0.50000000000000178 -0.16520530693749039 0 0.48104457852073262 -0.15191042169367391 0 0.5 -0.1425178758788688 0 0.47219540412757982 -0.12133300917517389 0 0.50000000000000111 -0.1198304448202472 0 0.48282305124664632 -0.13495187351765131 0 0.50000000000000111 -0.1198304448202472 0 0.5 -0.1425178758788688 0 0.48282305124664632 -0.13495187351765131 0 0.47219540412757982 -0.12133300917517389 0 0.46087527358491931 -0.13916761602029279 0 0.48282305124664632 -0.13495187351765131 0 0.46104233815391232 -0.23120133744579621 0 0.45881341533385572 -0.21554190531045411 0 0.47808439896340832 -0.22022656683557379 0 0.46104233815391232 -0.23120133744579621 0 0.44717763098323088 -0.22843218330813819 0 0.45881341533385572 -0.21554190531045411 0 0.46104233815391232 -0.23120133744579621 0 0.45328683356528082 -0.24369735603551579 0 0.47156881064531819 -0.24035642769241741 0 0.45328683356528082 -0.24369735603551579 0 0.47156881064531819 -0.24035642769241741 0 0.46081071523755268 -0.25850548730515632 0 0.46104233815391232 -0.23120133744579621 0 0.45328683356528082 -0.24369735603551579 0 0.44717763098323088 -0.22843218330813819 0 0.4359575627209073 -0.24029889897392279 0 0.45328683356528082 -0.24369735603551579 0 0.44522423344337908 -0.25949473371753262 0 0.4359575627209073 -0.24029889897392279 0 0.45328683356528082 -0.24369735603551579 0 0.44717763098323088 -0.22843218330813819 0 0.44717763098323088 -0.22843218330813819 0 0.44083587097413179 -0.213119303041235 0 0.45881341533385572 -0.21554190531045411 0 0.43312976515129792 -0.2267342990419057 0 0.4359575627209073 -0.24029889897392279 0 0.44717763098323088 -0.22843218330813819 0 0.43312976515129792 -0.2267342990419057 0 0.44717763098323088 -0.22843218330813819 0 0.44083587097413179 -0.213119303041235 0 0.44083587097413179 -0.213119303041235 0 0.45519887053991892 -0.19583598889378581 0 0.45881341533385572 -0.21554190531045411 0 0.42972086176690349 -0.19122612890714011 0 0.44083587097413179 -0.213119303041235 0 0.45519887053991892 -0.19583598889378581 0 0.45519887053991892 -0.19583598889378581 0 0.4716965838582185 -0.20174460256182969 0 0.47322619671005661 -0.18753025527162909 0 0.45519887053991892 -0.19583598889378581 0 0.45881341533385572 -0.21554190531045411 0 0.4716965838582185 -0.20174460256182969 0 0.45881341533385572 -0.21554190531045411 0 0.4716965838582185 -0.20174460256182969 0 0.47808439896340832 -0.22022656683557379 0 0.48904219948170591 -0.19271593688653241 0 0.47808439896340832 -0.22022656683557379 0 0.4716965838582185 -0.20174460256182969 0 0.48904219948170591 -0.19271593688653241 0 0.47808439896340832 -0.22022656683557379 0 0.4716965838582185 -0.20174460256182969 0 0.47322619671005661 -0.18753025527162909 0 0.48904219948170591 -0.19271593688653241 0 0.48904219948170591 -0.19271593688653241 0 0.5 -0.19062189139745289 0 0.5 -0.21603847585741551 0 0.48904219948170591 -0.19271593688653241 0 0.5 -0.21603847585741551 0 0.47808439896340832 -0.22022656683557379 0 0.5 -0.21603847585741551 0 0.48774167448605488 -0.2315533564053667 0 0.47808439896340832 -0.22022656683557379 0 0.5 -0.21603847585741551 0 0.48774167448605488 -0.2315533564053667 0 0.5 -0.2414550603173781 0 0.48774167448605488 -0.2315533564053667 0 0.47808439896340832 -0.22022656683557379 0 0.47156881064531819 -0.24035642769241741 0 0.46104233815391232 -0.23120133744579621 0 0.47808439896340832 -0.22022656683557379 0 0.47156881064531819 -0.24035642769241741 0 0.48774167448605488 -0.2315533564053667 0 0.47156881064531819 -0.24035642769241741 0 0.48414940442378901 -0.24333061499514089 0 0.47156881064531819 -0.24035642769241741 0 0.48414940442378901 -0.24333061499514089 0 0.47586630968723009 -0.25398027482437241 0 0.48414940442378901 -0.24333061499514089 0 0.5 -0.2414550603173781 0 0.48841079277084232 -0.2579972407415701 0 0.48774167448605488 -0.2315533564053667 0 0.48414940442378901 -0.24333061499514089 0 0.5 -0.2414550603173781 0 0.5 -0.2414550603173781 0 0.48841079277084232 -0.2579972407415701 0 0.50000000000000089 -0.2668716447773406 0 0.48841079277084232 -0.2579972407415701 0 0.4926721811178969 -0.2726638664879989 0 0.48414940442378901 -0.24333061499514089 0 0.48841079277084232 -0.2579972407415701 0 0.48841079277084232 -0.2579972407415701 0 0.4926721811178969 -0.2726638664879989 0 0.47505565961346669 -0.26886225523321028 0 0.4926721811178969 -0.2726638664879989 0 0.50000000000000089 -0.2668716447773406 0 0.5 -0.28237800941953312 0 0.48841079277084232 -0.2579972407415701 0 0.4926721811178969 -0.2726638664879989 0 0.50000000000000089 -0.2668716447773406 0 0.4926721811178969 -0.2726638664879989 0 0.50000000000000089 -0.2668716447773406 0 0.4926721811178969 -0.2726638664879989 0 0.47523064094150991 -0.28645040642607078 0 0.4926721811178969 -0.2726638664879989 0 0.47505565961346669 -0.26886225523321028 0 0.47523064094150991 -0.28645040642607078 0 0.47156881064531819 -0.24035642769241741 0 0.47586630968723009 -0.25398027482437241 0 0.46081071523755268 -0.25850548730515632 0 0.48414940442378901 -0.24333061499514089 0 0.48841079277084232 -0.2579972407415701 0 0.47586630968723009 -0.25398027482437241 0 0.48841079277084232 -0.2579972407415701 0 0.47505565961346669 -0.26886225523321028 0 0.47586630968723009 -0.25398027482437241 0 0.47505565961346669 -0.26886225523321028 0 0.47586630968723009 -0.25398027482437241 0 0.46081071523755268 -0.25850548730515632 0 0.47505565961346669 -0.26886225523321028 0 0.453931205761339 -0.2792842800885138 0 0.47523064094150991 -0.28645040642607078 0 0.47505565961346669 -0.26886225523321028 0 0.46081071523755268 -0.25850548730515632 0 0.453931205761339 -0.2792842800885138 0 0.46081071523755268 -0.25850548730515632 0 0.453931205761339 -0.2792842800885138 0 0.44522423344337908 -0.25949473371753262 0 0.453931205761339 -0.2792842800885138 0 0.43950502267553831 -0.27281046432255007 0 0.44522423344337908 -0.25949473371753262 0 0.453931205761339 -0.2792842800885138 0 0.43950502267553831 -0.27281046432255007 0 0.44753388124163762 -0.29129368223099 0 0.43950502267553831 -0.27281046432255007 0 0.44522423344337908 -0.25949473371753262 0 0.42843307046312168 -0.26152166796498072 0 0.45328683356528082 -0.24369735603551579 0 0.46081071523755268 -0.25850548730515632 0 0.44522423344337908 -0.25949473371753262 0 0.44753388124163762 -0.29129368223099 0 0.45778910076512069 -0.30023694636414 0 0.4403475605887312 -0.31402348630220889 0 0.45778910076512069 -0.30023694636414 0 0.4403475605887312 -0.31402348630220889 0 0.45778910076512069 -0.30023694636414 0 0.45976944443815548 -0.32086468239505173 0 0.4403475605887312 -0.31402348630220889 0 0.44753388124163762 -0.29129368223099 0 0.4403475605887312 -0.31402348630220889 0 0.43439031552592677 -0.28777257713359478 0 0.453931205761339 -0.2792842800885138 0 0.44753388124163762 -0.29129368223099 0 0.45778910076512069 -0.30023694636414 0 0.43950502267553831 -0.27281046432255007 0 0.44753388124163762 -0.29129368223099 0 0.43439031552592677 -0.28777257713359478 0 0.45778910076512069 -0.30023694636414 0 0.47523064094150991 -0.28645040642607078 0 0.453931205761339 -0.2792842800885138 0 0.45778910076512069 -0.30023694636414 0 0.47523064094150991 -0.28645040642607078 0 0.45778910076512069 -0.30023694636414 0 0.47949123119256931 -0.30976657285196563 0 0.45976944443815548 -0.32086468239505173 0 0.45778910076512069 -0.30023694636414 0 0.47949123119256931 -0.30976657285196563 0 0.47523064094150991 -0.28645040642607078 0 0.4926721811178969 -0.2726638664879989 0 0.5 -0.28237800941953312 0 0.50000000000000022 -0.29788437406172552 0 0.4926721811178969 -0.2726638664879989 0 0.47523064094150991 -0.28645040642607078 0 0.50000000000000022 -0.29788437406172552 0 0.4926721811178969 -0.2726638664879989 0 0.50000000000000022 -0.29788437406172552 0 0.47949123119256931 -0.30976657285196563 0 0.47523064094150991 -0.28645040642607078 0 0.50000000000000022 -0.29788437406172552 0 0.47949123119256931 -0.30976657285196563 0 0.50000000000000022 -0.29788437406172552 0 0.5 -0.32844310190340381 0 0.47949123119256931 -0.30976657285196563 0 0.5 -0.32844310190340381 0 0.47562337630692819 -0.34314560545225647 0 0.47949123119256931 -0.30976657285196563 0 0.47562337630692819 -0.34314560545225647 0 0.45976944443815548 -0.32086468239505173 0 0.5 -0.32844310190340381 0 0.47562337630692819 -0.34314560545225647 0 0.5 -0.36963244832707232 0 0.47562337630692819 -0.34314560545225647 0 0.5 -0.36963244832707232 0 0.48435239200079799 -0.36958784634849051 0 0.47562337630692819 -0.34314560545225647 0 0.48435239200079799 -0.36958784634849051 0 0.45941279949299141 -0.36583164742583718 0 0.48435239200079799 -0.36958784634849051 0 0.45941279949299141 -0.36583164742583718 0 0.47036004476087862 -0.38072471818378112 0 0.48435239200079799 -0.36958784634849051 0 0.45941279949299141 -0.36583164742583718 0 0.47562337630692819 -0.34314560545225647 0 0.45941279949299141 -0.36583164742583718 0 0.44559595333742802 -0.33715080100468742 0 0.45941279949299141 -0.36583164742583718 0 0.44559595333742802 -0.33715080100468742 0 0.4344732069851846 -0.36207544850318391 0 0.45941279949299141 -0.36583164742583718 0 0.4344732069851846 -0.36207544850318391 0 0.45170203517773871 -0.38181930292096039 0 0.45941279949299141 -0.36583164742583718 0 0.4344732069851846 -0.36207544850318391 0 0.47562337630692819 -0.34314560545225647 0 0.45976944443815548 -0.32086468239505173 0 0.44559595333742802 -0.33715080100468742 0 0.45976944443815548 -0.32086468239505173 0 0.44559595333742802 -0.33715080100468742 0 0.4403475605887312 -0.31402348630220889 0 0.44559595333742802 -0.33715080100468742 0 0.4403475605887312 -0.31402348630220889 0 0.4403475605887312 -0.31402348630220889 0 0.42504923570474729 -0.31404353379283112 0 0.42056284978197861 -0.3296621686056041 0 0.44559595333742802 -0.33715080100468742 0 0.4403475605887312 -0.31402348630220889 0 0.42056284978197861 -0.3296621686056041 0 0.4403475605887312 -0.31402348630220889 0 0.42056284978197861 -0.3296621686056041 0 0.44559595333742802 -0.33715080100468742 0 0.42056284978197861 -0.3296621686056041 0 0.42550991815651218 -0.34642637946689803 0 0.42056284978197861 -0.3296621686056041 0 0.41134827256835949 -0.34319210017733898 0 0.42550991815651218 -0.34642637946689803 0 0.42056284978197861 -0.3296621686056041 0 0.41134827256835949 -0.34319210017733898 0 0.40436622616954332 -0.32940200583864843 0 0.40436622616954332 -0.32940200583864843 0 0.41238850760073592 -0.30677522654742562 0 0.42504923570474729 -0.31404353379283112 0 0.42056284978197861 -0.3296621686056041 0 0.41238850760073592 -0.30677522654742562 0 0.42056284978197861 -0.3296621686056041 0 0.40436622616954332 -0.32940200583864843 0 0.41238850760073592 -0.30677522654742562 0 0.4344732069851846 -0.36207544850318391 0 0.40953361447737779 -0.35831924958053057 0 0.4344732069851846 -0.36207544850318391 0 0.42072642786776149 -0.36890786541532522 0 0.43103049897397838 -0.38666902169532652 0 0.44559595333742802 -0.33715080100468742 0 0.4344732069851846 -0.36207544850318391 0 0.42550991815651218 -0.34642637946689803 0 0.4344732069851846 -0.36207544850318391 0 0.42550991815651218 -0.34642637946689803 0 0.40953361447737779 -0.35831924958053057 0 0.41134827256835949 -0.34319210017733898 0 0.42550991815651218 -0.34642637946689803 0 0.40953361447737779 -0.35831924958053057 0 0.4344732069851846 -0.36207544850318391 0 0.40953361447737779 -0.35831924958053057 0 0.42072642786776149 -0.36890786541532522 0 0.40953361447737779 -0.35831924958053057 0 0.42072642786776149 -0.36890786541532522 0 0.40729054323642377 -0.37504008881755352 0 0.38355058749886922 -0.36341115593978052 0 0.40729054323642377 -0.37504008881755352 0 0.40953361447737779 -0.35831924958053057 0 0.38355058749886922 -0.36341115593978052 0 0.40729054323642377 -0.37504008881755352 0 0.38355058749886922 -0.36341115593978052 0 0.40729054323642377 -0.37504008881755352 0 0.38668732008640389 -0.37524858780357612 0 0.40953361447737779 -0.35831924958053057 0 0.38459402196957099 -0.3545630506578773 0 0.38355058749886922 -0.36341115593978052 0 0.40953361447737779 -0.35831924958053057 0 0.39634394473835077 -0.35202878512987112 0 0.38459402196957099 -0.3545630506578773 0 0.40953361447737779 -0.35831924958053057 0 0.38459402196957099 -0.3545630506578773 0 0.41134827256835949 -0.34319210017733898 0 0.40953361447737779 -0.35831924958053057 0 0.39634394473835077 -0.35202878512987112 0 0.38459402196957099 -0.3545630506578773 0 0.38355058749886922 -0.36341115593978052 0 0.35965442946176429 -0.3508068517352243 0 0.39634394473835077 -0.35202878512987112 0 0.38459402196957099 -0.3545630506578773 0 0.3879969209314143 -0.34004160640555992 0 0.37628950864166949 -0.34495945910718029 0 0.38459402196957099 -0.3545630506578773 0 0.3879969209314143 -0.34004160640555992 0 0.38355058749886922 -0.36341115593978052 0 0.37463334710296131 -0.36884553848220641 0 0.37176887348537391 -0.36070395545778289 0 0.38668732008640389 -0.37524858780357612 0 0.37626242823976058 -0.3787433431615333 0 0.37463334710296131 -0.36884553848220641 0 0.38355058749886922 -0.36341115593978052 0 0.38668732008640389 -0.37524858780357612 0 0.37463334710296131 -0.36884553848220641 0 0.39715182413901617 -0.31265603041162338 0 0.40436622616954332 -0.32940200583864843 0 0.41238850760073592 -0.30677522654742562 0 0.39715182413901617 -0.31265603041162338 0 0.40436622616954332 -0.32940200583864843 0 0.3894465471420554 -0.32532710441348439 0 0.39634394473835077 -0.35202878512987112 0 0.40436622616954332 -0.32940200583864843 0 0.3879969209314143 -0.34004160640555992 0 0.40436622616954332 -0.32940200583864843 0 0.3879969209314143 -0.34004160640555992 0 0.3894465471420554 -0.32532710441348439 0 0.39634394473835077 -0.35202878512987112 0 0.40436622616954332 -0.32940200583864843 0 0.41134827256835949 -0.34319210017733898 0 0.39634394473835077 -0.35202878512987112 0 0.40436622616954332 -0.32940200583864843 0 0.3879969209314143 -0.34004160640555992 0 0.37557283775158551 -0.33323703120686882 0 0.3894465471420554 -0.32532710441348439 0 0.37628950864166949 -0.34495945910718029 0 0.3879969209314143 -0.34004160640555992 0 0.37557283775158551 -0.33323703120686882 0 0.39715182413901617 -0.31265603041162338 0 0.3894465471420554 -0.32532710441348439 0 0.38395872792318492 -0.30770497907920102 0 0.37557283775158551 -0.33323703120686882 0 0.3894465471420554 -0.32532710441348439 0 0.37420493105156011 -0.3199049692679331 0 0.3894465471420554 -0.32532710441348439 0 0.38395872792318492 -0.30770497907920102 0 0.37420493105156011 -0.3199049692679331 0 0.39715182413901617 -0.31265603041162338 0 0.38395872792318492 -0.30770497907920102 0 0.39559911185956109 -0.29407083617935792 0 0.39715182413901617 -0.31265603041162338 0 0.39559911185956109 -0.29407083617935792 0 0.41238850760073592 -0.30677522654742562 0 0.39559911185956109 -0.29407083617935792 0 0.40544580226563681 -0.28216090922799292 0 0.41238850760073592 -0.30677522654742562 0 0.39559911185956109 -0.29407083617935792 0 0.40544580226563681 -0.28216090922799292 0 0.38942631636203923 -0.27917521191837491 0 0.38395872792318492 -0.30770497907920102 0 0.39559911185956109 -0.29407083617935792 0 0.37279641630456778 -0.28688564836479341 0 0.39559911185956109 -0.29407083617935792 0 0.38942631636203923 -0.27917521191837491 0 0.37279641630456778 -0.28688564836479341 0 0.38027422610832318 -0.2692962312407422 0 0.38942631636203923 -0.27917521191837491 0 0.39620926961975339 -0.26417509080476859 0 0.38027422610832318 -0.2692962312407422 0 0.38942631636203923 -0.27917521191837491 0 0.37279641630456778 -0.28688564836479341 0 0.38027422610832318 -0.2692962312407422 0 0.38323898802897471 -0.25369016854328119 0 0.39620926961975339 -0.26417509080476859 0 0.38027422610832318 -0.2692962312407422 0 0.38323898802897471 -0.25369016854328119 0 0.36382526563608841 -0.26057243660908053 0 0.39533181906631742 -0.2475883596766216 0 0.38323898802897471 -0.25369016854328119 0 0.39620926961975339 -0.26417509080476859 0 0.39533181906631742 -0.2475883596766216 0 0.39620926961975339 -0.26417509080476859 0 0.4099601707076016 -0.25146853119345353 0 0.40544580226563681 -0.28216090922799292 0 0.38942631636203923 -0.27917521191837491 0 0.39620926961975339 -0.26417509080476859 0 0.40544580226563681 -0.28216090922799292 0 0.39620926961975339 -0.26417509080476859 0 0.41262375860595341 -0.26838780928976769 0 0.40544580226563681 -0.28216090922799292 0 0.41262375860595341 -0.26838780928976769 0 0.4204107890319283 -0.28414844725620297 0 0.41262375860595341 -0.26838780928976769 0 0.42843307046312168 -0.26152166796498072 0 0.4204107890319283 -0.28414844725620297 0 0.39620926961975339 -0.26417509080476859 0 0.41262375860595341 -0.26838780928976769 0 0.4099601707076016 -0.25146853119345353 0 0.41262375860595341 -0.26838780928976769 0 0.4099601707076016 -0.25146853119345353 0 0.42843307046312168 -0.26152166796498072 0 0.4359575627209073 -0.24029889897392279 0 0.42843307046312168 -0.26152166796498072 0 0.4359575627209073 -0.24029889897392279 0 0.44522423344337908 -0.25949473371753262 0 0.42843307046312168 -0.26152166796498072 0 0.42843307046312168 -0.26152166796498072 0 0.4204107890319283 -0.28414844725620297 0 0.42843307046312168 -0.26152166796498072 0 0.43439031552592677 -0.28777257713359478 0 0.43950502267553831 -0.27281046432255007 0 0.42843307046312168 -0.26152166796498072 0 0.43439031552592677 -0.28777257713359478 0 0.42843307046312168 -0.26152166796498072 0 0.43439031552592677 -0.28777257713359478 0 0.4204107890319283 -0.28414844725620297 0 0.43439031552592677 -0.28777257713359478 0 0.42653613036155891 -0.30156852546930579 0 0.4204107890319283 -0.28414844725620297 0 0.4403475605887312 -0.31402348630220889 0 0.43439031552592677 -0.28777257713359478 0 0.4403475605887312 -0.31402348630220889 0 0.43439031552592677 -0.28777257713359478 0 0.42653613036155891 -0.30156852546930579 0 0.4403475605887312 -0.31402348630220889 0 0.42504923570474729 -0.31404353379283112 0 0.42653613036155891 -0.30156852546930579 0 0.42653613036155891 -0.30156852546930579 0 0.41238850760073592 -0.30677522654742562 0 0.4204107890319283 -0.28414844725620297 0 0.42504923570474729 -0.31404353379283112 0 0.42653613036155891 -0.30156852546930579 0 0.41238850760073592 -0.30677522654742562 0 0.41238850760073592 -0.30677522654742562 0 0.4204107890319283 -0.28414844725620297 0 0.40544580226563681 -0.28216090922799292 0 0.41238850760073592 -0.30677522654742562 0 0.4204107890319283 -0.28414844725620297 0 0.44815189457817961 -0.47897466839496589 0 0.5 -0.5 0 0.43682505941684102 -0.5 0 0.5 -0.5 0 0.47866698692358439 -0.44894013887597212 0 0.5 -0.42515568206566612 0 0.5 -0.5 0 0.47866698692358439 -0.44894013887597212 0 0.46291097608683118 -0.46376643396861472 0 0.44815189457817961 -0.47897466839496589 0 0.5 -0.5 0 0.46291097608683118 -0.46376643396861472 0 0.47866698692358439 -0.44894013887597212 0 0.45675185974336158 -0.44152486373147831 0 0.46291097608683118 -0.46376643396861472 0 0.45675185974336158 -0.44152486373147831 0 0.46291097608683118 -0.46376643396861472 0 0.43958407369326052 -0.45694852357224958 0 0.44815189457817961 -0.47897466839496589 0 0.46291097608683118 -0.46376643396861472 0 0.43958407369326052 -0.45694852357224958 0 0.46291097608683118 -0.46376643396861472 0 0.43958407369326052 -0.45694852357224958 0 0.45675185974336158 -0.44152486373147831 0 0.43958407369326052 -0.45694852357224958 0 0.43592003176943478 -0.43844639190102258 0 0.45675185974336158 -0.44152486373147831 0 0.44002462626034311 -0.41658973607719629 0 0.43592003176943478 -0.43844639190102258 0 0.44002462626034311 -0.41658973607719629 0 0.46454526305878152 -0.41980194897518819 0 0.44657825500971632 -0.39993764674564669 0 0.44002462626034311 -0.41658973607719629 0 0.46454526305878152 -0.41980194897518819 0 0.47866698692358439 -0.44894013887597212 0 0.45675185974336158 -0.44152486373147831 0 0.46454526305878152 -0.41980194897518819 0 0.45675185974336158 -0.44152486373147831 0 0.44002462626034311 -0.41658973607719629 0 0.46454526305878152 -0.41980194897518819 0 0.47866698692358439 -0.44894013887597212 0 0.46454526305878152 -0.41980194897518819 0 0.5 -0.42515568206566612 0 0.46454526305878152 -0.41980194897518819 0 0.5 -0.42515568206566612 0 0.48012348692897872 -0.40740592644678658 0 0.5 -0.42515568206566612 0 0.48012348692897872 -0.40740592644678658 0 0.4849483749842195 -0.39021772521140341 0 0.46454526305878152 -0.41980194897518819 0 0.48012348692897872 -0.40740592644678658 0 0.46835740584368307 -0.3956773349719872 0 0.5 -0.36963244832707232 0 0.5 -0.42515568206566612 0 0.4849483749842195 -0.39021772521140341 0 0.48012348692897872 -0.40740592644678658 0 0.4849483749842195 -0.39021772521140341 0 0.46835740584368307 -0.3956773349719872 0 0.5 -0.36963244832707232 0 0.48435239200079799 -0.36958784634849051 0 0.4849483749842195 -0.39021772521140341 0 0.4849483749842195 -0.39021772521140341 0 0.47036004476087862 -0.38072471818378112 0 0.46835740584368307 -0.3956773349719872 0 0.48435239200079799 -0.36958784634849051 0 0.4849483749842195 -0.39021772521140341 0 0.47036004476087862 -0.38072471818378112 0 0.47036004476087862 -0.38072471818378112 0 0.46835740584368307 -0.3956773349719872 0 0.45170203517773871 -0.38181930292096039 0 0.45941279949299141 -0.36583164742583718 0 0.47036004476087862 -0.38072471818378112 0 0.45170203517773871 -0.38181930292096039 0 0.46835740584368307 -0.3956773349719872 0 0.44657825500971632 -0.39993764674564669 0 0.45170203517773871 -0.38181930292096039 0 0.46454526305878152 -0.41980194897518819 0 0.46835740584368307 -0.3956773349719872 0 0.44657825500971632 -0.39993764674564669 0 0.44657825500971632 -0.39993764674564669 0 0.45170203517773871 -0.38181930292096039 0 0.43103049897397838 -0.38666902169532652 0 0.4344732069851846 -0.36207544850318391 0 0.45170203517773871 -0.38181930292096039 0 0.43103049897397838 -0.38666902169532652 0 0.44657825500971632 -0.39993764674564669 0 0.43103049897397838 -0.38666902169532652 0 0.420782484438811 -0.39857880179299571 0 0.44002462626034311 -0.41658973607719629 0 0.44657825500971632 -0.39993764674564669 0 0.420782484438811 -0.39857880179299571 0 0.420782484438811 -0.39857880179299571 0 0.40331895892906811 -0.39562739050306173 0 0.41550398946190459 -0.4133775231792044 0 0.43103049897397838 -0.38666902169532652 0 0.40729054323642377 -0.37504008881755352 0 0.43103049897397838 -0.38666902169532652 0 0.420782484438811 -0.39857880179299571 0 0.40729054323642377 -0.37504008881755352 0 0.42072642786776149 -0.36890786541532522 0 0.43103049897397838 -0.38666902169532652 0 0.40729054323642377 -0.37504008881755352 0 0.420782484438811 -0.39857880179299571 0 0.40729054323642377 -0.37504008881755352 0 0.40331895892906811 -0.39562739050306173 0 0.40729054323642377 -0.37504008881755352 0 0.39440990619945959 -0.38305723312094841 0 0.40331895892906811 -0.39562739050306173 0 0.40729054323642377 -0.37504008881755352 0 0.39440990619945959 -0.38305723312094841 0 0.38668732008640389 -0.37524858780357612 0 0.39440990619945959 -0.38305723312094841 0 0.39087988444583771 -0.39202290423802888 0 0.40331895892906811 -0.39562739050306173 0 0.39440990619945959 -0.38305723312094841 0 0.38397710824094938 -0.38239416729943448 0 0.38668732008640389 -0.37524858780357612 0 0.38397710824094938 -0.38239416729943448 0 0.38237891125553197 -0.39046642197879411 0 0.39087988444583771 -0.39202290423802888 0 0.39440990619945959 -0.38305723312094841 0 0.38397710824094938 -0.38239416729943448 0 0.39087988444583771 -0.39202290423802888 0 0.38237891125553197 -0.39046642197879411 0 0.37626242823976058 -0.3787433431615333 0 0.36979178268764662 -0.38900638491375827 0 0.38397710824094938 -0.38239416729943448 0 0.38237891125553197 -0.39046642197879411 0 0.37626242823976058 -0.3787433431615333 0 0.38397710824094938 -0.38239416729943448 0 0.38668732008640389 -0.37524858780357612 0 0.37626242823976058 -0.3787433431615333 0 0.3909833526634659 -0.41016531028121528 0 0.36979178268764662 -0.38900638491375827 0 0.3909833526634659 -0.41016531028121528 0 0.37074747153274301 -0.40183141488667828 0 0.36979178268764662 -0.38900638491375827 0 0.38237891125553197 -0.39046642197879411 0 0.39087988444583771 -0.39202290423802888 0 0.3909833526634659 -0.41016531028121528 0 0.38237891125553197 -0.39046642197879411 0 0.3909833526634659 -0.41016531028121528 0 0.36979178268764662 -0.38900638491375827 0 0.39087988444583771 -0.39202290423802888 0 0.40331895892906811 -0.39562739050306173 0 0.3909833526634659 -0.41016531028121528 0 0.3909833526634659 -0.41016531028121528 0 0.40293670035617279 -0.42210024440879579 0 0.41550398946190459 -0.4133775231792044 0 0.40331895892906811 -0.39562739050306173 0 0.3909833526634659 -0.41016531028121528 0 0.41550398946190459 -0.4133775231792044 0 0.3909833526634659 -0.41016531028121528 0 0.41550398946190459 -0.4133775231792044 0 0.3909833526634659 -0.41016531028121528 0 0.39026821169033499 -0.42739196783495609 0 0.40293670035617279 -0.42210024440879579 0 0.3909833526634659 -0.41016531028121528 0 0.40293670035617279 -0.42210024440879579 0 0.3909833526634659 -0.41016531028121528 0 0.37056070548652081 -0.40748993560753732 0 0.3909833526634659 -0.41016531028121528 0 0.38035390908821742 -0.42038550152671589 0 0.37056070548652081 -0.40748993560753732 0 0.3909833526634659 -0.41016531028121528 0 0.38035390908821742 -0.42038550152671589 0 0.39026821169033499 -0.42739196783495609 0 0.3909833526634659 -0.41016531028121528 0 0.37056070548652081 -0.40748993560753732 0 0.37074747153274301 -0.40183141488667828 0 0.38035390908821742 -0.42038550152671589 0 0.39026821169033499 -0.42739196783495609 0 0.36960336651254821 -0.43649479238315469 0 0.39026821169033499 -0.42739196783495609 0 0.39293026890611921 -0.44331270277951951 0 0.36960336651254821 -0.43649479238315469 0 0.39026821169033499 -0.42739196783495609 0 0.40533379715299539 -0.43619738061986402 0 0.39293026890611921 -0.44331270277951951 0 0.39026821169033499 -0.42739196783495609 0 0.40293670035617279 -0.42210024440879579 0 0.40533379715299539 -0.43619738061986402 0 0.40293670035617279 -0.42210024440879579 0 0.41890500440073858 -0.43169208859319419 0 0.41550398946190459 -0.4133775231792044 0 0.40293670035617279 -0.42210024440879579 0 0.40533379715299539 -0.43619738061986402 0 0.41890500440073858 -0.43169208859319419 0 0.44002462626034311 -0.41658973607719629 0 0.41890500440073858 -0.43169208859319419 0 0.41550398946190459 -0.4133775231792044 0 0.44002462626034311 -0.41658973607719629 0 0.41550398946190459 -0.4133775231792044 0 0.44002462626034311 -0.41658973607719629 0 0.420782484438811 -0.39857880179299571 0 0.41550398946190459 -0.4133775231792044 0 0.44002462626034311 -0.41658973607719629 0 0.41890500440073858 -0.43169208859319419 0 0.43592003176943478 -0.43844639190102258 0 0.43958407369326052 -0.45694852357224958 0 0.43592003176943478 -0.43844639190102258 0 0.41625717129968992 -0.45013061317588449 0 0.41890500440073858 -0.43169208859319419 0 0.43592003176943478 -0.43844639190102258 0 0.41625717129968992 -0.45013061317588449 0 0.43958407369326052 -0.45694852357224958 0 0.41625717129968992 -0.45013061317588449 0 0.43958407369326052 -0.45694852357224958 0 0.41625717129968992 -0.45013061317588449 0 0.42186107838808712 -0.47427178480819049 0 0.41625717129968992 -0.45013061317588449 0 0.39525365997433609 -0.46970735804361341 0 0.42186107838808712 -0.47427178480819049 0 0.40533379715299539 -0.43619738061986402 0 0.41890500440073858 -0.43169208859319419 0 0.41625717129968992 -0.45013061317588449 0 0.41625717129968992 -0.45013061317588449 0 0.39293026890611921 -0.44331270277951951 0 0.40533379715299539 -0.43619738061986402 0 0.41625717129968992 -0.45013061317588449 0 0.39293026890611921 -0.44331270277951951 0 0.39293026890611921 -0.44331270277951951 0 0.36866035810575992 -0.46506547060750808 0 0.36960336651254821 -0.43649479238315469 0 0.39293026890611921 -0.44331270277951951 0 0.36960336651254821 -0.43649479238315469 0 0.39293026890611921 -0.44331270277951951 0 0.39525365997433609 -0.46970735804361341 0 0.36866035810575992 -0.46506547060750808 0 0.41625717129968992 -0.45013061317588449 0 0.39293026890611921 -0.44331270277951951 0 0.39525365997433609 -0.46970735804361341 0 0.39525365997433609 -0.46970735804361341 0 0.38881294574813358 -0.5 0 0.42186107838808712 -0.47427178480819049 0 0.39525365997433609 -0.46970735804361341 0 0.37878785095435191 -0.48243907837978661 0 0.36866035810575992 -0.46506547060750808 0 0.39525365997433609 -0.46970735804361341 0 0.37878785095435191 -0.48243907837978661 0 0.38881294574813358 -0.5 0 0.38881294574813358 -0.5 0 0.37537683032205582 -0.49699302334079493 0 0.36754114138392091 -0.49999999999999961 0 0.37878785095435191 -0.48243907837978661 0 0.38881294574813358 -0.5 0 0.37537683032205582 -0.49699302334079493 0 0.38881294574813358 -0.5 0 0.42186107838808712 -0.47427178480819049 0 0.43682505941684102 -0.5 0 0.44815189457817961 -0.47897466839496589 0 0.43958407369326052 -0.45694852357224958 0 0.42186107838808712 -0.47427178480819049 0 0.44815189457817961 -0.47897466839496589 0 0.42186107838808712 -0.47427178480819049 0 0.43682505941684102 -0.5 0 0.32459258262616619 -0.49999999999999889 0 0.32021551158403971 -0.48544974565643068 0 0.32459258262616619 -0.49999999999999889 0 0.32021551158403971 -0.48544974565643068 0 0.30976849059751488 -0.49116256414654652 0 0.32021551158403971 -0.48544974565643068 0 0.31583844054191279 -0.47089949131286268 0 0.31583844054191279 -0.47089949131286268 0 0.34177789512044149 -0.48226782007236302 0 0.32497967038156989 -0.45956714886607558 0 0.32021551158403971 -0.48544974565643068 0 0.31583844054191279 -0.47089949131286268 0 0.34177789512044149 -0.48226782007236302 0 0.32021551158403971 -0.48544974565643068 0 0.31583844054191279 -0.47089949131286268 0 0.30567311538907749 -0.48034718721606717 0 0.31583844054191279 -0.47089949131286268 0 0.34177789512044149 -0.48226782007236302 0 0.32459258262616619 -0.49999999999999889 0 0.32021551158403971 -0.48544974565643068 0 0.34177789512044149 -0.48226782007236302 0 0.34177789512044149 -0.48226782007236302 0 0.36771734969897102 -0.49363614883186169 0 0.34177789512044149 -0.48226782007236302 0 0.36754114138392091 -0.49999999999999961 0 0.36771734969897102 -0.49363614883186169 0 0.32459258262616619 -0.49999999999999889 0 0.34177789512044149 -0.48226782007236302 0 0.36754114138392091 -0.49999999999999961 0 0.37878785095435191 -0.48243907837978661 0 0.37537683032205582 -0.49699302334079493 0 0.36771734969897102 -0.49363614883186169 0 0.37537683032205582 -0.49699302334079493 0 0.36754114138392091 -0.49999999999999961 0 0.36771734969897102 -0.49363614883186169 0 0.37537683032205582 -0.49699302334079493 0 0.36771734969897102 -0.49363614883186169 0 0.36754114138392091 -0.49999999999999961 0 0.36771734969897102 -0.49363614883186169 0 0.36771734969897102 -0.49363614883186169 0 0.36866035810575992 -0.46506547060750808 0 0.36771734969897102 -0.49363614883186169 0 0.35102153251140511 -0.4674326456411424 0 0.36866035810575992 -0.46506547060750808 0 0.37878785095435191 -0.48243907837978661 0 0.36771734969897102 -0.49363614883186169 0 0.36866035810575992 -0.46506547060750808 0 0.34177789512044149 -0.48226782007236302 0 0.36771734969897102 -0.49363614883186169 0 0.35102153251140511 -0.4674326456411424 0 0.35102153251140511 -0.4674326456411424 0 0.35317551966365651 -0.4491030039531288 0 0.33900588213688221 -0.4564685274893977 0 0.34177789512044149 -0.48226782007236302 0 0.35102153251140511 -0.4674326456411424 0 0.33900588213688221 -0.4564685274893977 0 0.35102153251140511 -0.4674326456411424 0 0.36866035810575992 -0.46506547060750808 0 0.35317551966365651 -0.4491030039531288 0 0.36866035810575992 -0.46506547060750808 0 0.36960336651254821 -0.43649479238315469 0 0.36866035810575992 -0.46506547060750808 0 0.35317551966365651 -0.4491030039531288 0 0.36960336651254821 -0.43649479238315469 0 0.35317551966365651 -0.4491030039531288 0 0.35311356312575298 -0.43167520682275717 0 0.36960336651254821 -0.43649479238315469 0 0.35317551966365651 -0.4491030039531288 0 0.33949075973754023 -0.43842873981353131 0 0.33900588213688221 -0.4564685274893977 0 0.35317551966365651 -0.4491030039531288 0 0.33949075973754023 -0.43842873981353131 0 0.35311356312575298 -0.43167520682275717 0 0.33900588213688221 -0.4564685274893977 0 0.32497967038156989 -0.45956714886607558 0 0.32271249700966659 -0.44099567227405478 0 0.33949075973754023 -0.43842873981353131 0 0.33900588213688221 -0.4564685274893977 0 0.32271249700966659 -0.44099567227405478 0 0.34177789512044149 -0.48226782007236302 0 0.33900588213688221 -0.4564685274893977 0 0.32497967038156989 -0.45956714886607558 0 0.31583844054191279 -0.47089949131286268 0 0.3096659691444229 -0.45038096924696569 0 0.31583844054191279 -0.47089949131286268 0 0.32497967038156989 -0.45956714886607558 0 0.3096659691444229 -0.45038096924696569 0 0.32497967038156989 -0.45956714886607558 0 0.32271249700966659 -0.44099567227405478 0 0.3096659691444229 -0.45038096924696569 0 0.32271249700966659 -0.44099567227405478 0 0.31685181742879071 -0.42576990156382671 0 0.30349349774693241 -0.42986244718106881 0 0.31685181742879071 -0.42576990156382671 0 0.32223501153324918 -0.41502896359622338 0 0.3287113133118304 -0.42820580870165359 0 0.32271249700966659 -0.44099567227405478 0 0.31685181742879071 -0.42576990156382671 0 0.3287113133118304 -0.42820580870165359 0 0.31685181742879071 -0.42576990156382671 0 0.32223501153324918 -0.41502896359622338 0 0.30710676754227528 -0.41475661606613268 0 0.32223501153324918 -0.41502896359622338 0 0.3107200373376211 -0.39965078495119749 0 0.30710676754227528 -0.41475661606613268 0 0.32223501153324918 -0.41502896359622338 0 0.34051347165595353 -0.41965230403605469 0 0.3287113133118304 -0.42820580870165359 0 0.32223501153324918 -0.41502896359622338 0 0.34051347165595353 -0.41965230403605469 0 0.33066692672058762 -0.40226383516997771 0 0.34051347165595353 -0.41965230403605469 0 0.35061381610355419 -0.40487688538875771 0 0.33066692672058762 -0.40226383516997771 0 0.33949075973754023 -0.43842873981353131 0 0.32271249700966659 -0.44099567227405478 0 0.3287113133118304 -0.42820580870165359 0 0.33949075973754023 -0.43842873981353131 0 0.34051347165595353 -0.41965230403605469 0 0.3287113133118304 -0.42820580870165359 0 0.34051347165595353 -0.41965230403605469 0 0.35311356312575298 -0.43167520682275717 0 0.35751254381870251 -0.41934182959935312 0 0.33949075973754023 -0.43842873981353131 0 0.34051347165595353 -0.41965230403605469 0 0.35311356312575298 -0.43167520682275717 0 0.35311356312575298 -0.43167520682275717 0 0.36960336651254821 -0.43649479238315469 0 0.35311356312575298 -0.43167520682275717 0 0.36960336651254821 -0.43649479238315469 0 0.35751254381870251 -0.41934182959935312 0 0.36960336651254821 -0.43649479238315469 0 0.37056070548652081 -0.40748993560753732 0 0.36960336651254821 -0.43649479238315469 0 0.37056070548652081 -0.40748993560753732 0 0.35751254381870251 -0.41934182959935312 0 0.37056070548652081 -0.40748993560753732 0 0.35751254381870251 -0.41934182959935312 0 0.35061381610355419 -0.40487688538875771 0 0.38035390908821742 -0.42038550152671589 0 0.36960336651254821 -0.43649479238315469 0 0.37056070548652081 -0.40748993560753732 0 0.34051347165595353 -0.41965230403605469 0 0.35751254381870251 -0.41934182959935312 0 0.35061381610355419 -0.40487688538875771 0 0.35061381610355419 -0.40487688538875771 0 0.35297130308531383 -0.38839509841241082 0 0.3362501089924661 -0.38403083297873553 0 0.35061381610355419 -0.40487688538875771 0 0.36293701577915571 -0.39831994384182862 0 0.35297130308531383 -0.38839509841241082 0 0.37056070548652081 -0.40748993560753732 0 0.35061381610355419 -0.40487688538875771 0 0.37056070548652081 -0.40748993560753732 0 0.35061381610355419 -0.40487688538875771 0 0.36293701577915571 -0.39831994384182862 0 0.36293701577915571 -0.39831994384182862 0 0.36979178268764662 -0.38900638491375827 0 0.35297130308531383 -0.38839509841241082 0 0.36293701577915571 -0.39831994384182862 0 0.37074747153274301 -0.40183141488667828 0 0.36979178268764662 -0.38900638491375827 0 0.37056070548652081 -0.40748993560753732 0 0.36293701577915571 -0.39831994384182862 0 0.37074747153274301 -0.40183141488667828 0 0.37056070548652081 -0.40748993560753732 0 0.37074747153274301 -0.40183141488667828 0 0.37626242823976058 -0.3787433431615333 0 0.36979178268764662 -0.38900638491375827 0 0.3656219544493628 -0.37123733962328997 0 0.36979178268764662 -0.38900638491375827 0 0.3656219544493628 -0.37123733962328997 0 0.34860021271182973 -0.36784745954629883 0 0.36979178268764662 -0.38900638491375827 0 0.34860021271182973 -0.36784745954629883 0 0.36979178268764662 -0.38900638491375827 0 0.35297130308531383 -0.38839509841241082 0 0.34860021271182973 -0.36784745954629883 0 0.35297130308531383 -0.38839509841241082 0 0.3362501089924661 -0.38403083297873553 0 0.34860021271182973 -0.36784745954629883 0 0.3362501089924661 -0.38403083297873553 0 0.33066692672058762 -0.40226383516997771 0 0.32353661612201001 -0.39034823780220018 0 0.35061381610355419 -0.40487688538875771 0 0.33066692672058762 -0.40226383516997771 0 0.35061381610355419 -0.40487688538875771 0 0.3362501089924661 -0.38403083297873553 0 0.33066692672058762 -0.40226383516997771 0 0.33066692672058762 -0.40226383516997771 0 0.3107200373376211 -0.39965078495119749 0 0.33066692672058762 -0.40226383516997771 0 0.32353661612201001 -0.39034823780220018 0 0.3107200373376211 -0.39965078495119749 0 0.32223501153324918 -0.41502896359622338 0 0.33066692672058762 -0.40226383516997771 0 0.3107200373376211 -0.39965078495119749 0 0.31650939143736539 -0.37544749810888978 0 0.3107200373376211 -0.39965078495119749 0 0.3362501089924661 -0.38403083297873553 0 0.31650939143736539 -0.37544749810888978 0 0.32353661612201001 -0.39034823780220018 0 0.31650939143736539 -0.37544749810888978 0 0.32353661612201001 -0.39034823780220018 0 0.3107200373376211 -0.39965078495119749 0 0.31650939143736539 -0.37544749810888978 0 0.29958559234266152 -0.38383072481859448 0 0.3107200373376211 -0.39965078495119749 0 0.31650939143736539 -0.37544749810888978 0 0.29958559234266152 -0.38383072481859448 0 0.29477314436029067 -0.36703377344441313 0 0.29958559234266152 -0.38383072481859448 0 0.3107200373376211 -0.39965078495119749 0 0.29331674329634022 -0.39737094670529582 0 0.3107200373376211 -0.39965078495119749 0 0.29331674329634022 -0.39737094670529582 0 0.3107200373376211 -0.39965078495119749 0 0.3009602634216485 -0.4061583850489387 0 0.29331674329634022 -0.39737094670529582 0 0.29331674329634022 -0.39737094670529582 0 0.2759134492550594 -0.39509110845939382 0 0.29331674329634022 -0.39737094670529582 0 0.28321624858717082 -0.38240453824142978 0 0.2759134492550594 -0.39509110845939382 0 0.29331674329634022 -0.39737094670529582 0 0.28473558738891752 -0.40125950798570398 0 0.2759134492550594 -0.39509110845939382 0 0.29331674329634022 -0.39737094670529582 0 0.28473558738891752 -0.40125950798570398 0 0.29043394068700168 -0.40877020165156769 0 0.3009602634216485 -0.4061583850489387 0 0.29331674329634022 -0.39737094670529582 0 0.29043394068700168 -0.40877020165156769 0 0.29958559234266152 -0.38383072481859448 0 0.28321624858717082 -0.38240453824142978 0 0.29477314436029067 -0.36703377344441313 0 0.28321624858717082 -0.38240453824142978 0 0.27485951996904329 -0.37690149579303689 0 0.29477314436029067 -0.36703377344441313 0 0.29958559234266152 -0.38383072481859448 0 0.29331674329634022 -0.39737094670529582 0 0.28321624858717082 -0.38240453824142978 0 0.27485951996904329 -0.37690149579303689 0 0.27127690135406851 -0.38702973490080722 0 0.2549458955777959 -0.38676921814166049 0 0.28321624858717082 -0.38240453824142978 0 0.27485951996904329 -0.37690149579303689 0 0.27127690135406851 -0.38702973490080722 0 0.28321624858717082 -0.38240453824142978 0 0.27127690135406851 -0.38702973490080722 0 0.2759134492550594 -0.39509110845939382 0 0.28321624858717082 -0.38240453824142978 0 0.2759134492550594 -0.39509110845939382 0 0.27485951996904329 -0.37690149579303689 0 0.2549458955777959 -0.38676921814166049 0 0.26452868432306459 -0.36584084285285229 0 0.27485951996904329 -0.37690149579303689 0 0.2549458955777959 -0.38676921814166049 0 0.27127690135406851 -0.38702973490080722 0 0.2549458955777959 -0.38676921814166049 0 0.26744939338127388 -0.39398231386851318 0 0.2549458955777959 -0.38676921814166049 0 0.25535676988130329 -0.38889152473607469 0 0.26744939338127388 -0.39398231386851318 0 0.25281898241426859 -0.38782315931002459 0 0.25605331583396862 -0.39248942330515091 0 0.24604741796407301 -0.39117864681684672 0 0.2549458955777959 -0.38676921814166049 0 0.25281898241426859 -0.38782315931002459 0 0.2432684872402181 -0.3747583675775259 0 0.25535676988130329 -0.38889152473607469 0 0.25281898241426859 -0.38782315931002459 0 0.25605331583396862 -0.39248942330515091 0 0.25535676988130329 -0.38889152473607469 0 0.25281898241426859 -0.38782315931002459 0 0.2549458955777959 -0.38676921814166049 0 0.25535676988130329 -0.38889152473607469 0 0.2549458955777959 -0.38676921814166049 0 0.25535676988130329 -0.38889152473607469 0 0.25281898241426859 -0.38782315931002459 0 0.2549458955777959 -0.38676921814166049 0 0.25281898241426859 -0.38782315931002459 0 0.25605331583396862 -0.39248942330515091 0 0.26744939338127388 -0.39398231386851318 0 0.26142858150278558 -0.42025451272125158 0 0.25605331583396862 -0.39248942330515091 0 0.26142858150278558 -0.42025451272125158 0 0.24831737856470751 -0.40523923600381329 0 0.25605331583396862 -0.39248942330515091 0 0.2465226742300004 -0.39707615409081343 0 0.24831737856470751 -0.40523923600381329 0 0.25605331583396862 -0.39248942330515091 0 0.24604741796407301 -0.39117864681684672 0 0.25535676988130329 -0.38889152473607469 0 0.25605331583396862 -0.39248942330515091 0 0.25605331583396862 -0.39248942330515091 0 0.26744939338127388 -0.39398231386851318 0 0.25535676988130329 -0.38889152473607469 0 0.26744939338127388 -0.39398231386851318 0 0.25535676988130329 -0.38889152473607469 0 0.25605331583396862 -0.39248942330515091 0 0.26744939338127388 -0.39398231386851318 0 0.26744939338127388 -0.39398231386851318 0 0.27477619340311421 -0.39706677225149872 0 0.26142858150278558 -0.42025451272125158 0 0.26744939338127388 -0.39398231386851318 0 0.2759134492550594 -0.39509110845939382 0 0.27477619340311421 -0.39706677225149872 0 0.26744939338127388 -0.39398231386851318 0 0.2759134492550594 -0.39509110845939382 0 0.27127690135406851 -0.38702973490080722 0 0.26744939338127388 -0.39398231386851318 0 0.2759134492550594 -0.39509110845939382 0 0.26744939338127388 -0.39398231386851318 0 0.27477619340311421 -0.39706677225149872 0 0.28473558738891752 -0.40125950798570398 0 0.2759134492550594 -0.39509110845939382 0 0.27477619340311421 -0.39706677225149872 0 0.2759134492550594 -0.39509110845939382 0 0.27477619340311421 -0.39706677225149872 0 0.28473558738891752 -0.40125950798570398 0 0.27477619340311421 -0.39706677225149872 0 0.28473558738891752 -0.40125950798570398 0 0.27477619340311421 -0.39706677225149872 0 0.2759890261709203 -0.41032067796572769 0 0.27477619340311421 -0.39706677225149872 0 0.2759890261709203 -0.41032067796572769 0 0.26142858150278558 -0.42025451272125158 0 0.28473558738891752 -0.40125950798570398 0 0.2759890261709203 -0.41032067796572769 0 0.28298450315203982 -0.41148535739810488 0 0.27477619340311421 -0.39706677225149872 0 0.26142858150278558 -0.42025451272125158 0 0.2759890261709203 -0.41032067796572769 0 0.27630119728801739 -0.42103303769310518 0 0.28298450315203982 -0.41148535739810488 0 0.2759890261709203 -0.41032067796572769 0 0.27630119728801739 -0.42103303769310518 0 0.26142858150278558 -0.42025451272125158 0 0.26142858150278558 -0.42025451272125158 0 0.24180144569219239 -0.41908298329008992 0 0.24831737856470751 -0.40523923600381329 0 0.25605331583396862 -0.39248942330515091 0 0.26142858150278558 -0.42025451272125158 0 0.26142858150278558 -0.42025451272125158 0 0.2491098997289003 -0.44165477503298112 0 0.26142858150278558 -0.42025451272125158 0 0.2491098997289003 -0.44165477503298112 0 0.24180144569219239 -0.41908298329008992 0 0.26142858150278558 -0.42025451272125158 0 0.26450511920284631 -0.43614588434771329 0 0.26142858150278558 -0.42025451272125158 0 0.26450511920284631 -0.43614588434771329 0 0.2491098997289003 -0.44165477503298112 0 0.26142858150278558 -0.42025451272125158 0 0.26450511920284631 -0.43614588434771329 0 0.27374479194183132 -0.43182151395847229 0 0.26450511920284631 -0.43614588434771329 0 0.27374479194183132 -0.43182151395847229 0 0.26450511920284631 -0.43614588434771329 0 0.27374479194183132 -0.43182151395847229 0 0.27341225790176321 -0.4401020755830784 0 0.27630119728801739 -0.42103303769310518 0 0.26142858150278558 -0.42025451272125158 0 0.27374479194183132 -0.43182151395847229 0 0.27630119728801739 -0.42103303769310518 0 0.27374479194183132 -0.43182151395847229 0 0.28219113069509988 -0.42465511642152909 0 0.27374479194183132 -0.43182151395847229 0 0.28519049113919148 -0.43114097083854452 0 0.28219113069509988 -0.42465511642152909 0 0.27374479194183132 -0.43182151395847229 0 0.28037775412961319 -0.43770877630923383 0 0.27341225790176321 -0.4401020755830784 0 0.27374479194183132 -0.43182151395847229 0 0.28519049113919148 -0.43114097083854452 0 0.28037775412961319 -0.43770877630923383 0 0.28519049113919148 -0.43114097083854452 0 0.28797069511212592 -0.43992753172288479 0 0.28037775412961319 -0.43770877630923383 0 0.28519049113919148 -0.43114097083854452 0 0.29056750592695968 -0.4321796430756415 0 0.28797069511212592 -0.43992753172288479 0 0.28519049113919148 -0.43114097083854452 0 0.29056750592695968 -0.4321796430756415 0 0.29100833849322638 -0.42577546336771849 0 0.29056750592695968 -0.4321796430756415 0 0.29684214765718492 -0.43346383174603031 0 0.28797069511212592 -0.43992753172288479 0 0.29056750592695968 -0.4321796430756415 0 0.29684214765718492 -0.43346383174603031 0 0.29100833849322638 -0.42577546336771849 0 0.29684214765718492 -0.43346383174603031 0 0.29100833849322638 -0.42577546336771849 0 0.29310072334207882 -0.41864649817140093 0 0.29100833849322638 -0.42577546336771849 0 0.28219113069509988 -0.42465511642152909 0 0.28625892645133261 -0.41906460904274928 0 0.28519049113919148 -0.43114097083854452 0 0.29100833849322638 -0.42577546336771849 0 0.28219113069509988 -0.42465511642152909 0 0.27630119728801739 -0.42103303769310518 0 0.28219113069509988 -0.42465511642152909 0 0.28625892645133261 -0.41906460904274928 0 0.27630119728801739 -0.42103303769310518 0 0.28625892645133261 -0.41906460904274928 0 0.28298450315203982 -0.41148535739810488 0 0.28625892645133261 -0.41906460904274928 0 0.28298450315203982 -0.41148535739810488 0 0.29043394068700168 -0.40877020165156769 0 0.28473558738891752 -0.40125950798570398 0 0.28298450315203982 -0.41148535739810488 0 0.29043394068700168 -0.40877020165156769 0 0.3009602634216485 -0.4061583850489387 0 0.29043394068700168 -0.40877020165156769 0 0.29310072334207882 -0.41864649817140093 0 0.28625892645133261 -0.41906460904274928 0 0.29043394068700168 -0.40877020165156769 0 0.29310072334207882 -0.41864649817140093 0 0.29100833849322638 -0.42577546336771849 0 0.28625892645133261 -0.41906460904274928 0 0.29310072334207882 -0.41864649817140093 0 0.3009602634216485 -0.4061583850489387 0 0.29684214765718492 -0.43346383174603031 0 0.3009602634216485 -0.4061583850489387 0 0.29684214765718492 -0.43346383174603031 0 0.29310072334207882 -0.41864649817140093 0 0.3009602634216485 -0.4061583850489387 0 0.29684214765718492 -0.43346383174603031 0 0.30103601380156653 -0.42169328197763101 0 0.3009602634216485 -0.4061583850489387 0 0.30103601380156653 -0.42169328197763101 0 0.30710676754227528 -0.41475661606613268 0 0.3107200373376211 -0.39965078495119749 0 0.3009602634216485 -0.4061583850489387 0 0.30710676754227528 -0.41475661606613268 0 0.3107200373376211 -0.39965078495119749 0 0.30710676754227528 -0.41475661606613268 0 0.31685181742879071 -0.42576990156382671 0 0.30710676754227528 -0.41475661606613268 0 0.30349349774693241 -0.42986244718106881 0 0.30710676754227528 -0.41475661606613268 0 0.30349349774693241 -0.42986244718106881 0 0.29684214765718492 -0.43346383174603031 0 0.30349349774693241 -0.42986244718106881 0 0.29975911835358893 -0.44547459563110681 0 0.30103601380156653 -0.42169328197763101 0 0.30349349774693241 -0.42986244718106881 0 0.30103601380156653 -0.42169328197763101 0 0.30710676754227528 -0.41475661606613268 0 0.30349349774693241 -0.42986244718106881 0 0.29684214765718492 -0.43346383174603031 0 0.30103601380156653 -0.42169328197763101 0 0.30349349774693241 -0.42986244718106881 0 0.30349349774693241 -0.42986244718106881 0 0.3096659691444229 -0.45038096924696569 0 0.29975911835358893 -0.44547459563110681 0 0.32271249700966659 -0.44099567227405478 0 0.30349349774693241 -0.42986244718106881 0 0.3096659691444229 -0.45038096924696569 0 0.3096659691444229 -0.45038096924696569 0 0.29975911835358893 -0.44547459563110681 0 0.292724031892721 -0.46076927844312188 0 0.30349349774693241 -0.42986244718106881 0 0.3096659691444229 -0.45038096924696569 0 0.30349349774693241 -0.42986244718106881 0 0.29975911835358893 -0.44547459563110681 0 0.31583844054191279 -0.47089949131286268 0 0.3096659691444229 -0.45038096924696569 0 0.292724031892721 -0.46076927844312188 0 0.31583844054191279 -0.47089949131286268 0 0.292724031892721 -0.46076927844312188 0 0.29684214765718492 -0.43346383174603031 0 0.29975911835358893 -0.44547459563110681 0 0.292724031892721 -0.46076927844312188 0 0.29684214765718492 -0.43346383174603031 0 0.292724031892721 -0.46076927844312188 0 0.28797069511212592 -0.43992753172288479 0 0.29684214765718492 -0.43346383174603031 0 0.292724031892721 -0.46076927844312188 0 0.292724031892721 -0.46076927844312188 0 0.28157053455315417 -0.44555178944318907 0 0.28797069511212592 -0.43992753172288479 0 0.28157053455315417 -0.44555178944318907 0 0.28797069511212592 -0.43992753172288479 0 0.28037775412961319 -0.43770877630923383 0 0.292724031892721 -0.46076927844312188 0 0.28157053455315417 -0.44555178944318907 0 0.26709785387375878 -0.44953824751735388 0 0.28157053455315417 -0.44555178944318907 0 0.28037775412961319 -0.43770877630923383 0 0.27341225790176321 -0.4401020755830784 0 0.28157053455315417 -0.44555178944318907 0 0.26709785387375878 -0.44953824751735388 0 0.27341225790176321 -0.4401020755830784 0 0.26450511920284631 -0.43614588434771329 0 0.26709785387375878 -0.44953824751735388 0 0.26450511920284631 -0.43614588434771329 0 0.26709785387375878 -0.44953824751735388 0 0.27341225790176321 -0.4401020755830784 0 0.26709785387375878 -0.44953824751735388 0 0.25098172733231872 -0.44247512965964592 0 0.25499664281726431 -0.45523205940263262 0 0.26709785387375878 -0.44953824751735388 0 0.25098172733231872 -0.44247512965964592 0 0.26450511920284631 -0.43614588434771329 0 0.26709785387375878 -0.44953824751735388 0 0.25098172733231872 -0.44247512965964592 0 0.25098172733231872 -0.44247512965964592 0 0.25499664281726431 -0.45523205940263262 0 0.2477732989716441 -0.44397674481321819 0 0.26450511920284631 -0.43614588434771329 0 0.25098172733231872 -0.44247512965964592 0 0.2491098997289003 -0.44165477503298112 0 0.26450511920284631 -0.43614588434771329 0 0.25098172733231872 -0.44247512965964592 0 0.25098172733231872 -0.44247512965964592 0 0.2491098997289003 -0.44165477503298112 0 0.26709785387375878 -0.44953824751735388 0 0.25499664281726431 -0.45523205940263262 0 0.27263008665488608 -0.47811412586503932 0 0.25499664281726431 -0.45523205940263262 0 0.25474110227093749 -0.47463372904204348 0 0.24159037534215189 -0.45471784438485152 0 0.26709785387375878 -0.44953824751735388 0 0.27263008665488608 -0.47811412586503932 0 0.28285984369831663 -0.46965345727231222 0 0.26709785387375878 -0.44953824751735388 0 0.27263008665488608 -0.47811412586503932 0 0.292724031892721 -0.46076927844312188 0 0.26709785387375878 -0.44953824751735388 0 0.28285984369831663 -0.46965345727231222 0 0.292724031892721 -0.46076927844312188 0 0.26709785387375878 -0.44953824751735388 0 0.27263008665488608 -0.47811412586503932 0 0.28961274378356339 -0.48139888588568142 0 0.25474110227093749 -0.47463372904204348 0 0.26311594748398032 -0.48731686452102307 0 0.2425495168946363 -0.48369843705736948 0 0.27263008665488608 -0.47811412586503932 0 0.25474110227093749 -0.47463372904204348 0 0.26311594748398032 -0.48731686452102307 0 0.27263008665488608 -0.47811412586503932 0 0.25474110227093749 -0.47463372904204348 0 0.25499664281726431 -0.45523205940263262 0 0.27263008665488608 -0.47811412586503932 0 0.25474110227093749 -0.47463372904204348 0 0.25474110227093749 -0.47463372904204348 0 0.26311594748398032 -0.48731686452102307 0 0.26311594748398032 -0.48731686452102307 0 0.27149079269702531 -0.50000000000000133 0 0.24350764879353751 -0.5 0 0.27263008665488608 -0.47811412586503932 0 0.27149079269702531 -0.50000000000000133 0 0.27686714802740958 -0.49999999999999872 0 0.26311594748398032 -0.48731686452102307 0 0.27149079269702531 -0.50000000000000133 0 0.27263008665488608 -0.47811412586503932 0 0.26311594748398032 -0.48731686452102307 0 0.27149079269702531 -0.50000000000000133 0 0.27263008665488608 -0.47811412586503932 0 0.27686714802740958 -0.49999999999999872 0 0.27263008665488608 -0.47811412586503932 0 0.27686714802740958 -0.49999999999999872 0 0.28911405355105602 -0.48470548539402869 0 0.27686714802740958 -0.49999999999999872 0 0.30072986532678792 -0.5 0 0.2976313780615028 -0.49001588786023559 0 0.27686714802740958 -0.49999999999999872 0 0.28911405355105602 -0.48470548539402869 0 0.2976313780615028 -0.49001588786023559 0 0.28911405355105602 -0.48470548539402869 0 0.2962856447235892 -0.47895945972836351 0 0.2976313780615028 -0.49001588786023559 0 0.27263008665488608 -0.47811412586503932 0 0.28911405355105602 -0.48470548539402869 0 0.28961274378356339 -0.48139888588568142 0 0.27263008665488608 -0.47811412586503932 0 0.28285984369831663 -0.46965345727231222 0 0.28961274378356339 -0.48139888588568142 0 0.292724031892721 -0.46076927844312188 0 0.28961274378356339 -0.48139888588568142 0 0.292724031892721 -0.46076927844312188 0 0.28961274378356339 -0.48139888588568142 0 0.2962856447235892 -0.47895945972836351 0 0.292724031892721 -0.46076927844312188 0 0.28285984369831663 -0.46965345727231222 0 0.28961274378356339 -0.48139888588568142 0 0.28911405355105602 -0.48470548539402869 0 0.28961274378356339 -0.48139888588568142 0 0.2962856447235892 -0.47895945972836351 0 0.28911405355105602 -0.48470548539402869 0 0.28961274378356339 -0.48139888588568142 0 0.31583844054191279 -0.47089949131286268 0 0.292724031892721 -0.46076927844312188 0 0.30567311538907749 -0.48034718721606717 0 0.2962856447235892 -0.47895945972836351 0 0.30567311538907749 -0.48034718721606717 0 0.2976313780615028 -0.49001588786023559 0 0.292724031892721 -0.46076927844312188 0 0.2962856447235892 -0.47895945972836351 0 0.30567311538907749 -0.48034718721606717 0 0.32459258262616619 -0.49999999999999889 0 0.30976849059751488 -0.49116256414654652 0 0.30072986532678792 -0.5 0 0.32021551158403971 -0.48544974565643068 0 0.30567311538907749 -0.48034718721606717 0 0.30976849059751488 -0.49116256414654652 0 0.30976849059751488 -0.49116256414654652 0 0.30072986532678792 -0.5 0 0.2976313780615028 -0.49001588786023559 0 0.30567311538907749 -0.48034718721606717 0 0.30976849059751488 -0.49116256414654652 0 0.2976313780615028 -0.49001588786023559 0 0.33306345889097749 -0.29141871038796652 0 0.34692832282664648 -0.27134144341905292 0 0.35117035837168548 -0.29782991285777671 0 0.33306345889097749 -0.29141871038796652 0 0.33268500061009831 -0.30824203579417092 0 0.35117035837168548 -0.29782991285777671 0 0.33306345889097749 -0.29141871038796652 0 0.33268500061009831 -0.30824203579417092 0 0.32201967278620508 -0.30180854637248689 0 0.33268500061009831 -0.30824203579417092 0 0.35117035837168548 -0.29782991285777671 0 0.34282918403525958 -0.31383988266746721 0 0.33268500061009831 -0.30824203579417092 0 0.32086080165998421 -0.31108977066224253 0 0.32567939035855542 -0.31782143600484281 0 0.33268500061009831 -0.30824203579417092 0 0.32201967278620508 -0.30180854637248689 0 0.32086080165998421 -0.31108977066224253 0 0.32086080165998421 -0.31108977066224253 0 0.31378919958273288 -0.31519565594433779 0 0.31220684782225361 -0.30777617908547228 0 0.32201967278620508 -0.30180854637248689 0 0.32086080165998421 -0.31108977066224253 0 0.31220684782225361 -0.30777617908547228 0 0.32201967278620508 -0.30180854637248689 0 0.31908621961328398 -0.29018436075917881 0 0.30938653616528128 -0.29904257800064982 0 0.32201967278620508 -0.30180854637248689 0 0.30938653616528128 -0.29904257800064982 0 0.31220684782225361 -0.30777617908547228 0 0.31908621961328398 -0.29018436075917881 0 0.3252193480620289 -0.2770930151027407 0 0.30574208216192739 -0.28155895393205022 0 0.33306345889097749 -0.29141871038796652 0 0.32201967278620508 -0.30180854637248689 0 0.31908621961328398 -0.29018436075917881 0 0.33306345889097749 -0.29141871038796652 0 0.31908621961328398 -0.29018436075917881 0 0.3252193480620289 -0.2770930151027407 0 0.3252193480620289 -0.2770930151027407 0 0.31712560622696973 -0.26403981267986287 0 0.30574208216192739 -0.28155895393205022 0 0.3252193480620289 -0.2770930151027407 0 0.31712560622696973 -0.26403981267986287 0 0.33122963959608331 -0.26065329394858611 0 0.32146979424958622 -0.24479646355193069 0 0.31712560622696973 -0.26403981267986287 0 0.30196716706522259 -0.25609733686400699 0 0.32146979424958622 -0.24479646355193069 0 0.31712560622696973 -0.26403981267986287 0 0.33122963959608331 -0.26065329394858611 0 0.3426862872816076 -0.2448529739803291 0 0.33122963959608331 -0.26065329394858611 0 0.34692832282664648 -0.27134144341905292 0 0.32146979424958622 -0.24479646355193069 0 0.3426862872816076 -0.2448529739803291 0 0.33122963959608331 -0.26065329394858611 0 0.33306345889097749 -0.29141871038796652 0 0.3252193480620289 -0.2770930151027407 0 0.34692832282664648 -0.27134144341905292 0 0.3252193480620289 -0.2770930151027407 0 0.33122963959608331 -0.26065329394858611 0 0.34692832282664648 -0.27134144341905292 0 0.3426862872816076 -0.2448529739803291 0 0.34692832282664648 -0.27134144341905292 0 0.3426862872816076 -0.2448529739803291 0 0.34692832282664648 -0.27134144341905292 0 0.36382526563608841 -0.26057243660908053 0 0.3728553354896833 -0.24170966668946789 0 0.38323898802897471 -0.25369016854328119 0 0.36382526563608841 -0.26057243660908053 0 0.34692832282664648 -0.27134144341905292 0 0.36382526563608841 -0.26057243660908053 0 0.37279641630456778 -0.28688564836479341 0 0.36382526563608841 -0.26057243660908053 0 0.37279641630456778 -0.28688564836479341 0 0.38027422610832318 -0.2692962312407422 0 0.36382526563608841 -0.26057243660908053 0 0.37279641630456778 -0.28688564836479341 0 0.34692832282664648 -0.27134144341905292 0 0.35117035837168548 -0.29782991285777671 0 0.34692832282664648 -0.27134144341905292 0 0.37279641630456778 -0.28688564836479341 0 0.35117035837168548 -0.29782991285777671 0 0.35117035837168548 -0.29782991285777671 0 0.36663414852424991 -0.30893734934361072 0 0.35541239391672452 -0.32431838229650051 0 0.35117035837168548 -0.29782991285777671 0 0.35541239391672452 -0.32431838229650051 0 0.35117035837168548 -0.29782991285777671 0 0.35541239391672452 -0.32431838229650051 0 0.34282918403525958 -0.31383988266746721 0 0.37279641630456778 -0.28688564836479341 0 0.35117035837168548 -0.29782991285777671 0 0.36663414852424991 -0.30893734934361072 0 0.38395872792318492 -0.30770497907920102 0 0.36663414852424991 -0.30893734934361072 0 0.37420493105156011 -0.3199049692679331 0 0.38395872792318492 -0.30770497907920102 0 0.37279641630456778 -0.28688564836479341 0 0.36663414852424991 -0.30893734934361072 0 0.37557283775158551 -0.33323703120686882 0 0.37420493105156011 -0.3199049692679331 0 0.35541239391672452 -0.32431838229650051 0 0.36663414852424991 -0.30893734934361072 0 0.37420493105156011 -0.3199049692679331 0 0.35541239391672452 -0.32431838229650051 0 0.37557283775158551 -0.33323703120686882 0 0.36682615890226961 -0.33956007521863429 0 0.35541239391672452 -0.32431838229650051 0 0.36682615890226961 -0.33956007521863429 0 0.35541239391672452 -0.32431838229650051 0 0.35965442946176429 -0.3508068517352243 0 0.37628950864166949 -0.34495945910718029 0 0.37557283775158551 -0.33323703120686882 0 0.36682615890226961 -0.33956007521863429 0 0.34776208503349271 -0.3365348209217861 0 0.35700476965528682 -0.35040778148949492 0 0.33161092120774122 -0.33796869515043793 0 0.35541239391672452 -0.32431838229650051 0 0.35965442946176429 -0.3508068517352243 0 0.34776208503349271 -0.3365348209217861 0 0.35541239391672452 -0.32431838229650051 0 0.35965442946176429 -0.3508068517352243 0 0.34776208503349271 -0.3365348209217861 0 0.35541239391672452 -0.32431838229650051 0 0.34324483915199988 -0.32496701384733662 0 0.35541239391672452 -0.32431838229650051 0 0.34282918403525958 -0.31383988266746721 0 0.34324483915199988 -0.32496701384733662 0 0.37626242823976058 -0.3787433431615333 0 0.3656219544493628 -0.37123733962328997 0 0.37463334710296131 -0.36884553848220641 0 0.3656219544493628 -0.37123733962328997 0 0.37463334710296131 -0.36884553848220641 0 0.36877987517388611 -0.36532768364485302 0 0.37463334710296131 -0.36884553848220641 0 0.36877987517388611 -0.36532768364485302 0 0.37176887348537391 -0.36070395545778289 0 0.36877987517388611 -0.36532768364485302 0 0.37176887348537391 -0.36070395545778289 0 0.3648375549895746 -0.36003074361737308 0 0.36877987517388611 -0.36532768364485302 0 0.3648375549895746 -0.36003074361737308 0 0.36434877936547422 -0.36429928576079051 0 0.3648375549895746 -0.36003074361737308 0 0.36434877936547422 -0.36429928576079051 0 0.36187752874089091 -0.36105607989861449 0 0.3656219544493628 -0.37123733962328997 0 0.36434877936547422 -0.36429928576079051 0 0.35772563304639438 -0.3631945958128121 0 0.3656219544493628 -0.37123733962328997 0 0.36877987517388611 -0.36532768364485302 0 0.36434877936547422 -0.36429928576079051 0 0.36187752874089091 -0.36105607989861449 0 0.36059814756212027 -0.35669969440348243 0 0.35772563304639438 -0.3631945958128121 0 0.36434877936547422 -0.36429928576079051 0 0.36187752874089091 -0.36105607989861449 0 0.35772563304639438 -0.3631945958128121 0 0.37628950864166949 -0.34495945910718029 0 0.38459402196957099 -0.3545630506578773 0 0.35965442946176429 -0.3508068517352243 0 0.38355058749886922 -0.36341115593978052 0 0.35965442946176429 -0.3508068517352243 0 0.38459402196957099 -0.3545630506578773 0 0.35965442946176429 -0.3508068517352243 0 0.37628950864166949 -0.34495945910718029 0 0.36682615890226961 -0.33956007521863429 0 0.35965442946176429 -0.3508068517352243 0 0.38355058749886922 -0.36341115593978052 0 0.37176887348537391 -0.36070395545778289 0 0.35965442946176429 -0.3508068517352243 0 0.37176887348537391 -0.36070395545778289 0 0.3648375549895746 -0.36003074361737308 0 0.35965442946176429 -0.3508068517352243 0 0.3648375549895746 -0.36003074361737308 0 0.36059814756212027 -0.35669969440348243 0 0.35965442946176429 -0.3508068517352243 0 0.3648375549895746 -0.36003074361737308 0 0.36187752874089091 -0.36105607989861449 0 0.36059814756212027 -0.35669969440348243 0 0.36059814756212027 -0.35669969440348243 0 0.35965442946176429 -0.3508068517352243 0 0.35700476965528682 -0.35040778148949492 0 0.33161092120774122 -0.33796869515043793 0 0.35700476965528682 -0.35040778148949492 0 0.3521233670648426 -0.34967258426662379 0 0.33161092120774122 -0.33796869515043793 0 0.34776208503349271 -0.3365348209217861 0 0.35965442946176429 -0.3508068517352243 0 0.35700476965528682 -0.35040778148949492 0 0.35965442946176429 -0.3508068517352243 0 0.35700476965528682 -0.35040778148949492 0 0.35700476965528682 -0.35040778148949492 0 0.3521233670648426 -0.34967258426662379 0 0.35700476965528682 -0.35040778148949492 0 0.3521233670648426 -0.34967258426662379 0 0.35376988810449278 -0.35311683703167562 0 0.3521233670648426 -0.34967258426662379 0 0.34486035117947689 -0.35445252643425662 0 0.3389813593506924 -0.34728844014216131 0 0.3509644976410507 -0.35370271541474568 0 0.34486035117947689 -0.35445252643425662 0 0.3531043842153907 -0.35756891392642709 0 0.3521233670648426 -0.34967258426662379 0 0.3509644976410507 -0.35370271541474568 0 0.34486035117947689 -0.35445252643425662 0 0.3509644976410507 -0.35370271541474568 0 0.3531043842153907 -0.35756891392642709 0 0.35376988810449278 -0.35311683703167562 0 0.3521233670648426 -0.34967258426662379 0 0.3509644976410507 -0.35370271541474568 0 0.35376988810449278 -0.35311683703167562 0 0.3531043842153907 -0.35756891392642709 0 0.35376988810449278 -0.35311683703167562 0 0.35685821075542951 -0.35417222344537858 0 0.36059814756212027 -0.35669969440348243 0 0.35965442946176429 -0.3508068517352243 0 0.35685821075542951 -0.35417222344537858 0 0.35700476965528682 -0.35040778148949492 0 0.35376988810449278 -0.35311683703167562 0 0.35685821075542951 -0.35417222344537858 0 0.35965442946176429 -0.3508068517352243 0 0.35700476965528682 -0.35040778148949492 0 0.35685821075542951 -0.35417222344537858 0 0.36059814756212027 -0.35669969440348243 0 0.3531043842153907 -0.35756891392642709 0 0.35685821075542951 -0.35417222344537858 0 0.36059814756212027 -0.35669969440348243 0 0.3531043842153907 -0.35756891392642709 0 0.35772563304639438 -0.3631945958128121 0 0.3656219544493628 -0.37123733962328997 0 0.35772563304639438 -0.3631945958128121 0 0.34860021271182973 -0.36784745954629883 0 0.3531043842153907 -0.35756891392642709 0 0.35772563304639438 -0.3631945958128121 0 0.34860021271182973 -0.36784745954629883 0 0.34486035117947689 -0.35445252643425662 0 0.3531043842153907 -0.35756891392642709 0 0.34860021271182973 -0.36784745954629883 0 0.34860021271182973 -0.36784745954629883 0 0.33061655772796661 -0.36511412938036542 0 0.32740864273601289 -0.34668853417883932 0 0.3362501089924661 -0.38403083297873553 0 0.34860021271182973 -0.36784745954629883 0 0.33061655772796661 -0.36511412938036542 0 0.34486035117947689 -0.35445252643425662 0 0.34860021271182973 -0.36784745954629883 0 0.32740864273601289 -0.34668853417883932 0 0.3521233670648426 -0.34967258426662379 0 0.3389813593506924 -0.34728844014216131 0 0.33161092120774122 -0.33796869515043793 0 0.34860021271182973 -0.36784745954629883 0 0.32740864273601289 -0.34668853417883932 0 0.34486035117947689 -0.35445252643425662 0 0.3389813593506924 -0.34728844014216131 0 0.32740864273601289 -0.34668853417883932 0 0.3389813593506924 -0.34728844014216131 0 0.32740864273601289 -0.34668853417883932 0 0.33161092120774122 -0.33796869515043793 0 0.33061655772796661 -0.36511412938036542 0 0.32740864273601289 -0.34668853417883932 0 0.32229874553711219 -0.35124421126658278 0 0.32740864273601289 -0.34668853417883932 0 0.32229874553711219 -0.35124421126658278 0 0.31863763732250472 -0.34573157028999812 0 0.32229874553711219 -0.35124421126658278 0 0.31863763732250472 -0.34573157028999812 0 0.31392551393233531 -0.34935120779221041 0 0.31863763732250472 -0.34573157028999812 0 0.31392551393233531 -0.34935120779221041 0 0.31239959155228519 -0.3435970154383986 0 0.32229874553711219 -0.35124421126658278 0 0.31392551393233531 -0.34935120779221041 0 0.314686768751538 -0.35716605109578931 0 0.3362501089924661 -0.38403083297873553 0 0.31650939143736539 -0.37544749810888978 0 0.33061655772796661 -0.36511412938036542 0 0.31650939143736539 -0.37544749810888978 0 0.32229874553711219 -0.35124421126658278 0 0.31650939143736539 -0.37544749810888978 0 0.32229874553711219 -0.35124421126658278 0 0.314686768751538 -0.35716605109578931 0 0.31650939143736539 -0.37544749810888978 0 0.33061655772796661 -0.36511412938036542 0 0.32229874553711219 -0.35124421126658278 0 0.33268500061009831 -0.30824203579417092 0 0.33317213816802099 -0.3238859916064144 0 0.34282918403525958 -0.31383988266746721 0 0.33268500061009831 -0.30824203579417092 0 0.33317213816802099 -0.3238859916064144 0 0.32567939035855542 -0.31782143600484281 0 0.33317213816802099 -0.3238859916064144 0 0.33065179089220548 -0.32991054265534708 0 0.3211108367620375 -0.32726440005723678 0 0.33317213816802099 -0.3238859916064144 0 0.33671326743102248 -0.33052308380729922 0 0.33065179089220548 -0.32991054265534708 0 0.33317213816802099 -0.3238859916064144 0 0.34282918403525958 -0.31383988266746721 0 0.34324483915199988 -0.32496701384733662 0 0.33317213816802099 -0.3238859916064144 0 0.34324483915199988 -0.32496701384733662 0 0.33671326743102248 -0.33052308380729922 0 0.34776208503349271 -0.3365348209217861 0 0.33671326743102248 -0.33052308380729922 0 0.33161092120774122 -0.33796869515043793 0 0.34776208503349271 -0.3365348209217861 0 0.34324483915199988 -0.32496701384733662 0 0.33671326743102248 -0.33052308380729922 0 0.33671326743102248 -0.33052308380729922 0 0.33161092120774122 -0.33796869515043793 0 0.33065179089220548 -0.32991054265534708 0 0.33161092120774122 -0.33796869515043793 0 0.30621707276019577 -0.32552960881137999 0 0.32740864273601289 -0.34668853417883932 0 0.30621707276019577 -0.32552960881137999 0 0.33161092120774122 -0.33796869515043793 0 0.3211108367620375 -0.32726440005723678 0 0.30621707276019577 -0.32552960881137999 0 0.32740864273601289 -0.34668853417883932 0 0.31430668842175818 -0.33778297544235197 0 0.30621707276019577 -0.32552960881137999 0 0.32740864273601289 -0.34668853417883932 0 0.33161092120774122 -0.33796869515043793 0 0.30621707276019577 -0.32552960881137999 0 0.33161092120774122 -0.33796869515043793 0 0.33065179089220548 -0.32991054265534708 0 0.3211108367620375 -0.32726440005723678 0 0.31863763732250472 -0.34573157028999812 0 0.31430668842175818 -0.33778297544235197 0 0.31239959155228519 -0.3435970154383986 0 0.32740864273601289 -0.34668853417883932 0 0.31863763732250472 -0.34573157028999812 0 0.31430668842175818 -0.33778297544235197 0 0.3138701459142102 -0.32420089871241681 0 0.3211108367620375 -0.32726440005723678 0 0.30621707276019577 -0.32552960881137999 0 0.3138701459142102 -0.32420089871241681 0 0.3211108367620375 -0.32726440005723678 0 0.31805481052745621 -0.31936237222494551 0 0.3138701459142102 -0.32420089871241681 0 0.31805481052745621 -0.31936237222494551 0 0.31297074484605969 -0.31993504142882301 0 0.3211108367620375 -0.32726440005723678 0 0.32567939035855542 -0.31782143600484281 0 0.31805481052745621 -0.31936237222494551 0 0.33317213816802099 -0.3238859916064144 0 0.3211108367620375 -0.32726440005723678 0 0.32567939035855542 -0.31782143600484281 0 0.32086080165998421 -0.31108977066224253 0 0.32567939035855542 -0.31782143600484281 0 0.31805481052745621 -0.31936237222494551 0 0.32086080165998421 -0.31108977066224253 0 0.31805481052745621 -0.31936237222494551 0 0.31378919958273288 -0.31519565594433779 0 0.31805481052745621 -0.31936237222494551 0 0.31297074484605969 -0.31993504142882301 0 0.31378919958273288 -0.31519565594433779 0 0.31378919958273288 -0.31519565594433779 0 0.30934891965642669 -0.31874867003899549 0 0.3083794939108695 -0.31372816293909861 0 0.31297074484605969 -0.31993504142882301 0 0.31378919958273288 -0.31519565594433779 0 0.30934891965642669 -0.31874867003899549 0 0.31297074484605969 -0.31993504142882301 0 0.30934891965642669 -0.31874867003899549 0 0.30979064854947241 -0.32216761022341922 0 0.30934891965642669 -0.31874867003899549 0 0.3083794939108695 -0.31372816293909861 0 0.30458934338867799 -0.31763567733507481 0 0.30934891965642669 -0.31874867003899549 0 0.30458934338867799 -0.31763567733507481 0 0.30653712503570107 -0.32153051468203869 0 0.3083794939108695 -0.31372816293909861 0 0.30458934338867799 -0.31763567733507481 0 0.3021174278855534 -0.31042127376148632 0 0.30458934338867799 -0.31763567733507481 0 0.30027869152686287 -0.31596576970508039 0 0.3021174278855534 -0.31042127376148632 0 0.30458934338867799 -0.31763567733507481 0 0.29945210822223711 -0.31938349449346343 0 0.30027869152686287 -0.31596576970508039 0 0.30458934338867799 -0.31763567733507481 0 0.29945210822223711 -0.31938349449346343 0 0.30260786904147752 -0.32192596489979269 0 0.29945210822223711 -0.31938349449346343 0 0.30027869152686287 -0.31596576970508039 0 0.29450948994722681 -0.31628072850878353 0 0.30027869152686287 -0.31596576970508039 0 0.29450948994722681 -0.31628072850878353 0 0.3021174278855534 -0.31042127376148632 0 0.29974510676277522 -0.32564249355136432 0 0.3022183865994747 -0.32825175175260168 0 0.29623050679007179 -0.32856942157508218 0 0.29974510676277522 -0.32564249355136432 0 0.29623050679007179 -0.32856942157508218 0 0.29516961137165498 -0.32204022673295818 0 0.29974510676277522 -0.32564249355136432 0 0.30007268824431299 -0.32258867229013172 0 0.29516961137165498 -0.32204022673295818 0 0.29945210822223711 -0.31938349449346343 0 0.30007268824431299 -0.32258867229013172 0 0.29516961137165498 -0.32204022673295818 0 0.29945210822223711 -0.31938349449346343 0 0.30007268824431299 -0.32258867229013172 0 0.30260786904147752 -0.32192596489979269 0 0.29974510676277522 -0.32564249355136432 0 0.30007268824431299 -0.32258867229013172 0 0.30242730497287362 -0.32367320454052489 0 0.30458934338867799 -0.31763567733507481 0 0.30260786904147752 -0.32192596489979269 0 0.30653712503570107 -0.32153051468203869 0 0.30007268824431299 -0.32258867229013172 0 0.30242730497287362 -0.32367320454052489 0 0.30260786904147752 -0.32192596489979269 0 0.30260786904147752 -0.32192596489979269 0 0.30621707276019577 -0.32552960881137999 0 0.30242730497287362 -0.32367320454052489 0 0.30260786904147752 -0.32192596489979269 0 0.30621707276019577 -0.32552960881137999 0 0.29974510676277522 -0.32564249355136432 0 0.30242730497287362 -0.32367320454052489 0 0.3022183865994747 -0.32825175175260168 0 0.30242730497287362 -0.32367320454052489 0 0.30621707276019577 -0.32552960881137999 0 0.30242730497287362 -0.32367320454052489 0 0.30621707276019577 -0.32552960881137999 0 0.3022183865994747 -0.32825175175260168 0 0.30621707276019577 -0.32552960881137999 0 0.30653712503570107 -0.32153051468203869 0 0.30979064854947241 -0.32216761022341922 0 0.30260786904147752 -0.32192596489979269 0 0.30621707276019577 -0.32552960881137999 0 0.30653712503570107 -0.32153051468203869 0 0.30934891965642669 -0.31874867003899549 0 0.30653712503570107 -0.32153051468203869 0 0.30979064854947241 -0.32216761022341922 0 0.3138701459142102 -0.32420089871241681 0 0.30621707276019577 -0.32552960881137999 0 0.30979064854947241 -0.32216761022341922 0 0.3138701459142102 -0.32420089871241681 0 0.31297074484605969 -0.31993504142882301 0 0.30979064854947241 -0.32216761022341922 0 0.31430668842175818 -0.33778297544235197 0 0.30621707276019577 -0.32552960881137999 0 0.30609075157758547 -0.33151285831728661 0 0.31430668842175818 -0.33778297544235197 0 0.30680496925646072 -0.33576365976457567 0 0.30609075157758547 -0.33151285831728661 0 0.30621707276019577 -0.32552960881137999 0 0.30609075157758547 -0.33151285831728661 0 0.3022183865994747 -0.32825175175260168 0 0.31239959155228519 -0.3435970154383986 0 0.3091127756799944 -0.34000383796817391 0 0.30601534240483341 -0.34511548569925848 0 0.31430668842175818 -0.33778297544235197 0 0.31239959155228519 -0.3435970154383986 0 0.3091127756799944 -0.34000383796817391 0 0.31430668842175818 -0.33778297544235197 0 0.30680496925646072 -0.33576365976457567 0 0.3091127756799944 -0.34000383796817391 0 0.30680496925646072 -0.33576365976457567 0 0.3091127756799944 -0.34000383796817391 0 0.30377598305392789 -0.33893094234456389 0 0.3091127756799944 -0.34000383796817391 0 0.30377598305392789 -0.33893094234456389 0 0.30601534240483341 -0.34511548569925848 0 0.30377598305392789 -0.33893094234456389 0 0.29637045758140251 -0.34236133125580448 0 0.30601534240483341 -0.34511548569925848 0 0.30377598305392789 -0.33893094234456389 0 0.30020530423335268 -0.33378583827907438 0 0.29637045758140251 -0.34236133125580448 0 0.30680496925646072 -0.33576365976457567 0 0.30377598305392789 -0.33893094234456389 0 0.30020530423335268 -0.33378583827907438 0 0.30609075157758547 -0.33151285831728661 0 0.3022183865994747 -0.32825175175260168 0 0.30020530423335268 -0.33378583827907438 0 0.30680496925646072 -0.33576365976457567 0 0.30609075157758547 -0.33151285831728661 0 0.30020530423335268 -0.33378583827907438 0 0.3022183865994747 -0.32825175175260168 0 0.30020530423335268 -0.33378583827907438 0 0.29623050679007179 -0.32856942157508218 0 0.30020530423335268 -0.33378583827907438 0 0.29623050679007179 -0.32856942157508218 0 0.28922950316319979 -0.33466140170908631 0 0.29623050679007179 -0.32856942157508218 0 0.28922950316319979 -0.33466140170908631 0 0.29006498010937048 -0.32693365609037761 0 0.28922950316319979 -0.33466140170908631 0 0.29637045758140251 -0.34236133125580448 0 0.28342728329632982 -0.34680606307381129 0 0.30020530423335268 -0.33378583827907438 0 0.28922950316319979 -0.33466140170908631 0 0.29637045758140251 -0.34236133125580448 0 0.28922950316319979 -0.33466140170908631 0 0.28342728329632982 -0.34680606307381129 0 0.27631064455548299 -0.33709122828061888 0 0.28922950316319979 -0.33466140170908631 0 0.28151704616930479 -0.32823313346620941 0 0.27631064455548299 -0.33709122828061888 0 0.28922950316319979 -0.33466140170908631 0 0.28151704616930479 -0.32823313346620941 0 0.29006498010937048 -0.32693365609037761 0 0.28776988451651159 -0.321275520646641 0 0.27698468793054121 -0.30530701747601491 0 0.29105051352763839 -0.31091806759731289 0 0.28151704616930479 -0.32823313346620941 0 0.28776988451651159 -0.321275520646641 0 0.29006498010937048 -0.32693365609037761 0 0.29450948994722681 -0.31628072850878353 0 0.29105051352763839 -0.31091806759731289 0 0.3021174278855534 -0.31042127376148632 0 0.28776988451651159 -0.321275520646641 0 0.29450948994722681 -0.31628072850878353 0 0.29516961137165498 -0.32204022673295818 0 0.28776988451651159 -0.321275520646641 0 0.29450948994722681 -0.31628072850878353 0 0.29105051352763839 -0.31091806759731289 0 0.29945210822223711 -0.31938349449346343 0 0.29450948994722681 -0.31628072850878353 0 0.29516961137165498 -0.32204022673295818 0 0.29623050679007179 -0.32856942157508218 0 0.29516961137165498 -0.32204022673295818 0 0.29006498010937048 -0.32693365609037761 0 0.28776988451651159 -0.321275520646641 0 0.29516961137165498 -0.32204022673295818 0 0.29006498010937048 -0.32693365609037761 0 0.314686768751538 -0.35716605109578931 0 0.29477314436029067 -0.36703377344441313 0 0.31650939143736539 -0.37544749810888978 0 0.314686768751538 -0.35716605109578931 0 0.29477314436029067 -0.36703377344441313 0 0.314686768751538 -0.35716605109578931 0 0.30515958041948288 -0.35489572044682072 0 0.29477314436029067 -0.36703377344441313 0 0.30515958041948288 -0.35489572044682072 0 0.29416042320229552 -0.35260930043004551 0 0.29477314436029067 -0.36703377344441313 0 0.31392551393233531 -0.34935120779221041 0 0.314686768751538 -0.35716605109578931 0 0.30515958041948288 -0.35489572044682072 0 0.31392551393233531 -0.34935120779221041 0 0.30515958041948288 -0.35489572044682072 0 0.30601534240483341 -0.34511548569925848 0 0.31392551393233531 -0.34935120779221041 0 0.31239959155228519 -0.3435970154383986 0 0.30601534240483341 -0.34511548569925848 0 0.30515958041948288 -0.35489572044682072 0 0.30601534240483341 -0.34511548569925848 0 0.29416042320229552 -0.35260930043004551 0 0.29637045758140251 -0.34236133125580448 0 0.30601534240483341 -0.34511548569925848 0 0.29416042320229552 -0.35260930043004551 0 0.29637045758140251 -0.34236133125580448 0 0.28342728329632982 -0.34680606307381129 0 0.29416042320229552 -0.35260930043004551 0 0.28342728329632982 -0.34680606307381129 0 0.29416042320229552 -0.35260930043004551 0 0.27921673115143392 -0.3594434286601651 0 0.27485951996904329 -0.37690149579303689 0 0.29477314436029067 -0.36703377344441313 0 0.27485951996904329 -0.37690149579303689 0 0.29477314436029067 -0.36703377344441313 0 0.27921673115143392 -0.3594434286601651 0 0.29416042320229552 -0.35260930043004551 0 0.29477314436029067 -0.36703377344441313 0 0.27921673115143392 -0.3594434286601651 0 0.27485951996904329 -0.37690149579303689 0 0.27921673115143392 -0.3594434286601651 0 0.26452868432306459 -0.36584084285285229 0 0.28342728329632982 -0.34680606307381129 0 0.27921673115143392 -0.3594434286601651 0 0.26388135577575123 -0.34621150603928869 0 0.27921673115143392 -0.3594434286601651 0 0.26388135577575123 -0.34621150603928869 0 0.26452868432306459 -0.36584084285285229 0 0.26388135577575123 -0.34621150603928869 0 0.24453394270480289 -0.33298791311855919 0 0.2497399191412992 -0.35987856563010989 0 0.26388135577575123 -0.34621150603928869 0 0.26452868432306459 -0.36584084285285229 0 0.2497399191412992 -0.35987856563010989 0 0.2549458955777959 -0.38676921814166049 0 0.2497399191412992 -0.35987856563010989 0 0.2549458955777959 -0.38676921814166049 0 0.26452868432306459 -0.36584084285285229 0 0.2497399191412992 -0.35987856563010989 0 0.28776988451651159 -0.321275520646641 0 0.27299632907634541 -0.31974878486533481 0 0.27698468793054121 -0.30530701747601491 0 0.28151704616930479 -0.32823313346620941 0 0.28776988451651159 -0.321275520646641 0 0.27299632907634541 -0.31974878486533481 0 0.28151704616930479 -0.32823313346620941 0 0.27299632907634541 -0.31974878486533481 0 0.26590481730078719 -0.33054830552766817 0 0.26388135577575123 -0.34621150603928869 0 0.27631064455548299 -0.33709122828061888 0 0.26590481730078719 -0.33054830552766817 0 0.28151704616930479 -0.32823313346620941 0 0.27631064455548299 -0.33709122828061888 0 0.26590481730078719 -0.33054830552766817 0 0.28342728329632982 -0.34680606307381129 0 0.26388135577575123 -0.34621150603928869 0 0.27631064455548299 -0.33709122828061888 0 0.26388135577575123 -0.34621150603928869 0 0.26590481730078719 -0.33054830552766817 0 0.24453394270480289 -0.33298791311855919 0 0.26590481730078719 -0.33054830552766817 0 0.256189585523036 -0.31901726739599839 0 0.24453394270480289 -0.33298791311855919 0 0.27299632907634541 -0.31974878486533481 0 0.26590481730078719 -0.33054830552766817 0 0.256189585523036 -0.31901726739599839 0 0.27299632907634541 -0.31974878486533481 0 0.256189585523036 -0.31901726739599839 0 0.25996310732351963 -0.3045669253473261 0 0.256189585523036 -0.31901726739599839 0 0.25996310732351963 -0.3045669253473261 0 0.23932796626830671 -0.3060972606070087 0 0.25996310732351963 -0.3045669253473261 0 0.25233594931661252 -0.29378875255554898 0 0.23932796626830671 -0.3060972606070087 0 0.25434575308880369 -0.28186827525585112 0 0.25233594931661252 -0.29378875255554898 0 0.26393020765334269 -0.29007485084114959 0 0.25434575308880369 -0.28186827525585112 0 0.25233594931661252 -0.29378875255554898 0 0.24411271224908981 -0.28633645072640962 0 0.25996310732351963 -0.3045669253473261 0 0.25233594931661252 -0.29378875255554898 0 0.26393020765334269 -0.29007485084114959 0 0.26393020765334269 -0.29007485084114959 0 0.27697167940200301 -0.29032464508526051 0 0.26928052423780119 -0.26905323047484631 0 0.26393020765334269 -0.29007485084114959 0 0.27697167940200301 -0.29032464508526051 0 0.27698468793054121 -0.30530701747601491 0 0.27299632907634541 -0.31974878486533481 0 0.25996310732351963 -0.3045669253473261 0 0.27698468793054121 -0.30530701747601491 0 0.25996310732351963 -0.3045669253473261 0 0.26393020765334269 -0.29007485084114959 0 0.27698468793054121 -0.30530701747601491 0 0.27698468793054121 -0.30530701747601491 0 0.29631422519444561 -0.30043303280041611 0 0.28990707212252981 -0.28913365296232341 0 0.27698468793054121 -0.30530701747601491 0 0.29105051352763839 -0.31091806759731289 0 0.29631422519444561 -0.30043303280041611 0 0.29105051352763839 -0.31091806759731289 0 0.29631422519444561 -0.30043303280041611 0 0.3021174278855534 -0.31042127376148632 0 0.28990707212252981 -0.28913365296232341 0 0.30574208216192739 -0.28155895393205022 0 0.28793141224952912 -0.27382213851929471 0 0.27697167940200301 -0.29032464508526051 0 0.28990707212252981 -0.28913365296232341 0 0.28793141224952912 -0.27382213851929471 0 0.27697167940200301 -0.29032464508526051 0 0.27698468793054121 -0.30530701747601491 0 0.28990707212252981 -0.28913365296232341 0 0.31908621961328398 -0.29018436075917881 0 0.30574208216192739 -0.28155895393205022 0 0.30938653616528128 -0.29904257800064982 0 0.29631422519444561 -0.30043303280041611 0 0.28990707212252981 -0.28913365296232341 0 0.30574208216192739 -0.28155895393205022 0 0.29631422519444561 -0.30043303280041611 0 0.30574208216192739 -0.28155895393205022 0 0.30938653616528128 -0.29904257800064982 0 0.30938653616528128 -0.29904257800064982 0 0.31220684782225361 -0.30777617908547228 0 0.3021174278855534 -0.31042127376148632 0 0.3083794939108695 -0.31372816293909861 0 0.31220684782225361 -0.30777617908547228 0 0.3021174278855534 -0.31042127376148632 0 0.31378919958273288 -0.31519565594433779 0 0.3083794939108695 -0.31372816293909861 0 0.31220684782225361 -0.30777617908547228 0 0.29631422519444561 -0.30043303280041611 0 0.30938653616528128 -0.29904257800064982 0 0.3021174278855534 -0.31042127376148632 0 0.31712560622696973 -0.26403981267986287 0 0.30574208216192739 -0.28155895393205022 0 0.30196716706522259 -0.25609733686400699 0 0.30574208216192739 -0.28155895393205022 0 0.30196716706522259 -0.25609733686400699 0 0.28793141224952912 -0.27382213851929471 0 0.30196716706522259 -0.25609733686400699 0 0.28793141224952912 -0.27382213851929471 0 0.28255509982556509 -0.25796866242257632 0 0.27793269048731001 -0.24130386905901249 0 0.30196716706522259 -0.25609733686400699 0 0.28255509982556509 -0.25796866242257632 0 0.26158936907359942 -0.24778181586443199 0 0.28255509982556509 -0.25796866242257632 0 0.26928052423780119 -0.26905323047484631 0 0.27697167940200301 -0.29032464508526051 0 0.28793141224952912 -0.27382213851929471 0 0.26928052423780119 -0.26905323047484631 0 0.27697167940200301 -0.29032464508526051 0 0.26928052423780119 -0.26905323047484631 0 0.28793141224952912 -0.27382213851929471 0 0.28255509982556509 -0.25796866242257632 0 0.26928052423780119 -0.26905323047484631 0 0.26928052423780119 -0.26905323047484631 0 0.25026433778996959 -0.27108708297656681 0 0.25374592657866613 -0.2610258532533532 0 0.25434575308880369 -0.28186827525585112 0 0.26393020765334269 -0.29007485084114959 0 0.26928052423780119 -0.26905323047484631 0 0.25434575308880369 -0.28186827525585112 0 0.26928052423780119 -0.26905323047484631 0 0.25026433778996959 -0.27108708297656681 0 0.26158936907359942 -0.24778181586443199 0 0.26928052423780119 -0.26905323047484631 0 0.26158936907359942 -0.24778181586443199 0 0.26928052423780119 -0.26905323047484631 0 0.25374592657866613 -0.2610258532533532 0 0.26158936907359942 -0.24778181586443199 0 0.25374592657866613 -0.2610258532533532 0 0.2444299610463688 -0.25163298647013332 0 0.25026433778996959 -0.27108708297656681 0 0.25374592657866613 -0.2610258532533532 0 0.24460471021894761 -0.26375108503658701 0 0.25374592657866613 -0.2610258532533532 0 0.2444299610463688 -0.25163298647013332 0 0.24460471021894761 -0.26375108503658701 0 0.2444299610463688 -0.25163298647013332 0 0.24460471021894761 -0.26375108503658701 0 0.23761229045594809 -0.25898893147014262 0 0.24460471021894761 -0.26375108503658701 0 0.23761229045594809 -0.25898893147014262 0 0.2387537171758139 -0.2698615613798514 0 0.23761229045594809 -0.25898893147014262 0 0.2387537171758139 -0.2698615613798514 0 0.2316896441201188 -0.26348223223831668 0 0.2444299610463688 -0.25163298647013332 0 0.23761229045594809 -0.25898893147014262 0 0.23304858683527799 -0.25051591857851252 0 0.24435262320957149 -0.27741870092687648 0 0.24003390220106269 -0.27994216037685637 0 0.24411271224908981 -0.28633645072640962 0 0.25434575308880369 -0.28186827525585112 0 0.25026433778996959 -0.27108708297656681 0 0.24435262320957149 -0.27741870092687648 0 0.25026433778996959 -0.27108708297656681 0 0.24460471021894761 -0.26375108503658701 0 0.2387537171758139 -0.2698615613798514 0 0.25026433778996959 -0.27108708297656681 0 0.24435262320957149 -0.27741870092687648 0 0.2387537171758139 -0.2698615613798514 0 0.2387537171758139 -0.2698615613798514 0 0.2386053167526897 -0.27541667484572419 0 0.2312301947159936 -0.27806991323981128 0 0.2387537171758139 -0.2698615613798514 0 0.2312301947159936 -0.27806991323981128 0 0.24435262320957149 -0.27741870092687648 0 0.2387537171758139 -0.2698615613798514 0 0.2386053167526897 -0.27541667484572419 0 0.2386053167526897 -0.27541667484572419 0 0.2341219898318129 -0.27920660809545772 0 0.2312301947159936 -0.27806991323981128 0 0.2386053167526897 -0.27541667484572419 0 0.2371348047008241 -0.27837933316190372 0 0.2341219898318129 -0.27920660809545772 0 0.2371348047008241 -0.27837933316190372 0 0.24003390220106269 -0.27994216037685637 0 0.2341219898318129 -0.27920660809545772 0 0.24435262320957149 -0.27741870092687648 0 0.2386053167526897 -0.27541667484572419 0 0.24003390220106269 -0.27994216037685637 0 0.2386053167526897 -0.27541667484572419 0 0.2371348047008241 -0.27837933316190372 0 0.24003390220106269 -0.27994216037685637 0 0.22711240470797031 -0.27645130938605372 0 0.22561516590192349 -0.25919641775455021 0 0.22711240470797031 -0.27645130938605372 0 0.23166505507312729 -0.27091640245370419 0 0.22561516590192349 -0.25919641775455021 0 0.22711240470797031 -0.27645130938605372 0 0.2234206304646858 -0.27500016204592392 0 0.22561516590192349 -0.25919641775455021 0 0.22711240470797031 -0.27645130938605372 0 0.2275968259298968 -0.28203400979067611 0 0.2312301947159936 -0.27806991323981128 0 0.2275968259298968 -0.28203400979067611 0 0.2312301947159936 -0.27806991323981128 0 0.22711240470797031 -0.27645130938605372 0 0.2275968259298968 -0.28203400979067611 0 0.2341219898318129 -0.27920660809545772 0 0.2312301947159936 -0.27806991323981128 0 0.2275968259298968 -0.28203400979067611 0 0.2341219898318129 -0.27920660809545772 0 0.2312301947159936 -0.27806991323981128 0 0.2312301947159936 -0.27806991323981128 0 0.22711240470797031 -0.27645130938605372 0 0.2312301947159936 -0.27806991323981128 0 0.22711240470797031 -0.27645130938605372 0 0.23166505507312729 -0.27091640245370419 0 0.2387537171758139 -0.2698615613798514 0 0.2312301947159936 -0.27806991323981128 0 0.23166505507312729 -0.27091640245370419 0 0.2387537171758139 -0.2698615613798514 0 0.23166505507312729 -0.27091640245370419 0 0.2316896441201188 -0.26348223223831668 0 0.2234206304646858 -0.27500016204592392 0 0.2235499997480864 -0.28644919873891289 0 0.2275968259298968 -0.28203400979067611 0 0.2234206304646858 -0.27500016204592392 0 0.2235499997480864 -0.28644919873891289 0 0.22711240470797031 -0.27645130938605372 0 0.2234206304646858 -0.27500016204592392 0 0.22711240470797031 -0.27645130938605372 0 0.2234206304646858 -0.27500016204592392 0 0.2275968259298968 -0.28203400979067611 0 0.2234206304646858 -0.27500016204592392 0 0.21509827865632861 -0.2519032261317693 0 0.2231035150509792 -0.24693580309054231 0 0.23304858683527799 -0.25051591857851252 0 0.22561516590192349 -0.25919641775455021 0 0.22411792709587619 -0.2419415261230467 0 0.2234206304646858 -0.27500016204592392 0 0.22561516590192349 -0.25919641775455021 0 0.2231035150509792 -0.24693580309054231 0 0.22561516590192349 -0.25919641775455021 0 0.22411792709587619 -0.2419415261230467 0 0.2234206304646858 -0.27500016204592392 0 0.2231035150509792 -0.24693580309054231 0 0.23761229045594809 -0.25898893147014262 0 0.23304858683527799 -0.25051591857851252 0 0.22561516590192349 -0.25919641775455021 0 0.23166505507312729 -0.27091640245370419 0 0.2316896441201188 -0.26348223223831668 0 0.22561516590192349 -0.25919641775455021 0 0.23761229045594809 -0.25898893147014262 0 0.2316896441201188 -0.26348223223831668 0 0.22561516590192349 -0.25919641775455021 0 0.2234206304646858 -0.27500016204592392 0 0.21509827865632861 -0.2519032261317693 0 0.20929987001017111 -0.25901905424158411 0 0.21509827865632861 -0.2519032261317693 0 0.20929987001017111 -0.25901905424158411 0 0.20277084668220299 -0.24586474783829379 0 0.2234206304646858 -0.27500016204592392 0 0.1956044521295526 -0.26406629379079882 0 0.2088039230337464 -0.28403047294445399 0 0.2234206304646858 -0.27500016204592392 0 0.20929987001017111 -0.25901905424158411 0 0.1956044521295526 -0.26406629379079882 0 0.2234206304646858 -0.27500016204592392 0 0.1956044521295526 -0.26406629379079882 0 0.1956044521295526 -0.26406629379079882 0 0.19719199495817241 -0.28713349608976418 0 0.2088039230337464 -0.28403047294445399 0 0.1956044521295526 -0.26406629379079882 0 0.19719199495817241 -0.28713349608976418 0 0.17883234273110279 -0.2792494634842928 0 0.1956044521295526 -0.26406629379079882 0 0.20277084668220299 -0.24586474783829379 0 0.18609532454956099 -0.24561307842886959 0 0.20929987001017111 -0.25901905424158411 0 0.1956044521295526 -0.26406629379079882 0 0.20277084668220299 -0.24586474783829379 0 0.19719199495817241 -0.28713349608976418 0 0.20425253786823391 -0.30750321405687281 0 0.18183910969955819 -0.30277500239991278 0 0.2088039230337464 -0.28403047294445399 0 0.20425253786823391 -0.30750321405687281 0 0.2235499997480864 -0.28644919873891289 0 0.19719199495817241 -0.28713349608976418 0 0.2088039230337464 -0.28403047294445399 0 0.20425253786823391 -0.30750321405687281 0 0.2234206304646858 -0.27500016204592392 0 0.2088039230337464 -0.28403047294445399 0 0.2235499997480864 -0.28644919873891289 0 0.20425253786823391 -0.30750321405687281 0 0.22375989188993009 -0.30502441822098969 0 0.21504156841544 -0.31441172718467991 0 0.20425253786823391 -0.30750321405687281 0 0.2235499997480864 -0.28644919873891289 0 0.20425253786823391 -0.30750321405687281 0 0.22375989188993009 -0.30502441822098969 0 0.2235499997480864 -0.28644919873891289 0 0.2293169535115426 -0.30185757761016718 0 0.22375989188993009 -0.30502441822098969 0 0.2235499997480864 -0.28644919873891289 0 0.2293169535115426 -0.30185757761016718 0 0.22375989188993009 -0.30502441822098969 0 0.2310370810931881 -0.32168114542965842 0 0.2293169535115426 -0.30185757761016718 0 0.2310370810931881 -0.32168114542965842 0 0.2293169535115426 -0.30185757761016718 0 0.23932796626830671 -0.3060972606070087 0 0.2310370810931881 -0.32168114542965842 0 0.2293169535115426 -0.30185757761016718 0 0.2275968259298968 -0.28203400979067611 0 0.2341219898318129 -0.27920660809545772 0 0.2293169535115426 -0.30185757761016718 0 0.23932796626830671 -0.3060972606070087 0 0.22375989188993009 -0.30502441822098969 0 0.2235499997480864 -0.28644919873891289 0 0.2341219898318129 -0.27920660809545772 0 0.2293169535115426 -0.30185757761016718 0 0.2275968259298968 -0.28203400979067611 0 0.2293169535115426 -0.30185757761016718 0 0.2235499997480864 -0.28644919873891289 0 0.2275968259298968 -0.28203400979067611 0 0.2235499997480864 -0.28644919873891289 0 0.2275968259298968 -0.28203400979067611 0 0.2341219898318129 -0.27920660809545772 0 0.24411271224908981 -0.28633645072640962 0 0.23932796626830671 -0.3060972606070087 0 0.25233594931661252 -0.29378875255554898 0 0.24411271224908981 -0.28633645072640962 0 0.23932796626830671 -0.3060972606070087 0 0.2341219898318129 -0.27920660809545772 0 0.23932796626830671 -0.3060972606070087 0 0.24003390220106269 -0.27994216037685637 0 0.2341219898318129 -0.27920660809545772 0 0.24411271224908981 -0.28633645072640962 0 0.25434575308880369 -0.28186827525585112 0 0.24435262320957149 -0.27741870092687648 0 0.24411271224908981 -0.28633645072640962 0 0.256189585523036 -0.31901726739599839 0 0.23932796626830671 -0.3060972606070087 0 0.24453394270480289 -0.33298791311855919 0 0.23932796626830671 -0.3060972606070087 0 0.24453394270480289 -0.33298791311855919 0 0.2310370810931881 -0.32168114542965842 0 0.23932796626830671 -0.3060972606070087 0 0.24453394270480289 -0.33298791311855919 0 0.24453394270480289 -0.33298791311855919 0 0.22946162327872319 -0.32957690747302409 0 0.2310370810931881 -0.32168114542965842 0 0.24453394270480289 -0.33298791311855919 0 0.2301341017298201 -0.33671395573628699 0 0.23433527348343641 -0.34757737383301401 0 0.24453394270480289 -0.33298791311855919 0 0.22946162327872319 -0.32957690747302409 0 0.2301341017298201 -0.33671395573628699 0 0.2301341017298201 -0.33671395573628699 0 0.22419074589108229 -0.3424833323806446 0 0.23433527348343641 -0.34757737383301401 0 0.2301341017298201 -0.33671395573628699 0 0.22419074589108229 -0.3424833323806446 0 0.2183352750248363 -0.33493410508948862 0 0.22946162327872319 -0.32957690747302409 0 0.22396978403177389 -0.32359963770306638 0 0.2183352750248363 -0.33493410508948862 0 0.22946162327872319 -0.32957690747302409 0 0.2301341017298201 -0.33671395573628699 0 0.2183352750248363 -0.33493410508948862 0 0.22375989188993009 -0.30502441822098969 0 0.22396978403177389 -0.32359963770306638 0 0.21504156841544 -0.31441172718467991 0 0.22375989188993009 -0.30502441822098969 0 0.22396978403177389 -0.32359963770306638 0 0.22375989188993009 -0.30502441822098969 0 0.22396978403177389 -0.32359963770306638 0 0.2310370810931881 -0.32168114542965842 0 0.22946162327872319 -0.32957690747302409 0 0.22396978403177389 -0.32359963770306638 0 0.2310370810931881 -0.32168114542965842 0 0.2497399191412992 -0.35987856563010989 0 0.2432684872402181 -0.3747583675775259 0 0.2328955017645935 -0.36281243085586812 0 0.2549458955777959 -0.38676921814166049 0 0.2497399191412992 -0.35987856563010989 0 0.2432684872402181 -0.3747583675775259 0 0.2497399191412992 -0.35987856563010989 0 0.23433527348343641 -0.34757737383301401 0 0.2328955017645935 -0.36281243085586812 0 0.24453394270480289 -0.33298791311855919 0 0.2497399191412992 -0.35987856563010989 0 0.23433527348343641 -0.34757737383301401 0 0.24453394270480289 -0.33298791311855919 0 0.2497399191412992 -0.35987856563010989 0 0.22419074589108229 -0.3424833323806446 0 0.23433527348343641 -0.34757737383301401 0 0.2245174296690208 -0.35058804527661541 0 0.22419074589108229 -0.3424833323806446 0 0.2245174296690208 -0.35058804527661541 0 0.2126433856776031 -0.35011475970320122 0 0.2245174296690208 -0.35058804527661541 0 0.22393163472321179 -0.35959476414373348 0 0.2126433856776031 -0.35011475970320122 0 0.23433527348343641 -0.34757737383301401 0 0.2245174296690208 -0.35058804527661541 0 0.2328955017645935 -0.36281243085586812 0 0.2245174296690208 -0.35058804527661541 0 0.2328955017645935 -0.36281243085586812 0 0.22393163472321179 -0.35959476414373348 0 0.22393163472321179 -0.35959476414373348 0 0.21475144336958141 -0.36299651301327118 0 0.22594213730313251 -0.37650846394996412 0 0.2328955017645935 -0.36281243085586812 0 0.22393163472321179 -0.35959476414373348 0 0.22594213730313251 -0.37650846394996412 0 0.2432684872402181 -0.3747583675775259 0 0.2328955017645935 -0.36281243085586812 0 0.22594213730313251 -0.37650846394996412 0 0.21475144336958141 -0.36299651301327118 0 0.19906529219199581 -0.36519376858990482 0 0.22594213730313251 -0.37650846394996412 0 0.19906529219199581 -0.36519376858990482 0 0.22594213730313251 -0.37650846394996412 0 0.2064308598173506 -0.37873398967689642 0 0.21475144336958141 -0.36299651301327118 0 0.2126433856776031 -0.35011475970320122 0 0.19906529219199581 -0.36519376858990482 0 0.19906529219199581 -0.36519376858990482 0 0.22594213730313251 -0.37650846394996412 0 0.2126433856776031 -0.35011475970320122 0 0.1939095915823994 -0.34753749933420502 0 0.20376212501209481 -0.33762576770544039 0 0.22393163472321179 -0.35959476414373348 0 0.21475144336958141 -0.36299651301327118 0 0.2126433856776031 -0.35011475970320122 0 0.2126433856776031 -0.35011475970320122 0 0.1939095915823994 -0.34753749933420502 0 0.19906529219199581 -0.36519376858990482 0 0.1939095915823994 -0.34753749933420502 0 0.19906529219199581 -0.36519376858990482 0 0.1721884470808592 -0.35387907322984558 0 0.19906529219199581 -0.36519376858990482 0 0.18298842207273869 -0.37091600872815061 0 0.1919795317125487 -0.38409573282028281 0 0.20425253786823391 -0.30750321405687281 0 0.20838606105679339 -0.32443861351906328 0 0.21504156841544 -0.31441172718467991 0 0.22396978403177389 -0.32359963770306638 0 0.20838606105679339 -0.32443861351906328 0 0.21504156841544 -0.31441172718467991 0 0.22396978403177389 -0.32359963770306638 0 0.20838606105679339 -0.32443861351906328 0 0.2183352750248363 -0.33493410508948862 0 0.22419074589108229 -0.3424833323806446 0 0.2126433856776031 -0.35011475970320122 0 0.2183352750248363 -0.33493410508948862 0 0.2126433856776031 -0.35011475970320122 0 0.2183352750248363 -0.33493410508948862 0 0.20376212501209481 -0.33762576770544039 0 0.20838606105679339 -0.32443861351906328 0 0.2183352750248363 -0.33493410508948862 0 0.20376212501209481 -0.33762576770544039 0 0.1939095915823994 -0.34753749933420502 0 0.20376212501209481 -0.33762576770544039 0 0.18495507598838151 -0.32855722937483239 0 0.20838606105679339 -0.32443861351906328 0 0.20376212501209481 -0.33762576770544039 0 0.18495507598838151 -0.32855722937483239 0 0.20425253786823391 -0.30750321405687281 0 0.20838606105679339 -0.32443861351906328 0 0.18495507598838151 -0.32855722937483239 0 0.20425253786823391 -0.30750321405687281 0 0.18495507598838151 -0.32855722937483239 0 0.20425253786823391 -0.30750321405687281 0 0.18495507598838151 -0.32855722937483239 0 0.18183910969955819 -0.30277500239991278 0 0.18495507598838151 -0.32855722937483239 0 0.1593146493950747 -0.31909256460648522 0 0.18183910969955819 -0.30277500239991278 0 0.18495507598838151 -0.32855722937483239 0 0.1593146493950747 -0.31909256460648522 0 0.1721884470808592 -0.35387907322984558 0 0.1593146493950747 -0.31909256460648522 0 0.1721884470808592 -0.35387907322984558 0 0.1453116019697227 -0.34256437786978639 0 0.1939095915823994 -0.34753749933420502 0 0.18495507598838151 -0.32855722937483239 0 0.1721884470808592 -0.35387907322984558 0 0.19906529219199581 -0.36519376858990482 0 0.18298842207273869 -0.37091600872815061 0 0.1721884470808592 -0.35387907322984558 0 0.19906529219199581 -0.36519376858990482 0 0.1721884470808592 -0.35387907322984558 0 0.18298842207273869 -0.37091600872815061 0 0.1721884470808592 -0.35387907322984558 0 0.1687204173055511 -0.38049546027256931 0 0.1721884470808592 -0.35387907322984558 0 0.15353546690445541 -0.36481351693216441 0 0.1453116019697227 -0.34256437786978639 0 0.1721884470808592 -0.35387907322984558 0 0.1453116019697227 -0.34256437786978639 0 0.1721884470808592 -0.35387907322984558 0 0.15353546690445541 -0.36481351693216441 0 0.1687204173055511 -0.38049546027256931 0 0.15353546690445541 -0.36481351693216441 0 0.1334576568725144 -0.36734337666316108 0 0.13761108734286651 -0.39278886107704258 0 0.15353546690445541 -0.36481351693216441 0 0.1334576568725144 -0.36734337666316108 0 0.1453116019697227 -0.34256437786978639 0 0.1334576568725144 -0.36734337666316108 0 0.1453116019697227 -0.34256437786978639 0 0.1151457893227235 -0.35538430830369239 0 0.1593146493950747 -0.31909256460648522 0 0.1453116019697227 -0.34256437786978639 0 0.1327557034794242 -0.31406397942508268 0 0.1453116019697227 -0.34256437786978639 0 0.1148396108404251 -0.33048353453193308 0 0.1151457893227235 -0.35538430830369239 0 0.1453116019697227 -0.34256437786978639 0 0.1327557034794242 -0.31406397942508268 0 0.1148396108404251 -0.33048353453193308 0 0.1327557034794242 -0.31406397942508268 0 0.14440323395559029 -0.29773846118899983 0 0.1214680764032728 -0.28799396244537362 0 0.1593146493950747 -0.31909256460648522 0 0.1327557034794242 -0.31406397942508268 0 0.14440323395559029 -0.29773846118899983 0 0.1593146493950747 -0.31909256460648522 0 0.14440323395559029 -0.29773846118899983 0 0.1632037644333936 -0.29517191086136302 0 0.14440323395559029 -0.29773846118899983 0 0.14844893471109749 -0.27355094929525131 0 0.1632037644333936 -0.29517191086136302 0 0.14440323395559029 -0.29773846118899983 0 0.14844893471109749 -0.27355094929525131 0 0.1214680764032728 -0.28799396244537362 0 0.14844893471109749 -0.27355094929525131 0 0.16778827379441841 -0.25313242553567622 0 0.13997209545928421 -0.24219855728055359 0 0.14844893471109749 -0.27355094929525131 0 0.1208519130951949 -0.25967578265474978 0 0.13997209545928421 -0.24219855728055359 0 0.14844893471109749 -0.27355094929525131 0 0.1208519130951949 -0.25967578265474978 0 0.1214680764032728 -0.28799396244537362 0 0.14844893471109749 -0.27355094929525131 0 0.16778827379441841 -0.25313242553567622 0 0.17883234273110279 -0.2792494634842928 0 0.1956044521295526 -0.26406629379079882 0 0.16778827379441841 -0.25313242553567622 0 0.18609532454956099 -0.24561307842886959 0 0.1956044521295526 -0.26406629379079882 0 0.16778827379441841 -0.25313242553567622 0 0.17883234273110279 -0.2792494634842928 0 0.1956044521295526 -0.26406629379079882 0 0.16778827379441841 -0.25313242553567622 0 0.17883234273110279 -0.2792494634842928 0 0.18183910969955819 -0.30277500239991278 0 0.1632037644333936 -0.29517191086136302 0 0.19719199495817241 -0.28713349608976418 0 0.17883234273110279 -0.2792494634842928 0 0.18183910969955819 -0.30277500239991278 0 0.1593146493950747 -0.31909256460648522 0 0.18183910969955819 -0.30277500239991278 0 0.1632037644333936 -0.29517191086136302 0 0.14844893471109749 -0.27355094929525131 0 0.17883234273110279 -0.2792494634842928 0 0.1632037644333936 -0.29517191086136302 0 0.1928072589024005 -0.5 0 0.20064524300179451 -0.48408413981693582 0 0.21552450489004971 -0.50000000000000389 0 0.1928072589024005 -0.5 0 0.20064524300179451 -0.48408413981693582 0 0.17566152260556811 -0.4787645574572737 0 0.20047489497967641 -0.46924756139533819 0 0.20064524300179451 -0.48408413981693582 0 0.17566152260556811 -0.4787645574572737 0 0.20047489497967641 -0.46924756139533819 0 0.17566152260556811 -0.4787645574572737 0 0.20047489497967641 -0.46924756139533819 0 0.1870570053939955 -0.4614654288925471 0 0.17566152260556811 -0.4787645574572737 0 0.20047489497967641 -0.46924756139533819 0 0.20064524300179451 -0.48408413981693582 0 0.20806373519421659 -0.47559263039731048 0 0.20064524300179451 -0.48408413981693582 0 0.20806373519421659 -0.47559263039731048 0 0.21218654879276419 -0.48315928477010051 0 0.20047489497967641 -0.46924756139533819 0 0.20806373519421659 -0.47559263039731048 0 0.20983110277745959 -0.46589625036785659 0 0.20806373519421659 -0.47559263039731048 0 0.2171808864193884 -0.47557591563632129 0 0.20983110277745959 -0.46589625036785659 0 0.20806373519421659 -0.47559263039731048 0 0.2171808864193884 -0.47557591563632129 0 0.21218654879276419 -0.48315928477010051 0 0.2171808864193884 -0.47557591563632129 0 0.21218654879276419 -0.48315928477010051 0 0.22406485252548761 -0.48516353592158562 0 0.21218654879276419 -0.48315928477010051 0 0.21552450489004971 -0.50000000000000389 0 0.22406485252548761 -0.48516353592158562 0 0.20064524300179451 -0.48408413981693582 0 0.21218654879276419 -0.48315928477010051 0 0.21552450489004971 -0.50000000000000389 0 0.21552450489004971 -0.50000000000000389 0 0.22406485252548761 -0.48516353592158562 0 0.24350764879353751 -0.5 0 0.21552450489004971 -0.50000000000000389 0 0.22406485252548761 -0.48516353592158562 0 0.22406485252548761 -0.48516353592158562 0 0.24350764879353751 -0.5 0 0.2425495168946363 -0.48369843705736948 0 0.26311594748398032 -0.48731686452102307 0 0.24350764879353751 -0.5 0 0.2425495168946363 -0.48369843705736948 0 0.25474110227093749 -0.47463372904204348 0 0.2425495168946363 -0.48369843705736948 0 0.2326052001609237 -0.47032707184316641 0 0.25474110227093749 -0.47463372904204348 0 0.2326052001609237 -0.47032707184316641 0 0.22406485252548761 -0.48516353592158562 0 0.2425495168946363 -0.48369843705736948 0 0.2326052001609237 -0.47032707184316641 0 0.2171808864193884 -0.47557591563632129 0 0.2326052001609237 -0.47032707184316641 0 0.20983110277745959 -0.46589625036785659 0 0.22406485252548761 -0.48516353592158562 0 0.2326052001609237 -0.47032707184316641 0 0.2171808864193884 -0.47557591563632129 0 0.22406485252548761 -0.48516353592158562 0 0.2326052001609237 -0.47032707184316641 0 0.2326052001609237 -0.47032707184316641 0 0.20983110277745959 -0.46589625036785659 0 0.22080344960052009 -0.45659922845711148 0 0.23263699085818279 -0.45747566191745648 0 0.2376319712165364 -0.4487231096132106 0 0.2326052001609237 -0.47032707184316641 0 0.22080344960052009 -0.45659922845711148 0 0.20983110277745959 -0.46589625036785659 0 0.2326052001609237 -0.47032707184316641 0 0.22080344960052009 -0.45659922845711148 0 0.23263699085818279 -0.45747566191745648 0 0.25474110227093749 -0.47463372904204348 0 0.2326052001609237 -0.47032707184316641 0 0.24159037534215189 -0.45471784438485152 0 0.2326052001609237 -0.47032707184316641 0 0.24159037534215189 -0.45471784438485152 0 0.25474110227093749 -0.47463372904204348 0 0.24159037534215189 -0.45471784438485152 0 0.2326052001609237 -0.47032707184316641 0 0.23263699085818279 -0.45747566191745648 0 0.24159037534215189 -0.45471784438485152 0 0.23263699085818279 -0.45747566191745648 0 0.24159037534215189 -0.45471784438485152 0 0.2376319712165364 -0.4487231096132106 0 0.2477732989716441 -0.44397674481321819 0 0.2376319712165364 -0.4487231096132106 0 0.23030703128088109 -0.4376299845206349 0 0.2491098997289003 -0.44165477503298112 0 0.2477732989716441 -0.44397674481321819 0 0.23030703128088109 -0.4376299845206349 0 0.25098172733231872 -0.44247512965964592 0 0.2491098997289003 -0.44165477503298112 0 0.2477732989716441 -0.44397674481321819 0 0.25098172733231872 -0.44247512965964592 0 0.2477732989716441 -0.44397674481321819 0 0.2491098997289003 -0.44165477503298112 0 0.2477732989716441 -0.44397674481321819 0 0.25499664281726431 -0.45523205940263262 0 0.24159037534215189 -0.45471784438485152 0 0.2477732989716441 -0.44397674481321819 0 0.2477732989716441 -0.44397674481321819 0 0.2376319712165364 -0.4487231096132106 0 0.24159037534215189 -0.45471784438485152 0 0.2477732989716441 -0.44397674481321819 0 0.24159037534215189 -0.45471784438485152 0 0.2477732989716441 -0.44397674481321819 0 0.2376319712165364 -0.4487231096132106 0 0.24159037534215189 -0.45471784438485152 0 0.2376319712165364 -0.4487231096132106 0 0.2376319712165364 -0.4487231096132106 0 0.23030703128088109 -0.4376299845206349 0 0.22080344960052009 -0.45659922845711148 0 0.2376319712165364 -0.4487231096132106 0 0.22656537902157489 -0.4471289448821863 0 0.23030703128088109 -0.4376299845206349 0 0.22656537902157489 -0.4471289448821863 0 0.2240758720208659 -0.44031909704670952 0 0.2376319712165364 -0.4487231096132106 0 0.23030703128088109 -0.4376299845206349 0 0.22656537902157489 -0.4471289448821863 0 0.22080344960052009 -0.45659922845711148 0 0.2376319712165364 -0.4487231096132106 0 0.22080344960052009 -0.45659922845711148 0 0.22656537902157489 -0.4471289448821863 0 0.21544219972079559 -0.44204797816988067 0 0.2240758720208659 -0.44031909704670952 0 0.21544219972079559 -0.44204797816988067 0 0.22735566035906909 -0.43212067537331011 0 0.22656537902157489 -0.4471289448821863 0 0.2240758720208659 -0.44031909704670952 0 0.21544219972079559 -0.44204797816988067 0 0.21544219972079559 -0.44204797816988067 0 0.2073329635526972 -0.45176519210924959 0 0.19921671642041461 -0.44081240723241838 0 0.22080344960052009 -0.45659922845711148 0 0.21544219972079559 -0.44204797816988067 0 0.2073329635526972 -0.45176519210924959 0 0.22080344960052009 -0.45659922845711148 0 0.20983110277745959 -0.46589625036785659 0 0.20392214812829379 -0.46474663189054372 0 0.22080344960052009 -0.45659922845711148 0 0.20392214812829379 -0.46474663189054372 0 0.22080344960052009 -0.45659922845711148 0 0.2073329635526972 -0.45176519210924959 0 0.20392214812829379 -0.46474663189054372 0 0.20047489497967641 -0.46924756139533819 0 0.20983110277745959 -0.46589625036785659 0 0.20392214812829379 -0.46474663189054372 0 0.20983110277745959 -0.46589625036785659 0 0.20392214812829379 -0.46474663189054372 0 0.20392214812829379 -0.46474663189054372 0 0.1870570053939955 -0.4614654288925471 0 0.20047489497967641 -0.46924756139533819 0 0.20392214812829379 -0.46474663189054372 0 0.1870570053939955 -0.4614654288925471 0 0.2073329635526972 -0.45176519210924959 0 0.20392214812829379 -0.46474663189054372 0 0.19534549943004051 -0.45235162286799602 0 0.20392214812829379 -0.46474663189054372 0 0.19534549943004051 -0.45235162286799602 0 0.1870570053939955 -0.4614654288925471 0 0.19534549943004051 -0.45235162286799602 0 0.18199733364190479 -0.44489112908693101 0 0.1870570053939955 -0.4614654288925471 0 0.19921671642041461 -0.44081240723241838 0 0.19534549943004051 -0.45235162286799602 0 0.18199733364190479 -0.44489112908693101 0 0.19921671642041461 -0.44081240723241838 0 0.18799461530370251 -0.42986511234237718 0 0.18199733364190479 -0.44489112908693101 0 0.2073329635526972 -0.45176519210924959 0 0.19921671642041461 -0.44081240723241838 0 0.19534549943004051 -0.45235162286799602 0 0.19921671642041461 -0.44081240723241838 0 0.18799461530370251 -0.42986511234237718 0 0.20560142098923681 -0.42258657571364239 0 0.18799461530370251 -0.42986511234237718 0 0.20560142098923681 -0.42258657571364239 0 0.18384718161940369 -0.41305247605397638 0 0.20560142098923681 -0.42258657571364239 0 0.19734602417850311 -0.40124020046404257 0 0.18384718161940369 -0.41305247605397638 0 0.20560142098923681 -0.42258657571364239 0 0.18384718161940369 -0.41305247605397638 0 0.19734602417850311 -0.40124020046404257 0 0.18384718161940369 -0.41305247605397638 0 0.21466182824521801 -0.41314319401294408 0 0.20560142098923681 -0.42258657571364239 0 0.19734602417850311 -0.40124020046404257 0 0.21544219972079559 -0.44204797816988067 0 0.19921671642041461 -0.44081240723241838 0 0.20560142098923681 -0.42258657571364239 0 0.21466182824521801 -0.41314319401294408 0 0.20560142098923681 -0.42258657571364239 0 0.22735566035906909 -0.43212067537331011 0 0.20560142098923681 -0.42258657571364239 0 0.22735566035906909 -0.43212067537331011 0 0.21544219972079559 -0.44204797816988067 0 0.20560142098923681 -0.42258657571364239 0 0.22735566035906909 -0.43212067537331011 0 0.23030703128088109 -0.4376299845206349 0 0.2240758720208659 -0.44031909704670952 0 0.22735566035906909 -0.43212067537331011 0 0.2491098997289003 -0.44165477503298112 0 0.23030703128088109 -0.4376299845206349 0 0.22735566035906909 -0.43212067537331011 0 0.2491098997289003 -0.44165477503298112 0 0.22735566035906909 -0.43212067537331011 0 0.2491098997289003 -0.44165477503298112 0 0.22735566035906909 -0.43212067537331011 0 0.24180144569219239 -0.41908298329008992 0 0.24180144569219239 -0.41908298329008992 0 0.23744688929253671 -0.40489192261241602 0 0.24831737856470751 -0.40523923600381329 0 0.24180144569219239 -0.41908298329008992 0 0.2271502647051567 -0.41033677799676771 0 0.23744688929253671 -0.40489192261241602 0 0.22735566035906909 -0.43212067537331011 0 0.24180144569219239 -0.41908298329008992 0 0.2271502647051567 -0.41033677799676771 0 0.21466182824521801 -0.41314319401294408 0 0.22735566035906909 -0.43212067537331011 0 0.2271502647051567 -0.41033677799676771 0 0.21466182824521801 -0.41314319401294408 0 0.2271502647051567 -0.41033677799676771 0 0.2158557709941244 -0.39943174051695768 0 0.22857798545322969 -0.39672923448798442 0 0.24137203115764749 -0.39349542341018828 0 0.21901347483831091 -0.38763718981856449 0 0.2271502647051567 -0.41033677799676771 0 0.22857798545322969 -0.39672923448798442 0 0.2158557709941244 -0.39943174051695768 0 0.22857798545322969 -0.39672923448798442 0 0.21901347483831091 -0.38763718981856449 0 0.2158557709941244 -0.39943174051695768 0 0.2271502647051567 -0.41033677799676771 0 0.22857798545322969 -0.39672923448798442 0 0.23744688929253671 -0.40489192261241602 0 0.22857798545322969 -0.39672923448798442 0 0.23744688929253671 -0.40489192261241602 0 0.23711830066272591 -0.3985262443751913 0 0.24137203115764749 -0.39349542341018828 0 0.24604741796407301 -0.39117864681684672 0 0.21901347483831091 -0.38763718981856449 0 0.23744688929253671 -0.40489192261241602 0 0.2413572104381482 -0.39921158501295562 0 0.23711830066272591 -0.3985262443751913 0 0.22857798545322969 -0.39672923448798442 0 0.23711830066272591 -0.3985262443751913 0 0.24137203115764749 -0.39349542341018828 0 0.2413572104381482 -0.39921158501295562 0 0.23711830066272591 -0.3985262443751913 0 0.24137203115764749 -0.39349542341018828 0 0.2413572104381482 -0.39921158501295562 0 0.24137203115764749 -0.39349542341018828 0 0.2465226742300004 -0.39707615409081343 0 0.25605331583396862 -0.39248942330515091 0 0.24604741796407301 -0.39117864681684672 0 0.2465226742300004 -0.39707615409081343 0 0.24137203115764749 -0.39349542341018828 0 0.24604741796407301 -0.39117864681684672 0 0.2465226742300004 -0.39707615409081343 0 0.24137203115764749 -0.39349542341018828 0 0.24604741796407301 -0.39117864681684672 0 0.2413572104381482 -0.39921158501295562 0 0.2465226742300004 -0.39707615409081343 0 0.24831737856470751 -0.40523923600381329 0 0.23744688929253671 -0.40489192261241602 0 0.2413572104381482 -0.39921158501295562 0 0.24831737856470751 -0.40523923600381329 0 0.25281898241426859 -0.38782315931002459 0 0.22594213730313251 -0.37650846394996412 0 0.25281898241426859 -0.38782315931002459 0 0.2432684872402181 -0.3747583675775259 0 0.22594213730313251 -0.37650846394996412 0 0.25281898241426859 -0.38782315931002459 0 0.24604741796407301 -0.39117864681684672 0 0.22594213730313251 -0.37650846394996412 0 0.25281898241426859 -0.38782315931002459 0 0.24604741796407301 -0.39117864681684672 0 0.24604741796407301 -0.39117864681684672 0 0.21901347483831091 -0.38763718981856449 0 0.24604741796407301 -0.39117864681684672 0 0.22594213730313251 -0.37650846394996412 0 0.21901347483831091 -0.38763718981856449 0 0.21901347483831091 -0.38763718981856449 0 0.21084486673760211 -0.38942792487410832 0 0.1919795317125487 -0.38409573282028281 0 0.22594213730313251 -0.37650846394996412 0 0.21901347483831091 -0.38763718981856449 0 0.2064308598173506 -0.37873398967689642 0 0.21901347483831091 -0.38763718981856449 0 0.1919795317125487 -0.38409573282028281 0 0.21901347483831091 -0.38763718981856449 0 0.2064308598173506 -0.37873398967689642 0 0.1919795317125487 -0.38409573282028281 0 0.21084486673760211 -0.38942792487410832 0 0.2158557709941244 -0.39943174051695768 0 0.19734602417850311 -0.40124020046404257 0 0.21901347483831091 -0.38763718981856449 0 0.21084486673760211 -0.38942792487410832 0 0.2158557709941244 -0.39943174051695768 0 0.21466182824521801 -0.41314319401294408 0 0.2158557709941244 -0.39943174051695768 0 0.19734602417850311 -0.40124020046404257 0 0.21084486673760211 -0.38942792487410832 0 0.19734602417850311 -0.40124020046404257 0 0.19734602417850311 -0.40124020046404257 0 0.1919795317125487 -0.38409573282028281 0 0.1805244578594285 -0.39636090763527571 0 0.21084486673760211 -0.38942792487410832 0 0.19734602417850311 -0.40124020046404257 0 0.1919795317125487 -0.38409573282028281 0 0.19906529219199581 -0.36519376858990482 0 0.2064308598173506 -0.37873398967689642 0 0.1919795317125487 -0.38409573282028281 0 0.18298842207273869 -0.37091600872815061 0 0.1919795317125487 -0.38409573282028281 0 0.1687204173055511 -0.38049546027256931 0 0.1919795317125487 -0.38409573282028281 0 0.1805244578594285 -0.39636090763527571 0 0.1687204173055511 -0.38049546027256931 0 0.19734602417850311 -0.40124020046404257 0 0.1805244578594285 -0.39636090763527571 0 0.18384718161940369 -0.41305247605397638 0 0.1805244578594285 -0.39636090763527571 0 0.16072913448113541 -0.40292066856550868 0 0.18384718161940369 -0.41305247605397638 0 0.1805244578594285 -0.39636090763527571 0 0.16072913448113541 -0.40292066856550868 0 0.1687204173055511 -0.38049546027256931 0 0.15353546690445541 -0.36481351693216441 0 0.1687204173055511 -0.38049546027256931 0 0.13761108734286651 -0.39278886107704258 0 0.13761108734286651 -0.39278886107704258 0 0.1144930402045975 -0.38265705358857649 0 0.1334576568725144 -0.36734337666316108 0 0.13761108734286651 -0.39278886107704258 0 0.1144930402045975 -0.38265705358857649 0 0.13761108734286651 -0.39278886107704258 0 0.141646280669356 -0.41282192646735122 0 0.1225009137537366 -0.39774160736604708 0 0.16072913448113541 -0.40292066856550868 0 0.13761108734286651 -0.39278886107704258 0 0.16072913448113541 -0.40292066856550868 0 0.1687204173055511 -0.38049546027256931 0 0.13761108734286651 -0.39278886107704258 0 0.16072913448113541 -0.40292066856550868 0 0.13761108734286651 -0.39278886107704258 0 0.141646280669356 -0.41282192646735122 0 0.16072913448113541 -0.40292066856550868 0 0.141646280669356 -0.41282192646735122 0 0.1638742152238559 -0.43052998809842158 0 0.141646280669356 -0.41282192646735122 0 0.1229767033134104 -0.42032274230646832 0 0.1225009137537366 -0.39774160736604708 0 0.141646280669356 -0.41282192646735122 0 0.13820776455017991 -0.43111377026825298 0 0.1229767033134104 -0.42032274230646832 0 0.13820776455017991 -0.43111377026825298 0 0.1234524928730841 -0.44290387724688929 0 0.1229767033134104 -0.42032274230646832 0 0.13820776455017991 -0.43111377026825298 0 0.1638742152238559 -0.43052998809842158 0 0.14390124882830749 -0.44800750014286622 0 0.141646280669356 -0.41282192646735122 0 0.13820776455017991 -0.43111377026825298 0 0.1638742152238559 -0.43052998809842158 0 0.16072913448113541 -0.40292066856550868 0 0.1638742152238559 -0.43052998809842158 0 0.18384718161940369 -0.41305247605397638 0 0.16072913448113541 -0.40292066856550868 0 0.18384718161940369 -0.41305247605397638 0 0.1638742152238559 -0.43052998809842158 0 0.18384718161940369 -0.41305247605397638 0 0.18799461530370251 -0.42986511234237718 0 0.1638742152238559 -0.43052998809842158 0 0.18199733364190479 -0.44489112908693101 0 0.18799461530370251 -0.42986511234237718 0 0.1638742152238559 -0.43052998809842158 0 0.18384718161940369 -0.41305247605397638 0 0.18199733364190479 -0.44489112908693101 0 0.1870570053939955 -0.4614654288925471 0 0.16420688624010271 -0.45881617978036932 0 0.1870570053939955 -0.4614654288925471 0 0.16420688624010271 -0.45881617978036932 0 0.17566152260556811 -0.4787645574572737 0 0.1638742152238559 -0.43052998809842158 0 0.18199733364190479 -0.44489112908693101 0 0.16420688624010271 -0.45881617978036932 0 0.1638742152238559 -0.43052998809842158 0 0.16420688624010271 -0.45881617978036932 0 0.14390124882830749 -0.44800750014286622 0 0.1638742152238559 -0.43052998809842158 0 0.14390124882830749 -0.44800750014286622 0 0.14390124882830749 -0.44800750014286622 0 0.1239282824327588 -0.46548501218731042 0 0.1234524928730841 -0.44290387724688929 0 0.13820776455017991 -0.43111377026825298 0 0.14390124882830749 -0.44800750014286622 0 0.1234524928730841 -0.44290387724688929 0 0.14390124882830749 -0.44800750014286622 0 0.1239282824327588 -0.46548501218731042 0 0.14390124882830749 -0.44800750014286622 0 0.14430180113158239 -0.46839055337666402 0 0.1239282824327588 -0.46548501218731042 0 0.16420688624010271 -0.45881617978036932 0 0.14430180113158239 -0.46839055337666402 0 0.1579837024111293 -0.47439764629431108 0 0.16420688624010271 -0.45881617978036932 0 0.14390124882830749 -0.44800750014286622 0 0.14430180113158239 -0.46839055337666402 0 0.14430180113158239 -0.46839055337666402 0 0.14469107980833881 -0.47883227064168798 0 0.1579837024111293 -0.47439764629431108 0 0.14469107980833881 -0.47883227064168798 0 0.15084815023146 -0.4882815535192091 0 0.1579837024111293 -0.47439764629431108 0 0.14469107980833881 -0.47883227064168798 0 0.13584832944069569 -0.48566368407583238 0 0.15084815023146 -0.4882815535192091 0 0.14430180113158239 -0.46839055337666402 0 0.14469107980833881 -0.47883227064168798 0 0.13447341582682679 -0.47742791594242318 0 0.14430180113158239 -0.46839055337666402 0 0.13447341582682679 -0.47742791594242318 0 0.1239282824327588 -0.46548501218731042 0 0.13447341582682679 -0.47742791594242318 0 0.1242919016861052 -0.48274250609365499 0 0.1239282824327588 -0.46548501218731042 0 0.14469107980833881 -0.47883227064168798 0 0.13447341582682679 -0.47742791594242318 0 0.13584832944069569 -0.48566368407583238 0 0.13447341582682679 -0.47742791594242318 0 0.13584832944069569 -0.48566368407583238 0 0.1242919016861052 -0.48274250609365499 0 0.1260347778573519 -0.49779854958114461 0 0.15084815023146 -0.4882815535192091 0 0.1260347778573519 -0.49779854958114461 0 0.14737276692710191 -0.5 0 0.1246555209394526 -0.49999999999999939 0 0.1260347778573519 -0.49779854958114461 0 0.13584832944069569 -0.48566368407583238 0 0.15084815023146 -0.4882815535192091 0 0.1260347778573519 -0.49779854958114461 0 0.13584832944069569 -0.48566368407583238 0 0.1242919016861052 -0.48274250609365499 0 0.14737276692710191 -0.5 0 0.15084815023146 -0.4882815535192091 0 0.1700900129147512 -0.5 0 0.1260347778573519 -0.49779854958114461 0 0.14737276692710191 -0.5 0 0.15084815023146 -0.4882815535192091 0 0.15084815023146 -0.4882815535192091 0 0.1700900129147512 -0.5 0 0.17566152260556811 -0.4787645574572737 0 0.15084815023146 -0.4882815535192091 0 0.17566152260556811 -0.4787645574572737 0 0.15084815023146 -0.4882815535192091 0 0.1579837024111293 -0.47439764629431108 0 0.17566152260556811 -0.4787645574572737 0 0.16420688624010271 -0.45881617978036932 0 0.1579837024111293 -0.47439764629431108 0 0.17566152260556811 -0.4787645574572737 0 0.1928072589024005 -0.5 0 0.1700900129147512 -0.5 0 0.17566152260556811 -0.4787645574572737 0 0.068241918825496628 -0.48411685640401447 0 0.084485214679597562 -0.50000000000000333 0 0.062080533161057772 -0.5 0 0.068241918825496628 -0.48411685640401447 0 0.082611612746588084 -0.47259146401213048 0 0.059698997509378918 -0.46938169559242082 0 0.068241918825496628 -0.48411685640401447 0 0.082611612746588084 -0.47259146401213048 0 0.084485214679597562 -0.50000000000000333 0 0.082611612746588084 -0.47259146401213048 0 0.084485214679597562 -0.50000000000000333 0 0.1042067485561792 -0.48274250609365799 0 0.1045703678095251 -0.5 0 0.11443113474781549 -0.4913712530468281 0 0.1042067485561792 -0.48274250609365799 0 0.084485214679597562 -0.50000000000000333 0 0.1042067485561792 -0.48274250609365799 0 0.084485214679597562 -0.50000000000000333 0 0.1045703678095251 -0.5 0 0.1042067485561792 -0.48274250609365799 0 0.1246555209394526 -0.49999999999999939 0 0.1242919016861052 -0.48274250609365499 0 0.11443113474781549 -0.4913712530468281 0 0.1242919016861052 -0.48274250609365499 0 0.1042067485561792 -0.48274250609365799 0 0.1260347778573519 -0.49779854958114461 0 0.1246555209394526 -0.49999999999999939 0 0.1242919016861052 -0.48274250609365499 0 0.1045703678095251 -0.5 0 0.11443113474781549 -0.4913712530468281 0 0.1246555209394526 -0.49999999999999939 0 0.11443113474781549 -0.4913712530468281 0 0.1246555209394526 -0.49999999999999939 0 0.1242919016861052 -0.48274250609365499 0 0.1242919016861052 -0.48274250609365499 0 0.1239282824327588 -0.46548501218731042 0 0.1042067485561792 -0.48274250609365799 0 0.1239282824327588 -0.46548501218731042 0 0.1242919016861052 -0.48274250609365499 0 0.1042067485561792 -0.48274250609365799 0 0.1239282824327588 -0.46548501218731042 0 0.082611612746588084 -0.47259146401213048 0 0.1042067485561792 -0.48274250609365799 0 0.1030187111308361 -0.4574206208573286 0 0.1239282824327588 -0.46548501218731042 0 0.1234524928730841 -0.44290387724688929 0 0.1030187111308361 -0.4574206208573286 0 0.1239282824327588 -0.46548501218731042 0 0.1234524928730841 -0.44290387724688929 0 0.1042067485561792 -0.48274250609365799 0 0.1030187111308361 -0.4574206208573286 0 0.1239282824327588 -0.46548501218731042 0 0.1030187111308361 -0.4574206208573286 0 0.1234524928730841 -0.44290387724688929 0 0.1009340411971798 -0.43231724830061302 0 0.1030187111308361 -0.4574206208573286 0 0.082979088979226429 -0.44848361730337022 0 0.1009340411971798 -0.43231724830061302 0 0.082611612746588084 -0.47259146401213048 0 0.082979088979226429 -0.44848361730337022 0 0.069321746217141295 -0.45705807525833142 0 0.082611612746588084 -0.47259146401213048 0 0.1030187111308361 -0.4574206208573286 0 0.082979088979226429 -0.44848361730337022 0 0.082611612746588084 -0.47259146401213048 0 0.069321746217141295 -0.45705807525833142 0 0.059698997509378918 -0.46938169559242082 0 0.069321746217141295 -0.45705807525833142 0 0.067582041204123616 -0.44022503190574003 0 0.053892216630821208 -0.45354442811940449 0 0.082979088979226429 -0.44848361730337022 0 0.067582041204123616 -0.44022503190574003 0 0.082480004830520912 -0.43157518689135771 0 0.082979088979226429 -0.44848361730337022 0 0.069321746217141295 -0.45705807525833142 0 0.067582041204123616 -0.44022503190574003 0 0.067582041204123616 -0.44022503190574003 0 0.0724774966405346 -0.4222573561562149 0 0.082480004830520912 -0.43157518689135771 0 0.067582041204123616 -0.44022503190574003 0 0.0724774966405346 -0.4222573561562149 0 0.060794025943731463 -0.42732489045700239 0 0.0724774966405346 -0.4222573561562149 0 0.060355428887312219 -0.41152099288300509 0 0.060794025943731463 -0.42732489045700239 0 0.0724774966405346 -0.4222573561562149 0 0.074004970814653293 -0.40766809642942198 0 0.060355428887312219 -0.41152099288300509 0 0.0724774966405346 -0.4222573561562149 0 0.074004970814653293 -0.40766809642942198 0 0.088427356131540097 -0.41459268079084999 0 0.082979088979226429 -0.44848361730337022 0 0.082480004830520912 -0.43157518689135771 0 0.1009340411971798 -0.43231724830061302 0 0.088427356131540097 -0.41459268079084999 0 0.082480004830520912 -0.43157518689135771 0 0.1009340411971798 -0.43231724830061302 0 0.0724774966405346 -0.4222573561562149 0 0.088427356131540097 -0.41459268079084999 0 0.082480004830520912 -0.43157518689135771 0 0.1009340411971798 -0.43231724830061302 0 0.1229767033134104 -0.42032274230646832 0 0.10288227790137219 -0.41555923542451989 0 0.1234524928730841 -0.44290387724688929 0 0.1009340411971798 -0.43231724830061302 0 0.1229767033134104 -0.42032274230646832 0 0.1234524928730841 -0.44290387724688929 0 0.1229767033134104 -0.42032274230646832 0 0.11274961362169621 -0.40752858603981712 0 0.1229767033134104 -0.42032274230646832 0 0.10288227790137219 -0.41555923542451989 0 0.1229767033134104 -0.42032274230646832 0 0.1225009137537366 -0.39774160736604708 0 0.11274961362169621 -0.40752858603981712 0 0.1229767033134104 -0.42032274230646832 0 0.1225009137537366 -0.39774160736604708 0 0.088427356131540097 -0.41459268079084999 0 0.1009340411971798 -0.43231724830061302 0 0.10288227790137219 -0.41555923542451989 0 0.11274961362169621 -0.40752858603981712 0 0.10288227790137219 -0.41555923542451989 0 0.1024905652497286 -0.39763065736549641 0 0.088427356131540097 -0.41459268079084999 0 0.10288227790137219 -0.41555923542451989 0 0.1024905652497286 -0.39763065736549641 0 0.11274961362169621 -0.40752858603981712 0 0.1024905652497286 -0.39763065736549641 0 0.1225009137537366 -0.39774160736604708 0 0.13761108734286651 -0.39278886107704258 0 0.1225009137537366 -0.39774160736604708 0 0.1144930402045975 -0.38265705358857649 0 0.1024905652497286 -0.39763065736549641 0 0.1225009137537366 -0.39774160736604708 0 0.1144930402045975 -0.38265705358857649 0 0.1144930402045975 -0.38265705358857649 0 0.091374993066328458 -0.3725252461001104 0 0.1024905652497286 -0.39763065736549641 0 0.1144930402045975 -0.38265705358857649 0 0.091374993066328458 -0.3725252461001104 0 0.1024905652497286 -0.39763065736549641 0 0.083428398059003955 -0.39448806637310951 0 0.091374993066328458 -0.3725252461001104 0 0.083428398059003955 -0.39448806637310951 0 0.074126490528669708 -0.3810357822965933 0 0.091374993066328458 -0.3725252461001104 0 0.074126490528669708 -0.3810357822965933 0 0.091374993066328458 -0.3725252461001104 0 0.070476203138644583 -0.37193989048341669 0 0.088427356131540097 -0.41459268079084999 0 0.1024905652497286 -0.39763065736549641 0 0.083428398059003955 -0.39448806637310951 0 0.074004970814653293 -0.40766809642942198 0 0.088427356131540097 -0.41459268079084999 0 0.083428398059003955 -0.39448806637310951 0 0.074004970814653293 -0.40766809642942198 0 0.066910266128499402 -0.39587498563608903 0 0.060355428887312219 -0.41152099288300509 0 0.074004970814653293 -0.40766809642942198 0 0.083428398059003955 -0.39448806637310951 0 0.066910266128499402 -0.39587498563608903 0 0.083428398059003955 -0.39448806637310951 0 0.066910266128499402 -0.39587498563608903 0 0.074126490528669708 -0.3810357822965933 0 0.066910266128499402 -0.39587498563608903 0 0.074126490528669708 -0.3810357822965933 0 0.056152256193627827 -0.38561788606827802 0 0.074126490528669708 -0.3810357822965933 0 0.056152256193627827 -0.38561788606827802 0 0.060686833499801411 -0.37146230490899262 0 0.056152256193627827 -0.38561788606827802 0 0.043208939861749812 -0.40441648592375279 0 0.044233222027100921 -0.37673647323923198 0 0.056152256193627827 -0.38561788606827802 0 0.044233222027100921 -0.37673647323923198 0 0.060686833499801411 -0.37146230490899262 0 0.056152256193627827 -0.38561788606827802 0 0.056656722767797318 -0.39935758762778117 0 0.043208939861749812 -0.40441648592375279 0 0.066910266128499402 -0.39587498563608903 0 0.056152256193627827 -0.38561788606827802 0 0.056656722767797318 -0.39935758762778117 0 0.066910266128499402 -0.39587498563608903 0 0.056656722767797318 -0.39935758762778117 0 0.060355428887312219 -0.41152099288300509 0 0.056656722767797318 -0.39935758762778117 0 0.043208939861749812 -0.40441648592375279 0 0.060355428887312219 -0.41152099288300509 0 0.043208939861749812 -0.40441648592375279 0 0.044233222027100921 -0.37673647323923198 0 0.03008237540444398 -0.39549577314692858 0 0.043208939861749812 -0.40441648592375279 0 0.03008237540444398 -0.39549577314692858 0 0.031547774565697351 -0.40644807632678898 0 0.044233222027100921 -0.37673647323923198 0 0.02421358875389212 -0.38315372187596553 0 0.03008237540444398 -0.39549577314692858 0 0.044233222027100921 -0.37673647323923198 0 0.02421358875389212 -0.38315372187596553 0 0.043208939861749812 -0.40441648592375279 0 0.044233222027100921 -0.37673647323923198 0 0.044233222027100921 -0.37673647323923198 0 0.040577722158604217 -0.37666825725092068 0 0.02421358875389212 -0.38315372187596553 0 0.040577722158604217 -0.37666825725092068 0 0.02421358875389212 -0.38315372187596553 0 0.029676008360573811 -0.37304877221119881 0 0.02421358875389212 -0.38315372187596553 0 0.0041939554806844116 -0.38957097051270262 0 0.018499833625369319 -0.39321557925230638 0 0.02421358875389212 -0.38315372187596553 0 0.0076842696074928066 -0.37577012380638192 0 0.01540667747605797 -0.37214245514119271 0 0.02421358875389212 -0.38315372187596553 0 0.02260251740774721 -0.36929925179791162 0 0.029676008360573811 -0.37304877221119881 0 0.02421358875389212 -0.38315372187596553 0 0.018499833625369319 -0.39321557925230638 0 0.03008237540444398 -0.39549577314692858 0 0.0027496584346183182 -0.38805443786178262 0 0.0076842696074928066 -0.37577012380638192 0 0.00065337166189073257 -0.37156093050329603 0 0.0027496584346183182 -0.38805443786178262 0 0.00065337166189073257 -0.37156093050329603 0 -0.0018100324986049449 -0.37915965720735212 0 0.0027496584346183182 -0.38805443786178262 0 0.00065337166189073257 -0.37156093050329603 0 0.02421358875389212 -0.38315372187596553 0 0.0041939554806844116 -0.38957097051270262 0 0.0076842696074928066 -0.37577012380638192 0 0.02421358875389212 -0.38315372187596553 0 0.0041939554806844116 -0.38957097051270262 0 0.0041939554806844116 -0.38957097051270262 0 0.0027496584346183182 -0.38805443786178262 0 0.0076842696074928066 -0.37577012380638192 0 0.0041939554806844116 -0.38957097051270262 0 0.0027496584346183182 -0.38805443786178262 0 0.0041939554806844116 -0.38957097051270262 0 0.019031246159093049 -0.40515033891639268 0 0.0061376548268578923 -0.41471106907891653 0 -0.0047464050549406306 -0.40351715614234662 0 0.0041939554806844116 -0.38957097051270262 0 0.0061376548268578923 -0.41471106907891653 0 0.0041939554806844116 -0.38957097051270262 0 0.0061376548268578923 -0.41471106907891653 0 0.0041939554806844116 -0.38957097051270262 0 0.019031246159093049 -0.40515033891639268 0 0.0041939554806844116 -0.38957097051270262 0 0.019031246159093049 -0.40515033891639268 0 0.018499833625369319 -0.39321557925230638 0 0.019031246159093049 -0.40515033891639268 0 0.018499833625369319 -0.39321557925230638 0 0.03008237540444398 -0.39549577314692858 0 0.019031246159093049 -0.40515033891639268 0 0.03008237540444398 -0.39549577314692858 0 0.031547774565697351 -0.40644807632678898 0 0.019031246159093049 -0.40515033891639268 0 0.033868536837502558 -0.42072970732008202 0 0.031547774565697351 -0.40644807632678898 0 0.019031246159093049 -0.40515033891639268 0 0.033868536837502558 -0.42072970732008202 0 0.019031246159093049 -0.40515033891639268 0 0.018711757312224419 -0.42459682780592511 0 0.033868536837502558 -0.42072970732008202 0 0.019031246159093049 -0.40515033891639268 0 0.0061376548268578923 -0.41471106907891653 0 0.018711757312224419 -0.42459682780592511 0 0.0061376548268578923 -0.41471106907891653 0 0.0092839102205797275 -0.43946569099571309 0 -0.0091407789890462932 -0.42347339928148231 0 0.0061376548268578923 -0.41471106907891653 0 0.0092839102205797275 -0.43946569099571309 0 0.0061376548268578923 -0.41471106907891653 0 0.018711757312224419 -0.42459682780592511 0 0.0092839102205797275 -0.43946569099571309 0 0.018711757312224419 -0.42459682780592511 0 0.028414524774147319 -0.43292376902742008 0 0.0092839102205797275 -0.43946569099571309 0 0.018711757312224419 -0.42459682780592511 0 0.028414524774147319 -0.43292376902742008 0 0.033868536837502558 -0.42072970732008202 0 0.042184657696397371 -0.43209649860827359 0 0.050869050522879072 -0.422720575748184 0 0.028414524774147319 -0.43292376902742008 0 0.042184657696397371 -0.43209649860827359 0 0.033868536837502558 -0.42072970732008202 0 0.043208939861749812 -0.40441648592375279 0 0.042184657696397371 -0.43209649860827359 0 0.043208939861749812 -0.40441648592375279 0 0.033868536837502558 -0.42072970732008202 0 0.031547774565697351 -0.40644807632678898 0 0.043208939861749812 -0.40441648592375279 0 0.042184657696397371 -0.43209649860827359 0 0.050869050522879072 -0.422720575748184 0 0.043208939861749812 -0.40441648592375279 0 0.042184657696397371 -0.43209649860827359 0 0.033868536837502558 -0.42072970732008202 0 0.060355428887312219 -0.41152099288300509 0 0.060794025943731463 -0.42732489045700239 0 0.050869050522879072 -0.422720575748184 0 0.043208939861749812 -0.40441648592375279 0 0.060355428887312219 -0.41152099288300509 0 0.050869050522879072 -0.422720575748184 0 0.060794025943731463 -0.42732489045700239 0 0.052834173441298933 -0.43684815007378819 0 0.050869050522879072 -0.422720575748184 0 0.067582041204123616 -0.44022503190574003 0 0.060794025943731463 -0.42732489045700239 0 0.052834173441298933 -0.43684815007378819 0 0.042184657696397371 -0.43209649860827359 0 0.052834173441298933 -0.43684815007378819 0 0.050869050522879072 -0.422720575748184 0 0.052834173441298933 -0.43684815007378819 0 0.053892216630821208 -0.45354442811940449 0 0.041757079138585403 -0.44365130284508453 0 0.067582041204123616 -0.44022503190574003 0 0.052834173441298933 -0.43684815007378819 0 0.053892216630821208 -0.45354442811940449 0 0.046941103239344348 -0.46586409556514019 0 0.053892216630821208 -0.45354442811940449 0 0.059698997509378918 -0.46938169559242082 0 0.069321746217141295 -0.45705807525833142 0 0.053892216630821208 -0.45354442811940449 0 0.059698997509378918 -0.46938169559242082 0 0.046941103239344348 -0.46586409556514019 0 0.053892216630821208 -0.45354442811940449 0 0.040787388908065082 -0.45646246558822567 0 0.040787388908065082 -0.45646246558822567 0 0.034557686038241928 -0.46842939993993787 0 0.02730741165534372 -0.4481584057603889 0 0.046941103239344348 -0.46586409556514019 0 0.040787388908065082 -0.45646246558822567 0 0.034557686038241928 -0.46842939993993787 0 0.040787388908065082 -0.45646246558822567 0 0.041757079138585403 -0.44365130284508453 0 0.02730741165534372 -0.4481584057603889 0 0.028414524774147319 -0.43292376902742008 0 0.042184657696397371 -0.43209649860827359 0 0.02730741165534372 -0.4481584057603889 0 0.042184657696397371 -0.43209649860827359 0 0.02730741165534372 -0.4481584057603889 0 0.042184657696397371 -0.43209649860827359 0 0.041757079138585403 -0.44365130284508453 0 0.02730741165534372 -0.4481584057603889 0 0.053892216630821208 -0.45354442811940449 0 0.040787388908065082 -0.45646246558822567 0 0.041757079138585403 -0.44365130284508453 0 0.042184657696397371 -0.43209649860827359 0 0.052834173441298933 -0.43684815007378819 0 0.041757079138585403 -0.44365130284508453 0 0.042184657696397371 -0.43209649860827359 0 0.041757079138585403 -0.44365130284508453 0 0.02730741165534372 -0.4481584057603889 0 0.0092839102205797275 -0.43946569099571309 0 0.0124301656142967 -0.46422031291251031 0 0.028414524774147319 -0.43292376902742008 0 0.02730741165534372 -0.4481584057603889 0 0.0092839102205797275 -0.43946569099571309 0 -0.0095398701285203391 -0.45199838458689112 0 0.0092839102205797275 -0.43946569099571309 0 0.0124301656142967 -0.46422031291251031 0 0.0092839102205797275 -0.43946569099571309 0 0.0124301656142967 -0.46422031291251031 0 -0.0095398701285203391 -0.45199838458689112 0 0.0124301656142967 -0.46422031291251031 0 0.0079502112514302607 -0.46905700182815052 0 0.0124301656142967 -0.46422031291251031 0 0.0079502112514302607 -0.46905700182815052 0 0.02730741165534372 -0.4481584057603889 0 0.0124301656142967 -0.46422031291251031 0 0.02730741165534372 -0.4481584057603889 0 0.0124301656142967 -0.46422031291251031 0 0.02295638175001485 -0.46858036516352791 0 0.034557686038241928 -0.46842939993993787 0 0.02730741165534372 -0.4481584057603889 0 0.02295638175001485 -0.46858036516352791 0 0.034557686038241928 -0.46842939993993787 0 0.02295638175001485 -0.46858036516352791 0 0.026720832361569871 -0.48736456906826758 0 0.02295638175001485 -0.46858036516352791 0 0.01376581308062028 -0.47472913813653472 0 0.026720832361569871 -0.48736456906826758 0 0.01376581308062028 -0.47472913813653472 0 0.026720832361569871 -0.48736456906826758 0 0.0124301656142967 -0.46422031291251031 0 0.02295638175001485 -0.46858036516352791 0 0.01376581308062028 -0.47472913813653472 0 0.0124301656142967 -0.46422031291251031 0 0.0079502112514302607 -0.46905700182815052 0 0.01376581308062028 -0.47472913813653472 0 -0.0033431163747408531 -0.48124960651246851 0 0.01376581308062028 -0.47472913813653472 0 0.0065593234316104216 -0.48899468616224923 0 0.0124301656142967 -0.46422031291251031 0 0.01376581308062028 -0.47472913813653472 0 -0.0033431163747408531 -0.48124960651246851 0 0.0079502112514302607 -0.46905700182815052 0 0.01376581308062028 -0.47472913813653472 0 0.0079502112514302607 -0.46905700182815052 0 0.01376581308062028 -0.47472913813653472 0 -0.0033431163747408531 -0.48124960651246851 0 0.0079502112514302607 -0.46905700182815052 0 0.01376581308062028 -0.47472913813653472 0 0.016977681381782121 -0.49999999999999312 0 0.01376581308062028 -0.47472913813653472 0 0.0065593234316104216 -0.48899468616224923 0 0.016977681381782121 -0.49999999999999312 0 -0.0011630843612175921 -0.5 0 -0.0033431163747408531 -0.48124960651246851 0 0.0065593234316104216 -0.48899468616224923 0 -0.0011630843612175921 -0.5 0 0.0065593234316104216 -0.48899468616224923 0 0.016977681381782121 -0.49999999999999312 0 0.01376581308062028 -0.47472913813653472 0 0.016977681381782121 -0.49999999999999312 0 0.026720832361569871 -0.48736456906826758 0 0.016977681381782121 -0.49999999999999312 0 0.026720832361569871 -0.48736456906826758 0 0.039675851642517863 -0.50000000000000222 0 0.026720832361569871 -0.48736456906826758 0 0.039675851642517863 -0.50000000000000222 0 0.026720832361569871 -0.48736456906826758 0 0.039675851642517863 -0.50000000000000222 0 0.045769227110214618 -0.4815024885857121 0 0.034557686038241928 -0.46842939993993787 0 0.026720832361569871 -0.48736456906826758 0 0.045769227110214618 -0.4815024885857121 0 0.046941103239344348 -0.46586409556514019 0 0.034557686038241928 -0.46842939993993787 0 0.045769227110214618 -0.4815024885857121 0 0.068241918825496628 -0.48411685640401447 0 0.045769227110214618 -0.4815024885857121 0 0.059698997509378918 -0.46938169559242082 0 0.046941103239344348 -0.46586409556514019 0 0.045769227110214618 -0.4815024885857121 0 0.059698997509378918 -0.46938169559242082 0 0.039675851642517863 -0.50000000000000222 0 0.045769227110214618 -0.4815024885857121 0 0.062080533161057772 -0.5 0 0.068241918825496628 -0.48411685640401447 0 0.045769227110214618 -0.4815024885857121 0 0.062080533161057772 -0.5 0 0.077131942376116147 -0.30204355696079072 0 0.067780811587607057 -0.28372198045081959 0 0.094946381541846148 -0.29155577518610659 0 0.077131942376116147 -0.30204355696079072 0 0.094946381541846148 -0.29155577518610659 0 0.096035701395516482 -0.31903277938797869 0 0.077131942376116147 -0.30204355696079072 0 0.071845440756318601 -0.32091801216652299 0 0.052989109742092907 -0.30120774425928232 0 0.077131942376116147 -0.30204355696079072 0 0.067780811587607057 -0.28372198045081959 0 0.052989109742092907 -0.30120774425928232 0 0.067780811587607057 -0.28372198045081959 0 0.064743005473060042 -0.26615297314853942 0 0.058726578274061067 -0.27673115848829982 0 0.067780811587607057 -0.28372198045081959 0 0.082572513433121358 -0.26623621664235703 0 0.067780811587607057 -0.28372198045081959 0 0.064743005473060042 -0.26615297314853942 0 0.082572513433121358 -0.26623621664235703 0 0.064743005473060042 -0.26615297314853942 0 0.082572513433121358 -0.26623621664235703 0 0.076890590294862421 -0.2411056895388187 0 0.064743005473060042 -0.26615297314853942 0 0.052891795375796517 -0.25211429193864299 0 0.076890590294862421 -0.2411056895388187 0 0.082572513433121358 -0.26623621664235703 0 0.076890590294862421 -0.2411056895388187 0 0.09736421527863566 -0.24875045283389441 0 0.082572513433121358 -0.26623621664235703 0 0.09736421527863566 -0.24875045283389441 0 0.067780811587607057 -0.28372198045081959 0 0.082572513433121358 -0.26623621664235703 0 0.094946381541846148 -0.29155577518610659 0 0.082572513433121358 -0.26623621664235703 0 0.1032627861336944 -0.27200341917754622 0 0.094946381541846148 -0.29155577518610659 0 0.1032627861336944 -0.27200341917754622 0 0.1208519130951949 -0.25967578265474978 0 0.09736421527863566 -0.24875045283389441 0 0.082572513433121358 -0.26623621664235703 0 0.1032627861336944 -0.27200341917754622 0 0.09736421527863566 -0.24875045283389441 0 0.1032627861336944 -0.27200341917754622 0 0.1208519130951949 -0.25967578265474978 0 0.1214680764032728 -0.28799396244537362 0 0.1032627861336944 -0.27200341917754622 0 0.1214680764032728 -0.28799396244537362 0 0.094946381541846148 -0.29155577518610659 0 0.1214680764032728 -0.28799396244537362 0 0.094946381541846148 -0.29155577518610659 0 0.1105547228364564 -0.30599257357122089 0 0.094946381541846148 -0.29155577518610659 0 0.1105547228364564 -0.30599257357122089 0 0.096035701395516482 -0.31903277938797869 0 0.1327557034794242 -0.31406397942508268 0 0.1214680764032728 -0.28799396244537362 0 0.1105547228364564 -0.30599257357122089 0 0.1327557034794242 -0.31406397942508268 0 0.1105547228364564 -0.30599257357122089 0 0.1148396108404251 -0.33048353453193308 0 0.1148396108404251 -0.33048353453193308 0 0.096035701395516482 -0.31903277938797869 0 0.089234146038707524 -0.34586318863383742 0 0.1105547228364564 -0.30599257357122089 0 0.1148396108404251 -0.33048353453193308 0 0.096035701395516482 -0.31903277938797869 0 0.1334576568725144 -0.36734337666316108 0 0.1144930402045975 -0.38265705358857649 0 0.1151457893227235 -0.35538430830369239 0 0.1151457893227235 -0.35538430830369239 0 0.091374993066328458 -0.3725252461001104 0 0.089234146038707524 -0.34586318863383742 0 0.1148396108404251 -0.33048353453193308 0 0.1151457893227235 -0.35538430830369239 0 0.089234146038707524 -0.34586318863383742 0 0.1144930402045975 -0.38265705358857649 0 0.1151457893227235 -0.35538430830369239 0 0.091374993066328458 -0.3725252461001104 0 0.091374993066328458 -0.3725252461001104 0 0.089234146038707524 -0.34586318863383742 0 0.06825694592805942 -0.36239343861164419 0 0.091374993066328458 -0.3725252461001104 0 0.06825694592805942 -0.36239343861164419 0 0.089234146038707524 -0.34586318863383742 0 0.06825694592805942 -0.36239343861164419 0 0.061737014902558403 -0.34250403441755251 0 0.091374993066328458 -0.3725252461001104 0 0.06825694592805942 -0.36239343861164419 0 0.070476203138644583 -0.37193989048341669 0 0.074126490528669708 -0.3810357822965933 0 0.070476203138644583 -0.37193989048341669 0 0.060686833499801411 -0.37146230490899262 0 0.06825694592805942 -0.36239343861164419 0 0.070476203138644583 -0.37193989048341669 0 0.060686833499801411 -0.37146230490899262 0 0.077131942376116147 -0.30204355696079072 0 0.096035701395516482 -0.31903277938797869 0 0.071845440756318601 -0.32091801216652299 0 0.096035701395516482 -0.31903277938797869 0 0.089234146038707524 -0.34586318863383742 0 0.071845440756318601 -0.32091801216652299 0 0.089234146038707524 -0.34586318863383742 0 0.071845440756318601 -0.32091801216652299 0 0.061737014902558403 -0.34250403441755251 0 0.071845440756318601 -0.32091801216652299 0 0.048808944663990529 -0.32662290425339802 0 0.052989109742092907 -0.30120774425928232 0 0.048808944663990529 -0.32662290425339802 0 0.052989109742092907 -0.30120774425928232 0 0.071845440756318601 -0.32091801216652299 0 0.048808944663990529 -0.32662290425339802 0 0.061737014902558403 -0.34250403441755251 0 0.048808944663990529 -0.32662290425339802 0 0.045009790617959913 -0.34972153938337119 0 0.048808944663990529 -0.32662290425339802 0 0.061737014902558403 -0.34250403441755251 0 0.045009790617959913 -0.34972153938337119 0 0.048808944663990529 -0.32662290425339802 0 0.036655626533974632 -0.33699996620385642 0 0.036173989476518807 -0.32108545842939867 0 0.048808944663990529 -0.32662290425339802 0 0.036655626533974632 -0.33699996620385642 0 0.045009790617959913 -0.34972153938337119 0 0.036655626533974632 -0.33699996620385642 0 0.044628779585887443 -0.35203806424751349 0 0.019358869210944801 -0.34096317259951509 0 0.048808944663990529 -0.32662290425339802 0 0.036173989476518807 -0.32108545842939867 0 0.052989109742092907 -0.30120774425928232 0 0.044233222027100921 -0.37673647323923198 0 0.060686833499801411 -0.37146230490899262 0 0.044233222027100921 -0.37673647323923198 0 0.060686833499801411 -0.37146230490899262 0 0.044628779585887443 -0.35203806424751349 0 0.06825694592805942 -0.36239343861164419 0 0.060686833499801411 -0.37146230490899262 0 0.044628779585887443 -0.35203806424751349 0 0.061737014902558403 -0.34250403441755251 0 0.045009790617959913 -0.34972153938337119 0 0.044628779585887443 -0.35203806424751349 0 0.06825694592805942 -0.36239343861164419 0 0.061737014902558403 -0.34250403441755251 0 0.044628779585887443 -0.35203806424751349 0 0.06825694592805942 -0.36239343861164419 0 0.044628779585887443 -0.35203806424751349 0 0.044628779585887443 -0.35203806424751349 0 0.033394165312498579 -0.35957155917320538 0 0.027534951741865179 -0.35361150629561688 0 0.044628779585887443 -0.35203806424751349 0 0.019358869210944801 -0.34096317259951509 0 0.036655626533974632 -0.33699996620385642 0 0.045009790617959913 -0.34972153938337119 0 0.044628779585887443 -0.35203806424751349 0 0.045009790617959913 -0.34972153938337119 0 0.044628779585887443 -0.35203806424751349 0 0.044628779585887443 -0.35203806424751349 0 0.033394165312498579 -0.35957155917320538 0 0.037687369165701402 -0.36453485844688732 0 0.040577722158604217 -0.37666825725092068 0 0.044628779585887443 -0.35203806424751349 0 0.040577722158604217 -0.37666825725092068 0 0.044628779585887443 -0.35203806424751349 0 0.037687369165701402 -0.36453485844688732 0 0.044233222027100921 -0.37673647323923198 0 0.040577722158604217 -0.37666825725092068 0 0.044628779585887443 -0.35203806424751349 0 0.044233222027100921 -0.37673647323923198 0 0.044628779585887443 -0.35203806424751349 0 0.033394165312498579 -0.35957155917320538 0 0.037687369165701402 -0.36453485844688732 0 0.030655854562728489 -0.36629906792779549 0 0.037687369165701402 -0.36453485844688732 0 0.03493509224399069 -0.37022548744946149 0 0.030655854562728489 -0.36629906792779549 0 0.040577722158604217 -0.37666825725092068 0 0.03493509224399069 -0.37022548744946149 0 0.029676008360573811 -0.37304877221119881 0 0.040577722158604217 -0.37666825725092068 0 0.037687369165701402 -0.36453485844688732 0 0.03493509224399069 -0.37022548744946149 0 0.03493509224399069 -0.37022548744946149 0 0.029676008360573811 -0.37304877221119881 0 0.030655854562728489 -0.36629906792779549 0 0.02421358875389212 -0.38315372187596553 0 0.02260251740774721 -0.36929925179791162 0 0.01540667747605797 -0.37214245514119271 0 0.02260251740774721 -0.36929925179791162 0 0.014578483197128079 -0.36420028531043769 0 0.01540667747605797 -0.37214245514119271 0 0.02260251740774721 -0.36929925179791162 0 0.029676008360573811 -0.37304877221119881 0 0.030655854562728489 -0.36629906792779549 0 0.02260251740774721 -0.36929925179791162 0 0.030655854562728489 -0.36629906792779549 0 0.025639974885859271 -0.36111447848810913 0 0.033394165312498579 -0.35957155917320538 0 0.030655854562728489 -0.36629906792779549 0 0.025639974885859271 -0.36111447848810913 0 0.025639974885859271 -0.36111447848810913 0 0.019192682991220129 -0.35566565007111178 0 0.014578483197128079 -0.36420028531043769 0 0.02260251740774721 -0.36929925179791162 0 0.025639974885859271 -0.36111447848810913 0 0.014578483197128079 -0.36420028531043769 0 0.044628779585887443 -0.35203806424751349 0 0.027534951741865179 -0.35361150629561688 0 0.019358869210944801 -0.34096317259951509 0 0.025639974885859271 -0.36111447848810913 0 0.019192682991220129 -0.35566565007111178 0 0.027534951741865179 -0.35361150629561688 0 0.033394165312498579 -0.35957155917320538 0 0.025639974885859271 -0.36111447848810913 0 0.027534951741865179 -0.35361150629561688 0 0.019192682991220129 -0.35566565007111178 0 0.009555857925397232 -0.35255163900730457 0 0.019358869210944801 -0.34096317259951509 0 0.019192682991220129 -0.35566565007111178 0 0.027534951741865179 -0.35361150629561688 0 0.019358869210944801 -0.34096317259951509 0 -0.0045683341259116954 -0.33047674109012498 0 -0.001957481232011143 -0.35101883579671062 0 0.009555857925397232 -0.35255163900730457 0 0.009555857925397232 -0.35255163900730457 0 0.019358869210944801 -0.34096317259951509 0 -0.001957481232011143 -0.35101883579671062 0 0.009555857925397232 -0.35255163900730457 0 0.0061569519932870966 -0.36152411670660323 0 0.019192682991220129 -0.35566565007111178 0 0.009555857925397232 -0.35255163900730457 0 0.014578483197128079 -0.36420028531043769 0 -0.001957481232011143 -0.35101883579671062 0 0.0061569519932870966 -0.36152411670660323 0 0.00065337166189073257 -0.37156093050329603 0 0.014578483197128079 -0.36420028531043769 0 0.0061569519932870966 -0.36152411670660323 0 0.0088959507871715273 -0.3690395822935823 0 0.009555857925397232 -0.35255163900730457 0 0.014578483197128079 -0.36420028531043769 0 0.0061569519932870966 -0.36152411670660323 0 0.0061569519932870966 -0.36152411670660323 0 0.00065337166189073257 -0.37156093050329603 0 0.0088959507871715273 -0.3690395822935823 0 0.0076842696074928066 -0.37577012380638192 0 0.00065337166189073257 -0.37156093050329603 0 0.0088959507871715273 -0.3690395822935823 0 0.0076842696074928066 -0.37577012380638192 0 0.00065337166189073257 -0.37156093050329603 0 0.014578483197128079 -0.36420028531043769 0 0.0088959507871715273 -0.3690395822935823 0 0.01540667747605797 -0.37214245514119271 0 0.0076842696074928066 -0.37577012380638192 0 0.0088959507871715273 -0.3690395822935823 0 0.01540667747605797 -0.37214245514119271 0 0.036173989476518807 -0.32108545842939867 0 0.01744882103837565 -0.31850042884218732 0 0.019358869210944801 -0.34096317259951509 0 0.036173989476518807 -0.32108545842939867 0 0.01744882103837565 -0.31850042884218732 0 0.024116554326934429 -0.30592926499214601 0 0.036655626533974632 -0.33699996620385642 0 0.036173989476518807 -0.32108545842939867 0 0.019358869210944801 -0.34096317259951509 0 0.036173989476518807 -0.32108545842939867 0 0.019358869210944801 -0.34096317259951509 0 -0.0045683341259116954 -0.33047674109012498 0 0.019358869210944801 -0.34096317259951509 0 -0.0045683341259116954 -0.33047674109012498 0 0.009555857925397232 -0.35255163900730457 0 0.019358869210944801 -0.34096317259951509 0 -0.0045683341259116954 -0.33047674109012498 0 0.019358869210944801 -0.34096317259951509 0 0.0040981006955792022 -0.31953741139356839 0 0.01744882103837565 -0.31850042884218732 0 0.019358869210944801 -0.34096317259951509 0 0.0040981006955792022 -0.31953741139356839 0 0.01744882103837565 -0.31850042884218732 0 0.0040981006955792022 -0.31953741139356839 0 0.0089445439175262591 -0.30818744038092027 0 0.0089445439175262591 -0.30818744038092027 0 0.0080387197440938973 -0.29217093039849179 0 0.024116554326934429 -0.30592926499214601 0 -0.0077929770141077753 -0.30510536924497561 0 0.0089445439175262591 -0.30818744038092027 0 0.0080387197440938973 -0.29217093039849179 0 -0.0077929770141077753 -0.30510536924497561 0 0.0040981006955792022 -0.31953741139356839 0 0.0089445439175262591 -0.30818744038092027 0 -0.01101761990230157 -0.27973399739982591 0 0.0080387197440938973 -0.29217093039849179 0 0.0048942055376650917 -0.2741314967382914 0 0.0080387197440938973 -0.29217093039849179 0 0.020877789927600591 -0.27903042670402939 0 0.0048942055376650917 -0.2741314967382914 0 0.0080387197440938973 -0.29217093039849179 0 0.027243186926685009 -0.29104055061929668 0 0.020877789927600591 -0.27903042670402939 0 0.0080387197440938973 -0.29217093039849179 0 0.027243186926685009 -0.29104055061929668 0 0.024116554326934429 -0.30592926499214601 0 0.027243186926685009 -0.29104055061929668 0 0.034101878197347918 -0.27659844990516153 0 0.020877789927600591 -0.27903042670402939 0 0.01744882103837565 -0.31850042884218732 0 0.0089445439175262591 -0.30818744038092027 0 0.024116554326934429 -0.30592926499214601 0 0.027243186926685009 -0.29104055061929668 0 0.024116554326934429 -0.30592926499214601 0 0.038203796810373343 -0.2996991961433092 0 0.036173989476518807 -0.32108545842939867 0 0.038203796810373343 -0.2996991961433092 0 0.052989109742092907 -0.30120774425928232 0 0.036173989476518807 -0.32108545842939867 0 0.024116554326934429 -0.30592926499214601 0 0.038203796810373343 -0.2996991961433092 0 0.036173989476518807 -0.32108545842939867 0 0.052989109742092907 -0.30120774425928232 0 0.038203796810373343 -0.2996991961433092 0 0.047175715537712708 -0.2926969566375287 0 0.052989109742092907 -0.30120774425928232 0 0.027243186926685009 -0.29104055061929668 0 0.038203796810373343 -0.2996991961433092 0 0.040226671751381761 -0.28697197094733279 0 0.027243186926685009 -0.29104055061929668 0 0.040226671751381761 -0.28697197094733279 0 0.034101878197347918 -0.27659844990516153 0 0.040226671751381761 -0.28697197094733279 0 0.047175715537712708 -0.2926969566375287 0 0.050790025639619221 -0.28417862930561599 0 0.038203796810373343 -0.2996991961433092 0 0.040226671751381761 -0.28697197094733279 0 0.047175715537712708 -0.2926969566375287 0 0.067780811587607057 -0.28372198045081959 0 0.050790025639619221 -0.28417862930561599 0 0.058726578274061067 -0.27673115848829982 0 0.067780811587607057 -0.28372198045081959 0 0.054076043948834467 -0.29459924764461048 0 0.050790025639619221 -0.28417862930561599 0 0.047175715537712708 -0.2926969566375287 0 0.054076043948834467 -0.29459924764461048 0 0.050790025639619221 -0.28417862930561599 0 0.067780811587607057 -0.28372198045081959 0 0.052989109742092907 -0.30120774425928232 0 0.047175715537712708 -0.2926969566375287 0 0.054076043948834467 -0.29459924764461048 0 0.052989109742092907 -0.30120774425928232 0 0.067780811587607057 -0.28372198045081959 0 0.054076043948834467 -0.29459924764461048 0 0.052989109742092907 -0.30120774425928232 0 0.054076043948834467 -0.29459924764461048 0 0.052989109742092907 -0.30120774425928232 0 0.064743005473060042 -0.26615297314853942 0 0.052891795375796517 -0.25211429193864299 0 0.047422539802036381 -0.27200491161857782 0 0.064743005473060042 -0.26615297314853942 0 0.058726578274061067 -0.27673115848829982 0 0.047422539802036381 -0.27200491161857782 0 0.050790025639619221 -0.28417862930561599 0 0.058726578274061067 -0.27673115848829982 0 0.047422539802036381 -0.27200491161857782 0 0.047422539802036381 -0.27200491161857782 0 0.034101878197347918 -0.27659844990516153 0 0.028893000456730811 -0.26312289433846719 0 0.040226671751381761 -0.28697197094733279 0 0.047422539802036381 -0.27200491161857782 0 0.034101878197347918 -0.27659844990516153 0 0.040226671751381761 -0.28697197094733279 0 0.050790025639619221 -0.28417862930561599 0 0.047422539802036381 -0.27200491161857782 0 0.052891795375796517 -0.25211429193864299 0 0.047422539802036381 -0.27200491161857782 0 0.028893000456730811 -0.26312289433846719 0 0.052891795375796517 -0.25211429193864299 0 0.028893000456730811 -0.26312289433846719 0 0.037887571345962913 -0.24807643085114139 0 0.052891795375796517 -0.25211429193864299 0 0.028893000456730811 -0.26312289433846719 0 0.028893000456730811 -0.26312289433846719 0 0.012915362636422151 -0.25863433554944881 0 0.025057743262430921 -0.24169993996191749 0 0.028893000456730811 -0.26312289433846719 0 0.025057743262430921 -0.24169993996191749 0 0.037887571345962913 -0.24807643085114139 0 0.034101878197347918 -0.27659844990516153 0 0.028893000456730811 -0.26312289433846719 0 0.020877789927600591 -0.27903042670402939 0 0.028893000456730811 -0.26312289433846719 0 0.0048942055376650917 -0.2741314967382914 0 0.028893000456730811 -0.26312289433846719 0 0.020877789927600591 -0.27903042670402939 0 0.0048942055376650917 -0.2741314967382914 0 0.028893000456730811 -0.26312289433846719 0 0.0048942055376650917 -0.2741314967382914 0 0.012915362636422151 -0.25863433554944881 0 -0.00053764115848484954 -0.26240285167879379 0 0.0048942055376650917 -0.2741314967382914 0 0.012915362636422151 -0.25863433554944881 0 -0.00053764115848484954 -0.26240285167879379 0 0.012915362636422151 -0.25863433554944881 0 0.0054077402359684022 -0.24803128275829681 0 0.0054077402359684022 -0.24803128275829681 0 0.025057743262430921 -0.24169993996191749 0 0.012915362636422151 -0.25863433554944881 0 0.0054077402359684022 -0.24803128275829681 0 0.025057743262430921 -0.24169993996191749 0 0.0054077402359684022 -0.24803128275829681 0 0.01164995217655071 -0.22814433722524691 0 0.025057743262430921 -0.24169993996191749 0 -0.0040268346632878179 -0.23544582594765409 0 0.0054077402359684022 -0.24803128275829681 0 0.01164995217655071 -0.22814433722524691 0 -0.0052717693155240868 -0.21935920381125151 0 0.01164995217655071 -0.22814433722524691 0 0.0086958910760906415 -0.20960854745756699 0 -0.0040268346632878179 -0.23544582594765409 0 -0.0052717693155240868 -0.21935920381125151 0 0.01164995217655071 -0.22814433722524691 0 0.01164995217655071 -0.22814433722524691 0 0.029055143069391099 -0.22732900707652129 0 0.025057743262430921 -0.24169993996191749 0 0.01164995217655071 -0.22814433722524691 0 0.029055143069391099 -0.22732900707652129 0 0.024279592965657772 -0.21336133237912719 0 0.029055143069391099 -0.22732900707652129 0 0.024279592965657772 -0.21336133237912719 0 0.039580680653422677 -0.21807082865077679 0 -0.00037765436845475011 -0.19560370237634589 0 0.0086958910760906415 -0.20960854745756699 0 0.019753345640502538 -0.19174178037020631 0 -0.00037765436845475011 -0.19560370237634589 0 0.019753345640502538 -0.19174178037020631 0 0.01229516926355444 -0.18167223964580559 0 -0.0052717693155240868 -0.21935920381125151 0 -0.00037765436845475011 -0.19560370237634589 0 0.0086958910760906415 -0.20960854745756699 0 0.01164995217655071 -0.22814433722524691 0 0.0086958910760906415 -0.20960854745756699 0 0.024279592965657772 -0.21336133237912719 0 0.0086958910760906415 -0.20960854745756699 0 0.024279592965657772 -0.21336133237912719 0 0.019753345640502538 -0.19174178037020631 0 0.024279592965657772 -0.21336133237912719 0 0.019753345640502538 -0.19174178037020631 0 0.040120483787690293 -0.20242111037550509 0 0.019753345640502538 -0.19174178037020631 0 0.040120483787690293 -0.20242111037550509 0 0.037949984180577177 -0.18230494039148359 0 0.040120483787690293 -0.20242111037550509 0 0.05769121204082208 -0.1954525274858572 0 0.037949984180577177 -0.18230494039148359 0 0.024279592965657772 -0.21336133237912719 0 0.040120483787690293 -0.20242111037550509 0 0.039580680653422677 -0.21807082865077679 0 0.040120483787690293 -0.20242111037550509 0 0.039580680653422677 -0.21807082865077679 0 0.062782130754298143 -0.21185704542607089 0 0.040120483787690293 -0.20242111037550509 0 0.05769121204082208 -0.1954525274858572 0 0.062782130754298143 -0.21185704542607089 0 0.029055143069391099 -0.22732900707652129 0 0.025057743262430921 -0.24169993996191749 0 0.044707746288893388 -0.23536859716553821 0 0.025057743262430921 -0.24169993996191749 0 0.044707746288893388 -0.23536859716553821 0 0.052891795375796517 -0.25211429193864299 0 0.044707746288893388 -0.23536859716553821 0 0.037887571345962913 -0.24807643085114139 0 0.025057743262430921 -0.24169993996191749 0 0.044707746288893388 -0.23536859716553821 0 0.037887571345962913 -0.24807643085114139 0 0.029055143069391099 -0.22732900707652129 0 0.039580680653422677 -0.21807082865077679 0 0.044707746288893388 -0.23536859716553821 0 0.044707746288893388 -0.23536859716553821 0 0.061793252454023888 -0.2332207134355552 0 0.062782130754298143 -0.21185704542607089 0 0.039580680653422677 -0.21807082865077679 0 0.044707746288893388 -0.23536859716553821 0 0.062782130754298143 -0.21185704542607089 0 0.052891795375796517 -0.25211429193864299 0 0.044707746288893388 -0.23536859716553821 0 0.061793252454023888 -0.2332207134355552 0 0.052891795375796517 -0.25211429193864299 0 0.061793252454023888 -0.2332207134355552 0 0.076890590294862421 -0.2411056895388187 0 0.052891795375796517 -0.25211429193864299 0 0.076890590294862421 -0.2411056895388187 0 0.076890590294862421 -0.2411056895388187 0 0.087469023939224094 -0.22156086722575091 0 0.09736421527863566 -0.24875045283389441 0 0.076890590294862421 -0.2411056895388187 0 0.087469023939224094 -0.22156086722575091 0 0.071693999556268984 -0.22565794310870529 0 0.061793252454023888 -0.2332207134355552 0 0.071693999556268984 -0.22565794310870529 0 0.062782130754298143 -0.21185704542607089 0 0.087469023939224094 -0.22156086722575091 0 0.071693999556268984 -0.22565794310870529 0 0.062782130754298143 -0.21185704542607089 0 0.061793252454023888 -0.2332207134355552 0 0.076890590294862421 -0.2411056895388187 0 0.071693999556268984 -0.22565794310870529 0 0.087469023939224094 -0.22156086722575091 0 0.062782130754298143 -0.21185704542607089 0 0.05769121204082208 -0.1954525274858572 0 0.062782130754298143 -0.21185704542607089 0 0.07627374039000763 -0.20371239648550901 0 0.087469023939224094 -0.22156086722575091 0 0.062782130754298143 -0.21185704542607089 0 0.07627374039000763 -0.20371239648550901 0 0.05769121204082208 -0.1954525274858572 0 0.07627374039000763 -0.20371239648550901 0 0.07314042600564688 -0.1882311252049641 0 0.07627374039000763 -0.20371239648550901 0 0.07314042600564688 -0.1882311252049641 0 0.084523948586996384 -0.1971848975526613 0 0.07314042600564688 -0.1882311252049641 0 0.084523948586996384 -0.1971848975526613 0 0.084604223054476541 -0.1862526904276115 0 0.07627374039000763 -0.20371239648550901 0 0.084523948586996384 -0.1971848975526613 0 0.09071066371140718 -0.20602988481688911 0 0.084523948586996384 -0.1971848975526613 0 0.09071066371140718 -0.20602988481688911 0 0.096830247115943194 -0.19504540124113881 0 0.084523948586996384 -0.1971848975526613 0 0.096830247115943194 -0.19504540124113881 0 0.084604223054476541 -0.1862526904276115 0 0.096830247115943194 -0.19504540124113881 0 0.094626556474964832 -0.18144418743899371 0 0.084604223054476541 -0.1862526904276115 0 0.087469023939224094 -0.22156086722575091 0 0.07627374039000763 -0.20371239648550901 0 0.09071066371140718 -0.20602988481688911 0 0.087469023939224094 -0.22156086722575091 0 0.10580628392156249 -0.20872979917766479 0 0.1089647703621341 -0.22000141455042921 0 0.087469023939224094 -0.22156086722575091 0 0.09071066371140718 -0.20602988481688911 0 0.10580628392156249 -0.20872979917766479 0 0.09071066371140718 -0.20602988481688911 0 0.10580628392156249 -0.20872979917766479 0 0.096830247115943194 -0.19504540124113881 0 0.096830247115943194 -0.19504540124113881 0 0.105472011792531 -0.18633735691431011 0 0.094626556474964832 -0.18144418743899371 0 0.10580628392156249 -0.20872979917766479 0 0.096830247115943194 -0.19504540124113881 0 0.110743004968013 -0.19738096115898099 0 0.096830247115943194 -0.19504540124113881 0 0.110743004968013 -0.19738096115898099 0 0.105472011792531 -0.18633735691431011 0 0.110743004968013 -0.19738096115898099 0 0.12231667521256109 -0.1880412671620785 0 0.105472011792531 -0.18633735691431011 0 0.10580628392156249 -0.20872979917766479 0 0.110743004968013 -0.19738096115898099 0 0.1221371923938749 -0.2018438141336171 0 0.110743004968013 -0.19738096115898099 0 0.1221371923938749 -0.2018438141336171 0 0.12231667521256109 -0.1880412671620785 0 0.10580628392156249 -0.20872979917766479 0 0.1221371923938749 -0.2018438141336171 0 0.1212988593254847 -0.2142063591558602 0 0.10580628392156249 -0.20872979917766479 0 0.1212988593254847 -0.2142063591558602 0 0.1089647703621341 -0.22000141455042921 0 0.1212988593254847 -0.2142063591558602 0 0.1180937675002493 -0.22424535816743801 0 0.1262666187287034 -0.22077884528595471 0 0.1180937675002493 -0.22424535816743801 0 0.1262666187287034 -0.22077884528595471 0 0.13025041077718519 -0.2280131466272067 0 0.1180937675002493 -0.22424535816743801 0 0.1121559171241498 -0.23126468902543171 0 0.13025041077718519 -0.2280131466272067 0 0.1212988593254847 -0.2142063591558602 0 0.1180937675002493 -0.22424535816743801 0 0.1089647703621341 -0.22000141455042921 0 0.1180937675002493 -0.22424535816743801 0 0.1121559171241498 -0.23126468902543171 0 0.1089647703621341 -0.22000141455042921 0 0.1180937675002493 -0.22424535816743801 0 0.1121559171241498 -0.23126468902543171 0 0.1208519130951949 -0.25967578265474978 0 0.1121559171241498 -0.23126468902543171 0 0.13997209545928421 -0.24219855728055359 0 0.1208519130951949 -0.25967578265474978 0 0.1121559171241498 -0.23126468902543171 0 0.09736421527863566 -0.24875045283389441 0 0.1121559171241498 -0.23126468902543171 0 0.09736421527863566 -0.24875045283389441 0 0.087469023939224094 -0.22156086722575091 0 0.1121559171241498 -0.23126468902543171 0 0.087469023939224094 -0.22156086722575091 0 0.1121559171241498 -0.23126468902543171 0 0.09736421527863566 -0.24875045283389441 0 0.087469023939224094 -0.22156086722575091 0 0.1121559171241498 -0.23126468902543171 0 0.1089647703621341 -0.22000141455042921 0 0.1017656046099361 -0.14285759524023561 0 0.1035702037753766 -0.16402729888182391 0 0.1017656046099361 -0.14285759524023561 0 0.1035702037753766 -0.16402729888182391 0 0.087666678014282948 -0.1499589337403657 0 0.1017656046099361 -0.14285759524023561 0 0.1139234463076481 -0.153202987128505 0 0.1035702037753766 -0.16402729888182391 0 0.1017656046099361 -0.14285759524023561 0 0.087666678014282948 -0.1499589337403657 0 0.092056255572648737 -0.1406088123182862 0 0.1017656046099361 -0.14285759524023561 0 0.095619837333231955 -0.13491242503267989 0 0.092056255572648737 -0.1406088123182862 0 0.1017656046099361 -0.14285759524023561 0 0.099961005444495502 -0.12168789159864719 0 0.1017656046099361 -0.14285759524023561 0 0.095619837333231955 -0.13491242503267989 0 0.099961005444495502 -0.12168789159864719 0 0.1017656046099361 -0.14285759524023561 0 0.1145263804941028 -0.128967240922847 0 0.099961005444495502 -0.12168789159864719 0 0.095619837333231955 -0.13491242503267989 0 0.093180028052593844 -0.12952414309760249 0 0.099961005444495502 -0.12168789159864719 0 0.1145263804941028 -0.128967240922847 0 0.121251820104277 -0.14271189394047279 0 0.13117736198413379 -0.12665691843031379 0 0.1017656046099361 -0.14285759524023561 0 0.1145263804941028 -0.128967240922847 0 0.121251820104277 -0.14271189394047279 0 0.121251820104277 -0.14271189394047279 0 0.1139234463076481 -0.153202987128505 0 0.12910615674100259 -0.1632151604514876 0 0.1017656046099361 -0.14285759524023561 0 0.121251820104277 -0.14271189394047279 0 0.1139234463076481 -0.153202987128505 0 0.1035702037753766 -0.16402729888182391 0 0.12910615674100259 -0.1632151604514876 0 0.12940385266922641 -0.1667074232744796 0 0.1035702037753766 -0.16402729888182391 0 0.12910615674100259 -0.1632151604514876 0 0.1041655956318242 -0.17101182452780811 0 0.12940385266922641 -0.1667074232744796 0 0.1139234463076481 -0.153202987128505 0 0.1035702037753766 -0.16402729888182391 0 0.12910615674100259 -0.1632151604514876 0 0.1035702037753766 -0.16402729888182391 0 0.1041655956318242 -0.17101182452780811 0 0.12940385266922641 -0.1667074232744796 0 0.12231667521256109 -0.1880412671620785 0 0.1153395338265357 -0.17802446796966889 0 0.105472011792531 -0.18633735691431011 0 0.1153395338265357 -0.17802446796966889 0 0.1041655956318242 -0.17101182452780811 0 0.12940385266922641 -0.1667074232744796 0 0.12231667521256109 -0.1880412671620785 0 0.1153395338265357 -0.17802446796966889 0 0.12940385266922641 -0.1667074232744796 0 0.105472011792531 -0.18633735691431011 0 0.1041655956318242 -0.17101182452780811 0 0.1153395338265357 -0.17802446796966889 0 0.105472011792531 -0.18633735691431011 0 0.1041655956318242 -0.17101182452780811 0 0.105472011792531 -0.18633735691431011 0 0.094626556474964832 -0.18144418743899371 0 0.1041655956318242 -0.17101182452780811 0 0.1035702037753766 -0.16402729888182391 0 0.1041655956318242 -0.17101182452780811 0 0.08209372514807517 -0.1747761964823662 0 0.1035702037753766 -0.16402729888182391 0 0.1041655956318242 -0.17101182452780811 0 0.1035702037753766 -0.16402729888182391 0 0.07894142819540885 -0.1648105856918991 0 0.087666678014282948 -0.1499589337403657 0 0.1035702037753766 -0.16402729888182391 0 0.07894142819540885 -0.1648105856918991 0 0.08209372514807517 -0.1747761964823662 0 0.1035702037753766 -0.16402729888182391 0 0.07894142819540885 -0.1648105856918991 0 0.094626556474964832 -0.18144418743899371 0 0.1041655956318242 -0.17101182452780811 0 0.08209372514807517 -0.1747761964823662 0 0.1041655956318242 -0.17101182452780811 0 0.08209372514807517 -0.1747761964823662 0 0.094626556474964832 -0.18144418743899371 0 0.08209372514807517 -0.1747761964823662 0 0.084604223054476541 -0.1862526904276115 0 0.07314042600564688 -0.1882311252049641 0 0.08209372514807517 -0.1747761964823662 0 0.084604223054476541 -0.1862526904276115 0 0.07894142819540885 -0.1648105856918991 0 0.08209372514807517 -0.1747761964823662 0 0.060021854664326177 -0.1785405684369249 0 0.05769121204082208 -0.1954525274858572 0 0.07314042600564688 -0.1882311252049641 0 0.060021854664326177 -0.1785405684369249 0 0.07314042600564688 -0.1882311252049641 0 0.08209372514807517 -0.1747761964823662 0 0.060021854664326177 -0.1785405684369249 0 0.08209372514807517 -0.1747761964823662 0 0.060021854664326177 -0.1785405684369249 0 0.07894142819540885 -0.1648105856918991 0 0.06628671875511484 -0.154501543929392 0 0.054312652615441097 -0.16559387250197319 0 0.07894142819540885 -0.1648105856918991 0 0.054312652615441097 -0.16559387250197319 0 0.07894142819540885 -0.1648105856918991 0 0.060021854664326177 -0.1785405684369249 0 0.054312652615441097 -0.16559387250197319 0 0.07894142819540885 -0.1648105856918991 0 0.06628671875511484 -0.154501543929392 0 0.076823387883065419 -0.1532012299036685 0 0.06628671875511484 -0.154501543929392 0 0.074398726567455054 -0.14353385625301729 0 0.062375890646362432 -0.14406104381856549 0 0.06628671875511484 -0.154501543929392 0 0.074398726567455054 -0.14353385625301729 0 0.076823387883065419 -0.1532012299036685 0 0.074398726567455054 -0.14353385625301729 0 0.076823387883065419 -0.1532012299036685 0 0.087666678014282948 -0.1499589337403657 0 0.07894142819540885 -0.1648105856918991 0 0.076823387883065419 -0.1532012299036685 0 0.087666678014282948 -0.1499589337403657 0 0.074398726567455054 -0.14353385625301729 0 0.087666678014282948 -0.1499589337403657 0 0.084780926663828221 -0.13871088051695951 0 0.087666678014282948 -0.1499589337403657 0 0.092056255572648737 -0.1406088123182862 0 0.084780926663828221 -0.13871088051695951 0 0.093180028052593844 -0.12952414309760249 0 0.084566277672836851 -0.13274394945208279 0 0.077551670074185175 -0.12697256784210889 0 0.093180028052593844 -0.12952414309760249 0 0.090267162361827469 -0.13574121236449591 0 0.084566277672836851 -0.13274394945208279 0 0.095619837333231955 -0.13491242503267989 0 0.093180028052593844 -0.12952414309760249 0 0.090267162361827469 -0.13574121236449591 0 0.095619837333231955 -0.13491242503267989 0 0.090267162361827469 -0.13574121236449591 0 0.092056255572648737 -0.1406088123182862 0 0.090267162361827469 -0.13574121236449591 0 0.092056255572648737 -0.1406088123182862 0 0.084780926663828221 -0.13871088051695951 0 0.090267162361827469 -0.13574121236449591 0 0.084780926663828221 -0.13871088051695951 0 0.084566277672836851 -0.13274394945208279 0 0.074398726567455054 -0.14353385625301729 0 0.084780926663828221 -0.13871088051695951 0 0.078054939978267804 -0.13452955258579041 0 0.084780926663828221 -0.13871088051695951 0 0.084566277672836851 -0.13274394945208279 0 0.078054939978267804 -0.13452955258579041 0 0.084566277672836851 -0.13274394945208279 0 0.077551670074185175 -0.12697256784210889 0 0.078054939978267804 -0.13452955258579041 0 0.077551670074185175 -0.12697256784210889 0 0.078054939978267804 -0.13452955258579041 0 0.068419627575096092 -0.13369924386383469 0 0.077551670074185175 -0.12697256784210889 0 0.068419627575096092 -0.13369924386383469 0 0.06729473245905529 -0.1182276396448243 0 0.074398726567455054 -0.14353385625301729 0 0.078054939978267804 -0.13452955258579041 0 0.068419627575096092 -0.13369924386383469 0 0.074398726567455054 -0.14353385625301729 0 0.068419627575096092 -0.13369924386383469 0 0.062375890646362432 -0.14406104381856549 0 0.068419627575096092 -0.13369924386383469 0 0.05128039156228005 -0.13590170362993759 0 0.06729473245905529 -0.1182276396448243 0 0.05128039156228005 -0.13590170362993759 0 0.06729473245905529 -0.1182276396448243 0 0.05128039156228005 -0.13590170362993759 0 0.049664052496257063 -0.1229689177336119 0 0.06729473245905529 -0.1182276396448243 0 0.068419627575096092 -0.13369924386383469 0 0.05128039156228005 -0.13590170362993759 0 0.062375890646362432 -0.14406104381856549 0 0.05128039156228005 -0.13590170362993759 0 0.062375890646362432 -0.14406104381856549 0 0.051493988771866027 -0.15266887141664601 0 0.06628671875511484 -0.154501543929392 0 0.062375890646362432 -0.14406104381856549 0 0.051493988771866027 -0.15266887141664601 0 0.05128039156228005 -0.13590170362993759 0 0.051493988771866027 -0.15266887141664601 0 0.035266050665501217 -0.15357576761504771 0 0.05128039156228005 -0.13590170362993759 0 0.035266050665501217 -0.15357576761504771 0 0.05128039156228005 -0.13590170362993759 0 0.035266050665501217 -0.15357576761504771 0 0.030599198566610031 -0.13729073163817521 0 0.05128039156228005 -0.13590170362993759 0 0.030599198566610031 -0.13729073163817521 0 0.049664052496257063 -0.1229689177336119 0 0.030599198566610031 -0.13729073163817521 0 0.049664052496257063 -0.1229689177336119 0 0.035277182687474103 -0.1189573710643667 0 0.05769121204082208 -0.1954525274858572 0 0.060021854664326177 -0.1785405684369249 0 0.037949984180577177 -0.18230494039148359 0 0.060021854664326177 -0.1785405684369249 0 0.037949984180577177 -0.18230494039148359 0 0.060021854664326177 -0.1785405684369249 0 0.054312652615441097 -0.16559387250197319 0 0.040571403361035541 -0.16756584874911079 0 0.06628671875511484 -0.154501543929392 0 0.051493988771866027 -0.15266887141664601 0 0.054312652615441097 -0.16559387250197319 0 0.051493988771866027 -0.15266887141664601 0 0.054312652615441097 -0.16559387250197319 0 0.040571403361035541 -0.16756584874911079 0 0.035266050665501217 -0.15357576761504771 0 0.040571403361035541 -0.16756584874911079 0 0.01925170976872239 -0.17124983160015769 0 0.051493988771866027 -0.15266887141664601 0 0.035266050665501217 -0.15357576761504771 0 0.040571403361035541 -0.16756584874911079 0 0.060021854664326177 -0.1785405684369249 0 0.040571403361035541 -0.16756584874911079 0 0.037949984180577177 -0.18230494039148359 0 0.040571403361035541 -0.16756584874911079 0 0.037949984180577177 -0.18230494039148359 0 0.01925170976872239 -0.17124983160015769 0 0.019753345640502538 -0.19174178037020631 0 0.037949984180577177 -0.18230494039148359 0 0.01925170976872239 -0.17124983160015769 0 0.019753345640502538 -0.19174178037020631 0 0.01925170976872239 -0.17124983160015769 0 0.01229516926355444 -0.18167223964580559 0 0.035266050665501217 -0.15357576761504771 0 0.01925170976872239 -0.17124983160015769 0 0.035266050665501217 -0.15357576761504771 0 0.020742998962235429 -0.15670380672626699 0 0.01925170976872239 -0.17124983160015769 0 0.020742998962235429 -0.15670380672626699 0 0.004516460578614578 -0.17184820094144029 0 0.0094105755256839122 -0.1480926995065347 0 0.020742998962235429 -0.15670380672626699 0 0.01925170976872239 -0.17124983160015769 0 0.004516460578614578 -0.17184820094144029 0 -0.0091268405377329317 -0.15790126591868739 0 0.004516460578614578 -0.17184820094144029 0 0.0094105755256839122 -0.1480926995065347 0 0.004516460578614578 -0.17184820094144029 0 0.0094105755256839122 -0.1480926995065347 0 -0.00037765436845475011 -0.19560370237634589 0 0.004516460578614578 -0.17184820094144029 0 -0.00037765436845475011 -0.19560370237634589 0 0.004516460578614578 -0.17184820094144029 0 0.01229516926355444 -0.18167223964580559 0 0.01925170976872239 -0.17124983160015769 0 0.004516460578614578 -0.17184820094144029 0 0.01229516926355444 -0.18167223964580559 0 0.030599198566610031 -0.13729073163817521 0 0.0094105755256839122 -0.1480926995065347 0 0.01430469047275292 -0.124337198071629 0 0.030599198566610031 -0.13729073163817521 0 0.01430469047275292 -0.124337198071629 0 0.035277182687474103 -0.1189573710643667 0 0.035266050665501217 -0.15357576761504771 0 0.020742998962235429 -0.15670380672626699 0 0.030599198566610031 -0.13729073163817521 0 0.020742998962235429 -0.15670380672626699 0 0.030599198566610031 -0.13729073163817521 0 0.0094105755256839122 -0.1480926995065347 0 -0.006255808653915158 -0.12961134133280849 0 0.0094105755256839122 -0.1480926995065347 0 0.01430469047275292 -0.124337198071629 0 0.0094105755256839122 -0.1480926995065347 0 0.01430469047275292 -0.124337198071629 0 -0.006255808653915158 -0.12961134133280849 0 0.01430469047275292 -0.124337198071629 0 -0.0065521411640195489 -0.1138300235372187 0 -0.006255808653915158 -0.12961134133280849 0 0.01430469047275292 -0.124337198071629 0 0.01430469047275292 -0.124337198071629 0 0.018628621842939459 -0.10334930567844811 0 0.0055003327058907071 -0.1083906823608586 0 -0.0065521411640195489 -0.1138300235372187 0 0.01430469047275292 -0.124337198071629 0 0.0055003327058907071 -0.1083906823608586 0 0.01430469047275292 -0.124337198071629 0 0.018628621842939459 -0.10334930567844811 0 0.035277182687474103 -0.1189573710643667 0 0.018628621842939459 -0.10334930567844811 0 0.035277182687474103 -0.1189573710643667 0 0.037439148372567413 -0.1084634248677761 0 0.01430469047275292 -0.124337198071629 0 0.018628621842939459 -0.10334930567844811 0 0.01430469047275292 -0.124337198071629 0 0.035277182687474103 -0.1189573710643667 0 0.018628621842939459 -0.10334930567844811 0 0.037439148372567413 -0.1084634248677761 0 0.018628621842939459 -0.10334930567844811 0 0.019830795918298321 -0.0975140835226741 0 0.038162929879743908 -0.1055143404192561 0 0.019830795918298321 -0.0975140835226741 0 0.038162929879743908 -0.1055143404192561 0 0.019830795918298321 -0.0975140835226741 0 0.038162929879743908 -0.1055143404192561 0 0.032085159196120802 -0.097374137609831671 0 0.019830795918298321 -0.0975140835226741 0 0.021629825244582679 -0.088781790921400178 0 0.032085159196120802 -0.097374137609831671 0 0.018628621842939459 -0.10334930567844811 0 0.019830795918298321 -0.0975140835226741 0 -0.0032681753368222072 -0.097396105460184401 0 0.018628621842939459 -0.10334930567844811 0 0.0011594143531981141 -0.089365776868953806 0 -0.0032681753368222072 -0.097396105460184401 0 0.018628621842939459 -0.10334930567844811 0 0.0055003327058907071 -0.1083906823608586 0 0.018628621842939459 -0.10334930567844811 0 0.019830795918298321 -0.0975140835226741 0 0.0011594143531981141 -0.089365776868953806 0 -0.0032681753368222072 -0.097396105460184401 0 0.018628621842939459 -0.10334930567844811 0 0.019830795918298321 -0.0975140835226741 0 0.0011594143531981141 -0.089365776868953806 0 0.01099990767544287 -0.089944902516057565 0 0.0011594143531981141 -0.089365776868953806 0 0.0048741855587916411 -0.086163403631125568 0 0.01099990767544287 -0.089944902516057565 0 0.019830795918298321 -0.0975140835226741 0 0.0011594143531981141 -0.089365776868953806 0 -0.0029772157873130208 -0.081715700578056397 0 0.0011594143531981141 -0.089365776868953806 0 0.0048741855587916411 -0.086163403631125568 0 0.0048741855587916411 -0.086163403631125568 0 0.002185648973446259 -0.076653208650150823 0 0.01267901692674215 -0.076305490266640991 0 -0.0029772157873130208 -0.081715700578056397 0 0.0048741855587916411 -0.086163403631125568 0 0.002185648973446259 -0.076653208650150823 0 0.0048741855587916411 -0.086163403631125568 0 0.01267901692674215 -0.076305490266640991 0 0.0048741855587916411 -0.086163403631125568 0 0.01306540098728603 -0.086154284073997223 0 0.01267901692674215 -0.076305490266640991 0 0.0048741855587916411 -0.086163403631125568 0 0.01306540098728603 -0.086154284073997223 0 0.01099990767544287 -0.089944902516057565 0 0.01306540098728603 -0.086154284073997223 0 0.01099990767544287 -0.089944902516057565 0 0.016069741559639909 -0.090526964483537781 0 -0.00013189539463332069 -0.062397079718219763 0 0.01267901692674215 -0.076305490266640991 0 0.01202426097766549 -0.057983746330002521 0 -0.00013189539463332069 -0.062397079718219763 0 0.01267901692674215 -0.076305490266640991 0 -0.00013189539463332069 -0.062397079718219763 0 0.002185648973446259 -0.076653208650150823 0 0.01267901692674215 -0.076305490266640991 0 0.01267901692674215 -0.076305490266640991 0 0.023323171294268041 -0.06286136230967837 0 0.01202426097766549 -0.057983746330002521 0 0.01267901692674215 -0.076305490266640991 0 0.023323171294268041 -0.06286136230967837 0 0.01267901692674215 -0.076305490266640991 0 0.02381433818298051 -0.073291228076092299 0 0.027983053133350429 -0.081680815201347359 0 0.01267901692674215 -0.076305490266640991 0 0.023323171294268041 -0.06286136230967837 0 0.02381433818298051 -0.073291228076092299 0 0.02381433818298051 -0.073291228076092299 0 0.027983053133350429 -0.081680815201347359 0 0.036102484733807207 -0.07871323560585454 0 0.023323171294268041 -0.06286136230967837 0 0.02381433818298051 -0.073291228076092299 0 0.038131932137544497 -0.069027440263210046 0 0.01267901692674215 -0.076305490266640991 0 0.021629825244582679 -0.088781790921400178 0 0.032085159196120802 -0.097374137609831671 0 0.01267901692674215 -0.076305490266640991 0 0.027983053133350429 -0.081680815201347359 0 0.032085159196120802 -0.097374137609831671 0 0.01267901692674215 -0.076305490266640991 0 0.032085159196120802 -0.097374137609831671 0 0.01306540098728603 -0.086154284073997223 0 0.021629825244582679 -0.088781790921400178 0 0.016069741559639909 -0.090526964483537781 0 0.019830795918298321 -0.0975140835226741 0 0.021629825244582679 -0.088781790921400178 0 0.016069741559639909 -0.090526964483537781 0 0.019830795918298321 -0.0975140835226741 0 0.01099990767544287 -0.089944902516057565 0 0.016069741559639909 -0.090526964483537781 0 0.019830795918298321 -0.0975140835226741 0 0.021629825244582679 -0.088781790921400178 0 0.01306540098728603 -0.086154284073997223 0 0.01267901692674215 -0.076305490266640991 0 0.021629825244582679 -0.088781790921400178 0 0.027983053133350429 -0.081680815201347359 0 0.037040548417206158 -0.087865078540872096 0 0.032085159196120802 -0.097374137609831671 0 0.037040548417206158 -0.087865078540872096 0 0.032085159196120802 -0.097374137609831671 0 0.043451495748791889 -0.095537587066828369 0 0.027983053133350429 -0.081680815201347359 0 0.037040548417206158 -0.087865078540872096 0 0.036102484733807207 -0.07871323560585454 0 0.037040548417206158 -0.087865078540872096 0 0.036102484733807207 -0.07871323560585454 0 0.044775877434871533 -0.085067032807546031 0 0.036102484733807207 -0.07871323560585454 0 0.044775877434871533 -0.085067032807546031 0 0.046933045064893313 -0.075441324862944484 0 0.037040548417206158 -0.087865078540872096 0 0.044775877434871533 -0.085067032807546031 0 0.043451495748791889 -0.095537587066828369 0 0.023323171294268041 -0.06286136230967837 0 0.038131932137544497 -0.069027440263210046 0 0.034249836304144438 -0.059571878974144343 0 0.02381433818298051 -0.073291228076092299 0 0.036102484733807207 -0.07871323560585454 0 0.038131932137544497 -0.069027440263210046 0 0.036102484733807207 -0.07871323560585454 0 0.038131932137544497 -0.069027440263210046 0 0.046933045064893313 -0.075441324862944484 0 0.038131932137544497 -0.069027440263210046 0 0.052800373945666723 -0.067280174290593825 0 0.046933045064893313 -0.075441324862944484 0 0.038131932137544497 -0.069027440263210046 0 0.052349274414971322 -0.058273431086664232 0 0.038131932137544497 -0.069027440263210046 0 0.052800373945666723 -0.067280174290593825 0 0.052349274414971322 -0.058273431086664232 0 0.046933045064893313 -0.075441324862944484 0 0.054973643421062951 -0.073108340495940602 0 0.05389409785262194 -0.081257950660414871 0 0.052800373945666723 -0.067280174290593825 0 0.046933045064893313 -0.075441324862944484 0 0.054973643421062951 -0.073108340495940602 0 0.061520594855873578 -0.076347379000701932 0 0.054973643421062951 -0.073108340495940602 0 0.060952774156679101 -0.068343560690115324 0 0.061520594855873578 -0.076347379000701932 0 0.054973643421062951 -0.073108340495940602 0 0.05389409785262194 -0.081257950660414871 0 0.052800373945666723 -0.067280174290593825 0 0.060952774156679101 -0.068343560690115324 0 0.063461574478849148 -0.059486948344688241 0 0.052800373945666723 -0.067280174290593825 0 0.054973643421062951 -0.073108340495940602 0 0.060952774156679101 -0.068343560690115324 0 0.044775877434871533 -0.085067032807546031 0 0.053010584964821902 -0.089959692198109759 0 0.043451495748791889 -0.095537587066828369 0 0.044775877434871533 -0.085067032807546031 0 0.046933045064893313 -0.075441324862944484 0 0.05389409785262194 -0.081257950660414871 0 0.044775877434871533 -0.085067032807546031 0 0.053010584964821902 -0.089959692198109759 0 0.05389409785262194 -0.081257950660414871 0 0.053010584964821902 -0.089959692198109759 0 0.05389409785262194 -0.081257950660414871 0 0.061462901594500637 -0.084888849622130502 0 0.061520594855873578 -0.076347379000701932 0 0.05389409785262194 -0.081257950660414871 0 0.061462901594500637 -0.084888849622130502 0 0.053010584964821902 -0.089959692198109759 0 0.061462901594500637 -0.084888849622130502 0 0.061531053782275927 -0.094251051718790252 0 0.053010584964821902 -0.089959692198109759 0 0.061531053782275927 -0.094251051718790252 0 0.053473899625842952 -0.098674013012410217 0 0.057283134799926749 -0.11385851636726541 0 0.038162929879743908 -0.1055143404192561 0 0.046393925854966843 -0.10338236550415079 0 0.061531053782275927 -0.094251051718790252 0 0.059282401436407513 -0.099492000139506334 0 0.053473899625842952 -0.098674013012410217 0 0.061531053782275927 -0.094251051718790252 0 0.059282401436407513 -0.099492000139506334 0 0.063655448418436691 -0.1031526609834184 0 0.059282401436407513 -0.099492000139506334 0 0.053473899625842952 -0.098674013012410217 0 0.057707628667700031 -0.1059674671212858 0 0.053473899625842952 -0.098674013012410217 0 0.043451495748791889 -0.095537587066828369 0 0.046393925854966843 -0.10338236550415079 0 0.053010584964821902 -0.089959692198109759 0 0.053473899625842952 -0.098674013012410217 0 0.043451495748791889 -0.095537587066828369 0 0.053517629497424751 -0.1053846107384214 0 0.057283134799926749 -0.11385851636726541 0 0.046393925854966843 -0.10338236550415079 0 0.053473899625842952 -0.098674013012410217 0 0.053517629497424751 -0.1053846107384214 0 0.046393925854966843 -0.10338236550415079 0 0.053517629497424751 -0.1053846107384214 0 0.057707628667700031 -0.1059674671212858 0 0.057283134799926749 -0.11385851636726541 0 0.053473899625842952 -0.098674013012410217 0 0.053517629497424751 -0.1053846107384214 0 0.057707628667700031 -0.1059674671212858 0 0.059282401436407513 -0.099492000139506334 0 0.057707628667700031 -0.1059674671212858 0 0.063655448418436691 -0.1031526609834184 0 0.057707628667700031 -0.1059674671212858 0 0.060784225145630782 -0.1092272285126536 0 0.063655448418436691 -0.1031526609834184 0 0.057283134799926749 -0.11385851636726541 0 0.06729473245905529 -0.1182276396448243 0 0.057283134799926749 -0.11385851636726541 0 0.038162929879743908 -0.1055143404192561 0 0.060784225145630782 -0.1092272285126536 0 0.057283134799926749 -0.11385851636726541 0 0.06729473245905529 -0.1182276396448243 0 0.057707628667700031 -0.1059674671212858 0 0.060784225145630782 -0.1092272285126536 0 0.057283134799926749 -0.11385851636726541 0 0.049664052496257063 -0.1229689177336119 0 0.057283134799926749 -0.11385851636726541 0 0.06729473245905529 -0.1182276396448243 0 0.057283134799926749 -0.11385851636726541 0 0.037439148372567413 -0.1084634248677761 0 0.049664052496257063 -0.1229689177336119 0 0.057283134799926749 -0.11385851636726541 0 0.035277182687474103 -0.1189573710643667 0 0.057283134799926749 -0.11385851636726541 0 0.035277182687474103 -0.1189573710643667 0 0.057283134799926749 -0.11385851636726541 0 0.035277182687474103 -0.1189573710643667 0 0.037439148372567413 -0.1084634248677761 0 0.018628621842939459 -0.10334930567844811 0 0.037439148372567413 -0.1084634248677761 0 0.038162929879743908 -0.1055143404192561 0 0.057283134799926749 -0.11385851636726541 0 0.037439148372567413 -0.1084634248677761 0 0.038162929879743908 -0.1055143404192561 0 0.038162929879743908 -0.1055143404192561 0 0.032085159196120802 -0.097374137609831671 0 0.043451495748791889 -0.095537587066828369 0 0.038162929879743908 -0.1055143404192561 0 0.043451495748791889 -0.095537587066828369 0 0.046393925854966843 -0.10338236550415079 0 0.021358438075749119 -0.01346850733666991 0 0.034046004365684841 -0.028273678694493789 0 0.037609040516515958 -0.002694215823619749 0 0.024746283423928109 0.012135358359482091 0 0.021358438075749119 -0.01346850733666991 0 0.037609040516515958 -0.002694215823619749 0 -0.0032704433637422889 -0.021708726878872899 0 0.0064513957917756229 0.0050175021511877811 0 -0.0032704433637422889 -0.021708726878872899 0 0.0064513957917756229 0.0050175021511877811 0 0.021358438075749119 -0.01346850733666991 0 -0.0032704433637422889 -0.021708726878872899 0 0.021358438075749119 -0.01346850733666991 0 0.012973912348864631 -0.030342788128586609 0 0.021358438075749119 -0.01346850733666991 0 0.024034592306862241 -0.03149707256717188 0 0.034046004365684841 -0.028273678694493789 0 0.021358438075749119 -0.01346850733666991 0 0.012973912348864631 -0.030342788128586609 0 0.024034592306862241 -0.03149707256717188 0 0.024034592306862241 -0.03149707256717188 0 0.031437665474670737 -0.037103903587571478 0 0.034046004365684841 -0.028273678694493789 0 0.024034592306862241 -0.03149707256717188 0 0.02598041271895242 -0.040912454545210322 0 0.031437665474670737 -0.037103903587571478 0 0.02598041271895242 -0.040912454545210322 0 0.033967325661793613 -0.049417234352715472 0 0.031437665474670737 -0.037103903587571478 0 0.02598041271895242 -0.040912454545210322 0 0.022101834992405232 -0.050108000167493109 0 0.033967325661793613 -0.049417234352715472 0 0.02598041271895242 -0.040912454545210322 0 0.018379681793196871 -0.039483369758389057 0 0.022101834992405232 -0.050108000167493109 0 0.018379681793196871 -0.039483369758389057 0 0.006807656598899833 -0.044556533383483428 0 0.022101834992405232 -0.050108000167493109 0 0.024034592306862241 -0.03149707256717188 0 0.02598041271895242 -0.040912454545210322 0 0.018379681793196871 -0.039483369758389057 0 0.012973912348864631 -0.030342788128586609 0 0.024034592306862241 -0.03149707256717188 0 0.018379681793196871 -0.039483369758389057 0 0.012973912348864631 -0.030342788128586609 0 0.018379681793196871 -0.039483369758389057 0 0.006807656598899833 -0.044556533383483428 0 -0.0032704433637422889 -0.021708726878872899 0 0.012973912348864631 -0.030342788128586609 0 0.006807656598899833 -0.044556533383483428 0 0.006807656598899833 -0.044556533383483428 0 0.01202426097766549 -0.057983746330002521 0 0.022101834992405232 -0.050108000167493109 0 -0.00013189539463332069 -0.062397079718219763 0 0.006807656598899833 -0.044556533383483428 0 0.01202426097766549 -0.057983746330002521 0 0.023323171294268041 -0.06286136230967837 0 0.01202426097766549 -0.057983746330002521 0 0.022101834992405232 -0.050108000167493109 0 0.023323171294268041 -0.06286136230967837 0 0.022101834992405232 -0.050108000167493109 0 0.033967325661793613 -0.049417234352715472 0 0.022101834992405232 -0.050108000167493109 0 0.033967325661793613 -0.049417234352715472 0 0.023323171294268041 -0.06286136230967837 0 0.033967325661793613 -0.049417234352715472 0 0.023323171294268041 -0.06286136230967837 0 0.034249836304144438 -0.059571878974144343 0 0.033967325661793613 -0.049417234352715472 0 0.033967325661793613 -0.049417234352715472 0 0.05026697117709579 -0.048468328131416903 0 0.033967325661793613 -0.049417234352715472 0 0.04157691612297159 -0.056981478970973477 0 0.05026697117709579 -0.048468328131416903 0 0.038131932137544497 -0.069027440263210046 0 0.034249836304144438 -0.059571878974144343 0 0.04157691612297159 -0.056981478970973477 0 0.034249836304144438 -0.059571878974144343 0 0.033967325661793613 -0.049417234352715472 0 0.04157691612297159 -0.056981478970973477 0 0.038131932137544497 -0.069027440263210046 0 0.04157691612297159 -0.056981478970973477 0 0.052349274414971322 -0.058273431086664232 0 0.052349274414971322 -0.058273431086664232 0 0.05026697117709579 -0.048468328131416903 0 0.066566616692397912 -0.047519421910118077 0 0.05026697117709579 -0.048468328131416903 0 0.066566616692397912 -0.047519421910118077 0 0.052349274414971322 -0.058273431086664232 0 0.066566616692397912 -0.047519421910118077 0 0.063461574478849148 -0.059486948344688241 0 0.052800373945666723 -0.067280174290593825 0 0.052349274414971322 -0.058273431086664232 0 0.063461574478849148 -0.059486948344688241 0 0.052349274414971322 -0.058273431086664232 0 0.066566616692397912 -0.047519421910118077 0 0.04157691612297159 -0.056981478970973477 0 0.052349274414971322 -0.058273431086664232 0 0.05026697117709579 -0.048468328131416903 0 0.05026697117709579 -0.048468328131416903 0 0.058022815244797951 -0.040592873266467933 0 0.066566616692397912 -0.047519421910118077 0 0.05026697117709579 -0.048468328131416903 0 0.048715619426201853 -0.041134343680760133 0 0.058022815244797951 -0.040592873266467933 0 0.058022815244797951 -0.040592873266467933 0 0.057428531409408609 -0.029150407499700558 0 0.063799811876805362 -0.024129556836538661 0 0.048715619426201853 -0.041134343680760133 0 0.058022815244797951 -0.040592873266467933 0 0.053219653169468938 -0.035478013086818777 0 0.058022815244797951 -0.040592873266467933 0 0.053219653169468938 -0.035478013086818777 0 0.057428531409408609 -0.029150407499700558 0 0.053219653169468938 -0.035478013086818777 0 0.047084140678495597 -0.032850005676439857 0 0.057428531409408609 -0.029150407499700558 0 0.048715619426201853 -0.041134343680760133 0 0.053219653169468938 -0.035478013086818777 0 0.047084140678495597 -0.032850005676439857 0 0.033967325661793613 -0.049417234352715472 0 0.05026697117709579 -0.048468328131416903 0 0.048715619426201853 -0.041134343680760133 0 0.033967325661793613 -0.049417234352715472 0 0.047084140678495597 -0.032850005676439857 0 0.033967325661793613 -0.049417234352715472 0 0.047084140678495597 -0.032850005676439857 0 0.039159992320060573 -0.035419077778265903 0 0.033967325661793613 -0.049417234352715472 0 0.048715619426201853 -0.041134343680760133 0 0.047084140678495597 -0.032850005676439857 0 0.033967325661793613 -0.049417234352715472 0 0.039159992320060573 -0.035419077778265903 0 0.031437665474670737 -0.037103903587571478 0 0.039159992320060573 -0.035419077778265903 0 0.031437665474670737 -0.037103903587571478 0 0.034046004365684841 -0.028273678694493789 0 0.034046004365684841 -0.028273678694493789 0 0.052292387754216393 -0.016941560454893069 0 0.037609040516515958 -0.002694215823619749 0 0.039159992320060573 -0.035419077778265903 0 0.034046004365684841 -0.028273678694493789 0 0.052292387754216393 -0.016941560454893069 0 0.047084140678495597 -0.032850005676439857 0 0.039159992320060573 -0.035419077778265903 0 0.052292387754216393 -0.016941560454893069 0 0.039159992320060573 -0.035419077778265903 0 0.052292387754216393 -0.016941560454893069 0 0.047084140678495597 -0.032850005676439857 0 0.060200955695197969 -0.01628277700016461 0 0.052292387754216393 -0.016941560454893069 0 0.047084140678495597 -0.032850005676439857 0 0.057428531409408609 -0.029150407499700558 0 0.060200955695197969 -0.01628277700016461 0 0.047084140678495597 -0.032850005676439857 0 0.060200955695197969 -0.01628277700016461 0 0.057428531409408609 -0.029150407499700558 0 0.060200955695197969 -0.01628277700016461 0 0.063799811876805362 -0.024129556836538661 0 0.065424783188372249 0.00153595686847981 0 0.052292387754216393 -0.016941560454893069 0 0.065424783188372249 0.00153595686847981 0 0.060200955695197969 -0.01628277700016461 0 0.052292387754216393 -0.016941560454893069 0 0.065424783188372249 0.00153595686847981 0 0.052292387754216393 -0.016941560454893069 0 0.051841861605487469 -0.0027158551788205791 0 0.052292387754216393 -0.016941560454893069 0 0.051841861605487469 -0.0027158551788205791 0 0.037609040516515958 -0.002694215823619749 0 0.034046004365684841 -0.028273678694493789 0 0.037609040516515958 -0.002694215823619749 0 0.090190712691382735 -0.002244999235090887 0 0.07410676396809035 -0.021418936250779411 0 0.088842684210436965 -0.017571912303406372 0 0.090190712691382735 -0.002244999235090887 0 0.075819305506104218 -0.0062473973239618903 0 0.07410676396809035 -0.021418936250779411 0 0.090190712691382735 -0.002244999235090887 0 0.07410676396809035 -0.021418936250779411 0 0.090190712691382735 -0.002244999235090887 0 0.088842684210436965 -0.017571912303406372 0 0.096600136089238633 -0.011282230784075579 0 0.080134274616143808 0.0040937821631618111 0 0.090190712691382735 -0.002244999235090887 0 0.075819305506104218 -0.0062473973239618903 0 0.065424783188372249 0.00153595686847981 0 0.080134274616143808 0.0040937821631618111 0 0.075819305506104218 -0.0062473973239618903 0 0.065424783188372249 0.00153595686847981 0 0.060200955695197969 -0.01628277700016461 0 0.069239993066531905 -0.01320279016558077 0 0.065424783188372249 0.00153595686847981 0 0.075819305506104218 -0.0062473973239618903 0 0.069239993066531905 -0.01320279016558077 0 0.075819305506104218 -0.0062473973239618903 0 0.069239993066531905 -0.01320279016558077 0 0.07410676396809035 -0.021418936250779411 0 0.058022815244797951 -0.040592873266467933 0 0.07410676396809035 -0.021418936250779411 0 0.063799811876805362 -0.024129556836538661 0 0.058022815244797951 -0.040592873266467933 0 0.07410676396809035 -0.021418936250779411 0 0.060200955695197969 -0.01628277700016461 0 0.069239993066531905 -0.01320279016558077 0 0.063799811876805362 -0.024129556836538661 0 0.069239993066531905 -0.01320279016558077 0 0.07410676396809035 -0.021418936250779411 0 0.063799811876805362 -0.024129556836538661 0 0.07410676396809035 -0.021418936250779411 0 0.083938255583524871 -0.034379500228453173 0 0.070658612872202833 -0.035977682913954728 0 0.088842684210436965 -0.017571912303406372 0 0.083938255583524871 -0.034379500228453173 0 0.1013098944746515 -0.02123957854678795 0 0.083938255583524871 -0.034379500228453173 0 0.1013098944746515 -0.02123957854678795 0 0.07410676396809035 -0.021418936250779411 0 0.088842684210436965 -0.017571912303406372 0 0.083938255583524871 -0.034379500228453173 0 0.08823929284268435 -0.046257717340413548 0 0.083938255583524871 -0.034379500228453173 0 0.066566616692397912 -0.047519421910118077 0 0.08823929284268435 -0.046257717340413548 0 0.083938255583524871 -0.034379500228453173 0 0.098504874234579071 -0.035822807074255753 0 0.083938255583524871 -0.034379500228453173 0 0.070658612872202833 -0.035977682913954728 0 0.066566616692397912 -0.047519421910118077 0 0.083938255583524871 -0.034379500228453173 0 0.066566616692397912 -0.047519421910118077 0 0.058022815244797951 -0.040592873266467933 0 0.07410676396809035 -0.021418936250779411 0 0.070658612872202833 -0.035977682913954728 0 0.058022815244797951 -0.040592873266467933 0 0.070658612872202833 -0.035977682913954728 0 0.066566616692397912 -0.047519421910118077 0 0.08823929284268435 -0.046257717340413548 0 0.066566616692397912 -0.047519421910118077 0 0.08823929284268435 -0.046257717340413548 0 0.066566616692397912 -0.047519421910118077 0 0.078309762657110635 -0.0579433375499658 0 0.066566616692397912 -0.047519421910118077 0 0.063461574478849148 -0.059486948344688241 0 0.078309762657110635 -0.0579433375499658 0 0.063461574478849148 -0.059486948344688241 0 0.078309762657110635 -0.0579433375499658 0 0.071265110550561714 -0.069759098189123792 0 0.08823929284268435 -0.046257717340413548 0 0.078309762657110635 -0.0579433375499658 0 0.099449543769593168 -0.058246566603929073 0 0.078309762657110635 -0.0579433375499658 0 0.099449543769593168 -0.058246566603929073 0 0.086561829374174448 -0.070494467407892544 0 0.08823929284268435 -0.046257717340413548 0 0.099449543769593168 -0.058246566603929073 0 0.1099119689929708 -0.044996012770709512 0 0.1099119689929708 -0.044996012770709512 0 0.13158464514325721 -0.043734308201003359 0 0.12592988142988951 -0.053515555559283563 0 0.099449543769593168 -0.058246566603929073 0 0.1099119689929708 -0.044996012770709512 0 0.12592988142988951 -0.053515555559283563 0 0.099449543769593168 -0.058246566603929073 0 0.1067840073689712 -0.074645704179486294 0 0.12592988142988951 -0.053515555559283563 0 0.1099119689929708 -0.044996012770709512 0 0.13158464514325721 -0.043734308201003359 0 0.1099119689929708 -0.044996012770709512 0 0.11658465197206409 -0.031461827184536308 0 0.13158464514325721 -0.043734308201003359 0 0.08823929284268435 -0.046257717340413548 0 0.1099119689929708 -0.044996012770709512 0 0.098504874234579071 -0.035822807074255753 0 0.1099119689929708 -0.044996012770709512 0 0.11658465197206409 -0.031461827184536308 0 0.098504874234579071 -0.035822807074255753 0 0.08823929284268435 -0.046257717340413548 0 0.1099119689929708 -0.044996012770709512 0 0.083938255583524871 -0.034379500228453173 0 0.098504874234579071 -0.035822807074255753 0 0.1013098944746515 -0.02123957854678795 0 0.11658465197206409 -0.031461827184536308 0 0.098504874234579071 -0.035822807074255753 0 0.1013098944746515 -0.02123957854678795 0 0.088842684210436965 -0.017571912303406372 0 0.1013098944746515 -0.02123957854678795 0 0.096600136089238633 -0.011282230784075579 0 0.11658465197206409 -0.031461827184536308 0 0.1013098944746515 -0.02123957854678795 0 0.1231084193729178 -0.017030089600476989 0 0.11658465197206409 -0.031461827184536308 0 0.1231084193729178 -0.017030089600476989 0 0.12581890553593969 -0.026161097869136039 0 0.11658465197206409 -0.031461827184536308 0 0.12581890553593969 -0.026161097869136039 0 0.13062696563361359 -0.033599875564541228 0 0.1013098944746515 -0.02123957854678795 0 0.1231084193729178 -0.017030089600476989 0 0.1186815333657793 -0.0080996568651242658 0 0.1013098944746515 -0.02123957854678795 0 0.1186815333657793 -0.0080996568651242658 0 0.1231084193729178 -0.017030089600476989 0 0.1186815333657793 -0.0080996568651242658 0 0.1231084193729178 -0.017030089600476989 0 0.1186815333657793 -0.0080996568651242658 0 0.12987870673538801 -0.009995887487841389 0 0.1112154668307228 0.0069617666460044213 0 0.1186815333657793 -0.0080996568651242658 0 0.1112154668307228 0.0069617666460044213 0 0.1186815333657793 -0.0080996568651242658 0 0.1054165138138201 -0.0048713011027633141 0 0.1013098944746515 -0.02123957854678795 0 0.1186815333657793 -0.0080996568651242658 0 0.1054165138138201 -0.0048713011027633141 0 0.1013098944746515 -0.02123957854678795 0 0.1054165138138201 -0.0048713011027633141 0 0.096600136089238633 -0.011282230784075579 0 0.090190712691382735 -0.002244999235090887 0 0.1054165138138201 -0.0048713011027633141 0 0.096600136089238633 -0.011282230784075579 0 0.1006728258854344 0.0067284981921742707 0 0.090190712691382735 -0.002244999235090887 0 0.1054165138138201 -0.0048713011027633141 0 0.087638133308052979 -0.095775852799689032 0 0.084085908736839604 -0.109987311143167 0 0.06729473245905529 -0.1182276396448243 0 0.087638133308052979 -0.095775852799689032 0 0.073190060918706251 -0.102528583137815 0 0.077787374420948616 -0.095506912627961349 0 0.087638133308052979 -0.095775852799689032 0 0.09093260219937227 -0.10463326807165731 0 0.098156406279054934 -0.1005181879570589 0 0.087638133308052979 -0.095775852799689032 0 0.09093260219937227 -0.10463326807165731 0 0.084085908736839604 -0.109987311143167 0 0.09093260219937227 -0.10463326807165731 0 0.089959973906702712 -0.1104777667105977 0 0.084085908736839604 -0.109987311143167 0 0.09093260219937227 -0.10463326807165731 0 0.089959973906702712 -0.1104777667105977 0 0.095093233242139308 -0.10803541618589579 0 0.093180028052593844 -0.12952414309760249 0 0.06729473245905529 -0.1182276396448243 0 0.089959973906702712 -0.1104777667105977 0 0.095093233242139308 -0.10803541618589579 0 0.094224226534726091 -0.1130764018675933 0 0.093180028052593844 -0.12952414309760249 0 0.093109250014256503 -0.12359875532379321 0 0.06729473245905529 -0.1182276396448243 0 0.08732234373138377 -0.11539269840410139 0 0.093109250014256503 -0.12359875532379321 0 0.06729473245905529 -0.1182276396448243 0 0.08732234373138377 -0.11539269840410139 0 0.084085908736839604 -0.109987311143167 0 0.06729473245905529 -0.1182276396448243 0 0.089959973906702712 -0.1104777667105977 0 0.08732234373138377 -0.11539269840410139 0 0.094224226534726091 -0.1130764018675933 0 0.093180028052593844 -0.12952414309760249 0 0.077551670074185175 -0.12697256784210889 0 0.06729473245905529 -0.1182276396448243 0 0.093109250014256503 -0.12359875532379321 0 0.06729473245905529 -0.1182276396448243 0 0.08732234373138377 -0.11539269840410139 0 0.093654206431215456 -0.1184389367985338 0 0.094224226534726091 -0.1130764018675933 0 0.089959973906702712 -0.1104777667105977 0 0.08732234373138377 -0.11539269840410139 0 0.084085908736839604 -0.109987311143167 0 0.08732234373138377 -0.11539269840410139 0 0.093109250014256503 -0.12359875532379321 0 0.093654206431215456 -0.1184389367985338 0 0.06729473245905529 -0.1182276396448243 0 0.06555221180334149 -0.1085412294097399 0 0.073190060918706251 -0.102528583137815 0 0.060784225145630782 -0.1092272285126536 0 0.06729473245905529 -0.1182276396448243 0 0.06555221180334149 -0.1085412294097399 0 0.087638133308052979 -0.095775852799689032 0 0.06729473245905529 -0.1182276396448243 0 0.073190060918706251 -0.102528583137815 0 0.087638133308052979 -0.095775852799689032 0 0.06729473245905529 -0.1182276396448243 0 0.060784225145630782 -0.1092272285126536 0 0.06555221180334149 -0.1085412294097399 0 0.063655448418436691 -0.1031526609834184 0 0.06555221180334149 -0.1085412294097399 0 0.063655448418436691 -0.1031526609834184 0 0.068114887854425654 -0.10380640396583191 0 0.063655448418436691 -0.1031526609834184 0 0.068114887854425654 -0.10380640396583191 0 0.068542385636517544 -0.10019424491227499 0 0.068114887854425654 -0.10380640396583191 0 0.073190060918706251 -0.102528583137815 0 0.068542385636517544 -0.10019424491227499 0 0.06555221180334149 -0.1085412294097399 0 0.068114887854425654 -0.10380640396583191 0 0.073190060918706251 -0.102528583137815 0 0.073190060918706251 -0.102528583137815 0 0.071948729166562211 -0.09470452405309604 0 0.068542385636517544 -0.10019424491227499 0 0.073190060918706251 -0.102528583137815 0 0.077787374420948616 -0.095506912627961349 0 0.071948729166562211 -0.09470452405309604 0 0.061531053782275927 -0.094251051718790252 0 0.071948729166562211 -0.09470452405309604 0 0.068542385636517544 -0.10019424491227499 0 0.061531053782275927 -0.094251051718790252 0 0.063655448418436691 -0.1031526609834184 0 0.068542385636517544 -0.10019424491227499 0 0.061462901594500637 -0.084888849622130502 0 0.061531053782275927 -0.094251051718790252 0 0.068319813684605282 -0.088494546816622721 0 0.061531053782275927 -0.094251051718790252 0 0.071948729166562211 -0.09470452405309604 0 0.068319813684605282 -0.088494546816622721 0 0.061462901594500637 -0.084888849622130502 0 0.068319813684605282 -0.088494546816622721 0 0.069803254229915263 -0.080418515587930964 0 0.061520594855873578 -0.076347379000701932 0 0.061462901594500637 -0.084888849622130502 0 0.069803254229915263 -0.080418515587930964 0 0.068319813684605282 -0.088494546816622721 0 0.069803254229915263 -0.080418515587930964 0 0.076853129649772381 -0.088209793101165862 0 0.069803254229915263 -0.080418515587930964 0 0.076853129649772381 -0.088209793101165862 0 0.078598399238624453 -0.078400788571160063 0 0.071948729166562211 -0.09470452405309604 0 0.068319813684605282 -0.088494546816622721 0 0.076853129649772381 -0.088209793101165862 0 0.077787374420948616 -0.095506912627961349 0 0.071948729166562211 -0.09470452405309604 0 0.076853129649772381 -0.088209793101165862 0 0.060952774156679101 -0.068343560690115324 0 0.063461574478849148 -0.059486948344688241 0 0.071265110550561714 -0.069759098189123792 0 0.061520594855873578 -0.076347379000701932 0 0.060952774156679101 -0.068343560690115324 0 0.071265110550561714 -0.069759098189123792 0 0.061520594855873578 -0.076347379000701932 0 0.069803254229915263 -0.080418515587930964 0 0.071265110550561714 -0.069759098189123792 0 0.069803254229915263 -0.080418515587930964 0 0.071265110550561714 -0.069759098189123792 0 0.078598399238624453 -0.078400788571160063 0 0.086561829374174448 -0.070494467407892544 0 0.08739815184253541 -0.081652298244406799 0 0.1067840073689712 -0.074645704179486294 0 0.078309762657110635 -0.0579433375499658 0 0.071265110550561714 -0.069759098189123792 0 0.086561829374174448 -0.070494467407892544 0 0.071265110550561714 -0.069759098189123792 0 0.086561829374174448 -0.070494467407892544 0 0.078598399238624453 -0.078400788571160063 0 0.086561829374174448 -0.070494467407892544 0 0.078598399238624453 -0.078400788571160063 0 0.08739815184253541 -0.081652298244406799 0 0.087638133308052979 -0.095775852799689032 0 0.076853129649772381 -0.088209793101165862 0 0.08739815184253541 -0.081652298244406799 0 0.087638133308052979 -0.095775852799689032 0 0.077787374420948616 -0.095506912627961349 0 0.076853129649772381 -0.088209793101165862 0 0.076853129649772381 -0.088209793101165862 0 0.078598399238624453 -0.078400788571160063 0 0.08739815184253541 -0.081652298244406799 0 0.087638133308052979 -0.095775852799689032 0 0.1067840073689712 -0.074645704179486294 0 0.087638133308052979 -0.095775852799689032 0 0.08739815184253541 -0.081652298244406799 0 0.1067840073689712 -0.074645704179486294 0 0.1067840073689712 -0.074645704179486294 0 0.1125984847406882 -0.090142375741801145 0 0.098156406279054934 -0.1005181879570589 0 0.087638133308052979 -0.095775852799689032 0 0.1067840073689712 -0.074645704179486294 0 0.098156406279054934 -0.1005181879570589 0 0.099449543769593168 -0.058246566603929073 0 0.086561829374174448 -0.070494467407892544 0 0.1067840073689712 -0.074645704179486294 0 0.1067840073689712 -0.074645704179486294 0 0.12592988142988951 -0.053515555559283563 0 0.1067840073689712 -0.074645704179486294 0 0.13438426325014971 -0.07336065065316362 0 0.12592988142988951 -0.053515555559283563 0 0.1067840073689712 -0.074645704179486294 0 0.1125984847406882 -0.090142375741801145 0 0.13438426325014971 -0.07336065065316362 0 0.1125984847406882 -0.090142375741801145 0 0.1202838760541025 -0.10172477634153999 0 0.13438426325014971 -0.07336065065316362 0 0.1125984847406882 -0.090142375741801145 0 0.1202838760541025 -0.10172477634153999 0 0.10338387075116259 -0.1004625595777569 0 0.1202838760541025 -0.10172477634153999 0 0.10338387075116259 -0.1004625595777569 0 0.1058014173859827 -0.1073933575306157 0 0.1202838760541025 -0.10172477634153999 0 0.10338387075116259 -0.1004625595777569 0 0.1202838760541025 -0.10172477634153999 0 0.1058014173859827 -0.1073933575306157 0 0.1126701278508699 -0.1123334419039958 0 0.1125984847406882 -0.090142375741801145 0 0.10338387075116259 -0.1004625595777569 0 0.098156406279054934 -0.1005181879570589 0 0.1058014173859827 -0.1073933575306157 0 0.098156406279054934 -0.1005181879570589 0 0.1043885114258833 -0.1158260152552439 0 0.10338387075116259 -0.1004625595777569 0 0.1058014173859827 -0.1073933575306157 0 0.098156406279054934 -0.1005181879570589 0 0.09093260219937227 -0.10463326807165731 0 0.095093233242139308 -0.10803541618589579 0 0.098156406279054934 -0.1005181879570589 0 0.098156406279054934 -0.1005181879570589 0 0.099961005444495502 -0.12168789159864719 0 0.1043885114258833 -0.1158260152552439 0 0.095093233242139308 -0.10803541618589579 0 0.098156406279054934 -0.1005181879570589 0 0.099961005444495502 -0.12168789159864719 0 0.098156406279054934 -0.1005181879570589 0 0.099961005444495502 -0.12168789159864719 0 0.093654206431215456 -0.1184389367985338 0 0.099961005444495502 -0.12168789159864719 0 0.094224226534726091 -0.1130764018675933 0 0.093180028052593844 -0.12952414309760249 0 0.093109250014256503 -0.12359875532379321 0 0.099961005444495502 -0.12168789159864719 0 0.093109250014256503 -0.12359875532379321 0 0.093654206431215456 -0.1184389367985338 0 0.099961005444495502 -0.12168789159864719 0 0.095093233242139308 -0.10803541618589579 0 0.099961005444495502 -0.12168789159864719 0 0.094224226534726091 -0.1130764018675933 0 0.1058014173859827 -0.1073933575306157 0 0.1043885114258833 -0.1158260152552439 0 0.1126701278508699 -0.1123334419039958 0 0.1043885114258833 -0.1158260152552439 0 0.1096503773773204 -0.12075330089597421 0 0.1126701278508699 -0.1123334419039958 0 0.099961005444495502 -0.12168789159864719 0 0.1043885114258833 -0.1158260152552439 0 0.1096503773773204 -0.12075330089597421 0 0.1145263804941028 -0.128967240922847 0 0.099961005444495502 -0.12168789159864719 0 0.1096503773773204 -0.12075330089597421 0 0.1145263804941028 -0.128967240922847 0 0.1249384234705134 -0.11453697773573129 0 0.13117736198413379 -0.12665691843031379 0 0.1145263804941028 -0.128967240922847 0 0.1096503773773204 -0.12075330089597421 0 0.1249384234705134 -0.11453697773573129 0 0.1096503773773204 -0.12075330089597421 0 0.1126701278508699 -0.1123334419039958 0 0.1249384234705134 -0.11453697773573129 0 0.1202838760541025 -0.10172477634153999 0 0.1126701278508699 -0.1123334419039958 0 0.1249384234705134 -0.11453697773573129 0 0.1249384234705134 -0.11453697773573129 0 0.1378670318921674 -0.110216283289641 0 0.13117736198413379 -0.12665691843031379 0 0.1378670318921674 -0.110216283289641 0 0.14685392222748619 -0.11323629758967579 0 0.13117736198413379 -0.12665691843031379 0 0.14685392222748619 -0.11323629758967579 0 0.16012322209323671 -0.12189297383967621 0 0.13117736198413379 -0.12665691843031379 0 0.16012322209323671 -0.12189297383967621 0 0.13117736198413379 -0.12665691843031379 0 0.14685392222748619 -0.11323629758967579 0 0.16012322209323671 -0.12189297383967621 0 0.1605201994492747 -0.1047299210732726 0 0.1561244935268207 -0.102173379736565 0 0.1371838813570424 -0.102986993105324 0 0.1605201994492747 -0.1047299210732726 0 0.1371838813570424 -0.102986993105324 0 0.1605201994492747 -0.1047299210732726 0 0.14685392222748619 -0.11323629758967579 0 0.1371838813570424 -0.102986993105324 0 0.1605201994492747 -0.1047299210732726 0 0.1561244935268207 -0.102173379736565 0 0.1371838813570424 -0.102986993105324 0 0.14932678126667381 -0.092557655400931971 0 0.1378670318921674 -0.110216283289641 0 0.14685392222748619 -0.11323629758967579 0 0.1371838813570424 -0.102986993105324 0 0.1202838760541025 -0.10172477634153999 0 0.1371838813570424 -0.102986993105324 0 0.1202838760541025 -0.10172477634153999 0 0.1249384234705134 -0.11453697773573129 0 0.1371838813570424 -0.102986993105324 0 0.1249384234705134 -0.11453697773573129 0 0.1378670318921674 -0.110216283289641 0 0.1371838813570424 -0.102986993105324 0 0.1378670318921674 -0.110216283289641 0 0.1371838813570424 -0.102986993105324 0 0.1371838813570424 -0.102986993105324 0 0.13438426325014971 -0.07336065065316362 0 0.14562239676259611 -0.079819981743459723 0 0.1371838813570424 -0.102986993105324 0 0.13438426325014971 -0.07336065065316362 0 0.1202838760541025 -0.10172477634153999 0 0.1371838813570424 -0.102986993105324 0 0.13438426325014971 -0.07336065065316362 0 0.14562239676259611 -0.079819981743459723 0 0.14362585268346381 -0.060626396971378733 0 0.15281031609849599 -0.0624540575125207 0 0.14562239676259611 -0.079819981743459723 0 0.16062821331365229 -0.068327154300193468 0 0.15281031609849599 -0.0624540575125207 0 0.14562239676259611 -0.079819981743459723 0 0.15837635342023629 -0.085250267018379206 0 0.16062821331365229 -0.068327154300193468 0 0.13438426325014971 -0.07336065065316362 0 0.14562239676259611 -0.079819981743459723 0 0.14362585268346381 -0.060626396971378733 0 0.14562239676259611 -0.079819981743459723 0 0.16062821331365229 -0.068327154300193468 0 0.1371838813570424 -0.102986993105324 0 0.14562239676259611 -0.079819981743459723 0 0.14932678126667381 -0.092557655400931971 0 0.1561244935268207 -0.102173379736565 0 0.14932678126667381 -0.092557655400931971 0 0.15837635342023629 -0.085250267018379206 0 0.14562239676259611 -0.079819981743459723 0 0.14932678126667381 -0.092557655400931971 0 0.15837635342023629 -0.085250267018379206 0 0.15837635342023629 -0.085250267018379206 0 0.16062821331365229 -0.068327154300193468 0 0.17390425222357239 -0.08612717668903562 0 0.1561244935268207 -0.102173379736565 0 0.15837635342023629 -0.085250267018379206 0 0.15837635342023629 -0.085250267018379206 0 0.17390425222357239 -0.08612717668903562 0 0.16350312971636 -0.094543834523885525 0 0.16395198690564089 -0.065781504336845459 0 0.16062821331365229 -0.068327154300193468 0 0.17390425222357239 -0.08612717668903562 0 0.15837635342023629 -0.085250267018379206 0 0.16062821331365229 -0.068327154300193468 0 0.16395198690564089 -0.065781504336845459 0 0.17390425222357239 -0.08612717668903562 0 0.16062821331365229 -0.068327154300193468 0 0.15281031609849599 -0.0624540575125207 0 0.16160530718495339 -0.060984126535175778 0 0.16395198690564089 -0.065781504336845459 0 0.16062821331365229 -0.068327154300193468 0 0.16160530718495339 -0.060984126535175778 0 0.16395198690564089 -0.065781504336845459 0 0.16160530718495339 -0.060984126535175778 0 0.16062821331365229 -0.068327154300193468 0 0.16160530718495339 -0.060984126535175778 0 0.16395198690564089 -0.065781504336845459 0 0.16062821331365229 -0.068327154300193468 0 0.16395198690564089 -0.065781504336845459 0 0.1848490297697328 -0.070094395614981 0 0.17390425222357239 -0.08612717668903562 0 0.1848490297697328 -0.070094395614981 0 0.17390425222357239 -0.08612717668903562 0 0.1963711083878964 -0.091889512955056457 0 0.18385651754150681 -0.10647284904122439 0 0.17339225532158919 -0.1125561933008031 0 0.1605201994492747 -0.1047299210732726 0 0.17390425222357239 -0.08612717668903562 0 0.18385651754150681 -0.10647284904122439 0 0.1963711083878964 -0.091889512955056457 0 0.18385651754150681 -0.10647284904122439 0 0.1605201994492747 -0.1047299210732726 0 0.17390425222357239 -0.08612717668903562 0 0.18385651754150681 -0.10647284904122439 0 0.16350312971636 -0.094543834523885525 0 0.17390425222357239 -0.08612717668903562 0 0.18385651754150681 -0.10647284904122439 0 0.16012322209323671 -0.12189297383967621 0 0.1890690822023397 -0.1171290292490392 0 0.18385651754150681 -0.10647284904122439 0 0.17339225532158919 -0.1125561933008031 0 0.1890690822023397 -0.1171290292490392 0 0.18385651754150681 -0.10647284904122439 0 0.1890690822023397 -0.1171290292490392 0 0.16012322209323671 -0.12189297383967621 0 0.1890690822023397 -0.1171290292490392 0 0.17676988930472851 -0.1327186890943779 0 0.17339225532158919 -0.1125561933008031 0 0.16012322209323671 -0.12189297383967621 0 0.1890690822023397 -0.1171290292490392 0 0.17339225532158919 -0.1125561933008031 0 0.16012322209323671 -0.12189297383967621 0 0.1605201994492747 -0.1047299210732726 0 0.18385651754150681 -0.10647284904122439 0 0.1605201994492747 -0.1047299210732726 0 0.16350312971636 -0.094543834523885525 0 0.1561244935268207 -0.102173379736565 0 0.15837635342023629 -0.085250267018379206 0 0.16350312971636 -0.094543834523885525 0 0.1561244935268207 -0.102173379736565 0 0.1605201994492747 -0.1047299210732726 0 0.16350312971636 -0.094543834523885525 0 0.1499659599275856 -0.0028357427761619 0 0.15620695430303139 -0.014746089308780059 0 0.13782322314636389 -0.01236579952680261 0 0.1394184874939306 0.0075857919787062364 0 0.1499659599275856 -0.0028357427761619 0 0.13782322314636389 -0.01236579952680261 0 0.1394184874939306 0.0075857919787062364 0 0.1186815333657793 -0.0080996568651242658 0 0.12987870673538801 -0.009995887487841389 0 0.1394184874939306 0.0075857919787062364 0 0.12987870673538801 -0.009995887487841389 0 0.13782322314636389 -0.01236579952680261 0 0.1394184874939306 0.0075857919787062364 0 0.1186815333657793 -0.0080996568651242658 0 0.12987870673538801 -0.009995887487841389 0 0.13782322314636389 -0.01236579952680261 0 0.1329555851651634 -0.022552599126989651 0 0.13782322314636389 -0.01236579952680261 0 0.1329555851651634 -0.022552599126989651 0 0.14519651684708981 -0.02743921376959927 0 0.1231084193729178 -0.017030089600476989 0 0.12987870673538801 -0.009995887487841389 0 0.1329555851651634 -0.022552599126989651 0 0.1231084193729178 -0.017030089600476989 0 0.1329555851651634 -0.022552599126989651 0 0.12581890553593969 -0.026161097869136039 0 0.1329555851651634 -0.022552599126989651 0 0.12581890553593969 -0.026161097869136039 0 0.13062696563361359 -0.033599875564541228 0 0.1329555851651634 -0.022552599126989651 0 0.14519651684708981 -0.02743921376959927 0 0.13062696563361359 -0.033599875564541228 0 0.15620695430303139 -0.014746089308780059 0 0.14519651684708981 -0.02743921376959927 0 0.15686858372827389 -0.030572980715218821 0 0.15620695430303139 -0.014746089308780059 0 0.13782322314636389 -0.01236579952680261 0 0.14519651684708981 -0.02743921376959927 0 0.13782322314636389 -0.01236579952680261 0 0.14519651684708981 -0.02743921376959927 0 0.15256981054781521 -0.042512628012396102 0 0.13158464514325721 -0.043734308201003359 0 0.15256981054781521 -0.042512628012396102 0 0.139994484542944 -0.036821506386885819 0 0.13158464514325721 -0.043734308201003359 0 0.14519651684708981 -0.02743921376959927 0 0.15256981054781521 -0.042512628012396102 0 0.14519651684708981 -0.02743921376959927 0 0.15256981054781521 -0.042512628012396102 0 0.15686858372827389 -0.030572980715218821 0 0.14519651684708981 -0.02743921376959927 0 0.15256981054781521 -0.042512628012396102 0 0.139994484542944 -0.036821506386885819 0 0.139994484542944 -0.036821506386885819 0 0.13062696563361359 -0.033599875564541228 0 0.13158464514325721 -0.043734308201003359 0 0.14519651684708981 -0.02743921376959927 0 0.139994484542944 -0.036821506386885819 0 0.13062696563361359 -0.033599875564541228 0 0.13062696563361359 -0.033599875564541228 0 0.13158464514325721 -0.043734308201003359 0 0.11658465197206409 -0.031461827184536308 0 0.13062696563361359 -0.033599875564541228 0 0.13158464514325721 -0.043734308201003359 0 0.13438426325014971 -0.07336065065316362 0 0.13158464514325721 -0.043734308201003359 0 0.14362585268346381 -0.060626396971378733 0 0.13438426325014971 -0.07336065065316362 0 0.13158464514325721 -0.043734308201003359 0 0.13438426325014971 -0.07336065065316362 0 0.13158464514325721 -0.043734308201003359 0 0.12592988142988951 -0.053515555559283563 0 0.15256981054781521 -0.042512628012396102 0 0.14362585268346381 -0.060626396971378733 0 0.15281031609849599 -0.0624540575125207 0 0.15256981054781521 -0.042512628012396102 0 0.15281031609849599 -0.0624540575125207 0 0.16160530718495339 -0.060984126535175778 0 0.15256981054781521 -0.042512628012396102 0 0.13158464514325721 -0.043734308201003359 0 0.14362585268346381 -0.060626396971378733 0 0.15256981054781521 -0.042512628012396102 0 0.16160530718495339 -0.060984126535175778 0 0.16160530718495339 -0.060984126535175778 0 0.1713756795348568 -0.052541801431533842 0 0.16415293053476729 -0.041838300794216417 0 0.16160530718495339 -0.060984126535175778 0 0.16415293053476729 -0.041838300794216417 0 0.15256981054781521 -0.042512628012396102 0 0.16160530718495339 -0.060984126535175778 0 0.16415293053476729 -0.041838300794216417 0 0.16395198690564089 -0.065781504336845459 0 0.16160530718495339 -0.060984126535175778 0 0.1713756795348568 -0.052541801431533842 0 0.16395198690564089 -0.065781504336845459 0 0.1841007662380012 -0.050349725381574832 0 0.16395198690564089 -0.065781504336845459 0 0.1713756795348568 -0.052541801431533842 0 0.1841007662380012 -0.050349725381574832 0 0.16395198690564089 -0.065781504336845459 0 0.1848490297697328 -0.070094395614981 0 0.1841007662380012 -0.050349725381574832 0 0.1713756795348568 -0.052541801431533842 0 0.1841007662380012 -0.050349725381574832 0 0.17774143231709641 -0.041047227524108117 0 0.1841007662380012 -0.050349725381574832 0 0.17774143231709641 -0.041047227524108117 0 0.18882084081925471 -0.03525687123266262 0 0.17774143231709641 -0.041047227524108117 0 0.17964367483989521 -0.02954813549999508 0 0.18882084081925471 -0.03525687123266262 0 0.17774143231709641 -0.041047227524108117 0 0.17171038183293769 -0.03489957152688352 0 0.17964367483989521 -0.02954813549999508 0 0.16415293053476729 -0.041838300794216417 0 0.1662167064086659 -0.026328671691101029 0 0.17171038183293769 -0.03489957152688352 0 0.16415293053476729 -0.041838300794216417 0 0.1662167064086659 -0.026328671691101029 0 0.17774143231709641 -0.041047227524108117 0 0.17171038183293769 -0.03489957152688352 0 0.16415293053476729 -0.041838300794216417 0 0.1713756795348568 -0.052541801431533842 0 0.17774143231709641 -0.041047227524108117 0 0.16415293053476729 -0.041838300794216417 0 0.17774143231709641 -0.041047227524108117 0 0.16415293053476729 -0.041838300794216417 0 0.15256981054781521 -0.042512628012396102 0 0.16415293053476729 -0.041838300794216417 0 0.16415293053476729 -0.041838300794216417 0 0.15686858372827389 -0.030572980715218821 0 0.1662167064086659 -0.026328671691101029 0 0.15256981054781521 -0.042512628012396102 0 0.16415293053476729 -0.041838300794216417 0 0.15686858372827389 -0.030572980715218821 0 0.15620695430303139 -0.014746089308780059 0 0.15686858372827389 -0.030572980715218821 0 0.1662167064086659 -0.026328671691101029 0 0.15620695430303139 -0.014746089308780059 0 0.1662167064086659 -0.026328671691101029 0 0.17365852882115621 -0.0099512103645301598 0 0.17964367483989521 -0.02954813549999508 0 0.19001648481368241 -0.019370424709481169 0 0.18882084081925471 -0.03525687123266262 0 0.17171038183293769 -0.03489957152688352 0 0.1662167064086659 -0.026328671691101029 0 0.17964367483989521 -0.02954813549999508 0 0.17964367483989521 -0.02954813549999508 0 0.17365852882115621 -0.0099512103645301598 0 0.19001648481368241 -0.019370424709481169 0 0.1662167064086659 -0.026328671691101029 0 0.17964367483989521 -0.02954813549999508 0 0.17365852882115621 -0.0099512103645301598 0 0.193411862040101 0.0087804595257519359 0 0.17365852882115621 -0.0099512103645301598 0 0.19001648481368241 -0.019370424709481169 0 0.1664151747670157 0.0081831257522299462 0 0.15620695430303139 -0.014746089308780059 0 0.17365852882115621 -0.0099512103645301598 0 0.1664151747670157 0.0081831257522299462 0 0.1499659599275856 -0.0028357427761619 0 0.15620695430303139 -0.014746089308780059 0 0.22040854931318621 0.0093777932992746577 0 0.20649695332801041 -0.011123257156358399 0 0.2243983249027213 -0.01948616747103284 0 0.193411862040101 0.0087804595257519359 0 0.20649695332801041 -0.011123257156358399 0 0.19001648481368241 -0.019370424709481169 0 0.19001648481368241 -0.019370424709481169 0 0.20424954557036121 -0.034917946426303879 0 0.18882084081925471 -0.03525687123266262 0 0.20649695332801041 -0.011123257156358399 0 0.19001648481368241 -0.019370424709481169 0 0.20424954557036121 -0.034917946426303879 0 0.20649695332801041 -0.011123257156358399 0 0.20424954557036121 -0.034917946426303879 0 0.2243983249027213 -0.01948616747103284 0 0.20424954557036121 -0.034917946426303879 0 0.22500998443226031 -0.039144816089367998 0 0.2243983249027213 -0.01948616747103284 0 0.20424954557036121 -0.034917946426303879 0 0.2243983249027213 -0.01948616747103284 0 0.20424954557036121 -0.034917946426303879 0 0.21945389410262789 -0.055982382971954812 0 0.22500998443226031 -0.039144816089367998 0 0.1841007662380012 -0.050349725381574832 0 0.20424954557036121 -0.034917946426303879 0 0.1841007662380012 -0.050349725381574832 0 0.20424954557036121 -0.034917946426303879 0 0.18882084081925471 -0.03525687123266262 0 0.1841007662380012 -0.050349725381574832 0 0.20424954557036121 -0.034917946426303879 0 0.20107375906444741 -0.057706347196407937 0 0.1848490297697328 -0.070094395614981 0 0.1841007662380012 -0.050349725381574832 0 0.20107375906444741 -0.057706347196407937 0 0.20107375906444741 -0.057706347196407937 0 0.21945389410262789 -0.055982382971954812 0 0.2178769706980917 -0.071860039491261449 0 0.20424954557036121 -0.034917946426303879 0 0.20107375906444741 -0.057706347196407937 0 0.21945389410262789 -0.055982382971954812 0 0.21945389410262789 -0.055982382971954812 0 0.23954444061722649 -0.049417082736679128 0 0.22500998443226031 -0.039144816089367998 0 0.21945389410262789 -0.055982382971954812 0 0.23954444061722649 -0.049417082736679128 0 0.23497048707199361 -0.065430103551947436 0 0.25726925547570079 -0.051347076797932878 0 0.23954444061722649 -0.049417082736679128 0 0.2489147091691396 -0.061047690623056629 0 0.23954444061722649 -0.049417082736679128 0 0.2489147091691396 -0.061047690623056629 0 0.23497048707199361 -0.065430103551947436 0 0.25726925547570079 -0.051347076797932878 0 0.25104537145499961 -0.037501163253547333 0 0.23954444061722649 -0.049417082736679128 0 0.25104537145499961 -0.037501163253547333 0 0.23954444061722649 -0.049417082736679128 0 0.23729256234363871 -0.033734339859473363 0 0.25104537145499961 -0.037501163253547333 0 0.23729256234363871 -0.033734339859473363 0 0.24646469031098589 -0.02312246974673951 0 0.23954444061722649 -0.049417082736679128 0 0.23729256234363871 -0.033734339859473363 0 0.22500998443226031 -0.039144816089367998 0 0.23729256234363871 -0.033734339859473363 0 0.22500998443226031 -0.039144816089367998 0 0.2243983249027213 -0.01948616747103284 0 0.23729256234363871 -0.033734339859473363 0 0.2243983249027213 -0.01948616747103284 0 0.24646469031098589 -0.02312246974673951 0 0.2243983249027213 -0.01948616747103284 0 0.24454710423508169 -0.0040543885157620588 0 0.24646469031098589 -0.02312246974673951 0 0.24986078142061541 -0.0070112464674283144 0 0.24454710423508169 -0.0040543885157620588 0 0.2243983249027213 -0.01948616747103284 0 0.24646469031098589 -0.02312246974673951 0 0.24454710423508169 -0.0040543885157620588 0 0.24986078142061541 -0.0070112464674283144 0 0.24454710423508169 -0.0040543885157620588 0 0.22040854931318621 0.0093777932992746577 0 0.2243983249027213 -0.01948616747103284 0 0.24454710423508169 -0.0040543885157620588 0 0.20791749343059771 -0.1082698997862245 0 0.1963711083878964 -0.091889512955056457 0 0.2165574899412904 -0.088059105932164206 0 0.20791749343059771 -0.1082698997862245 0 0.2165574899412904 -0.088059105932164206 0 0.22236958319249031 -0.099957695899208845 0 0.20791749343059771 -0.1082698997862245 0 0.21052377576101411 -0.11359798989013239 0 0.23197846931968849 -0.1100669505312265 0 0.21052377576101411 -0.11359798989013239 0 0.2193016884711986 -0.12268676968434 0 0.20601257999632211 -0.12500757691203401 0 0.20791749343059771 -0.1082698997862245 0 0.21052377576101411 -0.11359798989013239 0 0.1890690822023397 -0.1171290292490392 0 0.18385651754150681 -0.10647284904122439 0 0.20791749343059771 -0.1082698997862245 0 0.1890690822023397 -0.1171290292490392 0 0.21052377576101411 -0.11359798989013239 0 0.1890690822023397 -0.1171290292490392 0 0.20601257999632211 -0.12500757691203401 0 0.21052377576101411 -0.11359798989013239 0 0.1890690822023397 -0.1171290292490392 0 0.18385651754150681 -0.10647284904122439 0 0.20791749343059771 -0.1082698997862245 0 0.18385651754150681 -0.10647284904122439 0 0.20791749343059771 -0.1082698997862245 0 0.1963711083878964 -0.091889512955056457 0 0.1848490297697328 -0.070094395614981 0 0.1963711083878964 -0.091889512955056457 0 0.20218326692818361 -0.074844928358000842 0 0.1848490297697328 -0.070094395614981 0 0.20107375906444741 -0.057706347196407937 0 0.20218326692818361 -0.074844928358000842 0 0.20107375906444741 -0.057706347196407937 0 0.20218326692818361 -0.074844928358000842 0 0.2178769706980917 -0.071860039491261449 0 0.20218326692818361 -0.074844928358000842 0 0.2178769706980917 -0.071860039491261449 0 0.2165574899412904 -0.088059105932164206 0 0.1963711083878964 -0.091889512955056457 0 0.20218326692818361 -0.074844928358000842 0 0.2165574899412904 -0.088059105932164206 0 0.2178769706980917 -0.071860039491261449 0 0.2165574899412904 -0.088059105932164206 0 0.2332919491882367 -0.078765513220923164 0 0.2165574899412904 -0.088059105932164206 0 0.2332919491882367 -0.078765513220923164 0 0.2330248800783844 -0.09343482734722057 0 0.21945389410262789 -0.055982382971954812 0 0.2178769706980917 -0.071860039491261449 0 0.23497048707199361 -0.065430103551947436 0 0.2178769706980917 -0.071860039491261449 0 0.2332919491882367 -0.078765513220923164 0 0.23497048707199361 -0.065430103551947436 0 0.2332919491882367 -0.078765513220923164 0 0.23497048707199361 -0.065430103551947436 0 0.24957985668624191 -0.073926873436579998 0 0.2489147091691396 -0.061047690623056629 0 0.23497048707199361 -0.065430103551947436 0 0.24957985668624191 -0.073926873436579998 0 0.2332919491882367 -0.078765513220923164 0 0.24957985668624191 -0.073926873436579998 0 0.24464721597715799 -0.088843798637905619 0 0.2332919491882367 -0.078765513220923164 0 0.2330248800783844 -0.09343482734722057 0 0.24464721597715799 -0.088843798637905619 0 0.25247124487397088 -0.099797793390608916 0 0.24464721597715799 -0.088843798637905619 0 0.24117482369513821 -0.1000545135642834 0 0.2330248800783844 -0.09343482734722057 0 0.24117482369513821 -0.1000545135642834 0 0.23197846931968849 -0.1100669505312265 0 0.25247124487397088 -0.099797793390608916 0 0.2437523082264893 -0.10812919791445549 0 0.24117482369513821 -0.1000545135642834 0 0.2437523082264893 -0.10812919791445549 0 0.24117482369513821 -0.1000545135642834 0 0.23197846931968849 -0.1100669505312265 0 0.2437523082264893 -0.10812919791445549 0 0.23197846931968849 -0.1100669505312265 0 0.2330248800783844 -0.09343482734722057 0 0.24464721597715799 -0.088843798637905619 0 0.24117482369513821 -0.1000545135642834 0 0.20791749343059771 -0.1082698997862245 0 0.23197846931968849 -0.1100669505312265 0 0.2330248800783844 -0.09343482734722057 0 0.22236958319249031 -0.099957695899208845 0 0.23197846931968849 -0.1100669505312265 0 0.2165574899412904 -0.088059105932164206 0 0.2330248800783844 -0.09343482734722057 0 0.22236958319249031 -0.099957695899208845 0 0.20791749343059771 -0.1082698997862245 0 0.22236958319249031 -0.099957695899208845 0 0.23197846931968849 -0.1100669505312265 0 0.21052377576101411 -0.11359798989013239 0 0.2193016884711986 -0.12268676968434 0 0.23197846931968849 -0.1100669505312265 0 0.21052377576101411 -0.11359798989013239 0 0.23197846931968849 -0.1100669505312265 0 0.2193016884711986 -0.12268676968434 0 0.23197846931968849 -0.1100669505312265 0 0.23152589638932139 -0.1219920506077375 0 0.25422785205669218 -0.1117286981680507 0 0.23197846931968849 -0.1100669505312265 0 0.25422785205669218 -0.1117286981680507 0 0.23197846931968849 -0.1100669505312265 0 0.24217032514656181 -0.1233876961788135 0 0.25422785205669218 -0.1117286981680507 0 0.2437523082264893 -0.10812919791445549 0 0.23197846931968849 -0.1100669505312265 0 0.23197846931968849 -0.1100669505312265 0 0.23152589638932139 -0.1219920506077375 0 0.24217032514656181 -0.1233876961788135 0 0.25422785205669218 -0.1117286981680507 0 0.2525608327608555 -0.12289103938169629 0 0.24217032514656181 -0.1233876961788135 0 0.25177330827706301 -0.13290269088953879 0 0.24217032514656181 -0.1233876961788135 0 0.23816926123831089 -0.13458470912756629 0 0.2525608327608555 -0.12289103938169629 0 0.25177330827706301 -0.13290269088953879 0 0.24217032514656181 -0.1233876961788135 0 0.25177330827706301 -0.13290269088953879 0 0.23816926123831089 -0.13458470912756629 0 0.24227243407568111 -0.14745761285582429 0 0.23152589638932139 -0.1219920506077375 0 0.24217032514656181 -0.1233876961788135 0 0.23816926123831089 -0.13458470912756629 0 0.23816926123831089 -0.13458470912756629 0 0.24227243407568111 -0.14745761285582429 0 0.22801093651058291 -0.14032259914959011 0 0.24227243407568111 -0.14745761285582429 0 0.2187785015960573 -0.15146451841435901 0 0.24227243407568111 -0.14745761285582429 0 0.2187785015960573 -0.15146451841435901 0 0.23197446896547499 -0.15795708187618979 0 0.24227243407568111 -0.14745761285582429 0 0.2187785015960573 -0.15146451841435901 0 0.22801093651058291 -0.14032259914959011 0 0.2187785015960573 -0.15146451841435901 0 0.22801093651058291 -0.14032259914959011 0 0.21338488854844889 -0.1366800292613698 0 0.23152589638932139 -0.1219920506077375 0 0.23816926123831089 -0.13458470912756629 0 0.2274495970944162 -0.13142612608883111 0 0.23816926123831089 -0.13458470912756629 0 0.2274495970944162 -0.13142612608883111 0 0.22801093651058291 -0.14032259914959011 0 0.2274495970944162 -0.13142612608883111 0 0.22801093651058291 -0.14032259914959011 0 0.21338488854844889 -0.1366800292613698 0 0.2193016884711986 -0.12268676968434 0 0.23152589638932139 -0.1219920506077375 0 0.2274495970944162 -0.13142612608883111 0 0.2193016884711986 -0.12268676968434 0 0.2274495970944162 -0.13142612608883111 0 0.21338488854844889 -0.1366800292613698 0 0.2193016884711986 -0.12268676968434 0 0.20601257999632211 -0.12500757691203401 0 0.21338488854844889 -0.1366800292613698 0 0.20601257999632211 -0.12500757691203401 0 0.21338488854844889 -0.1366800292613698 0 0.1977834649986091 -0.1349440664752892 0 0.2187785015960573 -0.15146451841435901 0 0.21338488854844889 -0.1366800292613698 0 0.20663041325885159 -0.1535363828298261 0 0.21338488854844889 -0.1366800292613698 0 0.20663041325885159 -0.1535363828298261 0 0.1977834649986091 -0.1349440664752892 0 0.2187785015960573 -0.15146451841435901 0 0.20663041325885159 -0.1535363828298261 0 0.20280996320538819 -0.16087110484594769 0 0.2187785015960573 -0.15146451841435901 0 0.20663041325885159 -0.1535363828298261 0 0.1952845691164336 -0.1554714239728936 0 0.1977834649986091 -0.1349440664752892 0 0.18656949747281029 -0.14165458745521919 0 0.20663041325885159 -0.1535363828298261 0 0.1977834649986091 -0.1349440664752892 0 0.20663041325885159 -0.1535363828298261 0 0.1952845691164336 -0.1554714239728936 0 0.1977834649986091 -0.1349440664752892 0 0.20663041325885159 -0.1535363828298261 0 0.1952845691164336 -0.1554714239728936 0 0.1952845691164336 -0.1554714239728936 0 0.18656949747281029 -0.14165458745521919 0 0.18124139520631979 -0.15085640812074819 0 0.1890690822023397 -0.1171290292490392 0 0.1977834649986091 -0.1349440664752892 0 0.18774275091037951 -0.12951942841800149 0 0.1977834649986091 -0.1349440664752892 0 0.18656949747281029 -0.14165458745521919 0 0.1890690822023397 -0.1171290292490392 0 0.18774275091037951 -0.12951942841800149 0 0.1977834649986091 -0.1349440664752892 0 0.1890690822023397 -0.1171290292490392 0 0.20601257999632211 -0.12500757691203401 0 0.1977834649986091 -0.1349440664752892 0 0.19344005624135061 -0.17488752787842241 0 0.2077977356423881 -0.18050414920156391 0 0.19899755453136389 -0.1927184801215108 0 0.19344005624135061 -0.17488752787842241 0 0.19899755453136389 -0.1927184801215108 0 0.1807425574357093 -0.18972247438817211 0 0.20280996320538819 -0.16087110484594769 0 0.18686416921845081 -0.16137824049569091 0 0.19344005624135061 -0.17488752787842241 0 0.20280996320538819 -0.16087110484594769 0 0.18686416921845081 -0.16137824049569091 0 0.1952845691164336 -0.1554714239728936 0 0.20280996320538819 -0.16087110484594769 0 0.18686416921845081 -0.16137824049569091 0 0.20663041325885159 -0.1535363828298261 0 0.1952845691164336 -0.1554714239728936 0 0.20280996320538819 -0.16087110484594769 0 0.2187785015960573 -0.15146451841435901 0 0.20280996320538819 -0.16087110484594769 0 0.21413894758827171 -0.1618457707141063 0 0.19344005624135061 -0.17488752787842241 0 0.21413894758827171 -0.1618457707141063 0 0.2226788462779701 -0.16935349946998571 0 0.19344005624135061 -0.17488752787842241 0 0.20280996320538819 -0.16087110484594769 0 0.21413894758827171 -0.1618457707141063 0 0.19344005624135061 -0.17488752787842241 0 0.2226788462779701 -0.16935349946998571 0 0.21607448551886779 -0.18505708933633649 0 0.2077977356423881 -0.18050414920156391 0 0.2226788462779701 -0.16935349946998571 0 0.19344005624135061 -0.17488752787842241 0 0.2077977356423881 -0.18050414920156391 0 0.2226788462779701 -0.16935349946998571 0 0.21607448551886779 -0.18505708933633649 0 0.2077977356423881 -0.18050414920156391 0 0.19899755453136389 -0.1927184801215108 0 0.21607448551886779 -0.18505708933633649 0 0.2329725169931933 -0.18289448719548229 0 0.2226788462779701 -0.16935349946998571 0 0.2187785015960573 -0.15146451841435901 0 0.21413894758827171 -0.1618457707141063 0 0.23197446896547499 -0.15795708187618979 0 0.21413894758827171 -0.1618457707141063 0 0.2226788462779701 -0.16935349946998571 0 0.23197446896547499 -0.15795708187618979 0 0.25191763631458969 -0.1638194710615489 0 0.24227243407568111 -0.14745761285582429 0 0.23197446896547499 -0.15795708187618979 0 0.25191763631458969 -0.1638194710615489 0 0.2226788462779701 -0.16935349946998571 0 0.23197446896547499 -0.15795708187618979 0 0.25191763631458969 -0.1638194710615489 0 0.2226788462779701 -0.16935349946998571 0 0.25191763631458969 -0.1638194710615489 0 0.2329725169931933 -0.18289448719548229 0 0.2329725169931933 -0.18289448719548229 0 0.24968987140106341 -0.18092922336105319 0 0.24254979627140069 -0.19512410210957429 0 0.25191763631458969 -0.1638194710615489 0 0.2329725169931933 -0.18289448719548229 0 0.24968987140106341 -0.18092922336105319 0 0.25191763631458969 -0.1638194710615489 0 0.2329725169931933 -0.18289448719548229 0 0.2226788462779701 -0.16935349946998571 0 0.24254979627140069 -0.19512410210957429 0 0.2482240050903991 -0.21081725168179599 0 0.2329725169931933 -0.18289448719548229 0 0.24254979627140069 -0.19512410210957429 0 0.2302656663224267 -0.1990849403921548 0 0.24254979627140069 -0.19512410210957429 0 0.23396280579059731 -0.2142399522917168 0 0.2302656663224267 -0.1990849403921548 0 0.24254979627140069 -0.19512410210957429 0 0.2482240050903991 -0.21081725168179599 0 0.23396280579059731 -0.2142399522917168 0 0.25389821390939737 -0.22651040125401781 0 0.2482240050903991 -0.21081725168179599 0 0.23396280579059731 -0.2142399522917168 0 0.23396280579059731 -0.2142399522917168 0 0.22374389160092889 -0.21839007751040071 0 0.21402739767179721 -0.20196950332941579 0 0.23396280579059731 -0.2142399522917168 0 0.21402739767179721 -0.20196950332941579 0 0.23396280579059731 -0.2142399522917168 0 0.2302656663224267 -0.1990849403921548 0 0.21402739767179721 -0.20196950332941579 0 0.21607448551886779 -0.18505708933633649 0 0.2329725169931933 -0.18289448719548229 0 0.21402739767179721 -0.20196950332941579 0 0.2329725169931933 -0.18289448719548229 0 0.2302656663224267 -0.1990849403921548 0 0.21402739767179721 -0.20196950332941579 0 0.2329725169931933 -0.18289448719548229 0 0.21402739767179721 -0.20196950332941579 0 0.2444299610463688 -0.25163298647013332 0 0.23304858683527799 -0.25051591857851252 0 0.23485631178312291 -0.24148885289861141 0 0.2444299610463688 -0.25163298647013332 0 0.2473748297805245 -0.23965382761963189 0 0.23485631178312291 -0.24148885289861141 0 0.2473748297805245 -0.23965382761963189 0 0.23485631178312291 -0.24148885289861141 0 0.23766727421388409 -0.23298652293799599 0 0.25389821390939737 -0.22651040125401781 0 0.23396280579059731 -0.2142399522917168 0 0.2356838041875596 -0.2243252958757769 0 0.25389821390939737 -0.22651040125401781 0 0.23396280579059731 -0.2142399522917168 0 0.25389821390939737 -0.22651040125401781 0 0.23766727421388409 -0.23298652293799599 0 0.2356838041875596 -0.2243252958757769 0 0.25389821390939737 -0.22651040125401781 0 0.2473748297805245 -0.23965382761963189 0 0.23766727421388409 -0.23298652293799599 0 0.23396280579059731 -0.2142399522917168 0 0.22374389160092889 -0.21839007751040071 0 0.2356838041875596 -0.2243252958757769 0 0.22374389160092889 -0.21839007751040071 0 0.2356838041875596 -0.2243252958757769 0 0.2271195898878742 -0.22889843195869611 0 0.22374389160092889 -0.21839007751040071 0 0.2271195898878742 -0.22889843195869611 0 0.21853099633066889 -0.22565145104501491 0 0.2271195898878742 -0.22889843195869611 0 0.21977890090186969 -0.23548315344267359 0 0.21853099633066889 -0.22565145104501491 0 0.2271195898878742 -0.22889843195869611 0 0.2285862353044133 -0.23643469763204711 0 0.21977890090186969 -0.23548315344267359 0 0.23766727421388409 -0.23298652293799599 0 0.2356838041875596 -0.2243252958757769 0 0.2271195898878742 -0.22889843195869611 0 0.23766727421388409 -0.23298652293799599 0 0.2271195898878742 -0.22889843195869611 0 0.2285862353044133 -0.23643469763204711 0 0.22561516590192349 -0.25919641775455021 0 0.22411792709587619 -0.2419415261230467 0 0.2231035150509792 -0.24693580309054231 0 0.23485631178312291 -0.24148885289861141 0 0.2285862353044133 -0.23643469763204711 0 0.22411792709587619 -0.2419415261230467 0 0.23485631178312291 -0.24148885289861141 0 0.23766727421388409 -0.23298652293799599 0 0.2285862353044133 -0.23643469763204711 0 0.2285862353044133 -0.23643469763204711 0 0.21977890090186969 -0.23548315344267359 0 0.22411792709587619 -0.2419415261230467 0 0.21977890090186969 -0.23548315344267359 0 0.22411792709587619 -0.2419415261230467 0 0.21899388632062661 -0.24346719073442449 0 0.21509827865632861 -0.2519032261317693 0 0.21899388632062661 -0.24346719073442449 0 0.2231035150509792 -0.24693580309054231 0 0.22411792709587619 -0.2419415261230467 0 0.21899388632062661 -0.24346719073442449 0 0.2231035150509792 -0.24693580309054231 0 0.23304858683527799 -0.25051591857851252 0 0.23485631178312291 -0.24148885289861141 0 0.22411792709587619 -0.2419415261230467 0 0.21287080989807949 -0.2410722448840904 0 0.20829732945973789 -0.22979322638293129 0 0.20277084668220299 -0.24586474783829379 0 0.21509827865632861 -0.2519032261317693 0 0.21287080989807949 -0.2410722448840904 0 0.20277084668220299 -0.24586474783829379 0 0.21509827865632861 -0.2519032261317693 0 0.21899388632062661 -0.24346719073442449 0 0.21287080989807949 -0.2410722448840904 0 0.21977890090186969 -0.23548315344267359 0 0.21287080989807949 -0.2410722448840904 0 0.20829732945973789 -0.22979322638293129 0 0.21977890090186969 -0.23548315344267359 0 0.21899388632062661 -0.24346719073442449 0 0.21287080989807949 -0.2410722448840904 0 0.21977890090186969 -0.23548315344267359 0 0.20829732945973789 -0.22979322638293129 0 0.21853099633066889 -0.22565145104501491 0 0.22374389160092889 -0.21839007751040071 0 0.21853099633066889 -0.22565145104501491 0 0.21313875573707669 -0.2152558305617836 0 0.20829732945973789 -0.22979322638293129 0 0.21853099633066889 -0.22565145104501491 0 0.21313875573707669 -0.2152558305617836 0 0.20829732945973789 -0.22979322638293129 0 0.21313875573707669 -0.2152558305617836 0 0.20131166261964431 -0.2147724235517601 0 0.20829732945973789 -0.22979322638293129 0 0.18859592756749169 -0.22757534377410471 0 0.20131166261964431 -0.2147724235517601 0 0.18859592756749169 -0.22757534377410471 0 0.20131166261964431 -0.2147724235517601 0 0.20829732945973789 -0.22979322638293129 0 0.18859592756749169 -0.22757534377410471 0 0.20277084668220299 -0.24586474783829379 0 0.18859592756749169 -0.22757534377410471 0 0.20277084668220299 -0.24586474783829379 0 0.18609532454956099 -0.24561307842886959 0 0.21607448551886779 -0.18505708933633649 0 0.21402739767179721 -0.20196950332941579 0 0.19899755453136389 -0.1927184801215108 0 0.21402739767179721 -0.20196950332941579 0 0.19899755453136389 -0.1927184801215108 0 0.22374389160092889 -0.21839007751040071 0 0.21402739767179721 -0.20196950332941579 0 0.21313875573707669 -0.2152558305617836 0 0.21402739767179721 -0.20196950332941579 0 0.20131166261964431 -0.2147724235517601 0 0.19899755453136389 -0.1927184801215108 0 0.21402739767179721 -0.20196950332941579 0 0.21313875573707669 -0.2152558305617836 0 0.20131166261964431 -0.2147724235517601 0 0.21402739767179721 -0.20196950332941579 0 0.20131166261964431 -0.2147724235517601 0 0.18859592756749169 -0.22757534377410471 0 0.20131166261964431 -0.2147724235517601 0 0.18229818337455189 -0.20857159488521021 0 0.20131166261964431 -0.2147724235517601 0 0.19899755453136389 -0.1927184801215108 0 0.18229818337455189 -0.20857159488521021 0 0.1807425574357093 -0.18972247438817211 0 0.18229818337455189 -0.20857159488521021 0 0.155488888443855 -0.20446377489488041 0 0.19899755453136389 -0.1927184801215108 0 0.1807425574357093 -0.18972247438817211 0 0.18229818337455189 -0.20857159488521021 0 0.18229818337455189 -0.20857159488521021 0 0.16758750524756219 -0.2236048893384045 0 0.155488888443855 -0.20446377489488041 0 0.1807425574357093 -0.18972247438817211 0 0.155488888443855 -0.20446377489488041 0 0.16420126620473141 -0.1804215562868608 0 0.155488888443855 -0.20446377489488041 0 0.16420126620473141 -0.1804215562868608 0 0.18859592756749169 -0.22757534377410471 0 0.18609532454956099 -0.24561307842886959 0 0.1739472364541618 -0.23730228083078531 0 0.16778827379441841 -0.25313242553567622 0 0.18609532454956099 -0.24561307842886959 0 0.1739472364541618 -0.23730228083078531 0 0.18859592756749169 -0.22757534377410471 0 0.1739472364541618 -0.23730228083078531 0 0.16758750524756219 -0.2236048893384045 0 0.18859592756749169 -0.22757534377410471 0 0.18229818337455189 -0.20857159488521021 0 0.16758750524756219 -0.2236048893384045 0 0.16758750524756219 -0.2236048893384045 0 0.14677651068297559 -0.22850599350289891 0 0.155488888443855 -0.20446377489488041 0 0.16758750524756219 -0.2236048893384045 0 0.1596691511117756 -0.23658566707687151 0 0.14677651068297559 -0.22850599350289891 0 0.1739472364541618 -0.23730228083078531 0 0.16758750524756219 -0.2236048893384045 0 0.1596691511117756 -0.23658566707687151 0 0.16778827379441841 -0.25313242553567622 0 0.1739472364541618 -0.23730228083078531 0 0.1596691511117756 -0.23658566707687151 0 0.16778827379441841 -0.25313242553567622 0 0.13997209545928421 -0.24219855728055359 0 0.1596691511117756 -0.23658566707687151 0 0.14677651068297559 -0.22850599350289891 0 0.13997209545928421 -0.24219855728055359 0 0.16778827379441841 -0.25313242553567622 0 0.1596691511117756 -0.23658566707687151 0 0.13997209545928421 -0.24219855728055359 0 0.1121559171241498 -0.23126468902543171 0 0.13025041077718519 -0.2280131466272067 0 0.13997209545928421 -0.24219855728055359 0 0.14677651068297559 -0.22850599350289891 0 0.13025041077718519 -0.2280131466272067 0 0.13421570642561351 -0.21525275999518159 0 0.14677651068297559 -0.22850599350289891 0 0.13025041077718519 -0.2280131466272067 0 0.13997209545928421 -0.24219855728055359 0 0.1262666187287034 -0.22077884528595471 0 0.13025041077718519 -0.2280131466272067 0 0.13421570642561351 -0.21525275999518159 0 0.1121559171241498 -0.23126468902543171 0 0.13997209545928421 -0.24219855728055359 0 0.155488888443855 -0.20446377489488041 0 0.13735515214316399 -0.200658115298852 0 0.13788145181467121 -0.18540310991329009 0 0.155488888443855 -0.20446377489488041 0 0.13788145181467121 -0.18540310991329009 0 0.16420126620473141 -0.1804215562868608 0 0.14677651068297559 -0.22850599350289891 0 0.155488888443855 -0.20446377489488041 0 0.155488888443855 -0.20446377489488041 0 0.13421570642561351 -0.21525275999518159 0 0.13735515214316399 -0.200658115298852 0 0.14677651068297559 -0.22850599350289891 0 0.155488888443855 -0.20446377489488041 0 0.13421570642561351 -0.21525275999518159 0 0.1212988593254847 -0.2142063591558602 0 0.1262666187287034 -0.22077884528595471 0 0.13421570642561351 -0.21525275999518159 0 0.1221371923938749 -0.2018438141336171 0 0.13421570642561351 -0.21525275999518159 0 0.13735515214316399 -0.200658115298852 0 0.1221371923938749 -0.2018438141336171 0 0.1212988593254847 -0.2142063591558602 0 0.13421570642561351 -0.21525275999518159 0 0.1221371923938749 -0.2018438141336171 0 0.12231667521256109 -0.1880412671620785 0 0.13735515214316399 -0.200658115298852 0 0.12231667521256109 -0.1880412671620785 0 0.13735515214316399 -0.200658115298852 0 0.13788145181467121 -0.18540310991329009 0 0.12231667521256109 -0.1880412671620785 0 0.13788145181467121 -0.18540310991329009 0 0.12940385266922641 -0.1667074232744796 0 0.13788145181467121 -0.18540310991329009 0 0.16420126620473141 -0.1804215562868608 0 0.13788145181467121 -0.18540310991329009 0 0.1546421097066287 -0.16240302202115089 0 0.16420126620473141 -0.1804215562868608 0 0.1546421097066287 -0.16240302202115089 0 0.12910615674100259 -0.1632151604514876 0 0.1546421097066287 -0.16240302202115089 0 0.12940385266922641 -0.1667074232744796 0 0.13788145181467121 -0.18540310991329009 0 0.1546421097066287 -0.16240302202115089 0 0.12940385266922641 -0.1667074232744796 0 0.1546421097066287 -0.16240302202115089 0 0.12910615674100259 -0.1632151604514876 0 0.15046197940020969 -0.1510331109470813 0 0.1546421097066287 -0.16240302202115089 0 0.12910615674100259 -0.1632151604514876 0 0.12940385266922641 -0.1667074232744796 0 0.12910615674100259 -0.1632151604514876 0 0.14157165105954 -0.14170278638867681 0 0.15046197940020969 -0.1510331109470813 0 0.121251820104277 -0.14271189394047279 0 0.12910615674100259 -0.1632151604514876 0 0.14157165105954 -0.14170278638867681 0 0.121251820104277 -0.14271189394047279 0 0.13117736198413379 -0.12665691843031379 0 0.14157165105954 -0.14170278638867681 0 0.16012322209323671 -0.12189297383967621 0 0.13117736198413379 -0.12665691843031379 0 0.14157165105954 -0.14170278638867681 0 0.16012322209323671 -0.12189297383967621 0 0.14157165105954 -0.14170278638867681 0 0.15831624462749619 -0.14084082632288811 0 0.14157165105954 -0.14170278638867681 0 0.15046197940020969 -0.1510331109470813 0 0.15831624462749619 -0.14084082632288811 0 0.1546421097066287 -0.16240302202115089 0 0.15046197940020969 -0.1510331109470813 0 0.16338383156389269 -0.1513606402288806 0 0.16338383156389269 -0.1513606402288806 0 0.15831624462749619 -0.14084082632288811 0 0.16956252946538131 -0.14252092775371381 0 0.15046197940020969 -0.1510331109470813 0 0.16338383156389269 -0.1513606402288806 0 0.15831624462749619 -0.14084082632288811 0 0.16338383156389269 -0.1513606402288806 0 0.17434575920104151 -0.1524273479342492 0 0.17179063663680949 -0.1594783295314269 0 0.16338383156389269 -0.1513606402288806 0 0.16956252946538131 -0.14252092775371381 0 0.17434575920104151 -0.1524273479342492 0 0.16012322209323671 -0.12189297383967621 0 0.16619297137271069 -0.13449335425266401 0 0.17676988930472851 -0.1327186890943779 0 0.16012322209323671 -0.12189297383967621 0 0.15831624462749619 -0.14084082632288811 0 0.16619297137271069 -0.13449335425266401 0 0.16956252946538131 -0.14252092775371381 0 0.16619297137271069 -0.13449335425266401 0 0.17676988930472851 -0.1327186890943779 0 0.15831624462749619 -0.14084082632288811 0 0.16956252946538131 -0.14252092775371381 0 0.16619297137271069 -0.13449335425266401 0 0.16956252946538131 -0.14252092775371381 0 0.17676988930472851 -0.1327186890943779 0 0.17821651360450361 -0.14525035170995029 0 0.17676988930472851 -0.1327186890943779 0 0.17821651360450361 -0.14525035170995029 0 0.18656949747281029 -0.14165458745521919 0 0.18774275091037951 -0.12951942841800149 0 0.17676988930472851 -0.1327186890943779 0 0.18656949747281029 -0.14165458745521919 0 0.1890690822023397 -0.1171290292490392 0 0.18774275091037951 -0.12951942841800149 0 0.17676988930472851 -0.1327186890943779 0 0.1952845691164336 -0.1554714239728936 0 0.18124139520631979 -0.15085640812074819 0 0.17179063663680949 -0.1594783295314269 0 0.17434575920104151 -0.1524273479342492 0 0.18124139520631979 -0.15085640812074819 0 0.17179063663680949 -0.1594783295314269 0 0.17434575920104151 -0.1524273479342492 0 0.17821651360450361 -0.14525035170995029 0 0.18124139520631979 -0.15085640812074819 0 0.17434575920104151 -0.1524273479342492 0 0.17179063663680949 -0.1594783295314269 0 0.16956252946538131 -0.14252092775371381 0 0.17434575920104151 -0.1524273479342492 0 0.17821651360450361 -0.14525035170995029 0 0.17821651360450361 -0.14525035170995029 0 0.18656949747281029 -0.14165458745521919 0 0.18124139520631979 -0.15085640812074819 0 0.19344005624135061 -0.17488752787842241 0 0.18686416921845081 -0.16137824049569091 0 0.17091837523151349 -0.16188537614543561 0 0.18686416921845081 -0.16137824049569091 0 0.17091837523151349 -0.16188537614543561 0 0.1952845691164336 -0.1554714239728936 0 0.17179063663680949 -0.1594783295314269 0 0.18686416921845081 -0.16137824049569091 0 0.17179063663680949 -0.1594783295314269 0 0.17091837523151349 -0.16188537614543561 0 0.1952845691164336 -0.1554714239728936 0 0.18686416921845081 -0.16137824049569091 0 0.17179063663680949 -0.1594783295314269 0 0.19344005624135061 -0.17488752787842241 0 0.16420126620473141 -0.1804215562868608 0 0.17091837523151349 -0.16188537614543561 0 0.19344005624135061 -0.17488752787842241 0 0.1807425574357093 -0.18972247438817211 0 0.16420126620473141 -0.1804215562868608 0 0.19344005624135061 -0.17488752787842241 0 0.16420126620473141 -0.1804215562868608 0 0.1546421097066287 -0.16240302202115089 0 0.16338383156389269 -0.1513606402288806 0 0.17179063663680949 -0.1594783295314269 0 0.1546421097066287 -0.16240302202115089 0 0.17179063663680949 -0.1594783295314269 0 0.1546421097066287 -0.16240302202115089 0 0.17091837523151349 -0.16188537614543561 0 0.1546421097066287 -0.16240302202115089 0 0.17179063663680949 -0.1594783295314269 0 0.17091837523151349 -0.16188537614543561 0 0.1546421097066287 -0.16240302202115089 0 0.16420126620473141 -0.1804215562868608 0 0.17091837523151349 -0.16188537614543561 0 0.16420126620473141 -0.1804215562868608 0 0.17091837523151349 -0.16188537614543561 0 0.17179063663680949 -0.1594783295314269 0 0.17091837523151349 -0.16188537614543561 0 
</DataArray>
</Points>
<Cells>
<DataArray type="UInt32" Name="connectivity" format="ascii">
0 1 2 3 4 5 6 7 8 9 10 11 12 13 14 15 16 17 18 19 20 21 22 23 24 25 26 27 28 29 30 31 32 33 34 35 36 37 38 39 40 41 42 43 44 45 46 47 48 49 50 51 52 53 54 55 56 57 58 59 60 61 62 63 64 65 66 67 68 69 70 71 72 73 74 75 76 77 78 79 80 81 82 83 84 85 86 87 88 89 90 91 92 93 94 95 96 97 98 99 100 101 102 103 104 105 106 107 108 109 110 111 112 113 114 115 116 117 118 119 120 121 122 123 124 125 126 127 128 129 130 131 132 133 134 135 136 137 138 139 140 141 142 143 144 145 146 147 148 149 150 151 152 153 154 155 156 157 158 159 160 161 162 163 164 165 166 167 168 169 170 171 172 173 174 175 176 177 178 179 180 181 182 183 184 185 186 187 188 189 190 191 192 193 194 195 196 197 198 199 200 201 202 203 204 205 206 207 208 209 210 211 212 213 214 215 216 217 218 219 220 221 222 223 224 225 226 227 228 229 230 231 232 233 234 235 236 237 238 239 240 241 242 243 244 245 246 247 248 249 250 251 252 253 254 255 256 257 258 259 260 261 262 263 264 265 266 267 268 269 270 271 272 273 274 275 276 277 278 279 280 281 282 283 284 285 286 287 288 289 290 291 292 293 294 295 296 297 298 299 300 301 302 303 304 305 306 307 308 309 310 311 312 313 314 315 316 317 318 319 320 321 322 323 324 325 326 327 328 329 330 331 332 333 334 335 336 337 338 339 340 341 342 343 344 345 346 347 348 349 350 351 352 353 354 355 356 357 358 359 360 361 362 363 364 365 366 367 368 369 370 371 372 373 374 375 376 377 378 379 380 381 382 383 384 385 386 387 388 389 390 391 392 393 394 395 396 397 398 399 400 401 402 403 404 405 406 407 408 409 410 411 412 413 414 415 416 417 418 419 420 421 422 423 424 425 426 427 428 429 430 431 432 433 434 435 436 437 438 439 440 441 442 443 444 445 446 447 448 449 450 451 452 453 454 455 456 457 458 459 460 461 462 463 464 465 466 467 468 469 470 471 472 473 474 475 476 477 478 479 480 481 482 483 484 485 486 487 488 489 490 491 492 493 494 495 496 497 498 499 500 501 502 503 504 505 506 507 508 509 510 511 512 513 514 515 516 517 518 519 520 521 522 523 524 525 526 527 528 529 530 531 532 533 534 535 536 537 538 539 540 541 542 543 544 545 546 547 548 549 550 551 552 553 554 555 556 557 558 559 560 561 562 563 564 565 566 567 568 569 570 571 572 573 574 575 576 577 578 579 580 581 582 583 584 585 586 587 588 589 590 591 592 593 594 595 596 597 598 599 600 601 602 603 604 605 606 607 608 609 610 611 612 613 614 615 616 617 618 619 620 621 622 623 624 625 626 627 628 629 630 631 632 633 634 635 636 637 638 639 640 641 642 643 644 645 646 647 648 649 650 651 652 653 654 655 656 657 658 659 660 661 662 663 664 665 666 667 668 669 670 671 672 673 674 675 676 677 678 679 680 681 682 683 684 685 686 687 688 689 690 691 692 693 694 695 696 697 698 699 700 701 702 703 704 705 706 707 708 709 710 711 712 713 714 715 716 717 718 719 720 721 722 723 724 725 726 727 728 729 730 731 732 733 734 735 736 737 738 739 740 741 742 743 744 745 746 747 748 749 750 751 752 753 754 755 756 757 758 759 760 761 762 763 764 765 766 767 768 769 770 771 772 773 774 775 776 777 778 779 780 781 782 783 784 785 786 787 788 789 790 791 792 793 794 795 796 797 798 799 800 801 802 803 804 805 806 807 808 809 810 811 812 813 814 815 816 817 818 819 820 821 822 823 824 825 826 827 828 829 830 831 832 833 834 835 836 837 838 839 840 841 842 843 844 845 846 847 848 849 850 851 852 853 854 855 856 857 858 859 860 861 862 863 864 865 866 867 868 869 870 871 872 873 874 875 876 877 878 879 880 881 882 883 884 885 886 887 888 889 890 891 892 893 894 895 896 897 898 899 900 901 902 903 904 905 906 907 908 909 910 911 912 913 914 915 916 917 918 919 920 921 922 923 924 925 926 927 928 929 930 931 932 933 934 935 936 937 938 939 940 941 942 943 944 945 946 947 948 949 950 951 952 953 954 955 956 957 958 959 960 961 962 963 964 965 966 967 968 969 970 971 972 973 974 975 976 977 978 979 980 981 982 983 984 985 986 987 988 989 990 991 992 993 994 995 996 997 998 999 1000 1001 1002 1003 1004 1005 1006 1007 1008 1009 1010 1011 1012 1013 1014 1015 1016 1017 1018 1019 1020 1021 1022 1023 1024 1025 1026 1027 1028 1029 1030 1031 1032 1033 1034 1035 1036 1037 1038 1039 1040 1041 1042 1043 1044 1045 1046 1047 1048 1049 1050 1051 1052 1053 1054 1055 1056 1057 1058 1059 1060 1061 1062 1063 1064 1065 1066 1067 1068 1069 1070 1071 1072 1073 1074 1075 1076 1077 1078 1079 1080 1081 1082 1083 1084 1085 1086 1087 1088 1089 1090 1091 1092 1093 1094 1095 1096 1097 1098 1099 1100 1101 1102 1103 1104 1105 1106 1107 1108 1109 1110 1111 1112 1113 1114 1115 1116 1117 1118 1119 1120 1121 1122 1123 1124 1125 1126 1127 1128 1129 1130 1131 1132 1133 1134 1135 1136 1137 1138 1139 1140 1141 1142 1143 1144 1145 1146 1147 1148 1149 1150 1151 1152 1153 1154 1155 1156 1157 1158 1159 1160 1161 1162 1163 1164 1165 1166 1167 1168 1169 1170 1171 1172 1173 1174 1175 1176 1177 1178 1179 1180 1181 1182 1183 1184 1185 1186 1187 1188 1189 1190 1191 1192 1193 1194 1195 1196 1197 1198 1199 1200 1201 1202 1203 1204 1205 1206 1207 1208 1209 1210 1211 1212 1213 1214 1215 1216 1217 1218 1219 1220 1221 1222 1223 1224 1225 1226 1227 1228 1229 1230 1231 1232 1233 1234 1235 1236 1237 1238 1239 1240 1241 1242 1243 1244 1245 1246 1247 1248 1249 1250 1251 1252 1253 1254 1255 1256 1257 1258 1259 1260 1261 1262 1263 1264 1265 1266 1267 1268 1269 1270 1271 1272 1273 1274 1275 1276 1277 1278 1279 1280 1281 1282 1283 1284 1285 1286 1287 1288 1289 1290 1291 1292 1293 1294 1295 1296 1297 1298 1299 1300 1301 1302 1303 1304 1305 1306 1307 1308 1309 1310 1311 1312 1313 1314 1315 1316 1317 1318 1319 1320 1321 1322 1323 1324 1325 1326 1327 1328 1329 1330 1331 1332 1333 1334 1335 1336 1337 1338 1339 1340 1341 1342 1343 1344 1345 1346 1347 1348 1349 1350 1351 1352 1353 1354 1355 1356 1357 1358 1359 1360 1361 1362 1363 1364 1365 1366 1367 1368 1369 1370 1371 1372 1373 1374 1375 1376 1377 1378 1379 1380 1381 1382 1383 1384 1385 1386 1387 1388 1389 1390 1391 1392 1393 1394 1395 1396 1397 1398 1399 1400 1401 1402 1403 1404 1405 1406 1407 1408 1409 1410 1411 1412 1413 1414 1415 1416 1417 1418 1419 1420 1421 1422 1423 1424 1425 1426 1427 1428 1429 1430 1431 1432 1433 1434 1435 1436 1437 1438 1439 1440 1441 1442 1443 1444 1445 1446 1447 1448 1449 1450 1451 1452 1453 1454 1455 1456 1457 1458 1459 1460 1461 1462 1463 1464 1465 1466 1467 1468 1469 1470 1471 1472 1473 1474 1475 1476 1477 1478 1479 1480 1481 1482 1483 1484 1485 1486 1487 1488 1489 1490 1491 1492 1493 1494 1495 1496 1497 1498 1499 1500 1501 1502 1503 1504 1505 1506 1507 1508 1509 1510 1511 1512 1513 1514 1515 1516 1517 1518 1519 1520 1521 1522 1523 1524 1525 1526 1527 1528 1529 1530 1531 1532 1533 1534 1535 1536 1537 1538 1539 1540 1541 1542 1543 1544 1545 1546 1547 1548 1549 1550 1551 1552 1553 1554 1555 1556 1557 1558 1559 1560 1561 1562 1563 1564 1565 1566 1567 1568 1569 1570 1571 1572 1573 1574 1575 1576 1577 1578 1579 1580 1581 1582 1583 1584 1585 1586 1587 1588 1589 1590 1591 1592 1593 1594 1595 1596 1597 1598 1599 1600 1601 1602 1603 1604 1605 1606 1607 1608 1609 1610 1611 1612 1613 1614 1615 1616 1617 1618 1619 1620 1621 1622 1623 1624 1625 1626 1627 1628 1629 1630 1631 1632 1633 1634 1635 1636 1637 1638 1639 1640 1641 1642 1643 1644 1645 1646 1647 1648 1649 1650 1651 1652 1653 1654 1655 1656 1657 1658 1659 1660 1661 1662 1663 1664 1665 1666 1667 1668 1669 1670 1671 1672 1673 1674 1675 1676 1677 1678 1679 1680 1681 1682 1683 1684 1685 1686 1687 1688 1689 1690 1691 1692 1693 1694 1695 1696 1697 1698 1699 1700 1701 1702 1703 1704 1705 1706 1707 1708 1709 1710 1711 1712 1713 1714 1715 1716 1717 1718 1719 1720 1721 1722 1723 1724 1725 1726 1727 1728 1729 1730 1731 1732 1733 1734 1735 1736 1737 1738 1739 1740 1741 1742 1743 1744 1745 1746 1747 1748 1749 1750 1751 1752 1753 1754 1755 1756 1757 1758 1759 1760 1761 1762 1763 1764 1765 1766 1767 1768 1769 1770 1771 1772 1773 1774 1775 1776 1777 1778 1779 1780 1781 1782 1783 1784 1785 1786 1787 1788 1789 1790 1791 1792 1793 1794 1795 1796 1797 1798 1799 1800 1801 1802 1803 1804 1805 1806 1807 1808 1809 1810 1811 1812 1813 1814 1815 1816 1817 1818 1819 1820 1821 1822 1823 1824 1825 1826 1827 1828 1829 1830 1831 1832 1833 1834 1835 1836 1837 1838 1839 1840 1841 1842 1843 1844 1845 1846 1847 1848 1849 1850 1851 1852 1853 1854 1855 1856 1857 1858 1859 1860 1861 1862 1863 1864 1865 1866 1867 1868 1869 1870 1871 1872 1873 1874 1875 1876 1877 1878 1879 1880 1881 1882 1883 1884 1885 1886 1887 1888 1889 1890 1891 1892 1893 1894 1895 1896 1897 1898 1899 1900 1901 1902 1903 1904 1905 1906 1907 1908 1909 1910 1911 1912 1913 1914 1915 1916 1917 1918 1919 1920 1921 1922 1923 1924 1925 1926 1927 1928 1929 1930 1931 1932 1933 1934 1935 1936 1937 1938 1939 1940 1941 1942 1943 1944 1945 1946 1947 1948 1949 1950 1951 1952 1953 1954 1955 1956 1957 1958 1959 1960 1961 1962 1963 1964 1965 1966 1967 1968 1969 1970 1971 1972 1973 1974 1975 1976 1977 1978 1979 1980 1981 1982 1983 1984 1985 1986 1987 1988 1989 1990 1991 1992 1993 1994 1995 1996 1997 1998 1999 2000 2001 2002 2003 2004 2005 2006 2007 2008 2009 2010 2011 2012 2013 2014 2015 2016 2017 2018 2019 2020 2021 2022 2023 2024 2025 2026 2027 2028 2029 2030 2031 2032 2033 2034 2035 2036 2037 2038 2039 2040 2041 2042 2043 2044 2045 2046 2047 2048 2049 2050 2051 2052 2053 2054 2055 2056 2057 2058 2059 2060 2061 2062 2063 2064 2065 2066 2067 2068 2069 2070 2071 2072 2073 2074 2075 2076 2077 2078 2079 2080 2081 2082 2083 2084 2085 2086 2087 2088 2089 2090 2091 2092 2093 2094 2095 2096 2097 2098 2099 2100 2101 2102 2103 2104 2105 2106 2107 2108 2109 2110 2111 2112 2113 2114 2115 2116 2117 2118 2119 2120 2121 2122 2123 2124 2125 2126 2127 2128 2129 2130 2131 2132 2133 2134 2135 2136 2137 2138 2139 2140 2141 2142 2143 2144 2145 2146 2147 2148 2149 2150 2151 2152 2153 2154 2155 2156 2157 2158 2159 2160 2161 2162 2163 2164 2165 2166 2167 2168 2169 2170 2171 2172 2173 2174 2175 2176 2177 2178 2179 2180 2181 2182 2183 2184 2185 2186 2187 2188 2189 2190 2191 2192 2193 2194 2195 2196 2197 2198 2199 2200 2201 2202 2203 2204 2205 2206 2207 2208 2209 2210 2211 2212 2213 2214 2215 2216 2217 2218 2219 2220 2221 2222 2223 2224 2225 2226 2227 2228 2229 2230 2231 2232 2233 2234 2235 2236 2237 2238 2239 2240 2241 2242 2243 2244 2245 2246 2247 2248 2249 2250 2251 2252 2253 2254 2255 2256 2257 2258 2259 2260 2261 2262 2263 2264 2265 2266 2267 2268 2269 2270 2271 2272 2273 2274 2275 2276 2277 2278 2279 2280 2281 2282 2283 2284 2285 2286 2287 2288 2289 2290 2291 2292 2293 2294 2295 2296 2297 2298 2299 2300 2301 2302 2303 2304 2305 2306 2307 2308 2309 2310 2311 2312 2313 2314 2315 2316 2317 2318 2319 2320 2321 2322 2323 2324 2325 2326 2327 2328 2329 2330 2331 2332 2333 2334 2335 2336 2337 2338 2339 2340 2341 2342 2343 2344 2345 2346 2347 2348 2349 2350 2351 2352 2353 2354 2355 2356 2357 2358 2359 2360 2361 2362 2363 2364 2365 2366 2367 2368 2369 2370 2371 2372 2373 2374 2375 2376 2377 2378 2379 2380 2381 2382 2383 2384 2385 2386 2387 2388 2389 2390 2391 2392 2393 2394 2395 2396 2397 2398 2399 2400 2401 2402 2403 2404 2405 2406 2407 2408 2409 2410 2411 2412 2413 2414 2415 2416 2417 2418 2419 2420 2421 2422 2423 2424 2425 2426 2427 2428 2429 2430 2431 2432 2433 2434 2435 2436 2437 2438 2439 2440 2441 2442 2443 2444 2445 2446 2447 2448 2449 2450 2451 2452 2453 2454 2455 2456 2457 2458 2459 2460 2461 2462 2463 2464 2465 2466 2467 2468 2469 2470 2471 2472 2473 2474 2475 2476 2477 2478 2479 2480 2481 2482 2483 2484 2485 2486 2487 2488 2489 2490 2491 2492 2493 2494 2495 2496 2497 2498 2499 2500 2501 2502 2503 2504 2505 2506 2507 2508 2509 2510 2511 2512 2513 2514 2515 2516 2517 2518 2519 2520 2521 2522 2523 2524 2525 2526 2527 2528 2529 2530 2531 2532 2533 2534 2535 2536 2537 2538 2539 2540 2541 2542 2543 2544 2545 2546 2547 2548 2549 2550 2551 2552 2553 2554 2555 2556 2557 2558 2559 2560 2561 2562 2563 2564 2565 2566 2567 2568 2569 2570 2571 2572 2573 2574 2575 2576 2577 2578 2579 2580 2581 2582 2583 2584 2585 2586 2587 2588 2589 2590 2591 2592 2593 2594 2595 2596 2597 2598 2599 2600 2601 2602 2603 2604 2605 2606 2607 2608 2609 2610 2611 2612 2613 2614 2615 2616 2617 2618 2619 2620 2621 2622 2623 2624 2625 2626 2627 2628 2629 2630 2631 2632 2633 2634 2635 2636 2637 2638 2639 2640 2641 2642 2643 2644 2645 2646 2647 2648 2649 2650 2651 2652 2653 2654 2655 2656 2657 2658 2659 2660 2661 2662 2663 2664 2665 2666 2667 2668 2669 2670 2671 2672 2673 2674 2675 2676 2677 2678 2679 2680 2681 2682 2683 2684 2685 2686 2687 2688 2689 2690 2691 2692 2693 2694 2695 2696 2697 2698 2699 2700 2701 2702 2703 2704 2705 2706 2707 2708 2709 2710 2711 2712 2713 2714 2715 2716 2717 2718 2719 2720 2721 2722 2723 2724 2725 2726 2727 2728 2729 2730 2731 2732 2733 2734 2735 2736 2737 2738 2739 2740 2741 2742 2743 2744 2745 2746 2747 2748 2749 2750 2751 2752 2753 2754 2755 2756 2757 2758 2759 2760 2761 2762 2763 2764 2765 2766 2767 2768 2769 2770 2771 2772 2773 2774 2775 2776 2777 2778 2779 2780 2781 2782 2783 2784 2785 2786 2787 2788 2789 2790 2791 2792 2793 2794 2795 2796 2797 2798 2799 2800 2801 2802 2803 2804 2805 2806 2807 2808 2809 2810 2811 2812 2813 2814 2815 2816 2817 2818 2819 2820 2821 2822 2823 2824 2825 2826 2827 2828 2829 2830 2831 2832 2833 2834 2835 2836 2837 2838 2839 2840 2841 2842 2843 2844 2845 2846 2847 2848 2849 2850 2851 2852 2853 2854 2855 2856 2857 2858 2859 2860 2861 2862 2863 2864 2865 2866 2867 2868 2869 2870 2871 2872 2873 2874 2875 2876 2877 2878 2879 2880 2881 2882 2883 2884 2885 2886 2887 2888 2889 2890 2891 2892 2893 2894 2895 2896 2897 2898 2899 2900 2901 2902 2903 2904 2905 2906 2907 2908 2909 2910 2911 2912 2913 2914 2915 2916 2917 2918 2919 2920 2921 2922 2923 2924 2925 2926 2927 2928 2929 2930 2931 2932 2933 2934 2935 2936 2937 2938 2939 2940 2941 2942 2943 2944 2945 2946 2947 2948 2949 2950 2951 2952 2953 2954 2955 2956 2957 2958 2959 2960 2961 2962 2963 2964 2965 2966 2967 2968 2969 2970 2971 2972 2973 2974 2975 2976 2977 2978 2979 2980 2981 2982 2983 2984 2985 2986 2987 2988 2989 2990 2991 2992 2993 2994 2995 2996 2997 2998 2999 3000 3001 3002 3003 3004 3005 3006 3007 3008 3009 3010 3011 3012 3013 3014 3015 3016 3017 3018 3019 3020 3021 3022 3023 3024 3025 3026 3027 3028 3029 3030 3031 3032 3033 3034 3035 3036 3037 3038 3039 3040 3041 3042 3043 3044 3045 3046 3047 3048 3049 3050 3051 3052 3053 3054 3055 3056 3057 3058 3059 3060 3061 3062 3063 3064 3065 3066 3067 3068 3069 3070 3071 3072 3073 3074 3075 3076 3077 3078 3079 3080 3081 3082 3083 3084 3085 3086 3087 3088 3089 3090 3091 3092 3093 3094 3095 3096 3097 3098 3099 3100 3101 3102 3103 3104 3105 3106 3107 3108 3109 3110 3111 3112 3113 3114 3115 3116 3117 3118 3119 3120 3121 3122 3123 3124 3125 3126 3127 3128 3129 3130 3131 3132 3133 3134 3135 3136 3137 3138 3139 3140 3141 3142 3143 3144 3145 3146 3147 3148 3149 3150 3151 3152 3153 3154 3155 3156 3157 3158 3159 3160 3161 3162 3163 3164 3165 3166 3167 3168 3169 3170 3171 3172 3173 3174 3175 3176 3177 3178 3179 3180 3181 3182 3183 3184 3185 3186 3187 3188 3189 3190 3191 3192 3193 3194 3195 3196 3197 3198 3199 3200 3201 3202 3203 3204 3205 3206 3207 3208 3209 3210 3211 3212 3213 3214 3215 3216 3217 3218 3219 3220 3221 3222 3223 3224 3225 3226 3227 3228 3229 3230 3231 3232 3233 3234 3235 3236 3237 3238 3239 3240 3241 3242 3243 3244 3245 3246 3247 3248 3249 3250 3251 3252 3253 3254 3255 3256 3257 3258 3259 3260 3261 3262 3263 3264 3265 3266 3267 3268 3269 3270 3271 3272 3273 3274 3275 3276 3277 3278 3279 3280 3281 3282 3283 3284 3285 3286 3287 3288 3289 3290 3291 3292 3293 3294 3295 3296 3297 3298 3299 3300 3301 3302 3303 3304 3305 3306 3307 3308 3309 3310 3311 3312 3313 3314 3315 3316 3317 3318 3319 3320 3321 3322 3323 3324 3325 3326 3327 3328 3329 3330 3331 3332 3333 3334 3335 3336 3337 3338 3339 3340 3341 3342 3343 3344 3345 3346 3347 3348 3349 3350 3351 3352 3353 3354 3355 3356 3357 3358 3359 3360 3361 3362 3363 3364 3365 3366 3367 3368 3369 3370 3371 3372 3373 3374 3375 3376 3377 3378 3379 3380 3381 3382 3383 3384 3385 3386 3387 3388 3389 3390 3391 3392 3393 3394 3395 3396 3397 3398 3399 3400 3401 3402 3403 3404 3405 3406 3407 3408 3409 3410 3411 3412 3413 3414 3415 3416 3417 3418 3419 3420 3421 3422 3423 3424 3425 3426 3427 3428 3429 3430 3431 3432 3433 3434 3435 3436 3437 3438 3439 3440 3441 3442 3443 3444 3445 3446 3447 3448 3449 3450 3451 3452 3453 3454 3455 3456 3457 3458 3459 3460 3461 3462 3463 3464 3465 3466 3467 3468 3469 3470 3471 3472 3473 3474 3475 3476 3477 3478 3479 3480 3481 3482 3483 3484 3485 3486 3487 3488 3489 3490 3491 3492 3493 3494 3495 3496 3497 3498 3499 3500 3501 3502 3503 3504 3505 3506 3507 3508 3509 3510 3511 3512 3513 3514 3515 3516 3517 3518 3519 3520 3521 3522 3523 3524 3525 3526 3527 3528 3529 3530 3531 3532 3533 3534 3535 3536 3537 3538 3539 3540 3541 3542 3543 3544 3545 3546 3547 3548 3549 3550 3551 3552 3553 3554 3555 3556 3557 3558 3559 3560 3561 3562 3563 3564 3565 3566 3567 3568 3569 3570 3571 3572 3573 3574 3575 3576 3577 3578 3579 3580 3581 3582 3583 3584 3585 3586 3587 3588 3589 3590 3591 3592 3593 3594 3595 3596 3597 3598 3599 3600 3601 3602 3603 3604 3605 3606 3607 3608 3609 3610 3611 3612 3613 3614 3615 3616 3617 3618 3619 3620 3621 3622 3623 3624 3625 3626 3627 3628 3629 3630 3631 3632 3633 3634 3635 3636 3637 3638 3639 3640 3641 3642 3643 3644 3645 3646 3647 3648 3649 3650 3651 3652 3653 3654 3655 3656 3657 3658 3659 3660 3661 3662 3663 3664 3665 3666 3667 3668 3669 3670 3671 3672 3673 3674 3675 3676 3677 3678 3679 3680 3681 3682 3683 3684 3685 3686 3687 3688 3689 3690 3691 3692 3693 3694 3695 3696 3697 3698 3699 3700 3701 3702 3703 3704 3705 3706 3707 3708 3709 3710 3711 3712 3713 3714 3715 3716 3717 3718 3719 3720 3721 3722 3723 3724 3725 3726 3727 3728 3729 3730 3731 3732 3733 3734 3735 3736 3737 3738 3739 3740 3741 3742 3743 3744 3745 3746 3747 3748 3749 3750 3751 3752 3753 3754 3755 3756 3757 3758 3759 3760 3761 3762 3763 3764 3765 3766 3767 3768 3769 3770 3771 3772 3773 3774 3775 3776 3777 3778 3779 3780 3781 3782 3783 3784 3785 3786 3787 3788 3789 3790 3791 3792 3793 3794 3795 3796 3797 3798 3799 3800 3801 3802 3803 3804 3805 3806 3807 3808 3809 3810 3811 3812 3813 3814 3815 3816 3817 3818 3819 3820 3821 3822 3823 3824 3825 3826 3827 3828 3829 3830 3831 3832 3833 3834 3835 3836 3837 3838 3839 3840 3841 3842 3843 3844 3845 3846 3847 3848 3849 3850 3851 3852 3853 3854 3855 3856 3857 3858 3859 3860 3861 3862 3863 3864 3865 3866 3867 3868 3869 3870 3871 3872 3873 3874 3875 3876 3877 3878 3879 3880 3881 3882 3883 3884 3885 3886 3887 3888 3889 3890 3891 3892 3893 3894 3895 3896 3897 3898 3899 3900 3901 3902 3903 3904 3905 3906 3907 3908 3909 3910 3911 3912 3913 3914 3915 3916 3917 3918 3919 3920 3921 3922 3923 3924 3925 3926 3927 3928 3929 3930 3931 3932 3933 3934 3935 3936 3937 3938 3939 3940 3941 3942 3943 3944 3945 3946 3947 3948 3949 3950 3951 3952 3953 3954 3955 3956 3957 3958 3959 3960 3961 3962 3963 3964 3965 3966 3967 3968 3969 3970 3971 3972 3973 3974 3975 3976 3977 3978 3979 3980 3981 3982 3983 3984 3985 3986 3987 3988 3989 3990 3991 3992 3993 3994 3995 3996 3997 3998 3999 4000 4001 4002 4003 4004 4005 4006 4007 4008 4009 4010 4011 4012 4013 4014 4015 4016 4017 4018 4019 4020 4021 4022 4023 4024 4025 4026 4027 4028 4029 4030 4031 4032 4033 4034 4035 4036 4037 4038 4039 4040 4041 4042 4043 4044 4045 4046 4047 4048 4049 4050 4051 4052 4053 4054 4055 4056 4057 4058 4059 4060 4061 4062 4063 4064 4065 4066 4067 4068 4069 4070 4071 4072 4073 4074 4075 4076 4077 4078 4079 4080 4081 4082 4083 4084 4085 4086 4087 4088 4089 4090 4091 4092 4093 4094 4095 4096 4097 4098 4099 4100 4101 4102 4103 4104 4105 4106 4107 4108 4109 4110 4111 4112 4113 4114 4115 4116 4117 4118 4119 4120 4121 4122 4123 4124 4125 4126 4127 4128 4129 4130 4131 4132 4133 4134 4135 4136 4137 4138 4139 4140 4141 4142 4143 4144 4145 4146 4147 4148 4149 4150 4151 4152 4153 4154 4155 4156 4157 4158 4159 4160 4161 4162 4163 4164 4165 4166 4167 4168 4169 4170 4171 4172 4173 4174 4175 4176 4177 4178 4179 4180 4181 4182 4183 4184 4185 4186 4187 4188 4189 4190 4191 4192 4193 4194 4195 4196 4197 4198 4199 4200 4201 4202 4203 4204 4205 4206 4207 4208 4209 4210 4211 4212 4213 4214 4215 4216 4217 4218 4219 4220 4221 4222 4223 4224 4225 4226 4227 4228 4229 4230 4231 4232 4233 4234 4235 4236 4237 4238 4239 4240 4241 4242 4243 4244 4245 4246 4247 4248 4249 4250 4251 4252 4253 4254 4255 4256 4257 4258 4259 4260 4261 4262 4263 4264 4265 4266 4267 4268 4269 4270 4271 4272 4273 4274 4275 4276 4277 4278 4279 4280 4281 4282 4283 4284 4285 4286 4287 4288 4289 4290 4291 4292 4293 4294 4295 4296 4297 4298 4299 4300 4301 4302 4303 4304 4305 4306 4307 4308 4309 4310 4311 4312 4313 4314 4315 4316 4317 4318 4319 4320 4321 4322 4323 4324 4325 4326 4327 4328 4329 4330 4331 4332 4333 4334 4335 4336 4337 4338 4339 4340 4341 4342 4343 4344 4345 4346 4347 4348 4349 4350 4351 4352 4353 4354 4355 4356 4357 4358 4359 4360 4361 4362 4363 4364 4365 4366 4367 4368 4369 4370 4371 4372 4373 4374 4375 4376 4377 4378 4379 4380 4381 4382 4383 4384 4385 4386 4387 4388 4389 4390 4391 4392 4393 4394 4395 4396 4397 4398 4399 4400 4401 4402 4403 4404 4405 4406 4407 4408 4409 4410 4411 4412 4413 4414 4415 4416 4417 4418 4419 4420 4421 4422 4423 4424 4425 4426 4427 4428 4429 4430 4431 4432 4433 4434 4435 4436 4437 4438 4439 4440 4441 4442 4443 4444 4445 4446 4447 4448 4449 4450 4451 4452 4453 4454 4455 4456 4457 4458 4459 4460 4461 4462 4463 4464 4465 4466 4467 4468 4469 4470 4471 4472 4473 4474 4475 4476 4477 4478 4479 4480 4481 4482 4483 4484 4485 4486 4487 4488 4489 4490 4491 4492 4493 4494 4495 4496 4497 4498 4499 4500 4501 4502 4503 4504 4505 4506 4507 4508 4509 4510 4511 4512 4513 4514 4515 4516 4517 4518 4519 4520 4521 4522 4523 4524 4525 4526 4527 4528 4529 4530 4531 4532 4533 4534 4535 4536 4537 4538 4539 4540 4541 4542 4543 4544 4545 4546 4547 4548 4549 4550 4551 4552 4553 4554 4555 4556 4557 4558 4559 4560 4561 4562 4563 4564 4565 4566 4567 4568 4569 4570 4571 4572 4573 4574 4575 4576 4577 4578 4579 4580 4581 4582 4583 4584 4585 4586 4587 4588 4589 4590 4591 4592 4593 4594 4595 4596 4597 4598 4599 4600 4601 4602 4603 4604 4605 4606 4607 4608 4609 4610 4611 4612 4613 4614 4615 4616 4617 4618 4619 4620 4621 4622 4623 4624 4625 4626 4627 4628 4629 4630 4631 4632 4633 4634 4635 4636 4637 4638 4639 4640 4641 4642 4643 4644 4645 4646 4647 4648 4649 4650 4651 4652 4653 4654 4655 4656 4657 4658 4659 4660 4661 4662 4663 4664 4665 4666 4667 4668 4669 4670 4671 4672 4673 4674 4675 4676 4677 4678 4679 4680 4681 4682 4683 4684 4685 4686 4687 4688 4689 4690 4691 4692 4693 4694 4695 4696 4697 4698 4699 4700 4701 4702 4703 4704 4705 4706 4707 4708 4709 4710 4711 4712 4713 4714 4715 4716 4717 4718 4719 4720 4721 4722 4723 4724 4725 4726 4727 4728 4729 4730 4731 4732 4733 4734 4735 4736 4737 4738 4739 4740 4741 4742 4743 4744 4745 4746 4747 4748 4749 4750 4751 4752 4753 4754 4755 4756 4757 4758 4759 4760 4761 4762 4763 4764 4765 4766 4767 4768 4769 4770 4771 4772 4773 4774 4775 4776 4777 4778 4779 4780 4781 4782 4783 4784 4785 4786 4787 4788 4789 4790 4791 4792 4793 4794 4795 4796 4797 4798 4799 4800 4801 4802 4803 4804 4805 4806 4807 4808 4809 4810 4811 4812 4813 4814 4815 4816 4817 4818 4819 4820 4821 4822 4823 4824 4825 4826 4827 4828 4829 4830 4831 4832 4833 4834 4835 4836 4837 4838 4839 4840 4841 4842 4843 4844 4845 4846 4847 4848 4849 4850 4851 4852 4853 4854 4855 4856 4857 4858 4859 4860 4861 4862 4863 4864 4865 4866 4867 4868 4869 4870 4871 4872 4873 4874 4875 4876 4877 4878 4879 4880 4881 4882 4883 4884 4885 4886 4887 4888 4889 4890 4891 4892 4893 4894 4895 4896 4897 4898 4899 4900 4901 4902 4903 4904 4905 4906 4907 4908 4909 4910 4911 4912 4913 4914 4915 4916 4917 4918 4919 4920 4921 4922 4923 4924 4925 4926 4927 4928 4929 4930 4931 4932 4933 4934 4935 4936 4937 4938 4939 4940 4941 4942 4943 4944 4945 4946 4947 4948 4949 4950 4951 4952 4953 4954 4955 4956 4957 4958 4959 4960 4961 4962 4963 4964 4965 4966 4967 4968 4969 4970 4971 4972 4973 4974 4975 4976 4977 4978 4979 4980 4981 4982 4983 4984 4985 4986 4987 4988 4989 4990 4991 4992 4993 4994 4995 4996 4997 4998 4999 5000 5001 5002 5003 5004 5005 5006 5007 5008 5009 5010 5011 5012 5013 5014 5015 5016 5017 5018 5019 5020 5021 5022 5023 5024 5025 5026 5027 5028 5029 5030 5031 5032 5033 5034 5035 5036 5037 5038 5039 5040 5041 5042 5043 5044 5045 5046 5047 5048 5049 5050 5051 5052 5053 5054 5055 5056 5057 5058 5059 5060 5061 5062 5063 5064 5065 5066 5067 5068 5069 5070 5071 5072 5073 5074 5075 5076 5077 5078 5079 5080 5081 5082 5083 5084 5085 5086 5087 5088 5089 5090 5091 5092 5093 5094 5095 5096 5097 5098 5099 5100 5101 5102 5103 5104 5105 5106 5107 5108 5109 5110 5111 5112 5113 5114 5115 5116 5117 5118 5119 5120 5121 5122 5123 5124 5125 5126 5127 5128 5129 5130 5131 5132 5133 5134 5135 5136 5137 5138 5139 5140 5141 5142 5143 5144 5145 5146 5147 5148 5149 5150 5151 5152 5153 5154 5155 5156 5157 5158 5159 5160 5161 5162 5163 5164 5165 5166 5167 5168 5169 5170 5171 5172 5173 5174 5175 5176 5177 5178 5179 5180 5181 5182 5183 5184 5185 5186 5187 5188 5189 5190 5191 5192 5193 5194 5195 5196 5197 5198 5199 5200 5201 5202 5203 5204 5205 5206 5207 5208 5209 5210 5211 5212 5213 5214 5215 5216 5217 5218 5219 5220 5221 5222 5223 5224 5225 5226 5227 5228 5229 5230 5231 5232 5233 5234 5235 5236 5237 5238 5239 5240 5241 5242 5243 5244 5245 5246 5247 5248 5249 5250 5251 5252 5253 5254 5255 5256 5257 5258 5259 5260 5261 5262 5263 5264 5265 5266 5267 5268 5269 5270 5271 5272 5273 5274 5275 5276 5277 5278 5279 5280 5281 5282 5283 5284 5285 5286 5287 5288 5289 5290 5291 5292 5293 5294 5295 5296 5297 5298 5299 5300 5301 5302 5303 5304 5305 5306 5307 5308 5309 5310 5311 5312 5313 5314 5315 5316 5317 5318 5319 5320 5321 5322 5323 5324 5325 5326 5327 5328 5329 5330 5331 5332 5333 5334 5335 5336 5337 5338 5339 5340 5341 5342 5343 5344 5345 5346 5347 5348 5349 5350 5351 5352 5353 5354 5355 5356 5357 5358 5359 5360 5361 5362 5363 5364 5365 5366 5367 5368 5369 5370 5371 5372 5373 5374 5375 5376 5377 5378 5379 5380 5381 5382 5383 5384 5385 5386 5387 5388 5389 5390 5391 5392 5393 5394 5395 5396 5397 5398 5399 5400 5401 5402 5403 5404 5405 5406 5407 5408 5409 5410 5411 5412 5413 5414 5415 5416 5417 5418 5419 5420 5421 5422 5423 5424 5425 5426 5427 5428 5429 5430 5431 5432 5433 5434 5435 5436 5437 5438 5439 5440 5441 5442 5443 5444 5445 5446 5447 5448 5449 5450 5451 5452 5453 5454 5455 5456 5457 5458 5459 5460 5461 5462 5463 5464 5465 5466 5467 5468 5469 5470 5471 5472 5473 5474 5475 5476 5477 5478 5479 5480 5481 5482 5483 5484 5485 5486 5487 5488 5489 5490 5491 5492 5493 5494 5495 5496 5497 5498 5499 5500 5501 5502 5503 5504 5505 5506 5507 5508 5509 5510 5511 5512 5513 5514 5515 5516 5517 5518 5519 5520 5521 5522 5523 5524 5525 5526 5527 5528 5529 5530 5531 5532 5533 5534 5535 5536 5537 5538 5539 5540 5541 5542 5543 5544 5545 5546 5547 5548 5549 5550 5551 5552 5553 5554 5555 5556 5557 5558 5559 5560 5561 5562 5563 5564 5565 5566 5567 5568 5569 5570 5571 5572 5573 5574 5575 5576 5577 5578 5579 5580 5581 5582 5583 5584 5585 5586 5587 5588 5589 5590 5591 5592 5593 5594 5595 5596 5597 5598 5599 5600 5601 5602 5603 5604 5605 5606 5607 5608 5609 5610 5611 5612 5613 5614 5615 5616 5617 5618 5619 5620 5621 5622 5623 5624 5625 5626 5627 5628 5629 5630 5631 5632 5633 5634 5635 5636 5637 5638 5639 5640 5641 5642 5643 5644 5645 5646 5647 5648 5649 5650 5651 5652 5653 5654 5655 5656 5657 5658 5659 5660 5661 5662 5663 5664 5665 5666 5667 5668 5669 5670 5671 5672 5673 5674 5675 5676 5677 5678 5679 5680 5681 5682 5683 5684 5685 5686 5687 5688 5689 5690 5691 5692 5693 5694 5695 5696 5697 5698 5699 5700 5701 5702 5703 5704 5705 5706 5707 5708 5709 5710 5711 5712 5713 5714 5715 5716 5717 5718 5719 5720 5721 5722 5723 5724 5725 5726 5727 5728 5729 5730 5731 5732 5733 5734 5735 5736 5737 5738 5739 5740 5741 5742 5743 5744 5745 5746 5747 5748 5749 5750 5751 5752 5753 5754 5755 5756 5757 5758 5759 5760 5761 5762 5763 5764 5765 5766 5767 5768 5769 5770 5771 5772 5773 5774 5775 5776 5777 5778 5779 5780 5781 5782 5783 5784 5785 5786 5787 5788 5789 5790 5791 5792 5793 5794 5795 5796 5797 5798 5799 5800 5801 5802 5803 5804 5805 5806 5807 5808 5809 5810 5811 5812 5813 5814 5815 5816 5817 5818 5819 5820 5821 5822 5823 5824 5825 5826 5827 5828 5829 5830 5831 5832 5833 5834 5835 5836 5837 5838 5839 5840 5841 5842 5843 5844 5845 5846 5847 5848 5849 5850 5851 5852 5853 5854 5855 5856 5857 5858 5859 5860 5861 5862 5863 5864 5865 5866 5867 5868 5869 5870 5871 5872 5873 5874 5875 5876 5877 5878 5879 5880 5881 5882 5883 5884 5885 5886 5887 5888 5889 5890 5891 5892 5893 5894 5895 5896 5897 5898 5899 5900 5901 5902 5903 5904 5905 5906 5907 5908 5909 5910 5911 5912 5913 5914 5915 5916 5917 5918 5919 5920 5921 5922 5923 5924 5925 5926 5927 5928 5929 5930 5931 5932 5933 5934 5935 5936 5937 5938 5939 5940 5941 5942 5943 5944 5945 5946 5947 5948 5949 5950 5951 5952 5953 5954 5955 5956 5957 5958 5959 5960 5961 5962 5963 5964 5965 5966 5967 5968 5969 5970 5971 5972 5973 5974 5975 5976 5977 5978 5979 5980 5981 5982 5983 5984 5985 5986 5987 5988 5989 5990 5991 5992 5993 5994 5995 5996 5997 5998 5999 6000 6001 6002 6003 6004 6005 6006 6007 6008 6009 6010 6011 6012 6013 6014 6015 6016 6017 6018 6019 6020 6021 6022 6023 6024 6025 6026 6027 6028 6029 6030 6031 6032 6033 6034 6035 6036 6037 6038 6039 6040 6041 6042 6043 6044 6045 6046 6047 6048 6049 6050 6051 6052 6053 6054 6055 6056 6057 6058 6059 6060 6061 6062 6063 6064 6065 6066 6067 6068 6069 6070 6071 6072 6073 6074 6075 6076 6077 6078 6079 6080 6081 6082 6083 6084 6085 6086 6087 6088 6089 6090 6091 6092 6093 6094 6095 6096 6097 6098 6099 6100 6101 6102 6103 6104 6105 6106 6107 6108 6109 6110 6111 6112 6113 6114 6115 6116 6117 6118 6119 6120 6121 6122 6123 6124 6125 6126 6127 6128 6129 6130 6131 6132 6133 6134 6135 6136 6137 6138 6139 6140 6141 6142 6143 6144 6145 6146 6147 6148 6149 6150 6151 6152 6153 6154 6155 6156 6157 6158 6159 6160 6161 6162 6163 6164 6165 6166 6167 6168 6169 6170 6171 6172 6173 6174 6175 6176 6177 6178 6179 6180 6181 6182 6183 6184 6185 6186 6187 6188 6189 6190 6191 6192 6193 6194 6195 6196 6197 6198 6199 6200 6201 6202 6203 6204 6205 6206 6207 6208 6209 6210 6211 6212 6213 6214 6215 6216 6217 6218 6219 6220 6221 6222 6223 6224 6225 6226 6227 6228 6229 6230 6231 6232 6233 6234 6235 6236 6237 6238 6239 6240 6241 6242 6243 6244 6245 6246 6247 6248 6249 6250 6251 6252 6253 6254 6255 6256 6257 6258 6259 6260 6261 6262 6263 6264 6265 6266 6267 6268 6269 6270 6271 6272 6273 6274 6275 6276 6277 6278 6279 6280 6281 6282 6283 6284 6285 6286 6287 6288 6289 6290 6291 6292 6293 6294 6295 6296 6297 6298 6299 6300 6301 6302 6303 6304 6305 6306 6307 6308 6309 6310 6311 6312 6313 6314 6315 6316 6317 6318 6319 6320 6321 6322 6323 6324 6325 6326 6327 6328 6329 6330 6331 6332 6333 6334 6335 6336 6337 6338 6339 6340 6341 6342 6343 6344 6345 6346 6347 6348 6349 6350 6351 6352 6353 6354 6355 6356 6357 6358 6359 6360 6361 6362 6363 6364 6365 6366 6367 6368 6369 6370 6371 6372 6373 6374 6375 6376 6377 6378 6379 6380 6381 6382 6383 6384 6385 6386 6387 6388 6389 6390 6391 6392 6393 6394 6395 6396 6397 6398 6399 6400 6401 6402 6403 6404 6405 6406 6407 6408 6409 6410 6411 6412 6413 6414 6415 6416 6417 6418 6419 6420 6421 6422 6423 6424 6425 6426 6427 6428 6429 6430 6431 6432 6433 6434 6435 6436 6437 6438 6439 6440 6441 6442 6443 6444 6445 6446 6447 6448 6449 6450 6451 6452 6453 6454 6455 6456 6457 6458 6459 6460 6461 6462 6463 6464 6465 6466 6467 6468 6469 6470 6471 6472 6473 6474 6475 6476 6477 6478 6479 6480 6481 6482 6483 6484 6485 6486 6487 6488 6489 6490 6491 6492 6493 6494 6495 6496 6497 6498 6499 6500 6501 6502 6503 6504 6505 6506 6507 6508 6509 6510 6511 6512 6513 6514 6515 6516 6517 6518 6519 6520 6521 6522 6523 6524 6525 6526 6527 6528 6529 6530 6531 6532 6533 6534 6535 6536 6537 6538 6539 6540 6541 6542 6543 6544 6545 6546 6547 6548 6549 6550 6551 6552 6553 6554 6555 6556 6557 6558 6559 6560 6561 6562 6563 6564 6565 6566 6567 6568 6569 6570 6571 6572 6573 6574 6575 6576 6577 6578 6579 6580 6581 6582 6583 6584 6585 6586 6587 6588 6589 6590 6591 6592 6593 6594 6595 6596 6597 6598 6599 6600 6601 6602 6603 6604 6605 6606 6607 6608 6609 6610 6611 6612 6613 6614 6615 6616 6617 6618 6619 6620 6621 6622 6623 6624 6625 6626 6627 6628 6629 6630 6631 6632 6633 6634 6635 6636 6637 6638 6639 6640 6641 6642 6643 6644 6645 6646 6647 6648 6649 6650 6651 6652 6653 6654 6655 6656 6657 6658 6659 6660 6661 6662 6663 6664 6665 6666 6667 6668 6669 6670 6671 6672 6673 6674 6675 6676 6677 6678 6679 6680 6681 6682 6683 6684 6685 6686 6687 6688 6689 6690 6691 6692 6693 6694 6695 6696 6697 6698 6699 6700 6701 6702 6703 6704 6705 6706 6707 6708 6709 6710 6711 6712 6713 6714 6715 6716 6717 6718 6719 6720 6721 6722 6723 6724 6725 6726 6727 6728 6729 6730 6731 6732 6733 6734 6735 6736 6737 6738 6739 6740 6741 6742 6743 6744 6745 6746 6747 6748 6749 6750 6751 6752 6753 6754 6755 6756 6757 6758 6759 6760 6761 6762 6763 6764 6765 6766 6767 6768 6769 6770 6771 6772 6773 6774 6775 6776 6777 6778 6779 6780 6781 6782 6783 6784 6785 6786 6787 6788 6789 6790 6791 6792 6793 6794 6795 6796 6797 6798 6799 6800 6801 6802 6803 6804 6805 6806 6807 6808 6809 6810 6811 6812 6813 6814 6815 6816 6817 6818 6819 6820 6821 6822 6823 6824 6825 6826 6827 6828 6829 6830 6831 6832 6833 6834 6835 6836 6837 6838 6839 6840 6841 6842 6843 6844 6845 6846 6847 6848 6849 6850 6851 6852 6853 6854 6855 6856 6857 6858 6859 6860 6861 6862 6863 6864 6865 6866 6867 6868 6869 6870 6871 6872 6873 6874 6875 6876 6877 6878 6879 6880 6881 6882 6883 6884 6885 6886 6887 6888 6889 6890 6891 6892 6893 6894 6895 6896 6897 6898 6899 6900 6901 6902 6903 6904 6905 6906 6907 6908 6909 6910 6911 6912 6913 6914 6915 6916 6917 6918 6919 6920 6921 6922 6923 6924 6925 6926 6927 6928 6929 6930 6931 6932 6933 6934 6935 6936 6937 6938 6939 6940 6941 6942 6943 6944 6945 6946 6947 6948 6949 6950 6951 6952 6953 6954 6955 6956 6957 6958 6959 6960 6961 6962 6963 6964 6965 6966 6967 6968 6969 6970 6971 6972 6973 6974 6975 6976 6977 6978 6979 6980 6981 6982 6983 6984 6985 6986 6987 6988 6989 6990 6991 6992 6993 6994 6995 6996 6997 6998 6999 7000 7001 7002 7003 7004 7005 7006 7007 7008 7009 7010 7011 7012 7013 7014 7015 7016 7017 7018 7019 7020 7021 7022 7023 7024 7025 7026 7027 7028 7029 7030 7031 7032 7033 7034 7035 7036 7037 7038 7039 7040 7041 7042 7043 7044 7045 7046 7047 7048 7049 7050 7051 7052 7053 7054 7055 7056 7057 7058 7059 7060 7061 7062 7063 7064 7065 7066 7067 7068 7069 7070 7071 7072 7073 7074 7075 7076 7077 7078 7079 7080 7081 7082 7083 7084 7085 7086 7087 7088 7089 7090 7091 7092 7093 7094 7095 7096 7097 7098 7099 7100 7101 7102 7103 7104 7105 7106 7107 7108 7109 7110 7111 7112 7113 7114 7115 7116 7117 7118 7119 7120 7121 7122 7123 7124 7125 7126 7127 7128 7129 7130 7131 7132 7133 7134 7135 7136 7137 7138 7139 7140 7141 7142 7143 7144 7145 7146 7147 7148 7149 7150 7151 7152 7153 7154 7155 7156 7157 7158 7159 7160 7161 7162 7163 7164 7165 7166 7167 7168 7169 7170 7171 7172 7173 7174 7175 7176 7177 7178 7179 7180 7181 7182 7183 7184 7185 7186 7187 7188 7189 7190 7191 7192 7193 7194 7195 7196 7197 7198 7199 7200 7201 7202 7203 7204 7205 7206 7207 7208 7209 7210 7211 7212 7213 7214 7215 7216 7217 7218 7219 7220 7221 7222 7223 7224 7225 7226 7227 7228 7229 7230 7231 7232 7233 7234 7235 7236 7237 7238 7239 7240 7241 7242 7243 7244 7245 7246 7247 7248 7249 7250 7251 7252 7253 7254 7255 7256 7257 7258 7259 7260 7261 7262 7263 7264 7265 7266 7267 7268 7269 7270 7271 7272 7273 7274 7275 7276 7277 7278 7279 7280 7281 7282 7283 7284 7285 7286 7287 7288 7289 7290 7291 7292 7293 7294 7295 7296 7297 7298 7299 7300 7301 7302 7303 7304 7305 7306 7307 7308 7309 7310 7311 7312 7313 7314 7315 7316 7317 7318 7319 7320 7321 7322 7323 7324 7325 7326 7327 7328 7329 7330 7331 7332 7333 7334 7335 7336 7337 7338 7339 7340 7341 7342 7343 7344 7345 7346 7347 7348 7349 7350 7351 7352 7353 7354 7355 7356 7357 7358 7359 7360 7361 7362 7363 7364 7365 7366 7367 7368 7369 7370 7371 7372 7373 7374 7375 7376 7377 7378 7379 7380 7381 7382 7383 7384 7385 7386 7387 7388 7389 7390 7391 7392 7393 7394 7395 7396 7397 7398 7399 7400 7401 7402 7403 7404 7405 7406 7407 7408 7409 7410 7411 7412 7413 7414 7415 7416 7417 7418 7419 7420 7421 7422 7423 7424 7425 7426 7427 7428 7429 7430 7431 7432 7433 7434 7435 7436 7437 7438 7439 7440 7441 7442 7443 7444 7445 7446 7447 7448 7449 7450 7451 7452 7453 7454 7455 7456 7457 7458 7459 7460 7461 7462 7463 7464 7465 7466 7467 7468 7469 7470 7471 7472 7473 7474 7475 7476 7477 7478 7479 7480 7481 7482 7483 7484 7485 7486 7487 7488 7489 7490 7491 7492 7493 7494 7495 7496 7497 7498 7499 7500 7501 7502 7503 7504 7505 7506 7507 7508 7509 7510 7511 7512 7513 7514 7515 7516 7517 7518 7519 7520 7521 7522 7523 7524 7525 7526 7527 7528 7529 7530 7531 7532 7533 7534 7535 7536 7537 7538 7539 7540 7541 7542 7543 7544 7545 7546 7547 7548 7549 7550 7551 7552 7553 7554 7555 7556 7557 7558 7559 7560 7561 7562 7563 7564 7565 7566 7567 7568 7569 7570 7571 7572 7573 7574 7575 7576 7577 7578 7579 7580 7581 7582 7583 7584 7585 7586 7587 7588 7589 7590 7591 7592 7593 7594 7595 7596 7597 7598 7599 7600 7601 7602 7603 7604 7605 7606 7607 7608 7609 7610 7611 7612 7613 7614 7615 7616 7617 7618 7619 7620 7621 7622 7623 7624 7625 7626 7627 7628 7629 7630 7631 7632 7633 7634 7635 7636 7637 7638 7639 7640 7641 7642 7643 7644 7645 7646 7647 7648 7649 7650 7651 7652 7653 7654 7655 7656 7657 7658 7659 7660 7661 7662 7663 7664 7665 7666 7667 7668 7669 7670 7671 7672 7673 7674 7675 7676 7677 7678 7679 7680 7681 7682 7683 7684 7685 7686 7687 7688 7689 7690 7691 7692 7693 7694 7695 7696 7697 7698 7699 7700 7701 7702 7703 7704 7705 7706 7707 7708 7709 7710 7711 7712 7713 7714 7715 7716 7717 7718 7719 7720 7721 7722 7723 7724 7725 7726 7727 7728 7729 7730 7731 7732 7733 7734 7735 7736 7737 7738 7739 7740 7741 7742 7743 7744 7745 7746 7747 7748 7749 7750 7751 7752 7753 7754 7755 7756 7757 7758 7759 7760 7761 7762 7763 7764 7765 7766 7767 7768 7769 7770 7771 7772 7773 7774 7775 7776 7777 7778 7779 7780 7781 7782 7783 7784 7785 7786 7787 7788 7789 7790 7791 7792 7793 7794 7795 7796 7797 7798 7799 7800 7801 7802 7803 7804 7805 7806 7807 7808 7809 7810 7811 7812 7813 7814 7815 7816 7817 7818 7819 7820 7821 7822 7823 7824 7825 7826 7827 7828 7829 7830 7831 7832 7833 7834 7835 7836 7837 7838 7839 7840 7841 7842 7843 7844 7845 7846 7847 7848 7849 7850 7851 7852 7853 7854 7855 7856 7857 7858 7859 7860 7861 7862 7863 7864 7865 7866 7867 7868 7869 7870 7871 7872 7873 7874 7875 7876 7877 7878 7879 7880 7881 7882 7883 7884 7885 7886 7887 7888 7889 7890 7891 7892 7893 7894 7895 7896 7897 7898 7899 7900 7901 7902 7903 7904 7905 7906 7907 7908 7909 7910 7911 7912 7913 7914 7915 7916 7917 7918 7919 7920 7921 7922 7923 7924 7925 7926 7927 7928 7929 7930 7931 7932 7933 7934 7935 7936 7937 7938 7939 7940 7941 7942 7943 7944 7945 7946 7947 7948 7949 7950 7951 7952 7953 7954 7955 7956 7957 7958 7959 7960 7961 7962 7963 7964 7965 7966 7967 7968 7969 7970 7971 7972 7973 7974 7975 7976 7977 7978 7979 7980 7981 7982 7983 7984 7985 7986 7987 7988 7989 7990 7991 7992 7993 7994 7995 7996 7997 7998 7999 8000 8001 8002 8003 8004 8005 8006 8007 8008 8009 8010 8011 8012 8013 8014 8015 8016 8017 8018 8019 8020 8021 8022 8023 8024 8025 8026 8027 8028 8029 8030 8031 8032 8033 8034 8035 8036 8037 8038 8039 8040 8041 8042 8043 8044 8045 8046 8047 8048 8049 8050 8051 8052 8053 8054 8055 8056 8057 8058 8059 8060 8061 8062 8063 8064 8065 8066 8067 8068 8069 8070 8071 8072 8073 8074 8075 8076 8077 8078 8079 8080 8081 8082 8083 8084 8085 8086 8087 8088 8089 8090 8091 8092 8093 8094 8095 8096 8097 8098 8099 8100 8101 8102 8103 8104 8105 8106 8107 8108 8109 8110 8111 8112 8113 8114 8115 8116 8117 8118 8119 8120 8121 8122 8123 8124 8125 8126 8127 8128 8129 8130 8131 8132 8133 8134 8135 8136 8137 8138 8139 8140 8141 8142 8143 8144 8145 8146 8147 8148 8149 8150 8151 8152 8153 8154 8155 8156 8157 8158 8159 8160 8161 8162 8163 8164 8165 8166 8167 8168 8169 8170 8171 8172 8173 8174 8175 8176 8177 8178 8179 8180 8181 8182 8183 8184 8185 8186 8187 8188 8189 8190 8191 8192 8193 8194 8195 8196 8197 8198 8199 8200 8201 8202 8203 8204 8205 8206 8207 8208 8209 8210 8211 8212 8213 8214 8215 8216 8217 8218 8219 8220 8221 8222 8223 8224 8225 8226 8227 8228 8229 8230 8231 8232 8233 8234 8235 8236 8237 8238 8239 8240 8241 8242 8243 8244 8245 8246 8247 8248 8249 8250 8251 8252 8253 8254 8255 8256 8257 8258 8259 8260 8261 8262 8263 8264 8265 8266 8267 8268 8269 8270 8271 8272 8273 8274 8275 8276 8277 8278 8279 8280 8281 8282 8283 8284 8285 8286 8287 8288 8289 8290 8291 8292 8293 8294 8295 8296 8297 8298 8299 8300 8301 8302 8303 8304 8305 8306 8307 8308 8309 8310 8311 8312 8313 8314 8315 8316 8317 8318 8319 8320 8321 8322 8323 8324 8325 8326 8327 8328 8329 8330 8331 8332 8333 8334 8335 8336 8337 8338 8339 8340 8341 8342 8343 8344 8345 8346 8347 8348 8349 8350 8351 8352 8353 8354 8355 8356 8357 8358 8359 8360 8361 8362 8363 8364 8365 8366 8367 8368 8369 8370 8371 8372 8373 8374 8375 8376 8377 8378 8379 8380 8381 8382 8383 8384 8385 8386 8387 8388 8389 8390 8391 8392 8393 8394 8395 8396 8397 8398 8399 8400 8401 8402 8403 8404 8405 8406 8407 8408 8409 8410 8411 8412 8413 8414 8415 8416 8417 8418 8419 8420 8421 8422 8423 8424 8425 8426 8427 8428 8429 8430 8431 8432 8433 8434 8435 8436 8437 8438 8439 8440 8441 8442 8443 8444 8445 8446 8447 8448 8449 8450 8451 8452 8453 8454 8455 8456 8457 8458 8459 8460 8461 8462 8463 8464 8465 8466 8467 8468 8469 8470 8471 8472 8473 8474 8475 8476 8477 8478 8479 8480 8481 8482 8483 8484 8485 8486 8487 8488 8489 8490 8491 8492 8493 8494 8495 8496 8497 8498 8499 8500 8501 8502 8503 8504 8505 8506 8507 8508 8509 8510 8511 8512 8513 8514 8515 8516 8517 8518 8519 8520 8521 8522 8523 8524 8525 8526 8527 8528 8529 8530 8531 8532 8533 8534 8535 8536 8537 8538 8539 8540 8541 8542 8543 8544 8545 8546 8547 8548 8549 8550 8551 8552 8553 8554 8555 8556 8557 8558 8559 8560 8561 8562 8563 8564 8565 8566 8567 8568 8569 8570 8571 8572 8573 8574 8575 8576 8577 8578 8579 8580 8581 8582 8583 8584 8585 8586 8587 8588 8589 8590 8591 8592 8593 8594 8595 8596 8597 8598 8599 8600 8601 8602 8603 8604 8605 8606 8607 8608 8609 8610 8611 8612 8613 8614 8615 8616 8617 8618 8619 8620 8621 8622 8623 8624 8625 8626 8627 8628 8629 8630 8631 8632 8633 8634 8635 8636 8637 8638 8639 8640 8641 8642 8643 8644 8645 8646 8647 8648 8649 8650 8651 8652 8653 8654 8655 8656 8657 8658 8659 8660 8661 8662 8663 8664 8665 8666 8667 8668 8669 8670 8671 8672 8673 8674 8675 8676 8677 8678 8679 8680 8681 8682 8683 8684 8685 8686 8687 8688 8689 8690 8691 8692 8693 8694 8695 8696 8697 8698 8699 8700 8701 8702 8703 8704 8705 8706 8707 8708 8709 8710 8711 8712 8713 8714 8715 8716 8717 8718 8719 8720 8721 8722 8723 8724 8725 8726 8727 8728 8729 8730 8731 8732 8733 8734 8735 8736 8737 8738 8739 8740 8741 8742 8743 8744 8745 8746 8747 8748 8749 8750 8751 8752 8753 8754 8755 8756 8757 8758 8759 8760 8761 8762 8763 8764 8765 8766 8767 8768 8769 8770 8771 8772 8773 8774 8775 8776 8777 8778 8779 8780 8781 8782 8783 8784 8785 8786 8787 8788 8789 8790 8791 8792 8793 8794 8795 8796 8797 8798 8799 8800 8801 8802 8803 8804 8805 8806 8807 8808 8809 8810 8811 8812 8813 8814 8815 8816 8817 8818 8819 8820 8821 8822 8823 8824 8825 8826 8827 8828 8829 8830 8831 8832 8833 8834 8835 8836 8837 8838 8839 8840 8841 8842 8843 8844 8845 8846 8847 8848 8849 8850 8851 8852 8853 8854 8855 8856 8857 8858 8859 8860 8861 8862 8863 8864 8865 8866 8867 8868 8869 8870 8871 8872 8873 8874 8875 8876 8877 8878 8879 8880 8881 8882 8883 8884 8885 8886 8887 8888 8889 8890 8891 8892 8893 8894 8895 8896 8897 8898 8899 8900 8901 8902 8903 8904 8905 8906 8907 8908 8909 8910 8911 8912 8913 8914 8915 8916 8917 8918 8919 8920 8921 8922 8923 8924 8925 8926 8927 8928 8929 8930 8931 8932 8933 8934 8935 8936 8937 8938 8939 8940 8941 8942 8943 8944 8945 8946 8947 8948 8949 8950 8951 8952 8953 8954 8955 8956 8957 8958 8959 8960 8961 8962 8963 8964 8965 8966 8967 8968 8969 8970 8971 8972 8973 8974 8975 8976 8977 8978 8979 8980 8981 8982 8983 8984 8985 8986 8987 8988 8989 8990 8991 8992 8993 8994 8995 8996 8997 8998 8999 9000 9001 9002 9003 9004 9005 9006 9007 9008 9009 9010 9011 9012 9013 9014 9015 9016 9017 9018 9019 9020 9021 9022 9023 9024 9025 9026 9027 9028 9029 9030 9031 9032 9033 9034 9035 9036 9037 9038 9039 9040 9041 9042 9043 9044 9045 9046 9047 9048 9049 9050 9051 9052 9053 9054 9055 9056 9057 9058 9059 9060 9061 9062 9063 9064 9065 9066 9067 9068 9069 9070 9071 9072 9073 9074 9075 9076 9077 9078 9079 9080 9081 9082 9083 9084 9085 9086 9087 9088 9089 9090 9091 9092 9093 9094 9095 9096 9097 9098 9099 9100 9101 9102 9103 9104 9105 9106 9107 9108 9109 9110 9111 9112 9113 9114 9115 9116 9117 9118 9119 9120 9121 9122 9123 9124 9125 9126 9127 9128 9129 9130 9131 9132 9133 9134 9135 9136 9137 9138 9139 9140 9141 9142 9143 9144 9145 9146 9147 9148 9149 9150 9151 9152 9153 9154 9155 9156 9157 9158 9159 9160 9161 9162 9163 9164 9165 9166 9167 9168 9169 9170 9171 9172 9173 9174 9175 9176 9177 9178 9179 9180 9181 9182 9183 9184 9185 9186 9187 9188 9189 9190 9191 9192 9193 9194 9195 9196 9197 9198 9199 9200 9201 9202 9203 9204 9205 9206 9207 9208 9209 9210 9211 9212 9213 9214 9215 9216 9217 9218 9219 9220 9221 9222 9223 9224 9225 9226 9227 9228 9229 9230 9231 9232 9233 9234 9235 9236 9237 9238 9239 9240 9241 9242 9243 9244 9245 9246 9247 9248 9249 9250 9251 9252 9253 9254 9255 9256 9257 9258 9259 9260 9261 9262 9263 9264 9265 9266 9267 9268 9269 9270 9271 9272 9273 9274 9275 9276 9277 9278 9279 9280 9281 9282 9283 9284 9285 9286 9287 9288 9289 9290 9291 9292 9293 9294 9295 9296 9297 9298 9299 9300 9301 9302 9303 9304 9305 9306 9307 9308 9309 9310 9311 9312 9313 9314 9315 9316 9317 9318 9319 9320 9321 9322 9323 9324 9325 9326 9327 9328 9329 9330 9331 9332 9333 9334 9335 9336 9337 9338 9339 9340 9341 9342 9343 9344 9345 9346 9347 9348 9349 9350 9351 9352 9353 9354 9355 9356 9357 9358 9359 9360 9361 9362 9363 9364 9365 9366 9367 9368 9369 9370 9371 9372 9373 9374 9375 9376 9377 9378 9379 9380 9381 9382 9383 9384 9385 9386 9387 9388 9389 9390 9391 9392 9393 9394 9395 9396 9397 9398 9399 9400 9401 9402 9403 9404 9405 9406 9407 9408 9409 9410 9411 9412 9413 9414 9415 9416 9417 9418 9419 9420 9421 9422 9423 9424 9425 9426 9427 9428 9429 9430 9431 9432 9433 9434 9435 9436 9437 9438 9439 9440 9441 9442 9443 9444 9445 9446 9447 9448 9449 9450 9451 9452 9453 9454 9455 9456 9457 9458 9459 9460 9461 9462 9463 9464 9465 9466 9467 9468 9469 9470 9471 9472 9473 9474 9475 9476 9477 9478 9479 9480 9481 9482 9483 9484 9485 9486 9487 9488 9489 9490 9491 9492 9493 9494 9495 9496 9497 9498 9499 9500 9501 9502 9503 9504 9505 9506 9507 9508 9509 9510 9511 9512 9513 9514 9515 9516 9517 9518 9519 9520 9521 9522 9523 9524 9525 9526 9527 9528 9529 9530 9531 9532 9533 9534 9535 9536 9537 9538 9539 9540 9541 9542 9543 9544 9545 9546 9547 9548 9549 9550 9551 9552 9553 9554 9555 9556 9557 9558 9559 9560 9561 9562 9563 9564 9565 9566 9567 9568 9569 9570 9571 9572 9573 9574 9575 9576 9577 9578 9579 9580 9581 9582 9583 9584 9585 9586 9587 9588 9589 9590 9591 9592 9593 9594 9595 9596 9597 9598 9599 9600 9601 9602 9603 9604 9605 9606 9607 9608 9609 9610 9611 9612 9613 9614 9615 9616 9617 9618 9619 9620 9621 9622 9623 9624 9625 9626 9627 9628 9629 9630 9631 9632 9633 9634 9635 9636 9637 9638 9639 9640 9641 9642 9643 9644 9645 9646 9647 9648 9649 9650 9651 9652 9653 9654 9655 9656 9657 9658 9659 9660 9661 9662 9663 9664 9665 9666 9667 9668 9669 9670 9671 9672 9673 9674 9675 9676 9677 9678 9679 9680 9681 9682 9683 9684 9685 9686 9687 9688 9689 9690 9691 9692 9693 9694 9695 9696 9697 9698 9699 9700 9701 9702 9703 9704 9705 9706 9707 9708 9709 9710 9711 9712 9713 9714 9715 9716 9717 9718 9719 9720 9721 9722 9723 9724 9725 9726 9727 9728 9729 9730 9731 9732 9733 9734 9735 9736 9737 9738 9739 9740 9741 9742 9743 9744 9745 9746 9747 9748 9749 9750 9751 9752 9753 9754 9755 9756 9757 9758 9759 9760 9761 9762 9763 9764 9765 9766 9767 9768 9769 9770 9771 9772 9773 9774 9775 9776 9777 9778 9779 9780 9781 9782 9783 9784 9785 9786 9787 9788 9789 9790 9791 9792 9793 9794 9795 9796 9797 9798 9799 9800 9801 9802 9803 9804 9805 9806 9807 9808 9809 9810 9811 9812 9813 9814 9815 9816 9817 9818 9819 9820 9821 9822 9823 9824 9825 9826 9827 9828 9829 9830 9831 9832 9833 9834 9835 9836 9837 9838 9839 9840 9841 9842 9843 9844 9845 9846 9847 9848 9849 9850 9851 9852 9853 9854 9855 9856 9857 9858 9859 9860 9861 9862 9863 9864 9865 9866 9867 9868 9869 9870 9871 9872 9873 9874 9875 9876 9877 9878 9879 9880 9881 9882 9883 9884 9885 9886 9887 9888 9889 9890 9891 9892 9893 9894 9895 9896 9897 9898 9899 9900 9901 9902 9903 9904 9905 9906 9907 9908 9909 9910 9911 9912 9913 9914 9915 9916 9917 9918 9919 9920 9921 9922 9923 9924 9925 9926 9927 9928 9929 9930 9931 9932 9933 9934 9935 9936 9937 9938 9939 9940 9941 9942 9943 9944 9945 9946 9947 9948 9949 9950 9951 9952 9953 9954 9955 9956 9957 9958 9959 9960 9961 9962 9963 9964 9965 9966 9967 9968 9969 9970 9971 9972 9973 9974 9975 9976 9977 9978 9979 9980 9981 9982 9983 9984 9985 9986 9987 9988 9989 9990 9991 9992 9993 9994 9995 9996 9997 9998 9999 10000 10001 10002 10003 10004 10005 10006 10007 10008 10009 10010 10011 10012 10013 10014 10015 10016 10017 10018 10019 10020 10021 10022 10023 10024 10025 10026 10027 10028 10029 10030 10031 10032 10033 10034 10035 10036 10037 10038 10039 10040 10041 10042 10043 10044 10045 10046 10047 10048 10049 10050 10051 10052 10053 10054 10055 10056 10057 10058 10059 10060 10061 10062 10063 10064 10065 10066 10067 10068 10069 10070 10071 10072 10073 10074 10075 10076 10077 10078 10079 10080 10081 10082 10083 10084 10085 10086 10087 10088 10089 10090 10091 10092 10093 10094 10095 10096 10097 10098 10099 10100 10101 10102 10103 10104 10105 10106 10107 10108 10109 10110 10111 10112 10113 10114 10115 10116 10117 10118 10119 10120 10121 10122 10123 10124 10125 10126 10127 10128 10129 10130 10131 10132 10133 10134 10135 10136 10137 10138 10139 10140 10141 10142 10143 10144 10145 10146 10147 10148 10149 10150 10151 10152 10153 10154 10155 10156 10157 10158 10159 10160 10161 10162 10163 10164 10165 10166 10167 10168 10169 10170 10171 10172 10173 10174 10175 10176 10177 10178 10179 10180 10181 10182 10183 10184 10185 10186 10187 10188 10189 10190 10191 10192 10193 10194 10195 10196 10197 10198 10199 10200 10201 10202 10203 10204 10205 10206 10207 10208 10209 10210 10211 10212 10213 10214 10215 10216 10217 10218 10219 10220 10221 10222 10223 10224 10225 10226 10227 10228 10229 10230 10231 10232 10233 10234 10235 10236 10237 10238 10239 10240 10241 10242 10243 10244 10245 10246 10247 10248 10249 10250 10251 10252 10253 10254 10255 10256 10257 10258 10259 10260 10261 10262 10263 10264 10265 10266 10267 10268 10269 10270 10271 10272 10273 10274 10275 10276 10277 10278 10279 10280 10281 10282 10283 10284 10285 10286 10287 10288 10289 10290 10291 10292 10293 10294 10295 10296 10297 10298 10299 10300 10301 10302 10303 10304 10305 10306 10307 10308 10309 10310 10311 10312 10313 10314 10315 10316 10317 10318 10319 10320 10321 10322 10323 10324 10325 10326 10327 10328 10329 10330 10331 10332 10333 10334 10335 10336 10337 10338 10339 10340 10341 10342 10343 10344 10345 10346 10347 10348 10349 10350 10351 10352 10353 10354 10355 10356 10357 10358 10359 10360 10361 10362 10363 10364 10365 10366 10367 10368 10369 10370 10371 10372 10373 10374 10375 10376 10377 10378 10379 10380 10381 10382 10383 10384 10385 10386 10387 10388 10389 10390 10391 10392 10393 10394 10395 10396 10397 10398 10399 10400 10401 10402 10403 10404 10405 10406 10407 10408 10409 10410 10411 10412 10413 10414 10415 10416 10417 10418 10419 10420 10421 10422 10423 10424 10425 10426 10427 10428 10429 10430 10431 10432 10433 10434 10435 10436 10437 10438 10439 10440 10441 10442 10443 10444 10445 10446 10447 10448 10449 10450 10451 10452 10453 10454 10455 10456 10457 10458 10459 10460 10461 10462 10463 10464 10465 10466 10467 10468 10469 10470 10471 10472 10473 10474 10475 10476 10477 10478 10479 10480 10481 10482 10483 10484 10485 10486 10487 10488 10489 10490 10491 10492 10493 10494 10495 10496 10497 10498 10499 10500 10501 10502 10503 10504 10505 10506 10507 10508 10509 10510 10511 10512 10513 10514 10515 10516 10517 10518 10519 10520 10521 10522 10523 10524 10525 10526 10527 10528 10529 10530 10531 10532 10533 10534 10535 10536 10537 10538 10539 10540 10541 10542 10543 10544 10545 10546 10547 10548 10549 10550 10551 10552 10553 10554 10555 10556 10557 10558 10559 10560 10561 10562 10563 10564 10565 10566 10567 10568 10569 10570 10571 10572 10573 10574 10575 10576 10577 10578 10579 10580 10581 10582 10583 10584 10585 10586 10587 10588 10589 10590 10591 10592 10593 10594 10595 10596 10597 10598 10599 10600 10601 10602 10603 10604 10605 10606 10607 10608 10609 10610 10611 10612 10613 10614 10615 10616 10617 10618 10619 10620 10621 10622 10623 10624 10625 10626 10627 10628 10629 10630 10631 10632 10633 10634 10635 10636 10637 10638 10639 10640 10641 10642 10643 10644 10645 10646 10647 10648 10649 10650 10651 10652 10653 10654 10655 10656 10657 10658 10659 10660 10661 10662 10663 10664 10665 10666 10667 10668 10669 10670 10671 10672 10673 10674 10675 10676 10677 10678 10679 10680 10681 10682 10683 10684 10685 10686 10687 10688 10689 10690 10691 10692 10693 10694 10695 10696 10697 10698 10699 10700 10701 10702 10703 10704 10705 10706 10707 10708 10709 10710 10711 10712 10713 10714 10715 10716 10717 10718 10719 10720 10721 10722 10723 10724 10725 10726 10727 10728 10729 10730 10731 10732 10733 10734 10735 10736 10737 10738 10739 10740 10741 10742 10743 10744 10745 10746 10747 10748 10749 10750 10751 10752 10753 10754 10755 10756 10757 10758 10759 10760 10761 10762 10763 10764 10765 10766 10767 10768 10769 10770 10771 10772 10773 10774 10775 10776 10777 10778 10779 10780 10781 10782 10783 10784 10785 10786 10787 10788 10789 10790 10791 10792 10793 10794 10795 10796 10797 10798 10799 10800 10801 10802 10803 10804 10805 10806 10807 10808 10809 10810 10811 10812 10813 10814 10815 10816 10817 10818 10819 10820 10821 10822 10823 10824 10825 10826 10827 10828 10829 10830 10831 10832 10833 10834 10835 10836 10837 10838 10839 10840 10841 10842 10843 10844 10845 10846 10847 10848 10849 10850 10851 10852 10853 10854 10855 10856 10857 10858 10859 10860 10861 10862 10863 10864 10865 10866 10867 10868 10869 10870 10871 10872 10873 10874 10875 10876 10877 10878 10879 10880 10881 10882 10883 10884 10885 10886 10887 10888 10889 10890 10891 10892 10893 10894 10895 10896 10897 10898 10899 10900 10901 10902 10903 10904 10905 10906 10907 10908 10909 10910 10911 10912 10913 10914 10915 10916 10917 10918 10919 10920 10921 10922 10923 10924 10925 10926 10927 10928 10929 10930 10931 10932 10933 10934 10935 10936 10937 10938 10939 10940 10941 10942 10943 10944 10945 10946 10947 10948 10949 10950 10951 10952 10953 10954 10955 10956 10957 10958 10959 10960 10961 10962 10963 10964 10965 10966 10967 10968 10969 10970 10971 10972 10973 10974 10975 10976 10977 10978 10979 10980 10981 10982 10983 10984 10985 10986 10987 10988 10989 10990 10991 10992 10993 10994 10995 10996 10997 10998 10999 11000 11001 11002 11003 11004 11005 11006 11007 11008 11009 11010 11011 11012 11013 11014 11015 11016 11017 11018 11019 11020 11021 11022 11023 11024 11025 11026 11027 11028 11029 11030 11031 11032 11033 11034 11035 11036 11037 11038 11039 11040 11041 11042 11043 11044 11045 11046 11047 11048 11049 11050 11051 11052 11053 11054 11055 11056 11057 11058 11059 11060 11061 11062 11063 11064 11065 11066 11067 11068 11069 11070 11071 11072 11073 11074 11075 11076 11077 11078 11079 11080 11081 11082 11083 11084 11085 11086 11087 11088 11089 11090 11091 11092 11093 11094 11095 11096 11097 11098 11099 11100 11101 11102 11103 11104 11105 11106 11107 11108 11109 11110 11111 11112 11113 11114 11115 11116 11117 11118 11119 11120 11121 11122 11123 11124 11125 11126 11127 11128 11129 11130 11131 11132 11133 11134 11135 11136 11137 11138 11139 11140 11141 11142 11143 11144 11145 11146 11147 11148 11149 11150 11151 11152 11153 11154 11155 11156 11157 11158 11159 11160 11161 11162 11163 11164 11165 11166 11167 11168 11169 11170 11171 11172 11173 11174 11175 11176 11177 11178 11179 11180 11181 11182 11183 11184 11185 11186 11187 11188 11189 11190 11191 11192 11193 11194 11195 11196 11197 11198 11199 11200 11201 11202 11203 11204 11205 11206 11207 11208 11209 11210 11211 11212 11213 11214 11215 11216 11217 11218 11219 11220 11221 11222 11223 11224 11225 11226 11227 11228 11229 11230 11231 11232 11233 11234 11235 11236 11237 11238 11239 11240 11241 11242 11243 11244 11245 11246 11247 11248 11249 11250 11251 11252 11253 11254 11255 11256 11257 11258 11259 11260 11261 11262 11263 11264 11265 11266 11267 11268 11269 11270 11271 11272 11273 11274 11275 11276 11277 11278 11279 11280 11281 11282 11283 11284 11285 11286 11287 11288 11289 11290 11291 11292 11293 11294 11295 11296 11297 11298 11299 11300 11301 11302 11303 11304 11305 11306 11307 11308 11309 11310 11311 11312 11313 11314 11315 11316 11317 11318 11319 11320 11321 11322 11323 11324 11325 11326 11327 11328 11329 11330 11331 11332 11333 11334 11335 11336 11337 11338 11339 11340 11341 11342 11343 11344 11345 11346 11347 11348 11349 11350 11351 11352 11353 11354 11355 11356 11357 11358 11359 11360 11361 11362 11363 11364 11365 11366 11367 11368 11369 11370 11371 11372 11373 11374 11375 11376 11377 11378 11379 11380 11381 11382 11383 11384 11385 11386 11387 11388 11389 11390 11391 11392 11393 11394 11395 11396 11397 11398 11399 11400 11401 11402 11403 11404 11405 11406 11407 11408 11409 11410 11411 11412 11413 11414 11415 11416 11417 11418 11419 11420 11421 11422 11423 11424 11425 11426 11427 11428 11429 11430 11431 11432 11433 11434 11435 11436 11437 11438 11439 11440 11441 11442 11443 11444 11445 11446 11447 11448 11449 11450 11451 11452 11453 11454 11455 11456 11457 11458 11459 11460 11461 11462 11463 11464 11465 11466 11467 11468 11469 11470 11471 11472 11473 11474 11475 11476 11477 11478 11479 11480 11481 11482 11483 11484 11485 11486 11487 11488 11489 11490 11491 11492 11493 11494 11495 11496 11497 11498 11499 11500 11501 11502 11503 11504 11505 11506 11507 11508 11509 11510 11511 11512 11513 11514 11515 11516 11517 11518 11519 11520 11521 11522 11523 11524 11525 11526 11527 11528 11529 11530 11531 11532 11533 11534 11535 11536 11537 11538 11539 11540 11541 11542 11543 11544 11545 11546 11547 11548 11549 11550 11551 11552 11553 11554 11555 11556 11557 11558 11559 11560 11561 11562 11563 11564 11565 11566 11567 11568 11569 11570 11571 11572 11573 11574 11575 11576 11577 11578 11579 11580 11581 11582 11583 11584 11585 11586 11587 11588 11589 11590 11591 11592 11593 11594 11595 11596 11597 11598 11599 11600 11601 11602 11603 11604 11605 11606 11607 11608 11609 11610 11611 11612 11613 11614 11615 11616 11617 11618 11619 11620 11621 11622 11623 11624 11625 11626 11627 11628 11629 11630 11631 11632 11633 11634 11635 11636 11637 11638 11639 11640 11641 11642 11643 11644 11645 11646 11647 11648 11649 11650 11651 11652 11653 11654 11655 11656 11657 11658 11659 11660 11661 11662 11663 11664 11665 11666 11667 11668 11669 11670 11671 11672 11673 11674 11675 11676 11677 11678 11679 11680 11681 11682 11683 11684 11685 11686 11687 11688 11689 11690 11691 11692 11693 11694 11695 11696 11697 11698 11699 11700 11701 11702 11703 11704 11705 11706 11707 11708 11709 11710 11711 11712 11713 11714 11715 11716 11717 11718 11719 11720 11721 11722 11723 11724 11725 11726 11727 11728 11729 11730 11731 11732 11733 11734 11735 11736 11737 11738 11739 11740 11741 11742 11743 11744 11745 11746 11747 11748 11749 11750 11751 11752 11753 11754 11755 11756 11757 11758 11759 11760 11761 11762 11763 11764 11765 11766 11767 11768 11769 11770 11771 11772 11773 11774 11775 11776 11777 11778 11779 11780 11781 11782 11783 11784 11785 11786 11787 11788 11789 11790 11791 11792 11793 11794 11795 11796 11797 11798 11799 11800 11801 11802 11803 11804 11805 11806 11807 11808 11809 11810 11811 11812 11813 11814 11815 11816 11817 11818 11819 11820 11821 11822 11823 11824 11825 11826 11827 11828 11829 11830 11831 11832 11833 11834 11835 11836 11837 11838 11839 11840 11841 11842 11843 11844 11845 11846 11847 11848 11849 11850 11851 11852 11853 11854 11855 11856 11857 11858 11859 11860 11861 11862 11863 11864 11865 11866 11867 11868 11869 11870 11871 11872 11873 11874 11875 11876 11877 11878 11879 11880 11881 11882 11883 11884 11885 11886 11887 11888 11889 11890 11891 11892 11893 11894 11895 11896 11897 11898 11899 11900 11901 11902 11903 11904 11905 11906 11907 11908 11909 11910 11911 11912 11913 11914 11915 11916 11917 11918 11919 11920 11921 11922 11923 11924 11925 11926 11927 11928 11929 11930 11931 11932 11933 11934 11935 11936 11937 11938 11939 11940 11941 11942 11943 11944 11945 11946 11947 11948 11949 11950 11951 11952 11953 11954 11955 11956 11957 11958 11959 11960 11961 11962 11963 11964 11965 11966 11967 11968 11969 11970 11971 11972 11973 11974 11975 11976 11977 11978 11979 11980 11981 11982 11983 11984 11985 11986 11987 11988 11989 11990 11991 11992 11993 11994 11995 11996 11997 11998 11999 12000 12001 12002 12003 12004 12005 12006 12007 12008 12009 12010 12011 12012 12013 12014 12015 12016 12017 12018 12019 12020 12021 12022 12023 12024 12025 12026 12027 12028 12029 12030 12031 12032 12033 12034 12035 12036 12037 12038 12039 12040 12041 12042 12043 12044 12045 12046 12047 12048 12049 12050 12051 12052 12053 12054 12055 12056 12057 12058 12059 12060 12061 12062 12063 12064 12065 12066 12067 12068 12069 12070 12071 12072 12073 12074 12075 12076 12077 12078 12079 12080 12081 12082 12083 12084 12085 12086 12087 12088 12089 12090 12091 12092 12093 12094 12095 12096 12097 12098 12099 12100 12101 12102 12103 12104 12105 12106 12107 12108 12109 12110 12111 12112 12113 12114 12115 12116 12117 12118 12119 12120 12121 12122 12123 12124 12125 12126 12127 12128 12129 12130 12131 12132 12133 12134 12135 12136 12137 12138 12139 12140 12141 12142 12143 12144 12145 12146 12147 12148 12149 12150 12151 12152 12153 12154 12155 12156 12157 12158 12159 12160 12161 12162 12163 12164 12165 12166 12167 12168 12169 12170 12171 12172 12173 12174 12175 12176 12177 12178 12179 12180 12181 12182 12183 12184 12185 12186 12187 12188 12189 12190 12191 12192 12193 12194 12195 12196 12197 12198 12199 12200 12201 12202 12203 12204 12205 12206 12207 12208 12209 12210 12211 12212 12213 12214 12215 12216 12217 12218 12219 12220 12221 12222 12223 12224 12225 12226 12227 12228 12229 12230 12231 12232 12233 12234 12235 12236 12237 12238 12239 12240 12241 12242 12243 12244 12245 12246 12247 12248 12249 12250 12251 12252 12253 12254 12255 12256 12257 12258 12259 12260 12261 12262 12263 12264 12265 12266 12267 12268 12269 12270 12271 12272 12273 12274 12275 12276 12277 12278 12279 12280 12281 12282 12283 12284 12285 12286 12287 12288 12289 12290 12291 12292 12293 12294 12295 12296 12297 12298 12299 12300 12301 12302 12303 12304 12305 12306 12307 12308 12309 12310 12311 12312 12313 12314 12315 12316 12317 12318 12319 12320 12321 12322 12323 12324 12325 12326 12327 12328 12329 12330 12331 12332 12333 12334 12335 12336 12337 12338 12339 12340 12341 12342 12343 12344 12345 12346 12347 12348 12349 12350 12351 12352 12353 12354 12355 12356 12357 12358 12359 12360 12361 12362 12363 12364 12365 12366 12367 12368 12369 12370 12371 12372 12373 12374 12375 12376 12377 12378 12379 12380 12381 12382 12383 12384 12385 12386 12387 12388 12389 12390 12391 12392 12393 12394 12395 12396 12397 12398 12399 12400 12401 12402 12403 12404 12405 12406 12407 12408 12409 12410 12411 12412 12413 12414 12415 12416 12417 12418 12419 12420 12421 12422 12423 12424 12425 12426 12427 12428 12429 12430 12431 12432 12433 12434 12435 12436 12437 12438 12439 12440 12441 12442 12443 12444 12445 12446 12447 12448 12449 12450 12451 12452 12453 12454 12455 12456 12457 12458 12459 12460 12461 12462 12463 12464 12465 12466 12467 12468 12469 12470 12471 12472 12473 12474 12475 12476 12477 12478 12479 12480 12481 12482 12483 12484 12485 12486 12487 12488 12489 12490 12491 12492 12493 12494 12495 12496 12497 12498 12499 12500 12501 12502 12503 12504 12505 12506 12507 12508 12509 12510 12511 12512 12513 12514 12515 12516 12517 12518 12519 12520 12521 12522 12523 12524 12525 12526 12527 12528 12529 12530 12531 12532 12533 12534 12535 12536 12537 12538 12539 12540 12541 12542 12543 12544 12545 12546 12547 12548 12549 12550 12551 12552 12553 12554 12555 12556 12557 12558 12559 12560 12561 12562 12563 12564 12565 12566 12567 12568 12569 12570 12571 12572 12573 12574 12575 12576 12577 12578 12579 12580 12581 12582 12583 12584 12585 12586 12587 12588 12589 12590 12591 12592 12593 12594 12595 12596 12597 12598 12599 12600 12601 12602 12603 12604 12605 12606 12607 12608 12609 12610 12611 12612 12613 12614 12615 12616 12617 12618 12619 12620 12621 12622 12623 12624 12625 12626 12627 12628 12629 12630 12631 12632 12633 12634 12635 12636 12637 12638 12639 12640 12641 12642 12643 12644 12645 12646 12647 12648 12649 12650 12651 12652 12653 12654 12655 12656 12657 12658 12659 12660 12661 12662 12663 12664 12665 12666 12667 12668 12669 12670 12671 12672 12673 12674 12675 12676 12677 12678 12679 12680 12681 12682 12683 12684 12685 12686 12687 12688 12689 12690 12691 12692 12693 12694 12695 12696 12697 12698 12699 12700 12701 12702 12703 12704 12705 12706 12707 12708 12709 12710 12711 12712 12713 12714 12715 12716 12717 12718 12719 12720 12721 12722 12723 12724 12725 12726 12727 12728 12729 12730 12731 12732 12733 12734 12735 12736 12737 12738 12739 12740 12741 12742 12743 12744 12745 12746 12747 12748 12749 12750 12751 12752 12753 12754 12755 12756 12757 12758 12759 12760 12761 12762 12763 12764 12765 12766 12767 12768 12769 12770 12771 12772 12773 12774 12775 12776 12777 12778 12779 12780 12781 12782 12783 12784 12785 12786 12787 12788 12789 12790 12791 12792 12793 12794 12795 12796 12797 12798 12799 12800 12801 12802 12803 12804 12805 12806 12807 12808 12809 12810 12811 12812 12813 12814 12815 12816 12817 12818 12819 12820 12821 12822 12823 12824 12825 12826 12827 12828 12829 12830 12831 12832 12833 12834 12835 12836 12837 12838 12839 12840 12841 12842 12843 12844 12845 12846 12847 12848 12849 12850 12851 12852 12853 12854 12855 12856 12857 12858 12859 12860 12861 12862 12863 12864 12865 12866 12867 12868 12869 12870 12871 12872 12873 12874 12875 12876 12877 12878 12879 12880 12881 12882 12883 12884 12885 12886 12887 12888 12889 12890 12891 12892 12893 12894 12895 12896 12897 12898 12899 12900 12901 12902 12903 12904 12905 12906 12907 12908 12909 12910 12911 12912 12913 12914 12915 12916 12917 12918 12919 12920 12921 12922 12923 12924 12925 12926 12927 12928 12929 12930 12931 12932 12933 12934 12935 12936 12937 12938 12939 12940 12941 12942 12943 12944 12945 12946 12947 12948 12949 12950 12951 12952 12953 12954 12955 12956 12957 12958 12959 12960 12961 12962 12963 12964 12965 12966 12967 12968 12969 12970 12971 12972 12973 12974 12975 12976 12977 12978 12979 12980 12981 12982 12983 12984 12985 12986 12987 12988 12989 12990 12991 12992 12993 12994 12995 12996 12997 12998 12999 13000 13001 13002 13003 13004 13005 13006 13007 13008 13009 13010 13011 13012 13013 13014 13015 13016 13017 13018 13019 13020 13021 13022 13023 13024 13025 13026 13027 13028 13029 13030 13031 13032 13033 13034 13035 13036 13037 13038 13039 13040 13041 13042 13043 13044 13045 13046 13047 13048 13049 13050 13051 13052 13053 13054 13055 13056 13057 13058 13059 13060 13061 13062 13063 13064 13065 13066 13067 13068 13069 13070 13071 13072 13073 13074 13075 13076 13077 13078 13079 13080 13081 13082 13083 13084 13085 13086 13087 13088 13089 13090 13091 13092 13093 13094 13095 13096 13097 13098 13099 13100 13101 13102 13103 13104 13105 13106 13107 13108 13109 13110 13111 13112 13113 13114 13115 13116 13117 13118 13119 13120 13121 13122 13123 13124 13125 13126 13127 13128 13129 13130 13131 13132 13133 13134 13135 13136 13137 13138 13139 13140 13141 13142 13143 13144 13145 13146 13147 13148 13149 13150 13151 13152 13153 13154 13155 13156 13157 13158 13159 13160 13161 13162 13163 13164 13165 13166 13167 13168 13169 13170 13171 13172 13173 13174 13175 13176 13177 13178 13179 13180 13181 13182 13183 13184 13185 13186 13187 13188 13189 13190 13191 13192 13193 13194 13195 13196 13197 13198 13199 13200 13201 13202 13203 13204 13205 13206 13207 13208 13209 13210 13211 13212 13213 13214 13215 13216 13217 13218 13219 13220 13221 13222 13223 13224 13225 13226 13227 13228 13229 13230 13231 13232 13233 13234 13235 13236 13237 13238 13239 13240 13241 13242 13243 13244 13245 13246 13247 13248 13249 13250 13251 13252 13253 13254 13255 13256 13257 13258 13259 13260 13261 13262 13263 13264 13265 13266 13267 13268 13269 13270 13271 13272 13273 13274 13275 13276 13277 13278 13279 13280 13281 13282 13283 13284 13285 13286 13287 13288 13289 13290 13291 13292 13293 13294 13295 13296 13297 13298 13299 13300 13301 13302 13303 13304 13305 13306 13307 13308 13309 13310 13311 13312 13313 13314 13315 13316 13317 13318 13319 13320 13321 13322 13323 13324 13325 13326 13327 13328 13329 13330 13331 13332 13333 13334 13335 13336 13337 13338 13339 13340 13341 13342 13343 13344 13345 13346 13347 13348 13349 13350 13351 13352 13353 13354 13355 13356 13357 13358 13359 13360 13361 13362 13363 13364 13365 13366 13367 13368 13369 13370 13371 13372 13373 13374 13375 13376 13377 13378 13379 13380 13381 13382 13383 13384 13385 13386 13387 13388 13389 13390 13391 13392 13393 13394 13395 13396 13397 13398 13399 13400 13401 13402 13403 13404 13405 13406 13407 13408 13409 13410 13411 13412 13413 13414 13415 13416 13417 13418 13419 13420 13421 13422 13423 13424 13425 13426 13427 13428 13429 13430 13431 13432 13433 13434 13435 13436 13437 13438 13439 13440 13441 13442 13443 13444 13445 13446 13447 13448 13449 13450 13451 13452 13453 13454 13455 13456 13457 13458 13459 13460 13461 13462 13463 13464 13465 13466 13467 13468 13469 13470 13471 13472 13473 13474 13475 13476 13477 13478 13479 13480 13481 13482 13483 13484 13485 13486 13487 13488 13489 13490 13491 13492 13493 13494 13495 13496 13497 13498 13499 13500 13501 13502 13503 13504 13505 13506 13507 13508 13509 13510 13511 13512 13513 13514 13515 13516 13517 13518 13519 13520 13521 13522 13523 13524 13525 13526 13527 13528 13529 13530 13531 13532 13533 13534 13535 13536 13537 13538 13539 13540 13541 13542 13543 13544 13545 13546 13547 13548 13549 13550 13551 13552 13553 13554 13555 13556 13557 13558 13559 13560 13561 13562 13563 13564 13565 13566 13567 13568 13569 13570 13571 13572 13573 13574 13575 13576 13577 13578 13579 13580 13581 13582 13583 13584 13585 13586 13587 13588 13589 13590 13591 13592 13593 13594 13595 13596 13597 13598 13599 13600 13601 13602 13603 13604 13605 13606 13607 13608 13609 13610 13611 13612 13613 13614 13615 13616 13617 13618 13619 13620 13621 13622 13623 13624 13625 13626 13627 13628 13629 13630 13631 13632 13633 13634 13635 13636 13637 13638 13639 13640 13641 13642 13643 13644 13645 13646 13647 13648 13649 13650 13651 13652 13653 13654 13655 13656 13657 13658 13659 13660 13661 13662 13663 13664 13665 13666 13667 13668 13669 13670 13671 13672 13673 13674 13675 13676 13677 13678 13679 13680 13681 13682 13683 13684 13685 13686 13687 13688 13689 13690 13691 13692 13693 13694 13695 13696 13697 13698 13699 13700 13701 13702 13703 13704 13705 13706 13707 13708 13709 13710 13711 13712 13713 13714 13715 13716 13717 13718 13719 13720 13721 13722 13723 13724 13725 13726 13727 13728 13729 13730 13731 13732 13733 13734 13735 13736 13737 13738 13739 13740 13741 13742 13743 13744 13745 13746 13747 13748 13749 13750 13751 13752 13753 13754 13755 13756 13757 13758 13759 13760 13761 13762 13763 13764 13765 13766 13767 13768 13769 13770 13771 13772 13773 13774 13775 13776 13777 13778 13779 13780 13781 13782 13783 13784 13785 13786 13787 13788 13789 13790 13791 13792 13793 13794 13795 13796 13797 13798 13799 13800 13801 13802 13803 13804 13805 13806 13807 13808 13809 13810 13811 13812 13813 13814 13815 13816 13817 13818 13819 13820 13821 13822 13823 13824 13825 13826 13827 13828 13829 13830 13831 13832 13833 13834 13835 13836 13837 13838 13839 13840 13841 13842 13843 13844 13845 13846 13847 13848 13849 13850 13851 13852 13853 13854 13855 13856 13857 13858 13859 13860 13861 13862 13863 13864 13865 13866 13867 13868 13869 13870 13871 13872 13873 13874 13875 13876 13877 13878 13879 13880 13881 13882 13883 13884 13885 13886 13887 13888 13889 13890 13891 13892 13893 13894 13895 13896 13897 13898 13899 13900 13901 13902 13903 13904 13905 13906 13907 13908 13909 13910 13911 13912 13913 13914 13915 13916 13917 13918 13919 13920 13921 13922 13923 13924 13925 13926 13927 13928 13929 13930 13931 13932 13933 13934 13935 13936 13937 13938 13939 13940 13941 13942 13943 13944 13945 13946 13947 13948 13949 13950 13951 13952 13953 13954 13955 13956 13957 13958 13959 13960 13961 13962 13963 13964 13965 13966 13967 13968 13969 13970 13971 13972 13973 13974 13975 13976 13977 13978 13979 13980 13981 13982 13983 13984 13985 13986 13987 13988 13989 13990 13991 13992 13993 13994 13995 13996 13997 13998 13999 14000 14001 14002 14003 14004 14005 14006 14007 14008 14009 14010 14011 14012 14013 14014 14015 14016 14017 14018 14019 14020 14021 14022 14023 14024 14025 14026 14027 14028 14029 14030 14031 14032 14033 14034 14035 14036 14037 14038 14039 14040 14041 14042 14043 14044 14045 14046 14047 14048 14049 14050 14051 14052 14053 14054 14055 14056 14057 14058 14059 14060 14061 14062 14063 14064 14065 14066 14067 14068 14069 14070 14071 14072 14073 14074 14075 14076 14077 14078 14079 14080 14081 14082 14083 14084 14085 14086 14087 14088 14089 14090 14091 14092 14093 14094 14095 14096 14097 14098 14099 14100 14101 14102 14103 14104 14105 14106 14107 14108 14109 14110 14111 14112 14113 14114 14115 14116 14117 14118 14119 14120 14121 14122 14123 14124 14125 14126 14127 14128 14129 14130 14131 14132 14133 14134 14135 14136 14137 14138 14139 14140 14141 14142 14143 14144 14145 14146 14147 14148 14149 14150 14151 14152 14153 14154 14155 14156 14157 14158 14159 14160 14161 14162 14163 14164 14165 14166 14167 14168 14169 14170 14171 14172 14173 14174 14175 14176 14177 14178 14179 14180 14181 14182 14183 14184 14185 14186 14187 14188 14189 14190 14191 14192 14193 14194 14195 14196 14197 14198 14199 14200 14201 14202 14203 14204 14205 14206 14207 14208 14209 14210 14211 14212 14213 14214 14215 14216 14217 14218 14219 14220 14221 14222 14223 14224 14225 14226 14227 14228 14229 14230 14231 14232 14233 14234 14235 14236 14237 14238 14239 14240 14241 14242 14243 14244 14245 14246 14247 14248 14249 14250 14251 14252 14253 14254 14255 14256 14257 14258 14259 14260 14261 14262 14263 14264 14265 14266 14267 14268 14269 14270 14271 14272 14273 14274 14275 14276 14277 14278 14279 14280 14281 14282 14283 14284 14285 14286 14287 14288 14289 14290 14291 14292 14293 14294 14295 14296 14297 14298 14299 14300 14301 14302 14303 14304 14305 14306 14307 14308 14309 14310 14311 14312 14313 14314 14315 14316 14317 14318 14319 14320 14321 14322 14323 14324 14325 14326 14327 14328 14329 14330 14331 14332 14333 14334 14335 14336 14337 14338 14339 14340 14341 14342 14343 14344 14345 14346 14347 14348 14349 14350 14351 14352 14353 14354 14355 14356 14357 14358 14359 14360 14361 14362 14363 14364 14365 14366 14367 14368 14369 14370 14371 14372 14373 14374 14375 14376 14377 14378 14379 14380 14381 14382 14383 14384 14385 14386 14387 14388 14389 14390 14391 14392 14393 14394 14395 14396 14397 14398 14399 14400 14401 14402 14403 14404 14405 14406 14407 14408 14409 14410 14411 14412 14413 14414 14415 14416 14417 14418 14419 14420 14421 14422 14423 14424 14425 14426 14427 14428 14429 14430 14431 14432 14433 14434 14435 14436 14437 14438 14439 14440 14441 14442 14443 14444 14445 14446 14447 14448 14449 14450 14451 14452 14453 14454 14455 14456 14457 14458 14459 14460 14461 14462 14463 14464 14465 14466 14467 14468 14469 14470 14471 14472 14473 14474 14475 14476 14477 14478 14479 14480 14481 14482 14483 14484 14485 14486 14487 14488 14489 14490 14491 14492 14493 14494 14495 14496 14497 14498 14499 14500 14501 14502 14503 14504 14505 14506 14507 14508 14509 14510 14511 14512 14513 14514 14515 14516 14517 14518 14519 14520 14521 14522 14523 14524 14525 14526 14527 14528 14529 14530 14531 14532 14533 14534 14535 14536 14537 14538 14539 14540 14541 14542 14543 14544 14545 14546 14547 14548 14549 14550 14551 14552 14553 14554 14555 14556 14557 14558 14559 14560 14561 14562 14563 14564 14565 14566 14567 14568 14569 14570 14571 14572 14573 14574 14575 14576 14577 14578 14579 14580 14581 14582 14583 14584 14585 14586 14587 14588 14589 14590 14591 14592 14593 14594 14595 14596 14597 14598 14599 14600 14601 14602 14603 14604 14605 14606 14607 14608 14609 14610 14611 14612 14613 14614 14615 14616 14617 14618 14619 14620 14621 14622 14623 14624 14625 14626 14627 14628 14629 14630 14631 14632 14633 14634 14635 14636 14637 14638 14639 14640 14641 14642 14643 14644 14645 14646 14647 14648 14649 14650 14651 14652 14653 14654 14655 14656 14657 14658 14659 14660 14661 14662 14663 14664 14665 14666 14667 14668 14669 14670 14671 14672 14673 14674 14675 14676 14677 14678 14679 14680 14681 14682 14683 14684 14685 14686 14687 14688 14689 14690 14691 14692 14693 14694 14695 14696 14697 14698 14699 14700 14701 14702 14703 14704 14705 14706 14707 14708 14709 14710 14711 14712 14713 14714 14715 14716 14717 14718 14719 14720 14721 14722 14723 14724 14725 14726 14727 14728 14729 14730 14731 14732 14733 14734 14735 14736 14737 14738 14739 14740 14741 14742 14743 14744 14745 14746 14747 14748 14749 14750 14751 14752 14753 14754 14755 14756 14757 14758 14759 14760 14761 14762 14763 14764 14765 14766 14767 14768 14769 14770 14771 14772 14773 14774 14775 14776 14777 14778 14779 14780 14781 14782 14783 14784 14785 14786 14787 14788 14789 14790 14791 14792 14793 14794 14795 14796 14797 14798 14799 14800 14801 14802 14803 14804 14805 14806 14807 14808 14809 14810 14811 14812 14813 14814 14815 14816 14817 14818 14819 14820 14821 14822 14823 14824 14825 14826 14827 14828 14829 14830 14831 14832 14833 14834 14835 14836 14837 14838 14839 14840 14841 14842 14843 14844 14845 14846 14847 14848 14849 14850 14851 14852 14853 14854 14855 14856 14857 14858 14859 14860 14861 14862 14863 14864 14865 14866 14867 14868 14869 14870 14871 14872 14873 14874 14875 14876 14877 14878 14879 14880 14881 14882 14883 14884 14885 14886 14887 14888 14889 14890 14891 14892 14893 14894 14895 14896 14897 14898 14899 14900 14901 14902 14903 14904 14905 14906 14907 14908 14909 14910 14911 14912 14913 14914 14915 14916 14917 14918 14919 14920 14921 14922 14923 14924 14925 14926 14927 14928 14929 14930 14931 14932 14933 14934 14935 14936 14937 14938 14939 14940 14941 14942 14943 14944 14945 14946 14947 14948 14949 14950 14951 14952 14953 14954 14955 14956 14957 14958 14959 14960 14961 14962 14963 14964 14965 14966 14967 14968 14969 14970 14971 14972 14973 14974 14975 14976 14977 14978 14979 14980 14981 14982 14983 14984 14985 14986 14987 14988 14989 14990 14991 14992 14993 14994 14995 14996 14997 14998 14999 15000 15001 15002 15003 15004 15005 15006 15007 15008 15009 15010 15011 15012 15013 15014 15015 15016 15017 15018 15019 15020 15021 15022 15023 15024 15025 15026 15027 15028 15029 15030 15031 15032 15033 15034 15035 15036 15037 15038 15039 15040 15041 15042 15043 15044 15045 15046 15047 15048 15049 15050 15051 15052 15053 15054 15055 15056 15057 15058 15059 15060 15061 15062 15063 15064 15065 15066 15067 15068 15069 15070 15071 15072 15073 15074 15075 15076 15077 15078 15079 15080 15081 15082 15083 15084 15085 15086 15087 15088 15089 15090 15091 15092 15093 15094 15095 15096 15097 15098 15099 15100 15101 15102 15103 15104 15105 15106 15107 15108 15109 15110 15111 15112 15113 15114 15115 15116 15117 15118 15119 15120 15121 15122 15123 15124 15125 15126 15127 15128 15129 15130 15131 15132 15133 15134 15135 15136 15137 15138 15139 15140 15141 15142 15143 15144 15145 15146 15147 15148 15149 15150 15151 15152 15153 15154 15155 15156 15157 15158 15159 15160 15161 15162 15163 15164 15165 15166 15167 15168 15169 15170 15171 15172 15173 15174 15175 15176 15177 15178 15179 15180 15181 15182 15183 15184 15185 15186 15187 15188 15189 15190 15191 15192 15193 15194 15195 15196 15197 15198 15199 15200 15201 15202 15203 15204 15205 15206 15207 15208 15209 15210 15211 15212 15213 15214 15215 15216 15217 15218 15219 15220 15221 15222 15223 15224 15225 15226 15227 15228 15229 15230 15231 15232 15233 15234 15235 15236 15237 15238 15239 15240 15241 15242 15243 15244 15245 15246 15247 15248 15249 15250 15251 15252 15253 15254 15255 15256 15257 15258 15259 15260 15261 15262 15263 15264 15265 15266 15267 15268 15269 15270 15271 15272 15273 15274 15275 15276 15277 15278 15279 15280 15281 15282 15283 15284 15285 15286 15287 15288 15289 15290 15291 15292 15293 15294 15295 15296 15297 15298 15299 15300 15301 15302 15303 15304 15305 15306 15307 15308 15309 15310 15311 15312 15313 15314 15315 15316 15317 15318 15319 15320 15321 15322 15323 15324 15325 15326 15327 15328 15329 15330 15331 15332 15333 15334 15335 15336 15337 15338 15339 15340 15341 15342 15343 15344 15345 15346 15347 15348 15349 15350 15351 15352 15353 15354 15355 15356 15357 15358 15359 15360 15361 15362 15363 15364 15365 15366 15367 15368 15369 15370 15371 15372 15373 15374 15375 15376 15377 15378 15379 15380 15381 15382 15383 15384 15385 15386 15387 15388 15389 15390 15391 15392 15393 15394 15395 15396 15397 15398 15399 15400 15401 15402 15403 15404 15405 15406 15407 15408 15409 15410 15411 15412 15413 15414 15415 15416 15417 15418 15419 15420 15421 15422 15423 15424 15425 15426 15427 15428 15429 15430 15431 15432 15433 15434 15435 15436 15437 15438 15439 15440 15441 15442 15443 15444 15445 15446 15447 15448 15449 15450 15451 15452 15453 15454 15455 15456 15457 15458 15459 15460 15461 15462 15463 15464 15465 15466 15467 15468 15469 15470 15471 15472 15473 15474 15475 15476 15477 15478 15479 15480 15481 15482 15483 15484 15485 15486 15487 15488 15489 15490 15491 15492 15493 15494 15495 15496 15497 15498 15499 15500 15501 15502 15503 15504 15505 15506 15507 15508 15509 15510 15511 15512 15513 15514 15515 15516 15517 15518 15519 15520 15521 15522 15523 15524 15525 15526 15527 15528 15529 15530 15531 15532 15533 15534 15535 15536 15537 15538 15539 15540 15541 15542 15543 15544 15545 15546 15547 15548 15549 15550 15551 15552 15553 15554 15555 15556 15557 15558 15559 15560 15561 15562 15563 15564 15565 15566 15567 15568 15569 15570 15571 15572 15573 15574 15575 15576 15577 15578 15579 15580 15581 15582 15583 15584 15585 15586 15587 15588 15589 15590 15591 15592 15593 15594 15595 15596 15597 15598 15599 15600 15601 15602 15603 15604 15605 15606 15607 15608 15609 15610 15611 15612 15613 15614 15615 15616 15617 15618 15619 15620 15621 15622 15623 15624 15625 15626 15627 15628 15629 15630 15631 15632 15633 15634 15635 15636 15637 15638 15639 15640 15641 15642 15643 15644 15645 15646 15647 15648 15649 15650 15651 15652 15653 15654 15655 15656 15657 15658 15659 15660 15661 15662 15663 15664 15665 15666 15667 15668 15669 15670 15671 15672 15673 15674 15675 15676 15677 15678 15679 15680 15681 15682 15683 15684 15685 15686 15687 15688 15689 15690 15691 15692 15693 15694 15695 15696 15697 15698 15699 15700 15701 15702 15703 15704 15705 15706 15707 15708 15709 15710 15711 15712 15713 15714 15715 15716 15717 15718 15719 15720 15721 15722 15723 15724 15725 15726 15727 15728 15729 15730 15731 15732 15733 15734 15735 15736 15737 15738 15739 15740 15741 15742 15743 15744 15745 15746 15747 15748 15749 15750 15751 15752 15753 15754 15755 15756 15757 15758 15759 15760 15761 15762 15763 15764 15765 15766 15767 15768 15769 15770 15771 15772 15773 15774 15775 15776 15777 15778 15779 15780 15781 15782 15783 15784 15785 15786 15787 15788 15789 15790 15791 15792 15793 15794 15795 15796 15797 15798 15799 15800 15801 15802 15803 15804 15805 15806 15807 15808 15809 15810 15811 15812 15813 15814 15815 15816 15817 15818 15819 15820 15821 15822 15823 15824 15825 15826 15827 15828 15829 15830 15831 15832 15833 15834 15835 15836 15837 15838 15839 15840 15841 15842 15843 15844 15845 15846 15847 15848 15849 15850 15851 15852 15853 15854 15855 15856 15857 15858 15859 15860 15861 15862 15863 15864 15865 15866 15867 15868 15869 15870 15871 15872 15873 15874 15875 15876 15877 15878 15879 15880 15881 15882 15883 15884 15885 15886 15887 15888 15889 15890 15891 15892 15893 15894 15895 15896 15897 15898 15899 15900 15901 15902 15903 15904 15905 15906 15907 15908 15909 15910 15911 15912 15913 15914 15915 15916 15917 15918 15919 15920 15921 15922 15923 15924 15925 15926 15927 15928 15929 15930 15931 15932 15933 15934 15935 15936 15937 15938 15939 15940 15941 15942 15943 15944 15945 15946 15947 15948 15949 15950 15951 15952 15953 15954 15955 15956 15957 15958 15959 15960 15961 15962 15963 15964 15965 15966 15967 15968 15969 15970 15971 15972 15973 15974 15975 15976 15977 15978 15979 15980 15981 15982 15983 15984 15985 15986 15987 15988 15989 15990 15991 15992 15993 15994 15995 15996 15997 15998 15999 16000 16001 16002 16003 16004 16005 16006 16007 16008 16009 16010 16011 16012 16013 16014 16015 16016 16017 16018 16019 16020 16021 16022 16023 16024 16025 16026 16027 16028 16029 16030 16031 16032 16033 16034 16035 16036 16037 16038 16039 16040 16041 16042 16043 16044 16045 16046 16047 16048 16049 16050 16051 16052 16053 16054 16055 16056 16057 16058 16059 16060 16061 16062 16063 16064 16065 16066 16067 16068 16069 16070 16071 16072 16073 16074 16075 16076 16077 16078 16079 16080 16081 16082 16083 16084 16085 16086 16087 16088 16089 16090 16091 16092 16093 16094 16095 16096 16097 16098 16099 16100 16101 16102 16103 16104 16105 16106 16107 16108 16109 16110 16111 16112 16113 16114 16115 16116 16117 16118 16119 16120 16121 16122 16123 16124 16125 16126 16127 16128 16129 16130 16131 16132 16133 16134 16135 16136 16137 16138 16139 16140 16141 16142 16143 16144 16145 16146 16147 16148 16149 16150 16151 16152 16153 16154 16155 16156 16157 16158 16159 16160 16161 16162 16163 16164 16165 16166 16167 16168 16169 16170 16171 16172 16173 16174 16175 16176 16177 16178 16179 16180 16181 16182 16183 16184 16185 16186 16187 16188 16189 16190 16191 16192 16193 16194 16195 16196 16197 16198 16199 16200 16201 16202 16203 16204 16205 16206 16207 16208 16209 16210 16211 16212 16213 16214 16215 16216 16217 16218 16219 16220 16221 16222 16223 16224 16225 16226 16227 16228 16229 16230 16231 16232 16233 16234 16235 16236 16237 16238 16239 16240 16241 16242 16243 16244 16245 16246 16247 16248 16249 16250 16251 16252 16253 16254 16255 16256 16257 16258 16259 16260 16261 16262 16263 16264 16265 16266 16267 16268 16269 16270 16271 16272 16273 16274 16275 16276 16277 16278 16279 16280 16281 16282 16283 16284 16285 16286 16287 16288 16289 16290 16291 16292 16293 16294 16295 16296 16297 16298 16299 16300 16301 16302 16303 16304 16305 16306 16307 16308 16309 16310 16311 16312 16313 16314 16315 16316 16317 16318 16319 16320 16321 16322 16323 16324 16325 16326 16327 16328 16329 16330 16331 16332 16333 16334 16335 16336 16337 16338 16339 16340 16341 16342 16343 16344 16345 16346 16347 16348 16349 16350 16351 16352 16353 16354 16355 16356 16357 16358 16359 16360 16361 16362 16363 16364 16365 16366 16367 16368 16369 16370 16371 16372 16373 16374 16375 16376 16377 16378 16379 16380 16381 16382 16383 16384 16385 16386 16387 16388 16389 16390 16391 16392 16393 16394 16395 16396 16397 16398 16399 16400 16401 16402 16403 16404 16405 16406 16407 16408 16409 16410 16411 16412 16413 16414 16415 16416 16417 16418 16419 16420 16421 16422 16423 16424 16425 16426 16427 16428 16429 16430 16431 16432 16433 16434 16435 16436 16437 16438 16439 16440 16441 16442 16443 16444 16445 16446 16447 16448 16449 16450 16451 16452 16453 16454 16455 16456 16457 16458 16459 16460 16461 16462 16463 16464 16465 16466 16467 16468 16469 16470 16471 16472 16473 16474 16475 16476 16477 16478 16479 16480 16481 16482 16483 16484 16485 16486 16487 16488 16489 16490 16491 16492 16493 16494 16495 16496 16497 16498 16499 16500 16501 16502 16503 16504 16505 16506 16507 16508 16509 16510 16511 16512 16513 16514 16515 16516 16517 16518 16519 16520 16521 16522 16523 16524 16525 16526 16527 16528 16529 16530 16531 16532 16533 16534 16535 16536 16537 16538 16539 16540 16541 16542 16543 16544 16545 16546 16547 16548 16549 16550 16551 16552 16553 16554 16555 16556 16557 16558 16559 16560 16561 16562 16563 16564 16565 16566 16567 16568 16569 16570 16571 16572 16573 16574 16575 16576 16577 16578 16579 16580 16581 16582 16583 16584 16585 16586 16587 16588 16589 16590 16591 16592 16593 16594 16595 16596 16597 16598 16599 16600 16601 16602 16603 16604 16605 16606 16607 16608 16609 16610 16611 16612 16613 16614 16615 16616 16617 16618 16619 16620 16621 16622 16623 16624 16625 16626 16627 16628 16629 16630 16631 16632 16633 16634 16635 16636 16637 16638 16639 16640 16641 16642 16643 16644 16645 16646 16647 16648 16649 16650 16651 16652 16653 16654 16655 16656 16657 16658 16659 16660 16661 16662 16663 16664 16665 16666 16667 16668 16669 16670 16671 16672 16673 16674 16675 16676 16677 16678 16679 16680 16681 16682 16683 16684 16685 16686 16687 16688 16689 16690 16691 16692 16693 16694 16695 16696 16697 16698 16699 16700 16701 16702 16703 16704 16705 16706 16707 16708 16709 16710 16711 16712 16713 16714 16715 16716 16717 16718 16719 16720 16721 16722 16723 16724 16725 16726 16727 16728 16729 16730 16731 16732 16733 16734 16735 16736 16737 16738 16739 16740 16741 16742 16743 16744 16745 16746 16747 16748 16749 16750 16751 16752 16753 16754 16755 16756 16757 16758 16759 16760 16761 16762 16763 16764 16765 16766 16767 16768 16769 16770 16771 16772 16773 16774 16775 16776 16777 16778 16779 16780 16781 16782 16783 16784 16785 16786 16787 16788 16789 16790 16791 16792 16793 16794 16795 16796 16797 16798 16799 16800 16801 16802 16803 16804 16805 16806 16807 16808 16809 16810 16811 16812 16813 16814 16815 16816 16817 16818 16819 16820 16821 16822 16823 16824 16825 16826 16827 16828 16829 16830 16831 16832 16833 16834 16835 16836 16837 16838 16839 16840 16841 16842 16843 16844 16845 16846 16847 16848 16849 16850 16851 16852 16853 16854 16855 16856 16857 16858 16859 16860 16861 16862 16863 16864 16865 16866 16867 16868 16869 16870 16871 16872 16873 16874 16875 16876 16877 16878 16879 16880 16881 16882 16883 16884 16885 16886 16887 16888 16889 16890 16891 16892 16893 16894 16895 16896 16897 16898 16899 16900 16901 16902 16903 16904 16905 16906 16907 16908 16909 16910 16911 16912 16913 16914 16915 16916 16917 16918 16919 16920 16921 16922 16923 16924 16925 16926 16927 16928 16929 16930 16931 16932 16933 16934 16935 16936 16937 16938 16939 16940 16941 16942 16943 16944 16945 16946 16947 16948 16949 16950 16951 16952 16953 16954 16955 16956 16957 16958 16959 16960 16961 16962 16963 16964 16965 16966 16967 16968 16969 16970 16971 16972 16973 16974 16975 16976 16977 16978 16979 16980 16981 16982 16983 16984 16985 16986 16987 16988 16989 16990 16991 16992 16993 16994 16995 16996 16997 16998 16999 17000 17001 17002 17003 17004 17005 17006 17007 17008 17009 17010 17011 17012 17013 17014 17015 17016 17017 17018 17019 17020 17021 17022 17023 17024 17025 17026 17027 17028 17029 17030 17031 17032 17033 17034 17035 17036 17037 17038 17039 17040 17041 17042 17043 17044 17045 17046 17047 17048 17049 17050 17051 17052 17053 17054 17055 17056 17057 17058 17059 17060 17061 17062 17063 17064 17065 17066 17067 17068 17069 17070 17071 17072 17073 17074 17075 17076 17077 17078 17079 17080 17081 17082 17083 17084 17085 17086 17087 17088 17089 17090 17091 17092 17093 17094 17095 17096 17097 17098 17099 17100 17101 17102 17103 17104 17105 17106 17107 17108 17109 17110 17111 17112 17113 17114 17115 17116 17117 17118 17119 17120 17121 17122 17123 17124 17125 17126 17127 17128 17129 17130 17131 17132 17133 17134 17135 17136 17137 17138 17139 17140 17141 17142 17143 17144 17145 17146 17147 17148 17149 17150 17151 17152 17153 17154 17155 17156 17157 17158 17159 17160 17161 17162 17163 17164 17165 17166 17167 17168 17169 17170 17171 17172 17173 17174 17175 17176 17177 17178 17179 17180 17181 17182 17183 17184 17185 17186 17187 17188 17189 17190 17191 17192 17193 17194 17195 17196 17197 17198 17199 17200 17201 17202 17203 17204 17205 17206 17207 17208 17209 17210 17211 17212 17213 17214 17215 17216 17217 17218 17219 17220 17221 17222 17223 17224 17225 17226 17227 17228 17229 17230 17231 17232 17233 17234 17235 17236 17237 17238 17239 17240 17241 17242 17243 17244 17245 17246 17247 17248 17249 17250 17251 17252 17253 17254 17255 17256 17257 17258 17259 17260 17261 17262 17263 17264 17265 17266 17267 17268 17269 17270 17271 17272 17273 17274 17275 17276 17277 17278 17279 17280 17281 17282 17283 17284 17285 17286 17287 17288 17289 17290 17291 17292 17293 17294 17295 17296 17297 17298 17299 17300 17301 17302 17303 17304 17305 17306 17307 17308 17309 17310 17311 17312 17313 17314 17315 17316 17317 17318 17319 17320 17321 17322 17323 17324 17325 17326 17327 17328 17329 17330 17331 17332 17333 17334 17335 17336 17337 17338 17339 17340 17341 17342 17343 17344 17345 17346 17347 17348 17349 17350 17351 17352 17353 17354 17355 17356 17357 17358 17359 17360 17361 17362 17363 17364 17365 17366 17367 17368 17369 17370 17371 17372 17373 17374 17375 17376 17377 17378 17379 17380 17381 17382 17383 17384 17385 17386 17387 17388 17389 17390 17391 17392 17393 17394 17395 17396 17397 17398 17399 17400 17401 17402 17403 17404 17405 17406 17407 17408 17409 17410 17411 17412 17413 17414 17415 17416 17417 17418 17419 17420 17421 17422 17423 17424 17425 17426 17427 17428 17429 17430 17431 17432 17433 17434 17435 17436 17437 17438 17439 17440 17441 17442 17443 17444 17445 17446 17447 17448 17449 17450 17451 17452 17453 17454 17455 17456 17457 17458 17459 17460 17461 17462 17463 17464 17465 17466 17467 17468 17469 17470 17471 17472 17473 17474 17475 17476 17477 17478 17479 17480 17481 17482 17483 17484 17485 17486 17487 17488 17489 17490 17491 17492 17493 17494 17495 17496 17497 17498 17499 17500 17501 17502 17503 17504 17505 17506 17507 17508 17509 17510 17511 17512 17513 17514 17515 17516 17517 17518 17519 17520 17521 17522 17523 17524 17525 17526 17527 17528 17529 17530 17531 17532 17533 17534 17535 17536 17537 17538 17539 17540 17541 17542 17543 17544 17545 17546 17547 17548 17549 17550 17551 17552 17553 17554 17555 17556 17557 17558 17559 17560 17561 17562 17563 17564 17565 17566 17567 17568 17569 17570 17571 17572 17573 17574 17575 17576 17577 17578 17579 17580 17581 17582 17583 17584 17585 17586 17587 17588 17589 17590 17591 17592 17593 17594 17595 17596 17597 17598 17599 17600 17601 17602 17603 17604 17605 17606 17607 17608 17609 17610 17611 17612 17613 17614 17615 17616 17617 17618 17619 17620 17621 17622 17623 17624 17625 17626 17627 17628 17629 17630 17631 17632 17633 17634 17635 17636 17637 17638 17639 17640 17641 17642 17643 17644 17645 17646 17647 17648 17649 17650 17651 17652 17653 17654 17655 17656 17657 17658 17659 17660 17661 17662 17663 17664 17665 17666 17667 17668 17669 17670 17671 17672 17673 17674 17675 17676 17677 17678 17679 17680 17681 17682 17683 17684 17685 17686 17687 17688 17689 17690 17691 17692 17693 17694 17695 17696 17697 17698 17699 17700 17701 17702 17703 17704 17705 17706 17707 17708 17709 17710 17711 17712 17713 17714 17715 17716 17717 17718 17719 17720 17721 17722 17723 17724 17725 17726 17727 17728 17729 17730 17731 17732 17733 17734 17735 17736 17737 17738 17739 17740 17741 17742 17743 17744 17745 17746 17747 17748 17749 17750 17751 17752 17753 17754 17755 17756 17757 17758 17759 17760 17761 17762 17763 17764 17765 17766 17767 17768 17769 17770 17771 17772 17773 17774 17775 17776 17777 17778 17779 17780 17781 17782 17783 17784 17785 17786 17787 17788 17789 17790 17791 17792 17793 17794 17795 17796 17797 17798 17799 17800 17801 17802 17803 17804 17805 17806 17807 17808 17809 17810 17811 17812 17813 17814 17815 17816 17817 17818 17819 17820 17821 17822 17823 17824 17825 17826 17827 17828 17829 17830 17831 17832 17833 17834 17835 17836 17837 17838 17839 17840 17841 17842 17843 17844 17845 17846 17847 17848 17849 17850 17851 17852 17853 17854 17855 17856 17857 17858 17859 17860 17861 17862 17863 17864 17865 17866 17867 17868 17869 17870 17871 17872 17873 17874 17875 17876 17877 17878 17879 17880 17881 17882 17883 17884 17885 17886 17887 17888 17889 17890 17891 17892 17893 17894 17895 17896 17897 17898 17899 17900 17901 17902 17903 17904 17905 17906 17907 17908 17909 17910 17911 17912 17913 17914 17915 17916 17917 17918 17919 17920 17921 17922 17923 17924 17925 17926 17927 17928 17929 17930 17931 17932 17933 17934 17935 17936 17937 17938 17939 17940 17941 17942 17943 17944 17945 17946 17947 17948 17949 17950 17951 17952 17953 17954 17955 17956 17957 17958 17959 17960 17961 17962 17963 17964 17965 17966 17967 17968 17969 17970 17971 17972 17973 17974 17975 17976 17977 17978 17979 17980 17981 17982 17983 17984 17985 17986 17987 17988 17989 17990 17991 17992 17993 17994 17995 17996 17997 17998 17999 18000 18001 18002 18003 18004 18005 18006 18007 18008 18009 18010 18011 18012 18013 18014 18015 18016 18017 18018 18019 18020 18021 18022 18023 18024 18025 18026 18027 18028 18029 18030 18031 18032 18033 18034 18035 18036 18037 18038 18039 18040 18041 18042 18043 18044 18045 18046 18047 18048 18049 18050 18051 18052 18053 18054 18055 18056 18057 18058 18059 18060 18061 18062 18063 18064 18065 18066 18067 18068 18069 18070 18071 18072 18073 18074 18075 18076 18077 18078 18079 18080 18081 18082 18083 18084 18085 18086 18087 18088 18089 18090 18091 18092 18093 18094 18095 18096 18097 18098 18099 18100 18101 18102 18103 18104 18105 18106 18107 18108 18109 18110 18111 18112 18113 18114 18115 18116 18117 18118 18119 18120 18121 18122 18123 18124 18125 18126 18127 18128 18129 18130 18131 18132 18133 18134 18135 18136 18137 18138 18139 18140 18141 18142 18143 18144 18145 18146 18147 18148 18149 18150 18151 18152 18153 18154 18155 18156 18157 18158 18159 18160 18161 18162 18163 18164 18165 18166 18167 18168 18169 18170 18171 18172 18173 18174 18175 18176 18177 18178 18179 18180 18181 18182 18183 18184 18185 18186 18187 18188 18189 18190 18191 18192 18193 18194 18195 18196 18197 18198 18199 18200 18201 18202 18203 18204 18205 18206 18207 18208 18209 18210 18211 18212 18213 18214 18215 18216 18217 18218 18219 18220 18221 18222 18223 18224 18225 18226 18227 18228 18229 18230 18231 18232 18233 18234 18235 18236 18237 18238 18239 18240 18241 18242 18243 18244 18245 18246 18247 18248 18249 18250 18251 18252 18253 18254 18255 18256 18257 18258 18259 18260 18261 18262 18263 18264 18265 18266 18267 18268 18269 18270 18271 18272 18273 18274 18275 18276 18277 18278 18279 18280 18281 18282 18283 18284 18285 18286 18287 18288 18289 18290 18291 18292 18293 18294 18295 18296 18297 18298 18299 18300 18301 18302 18303 18304 18305 18306 18307 18308 18309 18310 18311 18312 18313 18314 18315 18316 18317 18318 18319 18320 18321 18322 18323 18324 18325 18326 18327 18328 18329 18330 18331 18332 18333 18334 18335 18336 18337 18338 18339 18340 18341 18342 18343 18344 18345 18346 18347 18348 18349 18350 18351 18352 18353 18354 18355 18356 18357 18358 18359 18360 18361 18362 18363 18364 18365 18366 18367 18368 18369 18370 18371 18372 18373 18374 18375 18376 18377 18378 18379 18380 18381 18382 18383 18384 18385 18386 18387 18388 18389 18390 18391 18392 18393 18394 18395 18396 18397 18398 18399 18400 18401 18402 18403 18404 18405 18406 18407 18408 18409 18410 18411 18412 18413 18414 18415 18416 18417 18418 18419 18420 18421 18422 18423 18424 18425 18426 18427 18428 18429 18430 18431 18432 18433 18434 18435 18436 18437 18438 18439 18440 18441 18442 18443 18444 18445 18446 18447 18448 18449 18450 18451 18452 18453 18454 18455 18456 18457 18458 18459 18460 18461 18462 18463 18464 18465 18466 18467 18468 18469 18470 18471 18472 18473 18474 18475 18476 18477 18478 18479 18480 18481 18482 18483 18484 18485 18486 18487 18488 18489 18490 18491 18492 18493 18494 18495 18496 18497 18498 18499 18500 18501 18502 18503 18504 18505 18506 18507 18508 18509 18510 18511 18512 18513 18514 18515 18516 18517 18518 18519 18520 18521 18522 18523 18524 18525 18526 18527 18528 18529 18530 18531 18532 18533 18534 18535 18536 18537 18538 18539 18540 18541 18542 18543 18544 18545 18546 18547 18548 18549 18550 18551 18552 18553 18554 18555 18556 18557 18558 18559 18560 18561 18562 18563 18564 18565 18566 18567 18568 18569 18570 18571 18572 18573 18574 18575 18576 18577 18578 18579 18580 18581 18582 18583 18584 18585 18586 18587 18588 18589 18590 18591 18592 18593 18594 18595 18596 18597 18598 18599 18600 18601 18602 18603 18604 18605 18606 18607 18608 18609 18610 18611 18612 18613 18614 18615 18616 18617 18618 18619 18620 18621 18622 18623 18624 18625 18626 18627 18628 18629 18630 18631 18632 18633 18634 18635 18636 18637 18638 18639 18640 18641 18642 18643 18644 18645 18646 18647 18648 18649 18650 18651 18652 18653 18654 18655 18656 18657 18658 18659 18660 18661 18662 18663 18664 18665 18666 18667 18668 18669 18670 18671 18672 18673 18674 18675 18676 18677 18678 18679 18680 18681 18682 18683 18684 18685 18686 18687 18688 18689 18690 18691 18692 18693 18694 18695 18696 18697 18698 18699 18700 18701 18702 18703 18704 18705 18706 18707 18708 18709 18710 18711 18712 18713 18714 18715 18716 18717 18718 18719 18720 18721 18722 18723 18724 18725 18726 18727 18728 18729 18730 18731 18732 18733 18734 18735 18736 18737 18738 18739 18740 18741 18742 18743 18744 18745 18746 18747 18748 18749 18750 18751 18752 18753 18754 18755 18756 18757 18758 18759 18760 18761 18762 18763 18764 18765 18766 18767 18768 18769 18770 18771 18772 18773 18774 18775 18776 18777 18778 18779 18780 18781 18782 18783 18784 18785 18786 18787 18788 18789 18790 18791 18792 18793 18794 18795 18796 18797 18798 18799 18800 18801 18802 18803 18804 18805 18806 18807 18808 18809 18810 18811 18812 18813 18814 18815 18816 18817 18818 18819 18820 18821 18822 18823 18824 18825 18826 18827 18828 18829 18830 18831 18832 18833 18834 18835 18836 18837 18838 18839 18840 18841 18842 18843 18844 18845 18846 18847 18848 18849 18850 18851 18852 18853 18854 18855 18856 18857 18858 18859 18860 18861 18862 18863 18864 18865 18866 18867 18868 18869 18870 18871 18872 18873 18874 18875 18876 18877 18878 18879 18880 18881 18882 18883 18884 18885 18886 18887 18888 18889 18890 18891 18892 18893 18894 18895 18896 18897 18898 18899 18900 18901 18902 18903 18904 18905 18906 18907 18908 18909 18910 18911 18912 18913 18914 18915 18916 18917 18918 18919 18920 18921 18922 18923 18924 18925 18926 18927 18928 18929 18930 18931 18932 18933 18934 18935 18936 18937 18938 18939 18940 18941 18942 18943 18944 18945 18946 18947 18948 18949 18950 18951 18952 18953 18954 18955 18956 18957 18958 18959 18960 18961 18962 18963 18964 18965 18966 18967 18968 18969 18970 18971 18972 18973 18974 18975 18976 18977 18978 18979 18980 18981 18982 18983 18984 18985 18986 18987 18988 18989 18990 18991 18992 18993 18994 18995 18996 18997 18998 18999 19000 19001 19002 19003 19004 19005 19006 19007 19008 19009 19010 19011 19012 19013 19014 19015 19016 19017 19018 19019 19020 19021 19022 19023 19024 19025 19026 19027 19028 19029 19030 19031 19032 19033 19034 19035 19036 19037 19038 19039 19040 19041 19042 19043 19044 19045 19046 19047 19048 19049 19050 19051 19052 19053 19054 19055 19056 19057 19058 19059 19060 19061 19062 19063 19064 19065 19066 19067 19068 19069 19070 19071 19072 19073 19074 19075 19076 19077 19078 19079 19080 19081 19082 19083 19084 19085 19086 19087 19088 19089 19090 19091 19092 19093 19094 19095 19096 19097 19098 19099 19100 19101 19102 19103 19104 19105 19106 19107 19108 19109 19110 19111 19112 19113 19114 19115 19116 19117 19118 19119 19120 19121 19122 19123 19124 19125 19126 19127 19128 19129 19130 19131 19132 19133 19134 19135 19136 19137 19138 19139 19140 19141 19142 19143 19144 19145 19146 19147 19148 19149 19150 19151 19152 19153 19154 19155 19156 19157 19158 19159 19160 19161 19162 19163 19164 19165 19166 19167 19168 19169 19170 19171 19172 19173 19174 19175 19176 19177 19178 19179 19180 19181 19182 19183 19184 19185 19186 19187 19188 19189 19190 19191 19192 19193 19194 19195 19196 19197 19198 19199 19200 19201 19202 19203 19204 19205 19206 19207 19208 19209 19210 19211 19212 19213 19214 19215 19216 19217 19218 19219 19220 19221 19222 19223 19224 19225 19226 19227 19228 19229 19230 19231 19232 19233 19234 19235 19236 19237 19238 19239 19240 19241 19242 19243 19244 19245 19246 19247 19248 19249 19250 19251 19252 19253 19254 19255 19256 19257 19258 19259 19260 19261 19262 19263 19264 19265 19266 19267 19268 19269 19270 19271 19272 19273 19274 19275 19276 19277 19278 19279 19280 19281 19282 19283 19284 19285 19286 19287 19288 19289 19290 19291 19292 19293 19294 19295 19296 19297 19298 19299 19300 19301 19302 19303 19304 19305 19306 19307 19308 19309 19310 19311 19312 19313 19314 19315 19316 19317 19318 19319 19320 19321 19322 19323 19324 19325 19326 19327 19328 19329 19330 19331 19332 19333 19334 19335 19336 19337 19338 19339 19340 19341 19342 19343 19344 19345 19346 19347 19348 19349 19350 19351 19352 19353 19354 19355 19356 19357 19358 19359 19360 19361 19362 19363 19364 19365 19366 19367 19368 19369 19370 19371 19372 19373 19374 19375 19376 19377 19378 19379 19380 19381 19382 19383 19384 19385 19386 19387 19388 19389 19390 19391 19392 19393 19394 19395 19396 19397 19398 19399 19400 19401 19402 19403 19404 19405 19406 19407 19408 19409 19410 19411 19412 19413 19414 19415 19416 19417 19418 19419 19420 19421 19422 19423 19424 19425 19426 19427 19428 19429 19430 19431 19432 19433 19434 19435 19436 19437 19438 19439 19440 19441 19442 19443 19444 19445 19446 19447 19448 19449 19450 19451 19452 19453 19454 19455 19456 19457 19458 19459 19460 19461 19462 19463 19464 19465 19466 19467 19468 19469 19470 19471 19472 19473 19474 19475 19476 19477 19478 19479 19480 19481 19482 19483 19484 19485 19486 19487 19488 19489 19490 19491 19492 19493 19494 19495 19496 19497 19498 19499 19500 19501 19502 19503 19504 19505 19506 19507 19508 19509 19510 19511 19512 19513 19514 19515 19516 19517 19518 19519 19520 19521 19522 19523 19524 19525 19526 19527 19528 19529 19530 19531 19532 19533 19534 19535 19536 19537 19538 19539 19540 19541 19542 19543 19544 19545 19546 19547 19548 19549 19550 19551 19552 19553 19554 19555 19556 19557 19558 19559 19560 19561 19562 19563 19564 19565 19566 19567 19568 19569 19570 19571 19572 19573 19574 19575 19576 19577 19578 19579 19580 19581 19582 19583 19584 19585 19586 19587 19588 19589 19590 19591 19592 19593 19594 19595 19596 19597 19598 19599 19600 19601 19602 19603 19604 19605 19606 19607 19608 19609 19610 19611 19612 19613 19614 19615 19616 19617 19618 19619 19620 19621 19622 19623 19624 19625 19626 19627 19628 19629 19630 19631 19632 19633 19634 19635 19636 19637 19638 19639 19640 19641 19642 19643 19644 19645 19646 19647 19648 19649 19650 19651 19652 19653 19654 19655 19656 19657 19658 19659 19660 19661 19662 19663 19664 19665 19666 19667 19668 19669 19670 19671 19672 19673 19674 19675 19676 19677 19678 19679 19680 19681 19682 19683 19684 19685 19686 19687 19688 19689 19690 19691 19692 19693 19694 19695 19696 19697 19698 19699 19700 19701 19702 19703 19704 19705 19706 19707 19708 19709 19710 19711 19712 19713 19714 19715 19716 19717 19718 19719 19720 19721 19722 19723 19724 19725 19726 19727 19728 19729 19730 19731 19732 19733 19734 19735 19736 19737 19738 19739 19740 19741 19742 19743 19744 19745 19746 19747 19748 19749 19750 19751 19752 19753 19754 19755 19756 19757 19758 19759 19760 19761 19762 19763 19764 19765 19766 19767 19768 19769 19770 19771 19772 19773 19774 19775 19776 19777 19778 19779 19780 19781 19782 19783 19784 19785 19786 19787 19788 19789 19790 19791 19792 19793 19794 19795 19796 19797 19798 19799 19800 19801 19802 19803 19804 19805 19806 19807 19808 19809 19810 19811 19812 19813 19814 19815 19816 19817 19818 19819 19820 19821 19822 19823 19824 19825 19826 19827 19828 19829 19830 19831 19832 19833 19834 19835 19836 19837 19838 19839 19840 19841 19842 19843 19844 19845 19846 19847 19848 19849 19850 19851 19852 19853 19854 19855 19856 19857 19858 19859 19860 19861 19862 19863 19864 19865 19866 19867 19868 19869 19870 19871 19872 19873 19874 19875 19876 19877 19878 19879 19880 19881 19882 19883 19884 19885 19886 19887 19888 19889 19890 19891 19892 19893 19894 19895 19896 19897 19898 19899 19900 19901 19902 19903 19904 19905 19906 19907 19908 19909 19910 19911 19912 19913 19914 19915 19916 19917 19918 19919 19920 19921 19922 19923 19924 19925 19926 19927 19928 19929 19930 19931 19932 19933 19934 19935 19936 19937 19938 19939 19940 19941 19942 19943 19944 19945 19946 19947 19948 19949 19950 19951 19952 19953 19954 19955 19956 19957 19958 19959 19960 19961 19962 19963 19964 19965 19966 19967 19968 19969 19970 19971 19972 19973 19974 19975 19976 19977 19978 19979 19980 19981 19982 19983 19984 19985 19986 19987 19988 19989 19990 19991 19992 19993 19994 19995 19996 19997 19998 19999 20000 20001 20002 20003 20004 20005 20006 20007 20008 20009 20010 20011 20012 20013 20014 20015 20016 20017 20018 20019 20020 20021 20022 20023 20024 20025 20026 20027 20028 20029 20030 20031 20032 20033 20034 20035 20036 20037 20038 20039 20040 20041 20042 20043 20044 20045 20046 20047 20048 20049 20050 20051 20052 20053 20054 20055 20056 20057 20058 20059 20060 20061 20062 20063 20064 20065 20066 20067 20068 20069 20070 20071 20072 20073 20074 20075 20076 20077 20078 20079 20080 20081 20082 20083 20084 20085 20086 20087 20088 20089 20090 20091 20092 20093 20094 20095 20096 20097 20098 20099 20100 20101 20102 20103 20104 20105 20106 20107 20108 20109 20110 20111 20112 20113 20114 20115 20116 20117 20118 20119 20120 20121 20122 20123 20124 20125 20126 20127 20128 20129 20130 20131 20132 20133 20134 20135 20136 20137 20138 20139 20140 20141 20142 20143 20144 20145 20146 20147 20148 20149 20150 20151 20152 20153 20154 20155 20156 20157 20158 20159 20160 20161 20162 20163 20164 20165 20166 20167 20168 20169 20170 20171 20172 20173 20174 20175 20176 20177 20178 20179 20180 20181 20182 20183 20184 20185 20186 20187 20188 20189 20190 20191 20192 20193 20194 20195 20196 20197 20198 20199 20200 20201 20202 20203 20204 20205 20206 20207 20208 20209 20210 20211 20212 20213 20214 20215 20216 20217 20218 20219 20220 20221 20222 20223 20224 20225 20226 20227 20228 20229 20230 20231 20232 20233 20234 20235 20236 20237 20238 20239 20240 20241 20242 20243 20244 20245 20246 20247 20248 20249 20250 20251 20252 20253 20254 20255 20256 20257 20258 20259 20260 20261 20262 20263 20264 20265 20266 20267 20268 20269 20270 20271 20272 20273 20274 20275 20276 20277 20278 20279 20280 20281 20282 20283 20284 20285 20286 20287 20288 20289 20290 20291 20292 20293 20294 20295 20296 20297 20298 20299 20300 20301 20302 20303 20304 20305 20306 20307 20308 20309 20310 20311 20312 20313 20314 20315 20316 20317 20318 20319 20320 20321 20322 20323 20324 20325 20326 20327 20328 20329 20330 20331 20332 20333 20334 20335 20336 20337 20338 20339 20340 20341 20342 20343 20344 20345 20346 20347 20348 20349 20350 20351 20352 20353 20354 20355 20356 20357 20358 20359 20360 20361 20362 20363 20364 20365 20366 20367 20368 20369 20370 20371 20372 20373 20374 20375 20376 20377 20378 20379 20380 20381 20382 20383 20384 20385 20386 20387 20388 20389 20390 20391 20392 20393 20394 20395 20396 20397 20398 20399 20400 20401 20402 20403 20404 20405 20406 20407 20408 20409 20410 20411 20412 20413 20414 20415 20416 20417 20418 20419 20420 20421 20422 20423 20424 20425 20426 20427 20428 20429 20430 20431 20432 20433 20434 20435 20436 20437 20438 20439 20440 20441 20442 20443 20444 20445 20446 20447 20448 20449 20450 20451 20452 20453 20454 20455 20456 20457 20458 20459 20460 20461 20462 20463 20464 20465 20466 20467 20468 20469 20470 20471 20472 20473 20474 20475 20476 20477 20478 20479 20480 20481 20482 20483 20484 20485 20486 20487 20488 20489 20490 20491 20492 20493 20494 20495 20496 20497 20498 20499 20500 20501 20502 20503 20504 20505 20506 20507 20508 20509 20510 20511 20512 20513 20514 20515 20516 20517 20518 20519 20520 20521 20522 20523 20524 20525 20526 20527 20528 20529 20530 20531 20532 20533 20534 20535 20536 20537 20538 20539 20540 20541 20542 20543 20544 20545 20546 20547 20548 20549 20550 20551 20552 20553 20554 20555 20556 20557 20558 20559 20560 20561 20562 20563 20564 20565 20566 20567 20568 20569 20570 20571 20572 20573 20574 20575 20576 20577 20578 20579 20580 20581 20582 20583 20584 20585 20586 20587 20588 20589 20590 20591 20592 20593 20594 20595 20596 20597 20598 20599 20600 20601 20602 20603 20604 20605 20606 20607 20608 20609 20610 20611 20612 20613 20614 20615 20616 20617 20618 20619 20620 20621 20622 20623 20624 20625 20626 20627 20628 20629 20630 20631 20632 20633 20634 20635 20636 20637 20638 20639 20640 20641 20642 20643 20644 20645 20646 20647 20648 20649 20650 20651 20652 20653 20654 20655 20656 20657 20658 20659 20660 20661 20662 20663 20664 20665 20666 20667 20668 20669 20670 20671 20672 20673 20674 20675 20676 20677 20678 20679 20680 20681 20682 20683 20684 20685 20686 20687 20688 20689 20690 20691 20692 20693 20694 20695 20696 20697 20698 20699 20700 20701 20702 20703 20704 20705 20706 20707 20708 20709 20710 20711 20712 20713 20714 20715 20716 20717 20718 20719 20720 20721 20722 20723 20724 20725 20726 20727 20728 20729 20730 20731 20732 20733 20734 20735 20736 20737 20738 20739 20740 20741 20742 20743 20744 20745 20746 20747 20748 20749 20750 20751 20752 20753 20754 20755 20756 20757 20758 20759 20760 20761 20762 20763 20764 20765 20766 20767 20768 20769 20770 20771 20772 20773 20774 20775 20776 20777 20778 20779 20780 20781 20782 20783 20784 20785 20786 20787 20788 20789 20790 20791 20792 20793 20794 20795 20796 20797 20798 20799 20800 20801 20802 20803 20804 20805 20806 20807 20808 20809 20810 20811 20812 20813 20814 20815 20816 20817 20818 20819 20820 20821 20822 20823 20824 20825 20826 20827 20828 20829 20830 20831 20832 20833 20834 20835 20836 20837 20838 20839 20840 20841 20842 20843 20844 20845 20846 20847 20848 20849 20850 20851 20852 20853 20854 20855 20856 20857 20858 20859 20860 20861 20862 20863 20864 20865 20866 20867 20868 20869 20870 20871 20872 20873 20874 20875 20876 20877 20878 20879 20880 20881 20882 20883 20884 20885 20886 20887 20888 20889 20890 20891 20892 20893 20894 20895 20896 20897 20898 20899 20900 20901 20902 20903 20904 20905 20906 20907 20908 20909 20910 20911 20912 20913 20914 20915 20916 20917 20918 20919 20920 20921 20922 20923 20924 20925 20926 20927 20928 20929 20930 20931 20932 20933 20934 20935 20936 20937 20938 20939 20940 20941 20942 20943 20944 20945 20946 20947 20948 20949 20950 20951 20952 20953 20954 20955 20956 20957 20958 20959 20960 20961 20962 20963 20964 20965 20966 20967 20968 20969 20970 20971 20972 20973 20974 20975 20976 20977 20978 20979 20980 20981 20982 20983 20984 20985 20986 20987 20988 20989 20990 20991 20992 20993 20994 20995 20996 20997 20998 20999 21000 21001 21002 21003 21004 21005 21006 21007 21008 21009 21010 21011 21012 21013 21014 21015 21016 21017 21018 21019 21020 21021 21022 21023 21024 21025 21026 21027 21028 21029 21030 21031 21032 21033 21034 21035 21036 21037 21038 21039 21040 21041 21042 21043 21044 21045 21046 21047 21048 21049 21050 21051 21052 21053 21054 21055 21056 21057 21058 21059 21060 21061 21062 21063 21064 21065 21066 21067 21068 21069 21070 21071 21072 21073 21074 21075 21076 21077 21078 21079 21080 21081 21082 21083 21084 21085 21086 21087 21088 21089 21090 21091 21092 21093 21094 21095 21096 21097 21098 21099 21100 21101 21102 21103 21104 21105 21106 21107 21108 21109 21110 21111 21112 21113 21114 21115 21116 21117 21118 21119 21120 21121 21122 21123 21124 21125 21126 21127 21128 21129 21130 21131 21132 21133 21134 21135 21136 21137 21138 21139 21140 21141 21142 21143 21144 21145 21146 21147 21148 21149 21150 21151 21152 21153 21154 21155 21156 21157 21158 21159 21160 21161 21162 21163 21164 21165 21166 21167 21168 21169 21170 21171 21172 21173 21174 21175 21176 21177 21178 21179 21180 21181 21182 21183 21184 21185 21186 21187 21188 21189 21190 21191 21192 21193 21194 21195 21196 21197 21198 21199 21200 21201 21202 21203 21204 21205 21206 21207 21208 21209 21210 21211 21212 21213 21214 21215 21216 21217 21218 21219 21220 21221 21222 21223 21224 21225 21226 21227 21228 21229 21230 21231 21232 21233 21234 21235 21236 21237 21238 21239 21240 21241 21242 21243 21244 21245 21246 21247 21248 21249 21250 21251 21252 21253 21254 21255 21256 21257 21258 21259 21260 21261 21262 21263 21264 21265 21266 21267 21268 21269 21270 21271 21272 21273 21274 21275 21276 21277 21278 21279 21280 21281 21282 21283 21284 21285 21286 21287 21288 21289 21290 21291 21292 21293 21294 21295 21296 21297 21298 21299 21300 21301 21302 21303 21304 21305 21306 21307 21308 21309 21310 21311 21312 21313 21314 21315 21316 21317 21318 21319 21320 21321 21322 21323 21324 21325 21326 21327 21328 21329 21330 21331 21332 21333 21334 21335 21336 21337 21338 21339 21340 21341 21342 21343 21344 21345 21346 21347 21348 21349 21350 21351 21352 21353 21354 21355 21356 21357 21358 21359 21360 21361 21362 21363 21364 21365 21366 21367 21368 21369 21370 21371 21372 21373 21374 21375 21376 21377 21378 21379 21380 21381 21382 21383 21384 21385 21386 21387 21388 21389 21390 21391 21392 21393 21394 21395 21396 21397 21398 21399 21400 21401 21402 21403 21404 21405 21406 21407 21408 21409 21410 21411 21412 21413 21414 21415 21416 21417 21418 21419 21420 21421 21422 21423 21424 21425 21426 21427 21428 21429 21430 21431 21432 21433 21434 21435 21436 21437 21438 21439 21440 21441 21442 21443 21444 21445 21446 21447 21448 21449 21450 21451 21452 21453 21454 21455 21456 21457 21458 21459 21460 21461 21462 21463 21464 21465 21466 21467 21468 21469 21470 21471 21472 21473 21474 21475 21476 21477 21478 21479 21480 21481 21482 21483 21484 21485 21486 21487 21488 21489 21490 21491 21492 21493 21494 21495 21496 21497 21498 21499 21500 21501 21502 21503 21504 21505 21506 21507 21508 21509 21510 21511 21512 21513 21514 21515 21516 21517 21518 21519 21520 21521 21522 21523 21524 21525 21526 21527 21528 21529 21530 21531 21532 21533 21534 21535 21536 21537 21538 21539 21540 21541 21542 21543 21544 21545 21546 21547 21548 21549 21550 21551 21552 21553 21554 21555 21556 21557 21558 21559 21560 21561 21562 21563 21564 21565 21566 21567 21568 21569 21570 21571 21572 21573 21574 21575 21576 21577 21578 21579 21580 21581 21582 21583 21584 21585 21586 21587 21588 21589 21590 21591 21592 21593 21594 21595 21596 21597 21598 21599 21600 21601 21602 21603 21604 21605 21606 21607 21608 21609 21610 21611 21612 21613 21614 21615 21616 21617 21618 21619 21620 21621 21622 21623 21624 21625 21626 21627 21628 21629 21630 21631 21632 21633 21634 21635 21636 21637 21638 21639 21640 21641 21642 21643 21644 21645 21646 21647 21648 21649 21650 21651 21652 21653 21654 21655 21656 21657 21658 21659 21660 21661 21662 21663 21664 21665 21666 21667 21668 21669 21670 21671 21672 21673 21674 21675 21676 21677 21678 21679 21680 21681 21682 21683 21684 21685 21686 21687 21688 21689 21690 21691 21692 21693 21694 21695 21696 21697 21698 21699 21700 21701 21702 21703 21704 21705 21706 21707 21708 21709 21710 21711 21712 21713 21714 21715 21716 21717 21718 21719 21720 21721 21722 21723 21724 21725 21726 21727 21728 21729 21730 21731 21732 21733 21734 21735 21736 21737 21738 21739 21740 21741 21742 21743 21744 21745 21746 21747 21748 21749 21750 21751 21752 21753 21754 21755 21756 21757 21758 21759 21760 21761 21762 21763 21764 21765 21766 21767 21768 21769 21770 21771 21772 21773 21774 21775 21776 21777 21778 21779 21780 21781 21782 21783 21784 21785 21786 21787 21788 21789 21790 21791 21792 21793 21794 21795 21796 21797 21798 21799 21800 21801 21802 21803 21804 21805 21806 21807 21808 21809 21810 21811 21812 21813 21814 21815 21816 21817 21818 21819 21820 21821 21822 21823 21824 21825 21826 21827 21828 21829 21830 21831 21832 21833 21834 21835 21836 21837 21838 21839 21840 21841 21842 21843 21844 21845 21846 21847 21848 21849 21850 21851 21852 21853 21854 21855 21856 21857 21858 21859 21860 21861 21862 21863 21864 21865 21866 21867 21868 21869 21870 21871 21872 21873 21874 21875 21876 21877 21878 21879 21880 21881 21882 21883 21884 21885 21886 21887 21888 21889 21890 21891 21892 21893 21894 21895 21896 21897 21898 21899 21900 21901 21902 21903 21904 21905 21906 21907 21908 21909 21910 21911 21912 21913 21914 21915 21916 21917 21918 21919 21920 21921 21922 21923 21924 21925 21926 21927 21928 21929 21930 21931 21932 21933 21934 21935 21936 21937 21938 21939 21940 21941 21942 21943 21944 21945 21946 21947 21948 21949 21950 21951 21952 21953 21954 21955 21956 21957 21958 21959 21960 21961 21962 21963 21964 21965 21966 21967 21968 21969 21970 21971 21972 21973 21974 21975 21976 21977 21978 21979 21980 21981 21982 21983 21984 21985 21986 21987 21988 21989 21990 21991 21992 21993 21994 21995 21996 21997 21998 21999 22000 22001 22002 22003 22004 22005 22006 22007 22008 22009 22010 22011 22012 22013 22014 22015 22016 22017 22018 22019 22020 22021 22022 22023 22024 22025 22026 22027 22028 22029 22030 22031 22032 22033 22034 22035 22036 22037 22038 22039 22040 22041 22042 22043 22044 22045 22046 22047 22048 22049 22050 22051 22052 22053 22054 22055 22056 22057 22058 22059 22060 22061 22062 22063 22064 22065 22066 22067 22068 22069 22070 22071 22072 22073 22074 22075 22076 22077 22078 22079 22080 22081 22082 22083 22084 22085 22086 22087 22088 22089 22090 22091 22092 22093 22094 22095 22096 22097 22098 22099 22100 22101 22102 22103 22104 22105 22106 22107 22108 22109 22110 22111 22112 22113 22114 22115 22116 22117 22118 22119 22120 22121 22122 22123 22124 22125 22126 22127 22128 22129 22130 22131 22132 22133 22134 22135 22136 22137 22138 22139 22140 22141 22142 22143 22144 22145 22146 22147 22148 22149 22150 22151 22152 22153 22154 22155 22156 22157 22158 22159 22160 22161 22162 22163 22164 22165 22166 22167 22168 22169 22170 22171 22172 22173 22174 22175 22176 22177 22178 22179 22180 22181 22182 22183 22184 22185 22186 22187 22188 22189 22190 22191 22192 22193 22194 22195 22196 22197 22198 22199 22200 22201 22202 22203 22204 22205 22206 22207 22208 22209 22210 22211 22212 22213 22214 22215 22216 22217 22218 22219 22220 22221 22222 22223 22224 22225 22226 22227 22228 22229 22230 22231 22232 22233 22234 22235 22236 22237 22238 22239 22240 22241 22242 22243 22244 22245 22246 22247 22248 22249 22250 22251 22252 22253 22254 22255 22256 22257 22258 22259 22260 22261 22262 22263 22264 22265 22266 22267 22268 22269 22270 22271 22272 22273 22274 22275 22276 22277 22278 22279 22280 22281 22282 22283 22284 22285 22286 22287 22288 22289 22290 22291 22292 22293 22294 22295 22296 22297 22298 22299 22300 22301 22302 22303 22304 22305 22306 22307 22308 22309 22310 22311 22312 22313 22314 22315 22316 22317 22318 22319 22320 22321 22322 22323 22324 22325 22326 22327 22328 22329 22330 22331 22332 22333 22334 22335 22336 22337 22338 22339 22340 22341 22342 22343 22344 22345 22346 22347 22348 22349 22350 22351 22352 22353 22354 22355 22356 22357 22358 22359 22360 22361 22362 22363 22364 22365 22366 22367 22368 22369 22370 22371 22372 22373 22374 22375 22376 22377 22378 22379 22380 22381 22382 22383 22384 22385 22386 22387 22388 22389 22390 22391 22392 22393 22394 22395 22396 22397 22398 22399 22400 22401 22402 22403 22404 22405 22406 22407 22408 22409 22410 22411 22412 22413 22414 22415 22416 22417 22418 22419 22420 22421 22422 22423 22424 22425 22426 22427 22428 22429 22430 22431 22432 22433 22434 22435 22436 22437 22438 22439 22440 22441 22442 22443 22444 22445 22446 22447 22448 22449 22450 22451 22452 22453 22454 22455 22456 22457 22458 22459 22460 22461 22462 22463 22464 22465 22466 22467 22468 22469 22470 22471 22472 22473 22474 22475 22476 22477 22478 22479 22480 22481 22482 22483 22484 22485 22486 22487 22488 22489 22490 22491 22492 22493 22494 22495 22496 22497 22498 22499 22500 22501 22502 22503 22504 22505 22506 22507 22508 22509 22510 22511 22512 22513 22514 22515 22516 22517 22518 22519 22520 22521 22522 22523 22524 22525 22526 22527 22528 22529 22530 22531 22532 22533 22534 22535 22536 22537 22538 22539 22540 22541 22542 22543 22544 22545 22546 22547 22548 22549 22550 22551 22552 22553 22554 22555 22556 22557 22558 22559 22560 22561 22562 22563 22564 22565 22566 22567 22568 22569 22570 22571 22572 22573 22574 22575 22576 22577 22578 22579 22580 22581 22582 22583 22584 22585 22586 22587 22588 22589 22590 22591 22592 22593 22594 22595 22596 22597 22598 22599 22600 22601 22602 22603 22604 22605 22606 22607 22608 22609 22610 22611 22612 22613 22614 22615 22616 22617 22618 22619 22620 22621 22622 22623 22624 22625 22626 22627 22628 22629 22630 22631 22632 22633 22634 22635 22636 22637 22638 22639 22640 22641 22642 22643 22644 22645 22646 22647 22648 22649 22650 22651 22652 22653 22654 22655 22656 22657 22658 22659 22660 22661 22662 22663 22664 22665 22666 22667 22668 22669 22670 22671 22672 22673 22674 22675 22676 22677 22678 22679 22680 22681 22682 22683 22684 22685 22686 22687 22688 22689 22690 22691 22692 22693 22694 22695 22696 22697 22698 22699 22700 22701 22702 22703 22704 22705 22706 22707 22708 22709 22710 22711 22712 22713 22714 22715 22716 22717 22718 22719 22720 22721 22722 22723 22724 22725 22726 22727 22728 22729 22730 22731 22732 22733 22734 22735 22736 22737 22738 22739 22740 22741 22742 22743 22744 22745 22746 22747 22748 22749 22750 22751 22752 22753 22754 22755 22756 22757 22758 22759 22760 22761 22762 22763 22764 22765 22766 22767 22768 22769 22770 22771 22772 22773 22774 22775 22776 22777 22778 22779 22780 22781 22782 22783 22784 22785 22786 22787 22788 22789 22790 22791 22792 22793 22794 22795 22796 22797 22798 22799 22800 22801 22802 22803 22804 22805 22806 22807 22808 22809 22810 22811 22812 22813 22814 22815 22816 22817 22818 22819 22820 22821 22822 22823 22824 22825 22826 22827 22828 22829 22830 22831 22832 22833 22834 22835 22836 22837 22838 22839 22840 22841 22842 22843 22844 22845 22846 22847 22848 22849 22850 22851 22852 22853 22854 22855 22856 22857 22858 22859 22860 22861 22862 22863 22864 22865 22866 22867 22868 22869 22870 22871 22872 22873 22874 22875 22876 22877 22878 22879 22880 22881 22882 22883 22884 22885 22886 22887 22888 22889 22890 22891 22892 22893 22894 22895 22896 22897 22898 22899 22900 22901 22902 22903 22904 22905 22906 22907 22908 22909 22910 22911 22912 22913 22914 22915 22916 22917 22918 22919 22920 22921 22922 22923 22924 22925 22926 22927 22928 22929 22930 22931 22932 22933 22934 22935 22936 22937 22938 22939 22940 22941 22942 22943 22944 22945 22946 22947 22948 22949 22950 22951 22952 22953 22954 22955 22956 22957 22958 22959 22960 22961 22962 22963 22964 22965 22966 22967 22968 22969 22970 22971 22972 22973 22974 22975 22976 22977 22978 22979 22980 22981 22982 22983 22984 22985 22986 22987 22988 22989 22990 22991 22992 22993 22994 22995 22996 22997 22998 22999 23000 23001 23002 23003 23004 23005 23006 23007 23008 23009 23010 23011 23012 23013 23014 23015 23016 23017 23018 23019 23020 23021 23022 23023 23024 23025 23026 23027 23028 23029 23030 23031 23032 23033 23034 23035 23036 23037 23038 23039 23040 23041 23042 23043 23044 23045 23046 23047 23048 23049 23050 23051 23052 23053 23054 23055 23056 23057 23058 23059 23060 23061 23062 23063 23064 23065 23066 23067 23068 23069 23070 23071 23072 23073 23074 23075 23076 23077 23078 23079 23080 23081 23082 23083 23084 23085 23086 23087 23088 23089 23090 23091 23092 23093 23094 23095 23096 23097 23098 23099 23100 23101 23102 23103 23104 23105 23106 23107 23108 23109 23110 23111 23112 23113 23114 23115 23116 23117 23118 23119 23120 23121 23122 23123 23124 23125 23126 23127 23128 23129 23130 23131 23132 23133 23134 23135 23136 23137 23138 23139 23140 23141 23142 23143 23144 23145 23146 23147 23148 23149 23150 23151 23152 23153 23154 23155 23156 23157 23158 23159 23160 23161 23162 23163 23164 23165 23166 23167 23168 23169 23170 23171 23172 23173 23174 23175 23176 23177 23178 23179 23180 23181 23182 23183 23184 23185 23186 23187 23188 23189 23190 23191 23192 23193 23194 23195 23196 23197 23198 23199 23200 23201 23202 23203 23204 23205 23206 23207 23208 23209 23210 23211 23212 23213 23214 23215 23216 23217 23218 23219 23220 23221 23222 23223 23224 23225 23226 23227 23228 23229 23230 23231 23232 23233 23234 23235 23236 23237 23238 23239 23240 23241 23242 23243 23244 23245 23246 23247 23248 23249 23250 23251 23252 23253 23254 23255 23256 23257 23258 23259 23260 23261 23262 23263 23264 23265 23266 23267 23268 23269 23270 23271 23272 23273 23274 23275 23276 23277 23278 23279 23280 23281 23282 23283 23284 23285 23286 23287 23288 23289 23290 23291 23292 23293 23294 23295 23296 23297 23298 23299 23300 23301 23302 23303 23304 23305 23306 23307 23308 23309 23310 23311 23312 23313 23314 23315 23316 23317 23318 23319 23320 23321 23322 23323 23324 23325 23326 23327 23328 23329 23330 23331 23332 23333 23334 23335 23336 23337 23338 23339 23340 23341 23342 23343 23344 23345 23346 23347 23348 23349 23350 23351 23352 23353 23354 23355 23356 23357 23358 23359 23360 23361 23362 23363 23364 23365 23366 23367 23368 23369 23370 23371 23372 23373 23374 23375 23376 23377 23378 23379 23380 23381 23382 23383 23384 23385 23386 23387 23388 23389 23390 23391 23392 23393 23394 23395 23396 23397 23398 23399 23400 23401 23402 23403 23404 23405 23406 23407 23408 23409 23410 23411 23412 23413 23414 23415 23416 23417 23418 23419 23420 23421 23422 23423 23424 23425 23426 23427 23428 23429 23430 23431 23432 23433 23434 23435 23436 23437 23438 23439 23440 23441 23442 23443 23444 23445 23446 23447 23448 23449 23450 23451 23452 23453 23454 23455 23456 23457 23458 23459 23460 23461 23462 23463 23464 23465 23466 23467 23468 23469 23470 23471 23472 23473 23474 23475 23476 23477 23478 23479 23480 23481 23482 23483 23484 23485 23486 23487 23488 23489 23490 23491 23492 23493 23494 23495 23496 23497 23498 23499 23500 23501 23502 23503 23504 23505 23506 23507 23508 23509 23510 23511 23512 23513 23514 23515 23516 23517 23518 23519 23520 23521 23522 23523 23524 23525 23526 23527 23528 23529 23530 23531 23532 23533 23534 23535 23536 23537 23538 23539 23540 23541 23542 23543 23544 23545 23546 23547 23548 23549 23550 23551 23552 23553 23554 23555 23556 23557 23558 23559 23560 23561 23562 23563 23564 23565 23566 23567 23568 23569 23570 23571 23572 23573 23574 23575 23576 23577 23578 23579 23580 23581 23582 23583 23584 23585 23586 23587 23588 23589 23590 23591 23592 23593 23594 23595 23596 23597 23598 23599 23600 23601 23602 23603 23604 23605 23606 23607 23608 23609 23610 23611 23612 23613 23614 23615 23616 23617 23618 23619 23620 23621 23622 23623 23624 23625 23626 23627 23628 23629 23630 23631 23632 23633 23634 23635 23636 23637 23638 23639 23640 23641 23642 23643 23644 23645 23646 23647 23648 23649 23650 23651 23652 23653 23654 23655 23656 23657 23658 23659 23660 23661 23662 23663 23664 23665 23666 23667 23668 23669 23670 23671 23672 23673 23674 23675 23676 23677 23678 23679 23680 23681 23682 23683 23684 23685 23686 23687 23688 23689 23690 23691 23692 23693 23694 23695 23696 23697 23698 23699 23700 23701 23702 23703 23704 23705 23706 23707 23708 23709 23710 23711 23712 23713 23714 23715 23716 23717 23718 23719 23720 23721 23722 23723 23724 23725 23726 23727 23728 23729 23730 23731 23732 23733 23734 23735 23736 23737 23738 23739 23740 23741 23742 23743 23744 23745 23746 23747 23748 23749 23750 23751 23752 23753 23754 23755 23756 23757 23758 23759 23760 23761 23762 23763 23764 23765 23766 23767 23768 23769 23770 23771 23772 23773 23774 23775 23776 23777 23778 23779 23780 23781 23782 23783 23784 23785 23786 23787 23788 23789 23790 23791 23792 23793 23794 23795 23796 23797 23798 23799 23800 23801 23802 23803 23804 23805 23806 23807 23808 23809 23810 23811 23812 23813 23814 23815 23816 23817 23818 23819 23820 23821 23822 23823 23824 23825 23826 23827 23828 23829 23830 23831 23832 23833 23834 23835 23836 23837 23838 23839 23840 23841 23842 23843 23844 23845 23846 23847 23848 23849 23850 23851 23852 23853 23854 23855 23856 23857 23858 23859 23860 23861 23862 23863 23864 23865 23866 23867 23868 23869 23870 23871 23872 23873 23874 23875 23876 23877 23878 23879 23880 23881 23882 23883 23884 23885 23886 23887 23888 23889 23890 23891 23892 23893 23894 23895 23896 23897 23898 23899 23900 23901 23902 23903 23904 23905 23906 23907 23908 23909 23910 23911 23912 23913 23914 23915 23916 23917 23918 23919 23920 23921 23922 23923 23924 23925 23926 23927 23928 23929 23930 23931 23932 23933 23934 23935 23936 23937 23938 23939 23940 23941 23942 23943 23944 23945 23946 23947 23948 23949 23950 23951 23952 23953 23954 23955 23956 23957 23958 23959 23960 23961 23962 23963 23964 23965 23966 23967 23968 23969 23970 23971 23972 23973 23974 23975 23976 23977 23978 23979 23980 23981 23982 23983 23984 23985 23986 23987 23988 23989 23990 23991 23992 23993 23994 23995 23996 23997 23998 23999 24000 24001 24002 24003 24004 24005 24006 24007 24008 24009 24010 24011 24012 24013 24014 24015 24016 24017 24018 24019 24020 24021 24022 24023 24024 24025 24026 24027 24028 24029 24030 24031 24032 24033 24034 24035 24036 24037 24038 24039 24040 24041 24042 24043 24044 24045 24046 24047 24048 24049 24050 24051 24052 24053 24054 24055 24056 24057 24058 24059 24060 24061 24062 24063 24064 24065 24066 24067 24068 24069 24070 24071 24072 24073 24074 24075 24076 24077 24078 24079 24080 24081 24082 24083 24084 24085 24086 24087 24088 24089 24090 24091 24092 24093 24094 24095 24096 24097 24098 24099 24100 24101 24102 24103 24104 24105 24106 24107 24108 24109 24110 24111 24112 24113 24114 24115 24116 24117 24118 24119 24120 24121 24122 24123 24124 24125 24126 24127 24128 24129 24130 24131 24132 24133 24134 24135 24136 24137 24138 24139 24140 24141 24142 24143 24144 24145 24146 24147 24148 24149 24150 24151 24152 24153 24154 24155 24156 24157 24158 24159 24160 24161 24162 24163 24164 24165 24166 24167 24168 24169 24170 24171 24172 24173 24174 24175 24176 24177 24178 24179 24180 24181 24182 24183 24184 24185 24186 24187 24188 24189 24190 24191 24192 24193 24194 24195 24196 24197 24198 24199 24200 24201 24202 24203 24204 24205 24206 24207 24208 24209 24210 24211 24212 24213 24214 24215 24216 24217 24218 24219 24220 24221 24222 24223 24224 24225 24226 24227 24228 24229 24230 24231 24232 24233 24234 24235 24236 24237 24238 24239 24240 24241 24242 24243 24244 24245 24246 24247 24248 24249 24250 24251 24252 24253 24254 24255 24256 24257 24258 24259 24260 24261 24262 24263 24264 24265 24266 24267 24268 24269 24270 24271 24272 24273 24274 24275 24276 24277 24278 24279 24280 24281 24282 24283 24284 24285 24286 24287 24288 24289 24290 24291 24292 24293 24294 24295 24296 24297 24298 24299 24300 24301 24302 24303 24304 24305 24306 24307 24308 24309 24310 24311 24312 24313 24314 24315 24316 24317 24318 24319 24320 24321 24322 24323 24324 24325 24326 24327 24328 24329 24330 24331 24332 24333 24334 24335 24336 24337 24338 24339 24340 24341 24342 24343 24344 24345 24346 24347 24348 24349 24350 24351 24352 24353 24354 24355 24356 24357 24358 24359 24360 24361 24362 24363 24364 24365 24366 24367 24368 24369 24370 24371 24372 24373 24374 24375 24376 24377 24378 24379 24380 24381 24382 24383 24384 24385 24386 24387 24388 24389 24390 24391 24392 24393 24394 24395 24396 24397 24398 24399 24400 24401 24402 24403 24404 24405 24406 24407 24408 24409 24410 24411 24412 24413 24414 24415 24416 24417 24418 24419 24420 24421 24422 24423 24424 24425 24426 24427 24428 24429 24430 24431 24432 24433 24434 24435 24436 24437 24438 24439 24440 24441 24442 24443 24444 24445 24446 24447 24448 24449 24450 24451 24452 24453 24454 24455 24456 24457 24458 24459 24460 24461 24462 24463 24464 24465 24466 24467 24468 24469 24470 24471 24472 24473 24474 24475 24476 24477 24478 24479 24480 24481 24482 24483 24484 24485 24486 24487 24488 24489 24490 24491 24492 24493 24494 24495 24496 24497 24498 24499 24500 24501 24502 24503 24504 24505 24506 24507 24508 24509 24510 24511 24512 24513 24514 24515 24516 24517 24518 24519 24520 24521 24522 24523 24524 24525 24526 24527 24528 24529 24530 24531 24532 24533 24534 24535 24536 24537 24538 24539 24540 24541 24542 24543 24544 24545 24546 24547 24548 24549 24550 24551 24552 24553 24554 24555 24556 24557 24558 24559 24560 24561 24562 24563 24564 24565 24566 24567 24568 24569 24570 24571 24572 24573 24574 24575 24576 24577 24578 24579 24580 24581 24582 24583 24584 24585 24586 24587 24588 24589 24590 24591 24592 24593 24594 24595 24596 24597 24598 24599 24600 24601 24602 24603 24604 24605 24606 24607 24608 24609 24610 24611 24612 24613 24614 24615 24616 24617 24618 24619 24620 24621 24622 24623 24624 24625 24626 24627 24628 24629 24630 24631 24632 24633 24634 24635 24636 24637 24638 24639 24640 24641 24642 24643 24644 24645 24646 24647 24648 24649 24650 24651 24652 24653 24654 24655 24656 24657 24658 24659 24660 24661 24662 24663 24664 24665 24666 24667 24668 24669 24670 24671 24672 24673 24674 24675 24676 24677 24678 24679 24680 24681 24682 24683 24684 24685 24686 24687 24688 24689 24690 24691 24692 24693 24694 24695 24696 24697 24698 24699 24700 24701 24702 24703 24704 24705 24706 24707 24708 24709 24710 24711 24712 24713 24714 24715 24716 24717 24718 24719 24720 24721 24722 24723 24724 24725 24726 24727 24728 24729 24730 24731 24732 24733 24734 24735 24736 24737 24738 24739 24740 24741 24742 24743 24744 24745 24746 24747 24748 24749 24750 24751 24752 24753 24754 24755 24756 24757 24758 24759 24760 24761 24762 24763 24764 24765 24766 24767 24768 24769 24770 24771 24772 24773 24774 24775 24776 24777 24778 24779 24780 24781 24782 24783 24784 24785 24786 24787 24788 24789 24790 24791 24792 24793 24794 24795 24796 24797 24798 24799 24800 24801 24802 24803 24804 24805 24806 24807 24808 24809 24810 24811 24812 24813 24814 24815 24816 24817 24818 24819 24820 24821 24822 24823 24824 24825 24826 24827 24828 24829 24830 24831 24832 24833 24834 24835 24836 24837 24838 24839 24840 24841 24842 24843 24844 24845 24846 24847 24848 24849 24850 24851 24852 24853 24854 24855 24856 24857 24858 24859 24860 24861 24862 24863 24864 24865 24866 24867 24868 24869 24870 24871 24872 24873 24874 24875 24876 24877 24878 24879 24880 24881 24882 24883 24884 24885 24886 24887 24888 24889 24890 24891 24892 24893 24894 24895 24896 24897 24898 24899 24900 24901 24902 24903 24904 24905 24906 24907 24908 24909 24910 24911 24912 24913 24914 24915 24916 24917 24918 24919 24920 24921 24922 24923 24924 24925 24926 24927 24928 24929 24930 24931 24932 24933 24934 24935 24936 24937 24938 24939 24940 24941 24942 24943 24944 24945 24946 24947 24948 24949 24950 24951 24952 24953 24954 24955 24956 24957 24958 24959 24960 24961 24962 24963 24964 24965 24966 24967 24968 24969 24970 24971 24972 24973 24974 24975 24976 24977 24978 24979 24980 24981 24982 24983 24984 24985 24986 24987 24988 24989 24990 24991 24992 24993 24994 24995 24996 24997 24998 24999 25000 25001 25002 25003 25004 25005 25006 25007 25008 25009 25010 25011 25012 25013 25014 25015 25016 25017 25018 25019 25020 25021 25022 25023 25024 25025 25026 25027 25028 25029 25030 25031 25032 25033 25034 25035 25036 25037 25038 25039 25040 25041 25042 25043 25044 25045 25046 25047 25048 25049 25050 25051 25052 25053 25054 25055 25056 25057 25058 25059 25060 25061 25062 25063 25064 25065 25066 25067 25068 25069 25070 25071 25072 25073 25074 25075 25076 25077 25078 25079 25080 25081 25082 25083 25084 25085 25086 25087 25088 25089 25090 25091 25092 25093 25094 25095 25096 25097 25098 25099 25100 25101 25102 25103 25104 25105 25106 25107 25108 25109 25110 25111 25112 25113 25114 25115 25116 25117 25118 25119 25120 25121 25122 25123 25124 25125 25126 25127 25128 25129 25130 25131 25132 25133 25134 25135 25136 25137 25138 25139 25140 25141 25142 25143 25144 25145 25146 25147 25148 25149 25150 25151 25152 25153 25154 25155 25156 25157 25158 25159 25160 25161 25162 25163 25164 25165 25166 25167 25168 25169 25170 25171 25172 25173 25174 25175 25176 25177 25178 25179 25180 25181 25182 25183 25184 25185 25186 25187 25188 25189 25190 25191 25192 25193 25194 25195 25196 25197 25198 25199 25200 25201 25202 25203 25204 25205 25206 25207 25208 25209 25210 25211 25212 25213 25214 25215 25216 25217 25218 25219 25220 25221 25222 25223 25224 25225 25226 25227 25228 25229 25230 25231 25232 25233 25234 25235 25236 25237 25238 25239 25240 25241 25242 25243 25244 25245 25246 25247 25248 25249 25250 25251 25252 25253 25254 25255 25256 25257 25258 25259 25260 25261 25262 25263 25264 25265 25266 25267 25268 25269 25270 25271 25272 25273 25274 25275 25276 25277 25278 25279 25280 25281 25282 25283 25284 25285 25286 25287 25288 25289 25290 25291 25292 25293 25294 25295 25296 25297 25298 25299 25300 25301 25302 25303 25304 25305 25306 25307 25308 25309 25310 25311 25312 25313 25314 25315 25316 25317 25318 25319 25320 25321 25322 25323 25324 25325 25326 25327 25328 25329 25330 25331 25332 25333 25334 25335 25336 25337 25338 25339 25340 25341 25342 25343 25344 25345 25346 25347 25348 25349 25350 25351 25352 25353 25354 25355 25356 25357 25358 25359 25360 25361 25362 25363 25364 25365 25366 25367 25368 25369 25370 25371 25372 25373 25374 25375 25376 25377 25378 25379 25380 25381 25382 25383 25384 25385 25386 25387 25388 25389 25390 25391 25392 25393 25394 25395 25396 25397 25398 25399 25400 25401 25402 25403 25404 25405 25406 25407 25408 25409 25410 25411 25412 25413 25414 25415 25416 25417 25418 25419 25420 25421 25422 25423 25424 25425 25426 25427 25428 25429 25430 25431 25432 25433 25434 25435 25436 25437 25438 25439 25440 25441 25442 25443 25444 25445 25446 25447 25448 25449 25450 25451 25452 25453 25454 25455 25456 25457 25458 25459 25460 25461 25462 25463 25464 25465 25466 25467 25468 25469 25470 25471 25472 25473 25474 25475 25476 25477 25478 25479 25480 25481 25482 25483 25484 25485 25486 25487 25488 25489 25490 25491 25492 25493 25494 25495 25496 25497 25498 25499 25500 25501 25502 25503 25504 25505 25506 25507 25508 25509 25510 25511 25512 25513 25514 25515 25516 25517 25518 25519 25520 25521 25522 25523 25524 25525 25526 25527 25528 25529 25530 25531 25532 25533 25534 25535 25536 25537 25538 25539 25540 25541 25542 25543 25544 25545 25546 25547 25548 25549 25550 25551 25552 25553 25554 25555 25556 25557 25558 25559 25560 25561 25562 25563 25564 25565 25566 25567 25568 25569 25570 25571 25572 25573 25574 25575 25576 25577 25578 25579 25580 25581 25582 25583 25584 25585 25586 25587 25588 25589 25590 25591 25592 25593 25594 25595 25596 25597 25598 25599 25600 25601 25602 25603 25604 25605 25606 25607 25608 25609 25610 25611 25612 25613 25614 25615 25616 25617 25618 25619 25620 25621 25622 25623 25624 25625 25626 25627 25628 25629 25630 25631 25632 25633 25634 25635 25636 25637 25638 25639 25640 25641 25642 25643 25644 25645 25646 25647 25648 25649 25650 25651 25652 25653 25654 25655 25656 25657 25658 25659 25660 25661 25662 25663 25664 25665 25666 25667 25668 25669 25670 25671 25672 25673 25674 25675 25676 25677 25678 25679 25680 25681 25682 25683 25684 25685 25686 25687 25688 25689 25690 25691 25692 25693 25694 25695 25696 25697 25698 25699 25700 25701 25702 25703 25704 25705 25706 25707 25708 25709 25710 25711 25712 25713 25714 25715 25716 25717 25718 25719 25720 25721 25722 25723 25724 25725 25726 25727 25728 25729 25730 25731 25732 25733 25734 25735 25736 25737 25738 25739 25740 25741 25742 25743 25744 25745 25746 25747 25748 25749 25750 25751 25752 25753 25754 25755 25756 25757 25758 25759 25760 25761 25762 25763 25764 25765 25766 25767 25768 25769 25770 25771 25772 25773 25774 25775 25776 25777 25778 25779 25780 25781 25782 25783 25784 25785 25786 25787 25788 25789 25790 25791 25792 25793 25794 25795 25796 25797 25798 25799 25800 25801 25802 25803 25804 25805 25806 25807 25808 25809 25810 25811 25812 25813 25814 25815 25816 25817 25818 25819 25820 25821 25822 25823 25824 25825 25826 25827 25828 25829 25830 25831 25832 25833 25834 25835 25836 25837 25838 25839 25840 25841 25842 25843 25844 25845 25846 25847 25848 25849 25850 25851 25852 25853 25854 25855 25856 25857 25858 25859 25860 25861 25862 25863 25864 25865 25866 25867 25868 25869 25870 25871 25872 25873 25874 25875 25876 25877 25878 25879 25880 25881 25882 25883 25884 25885 25886 25887 25888 25889 25890 25891 25892 25893 25894 25895 25896 25897 25898 25899 25900 25901 25902 25903 25904 25905 25906 25907 25908 25909 25910 25911 25912 25913 25914 25915 25916 25917 25918 25919 25920 25921 25922 25923 25924 25925 25926 25927 25928 25929 25930 25931 25932 25933 25934 25935 25936 25937 25938 25939 25940 25941 25942 25943 25944 25945 25946 25947 25948 25949 25950 25951 25952 25953 25954 25955 25956 25957 25958 25959 25960 25961 25962 25963 25964 25965 25966 25967 25968 25969 25970 25971 25972 25973 25974 25975 25976 25977 25978 25979 25980 25981 25982 25983 25984 25985 25986 25987 25988 25989 25990 25991 25992 25993 25994 25995 25996 25997 25998 25999 26000 26001 26002 26003 26004 26005 26006 26007 26008 26009 26010 26011 26012 26013 26014 26015 26016 26017 26018 26019 26020 26021 26022 26023 26024 26025 26026 26027 26028 26029 26030 26031 26032 26033 26034 26035 26036 26037 26038 26039 26040 26041 26042 26043 26044 26045 26046 26047 26048 26049 26050 26051 26052 26053 26054 26055 26056 26057 26058 26059 26060 26061 26062 26063 26064 26065 26066 26067 26068 26069 26070 26071 26072 26073 26074 26075 26076 26077 26078 26079 26080 26081 26082 26083 26084 26085 26086 26087 26088 26089 26090 26091 26092 26093 26094 26095 26096 26097 26098 26099 26100 26101 26102 26103 26104 26105 26106 26107 26108 26109 26110 26111 26112 26113 26114 26115 26116 26117 26118 26119 26120 26121 26122 26123 26124 26125 26126 26127 26128 26129 26130 26131 26132 26133 26134 26135 26136 26137 26138 26139 26140 26141 26142 26143 26144 26145 26146 26147 26148 26149 26150 26151 26152 26153 26154 26155 26156 26157 26158 26159 26160 26161 26162 26163 26164 26165 26166 26167 26168 26169 26170 26171 26172 26173 26174 26175 26176 26177 26178 26179 26180 26181 26182 26183 26184 26185 26186 26187 26188 26189 26190 26191 26192 26193 26194 26195 26196 26197 26198 26199 26200 26201 26202 26203 26204 26205 26206 26207 26208 26209 26210 26211 26212 26213 26214 26215 26216 26217 26218 26219 26220 26221 26222 26223 26224 26225 26226 26227 26228 26229 26230 26231 26232 26233 26234 26235 26236 26237 26238 26239 26240 26241 26242 26243 26244 26245 26246 26247 26248 26249 26250 26251 26252 26253 26254 26255 26256 26257 26258 26259 26260 26261 26262 26263 26264 26265 26266 26267 26268 26269 26270 26271 26272 26273 26274 26275 26276 26277 26278 26279 26280 26281 26282 26283 26284 26285 26286 26287 26288 26289 26290 26291 26292 26293 26294 26295 26296 26297 26298 26299 26300 26301 26302 26303 26304 26305 26306 26307 26308 26309 26310 26311 26312 26313 26314 26315 26316 26317 26318 26319 26320 26321 26322 26323 26324 26325 26326 26327 26328 26329 26330 26331 26332 26333 26334 26335 26336 26337 26338 26339 26340 26341 26342 26343 26344 26345 26346 26347 26348 26349 26350 26351 26352 26353 26354 26355 26356 26357 26358 26359 26360 26361 26362 26363 26364 26365 26366 26367 26368 26369 26370 26371 26372 26373 26374 26375 26376 26377 26378 26379 26380 26381 26382 26383 26384 26385 26386 26387 26388 26389 26390 26391 26392 26393 26394 26395 26396 26397 26398 26399 26400 26401 26402 26403 26404 26405 26406 26407 26408 26409 26410 26411 26412 26413 26414 26415 26416 26417 26418 26419 26420 26421 26422 26423 26424 26425 26426 26427 26428 26429 26430 26431 26432 26433 26434 26435 26436 26437 26438 26439 26440 26441 26442 26443 26444 26445 26446 26447 26448 26449 26450 26451 26452 26453 26454 26455 26456 26457 26458 26459 26460 26461 26462 26463 26464 26465 26466 26467 26468 26469 26470 26471 26472 26473 26474 26475 26476 26477 26478 26479 26480 26481 26482 26483 26484 26485 26486 26487 26488 26489 26490 26491 26492 26493 26494 26495 26496 26497 26498 26499 26500 26501 26502 26503 26504 26505 26506 26507 26508 26509 26510 26511 26512 26513 26514 26515 26516 26517 26518 26519 26520 26521 26522 26523 26524 26525 26526 26527 26528 26529 26530 26531 26532 26533 26534 26535 26536 26537 26538 26539 26540 26541 26542 26543 26544 26545 26546 26547 26548 26549 26550 26551 26552 26553 26554 26555 26556 26557 26558 26559 26560 26561 26562 26563 26564 26565 26566 26567 26568 26569 26570 26571 26572 26573 26574 26575 26576 26577 26578 26579 26580 26581 26582 26583 26584 26585 26586 26587 26588 26589 26590 26591 26592 26593 26594 26595 26596 26597 26598 26599 26600 26601 26602 26603 26604 26605 26606 26607 26608 26609 26610 26611 26612 26613 26614 26615 26616 26617 26618 26619 26620 26621 26622 26623 26624 26625 26626 26627 26628 26629 26630 26631 26632 26633 26634 26635 26636 26637 26638 26639 26640 26641 26642 26643 26644 26645 26646 26647 26648 26649 26650 26651 26652 26653 26654 26655 26656 26657 26658 26659 26660 26661 26662 26663 26664 26665 26666 26667 26668 26669 26670 26671 26672 26673 26674 26675 26676 26677 26678 26679 26680 26681 26682 26683 26684 26685 26686 26687 26688 26689 26690 26691 26692 26693 26694 26695 26696 26697 26698 26699 26700 26701 26702 26703 26704 26705 26706 26707 26708 26709 26710 26711 26712 26713 26714 26715 26716 26717 26718 26719 26720 26721 26722 26723 26724 26725 26726 26727 26728 26729 26730 26731 26732 26733 26734 26735 26736 26737 26738 26739 26740 26741 26742 26743 26744 26745 26746 26747 26748 26749 26750 26751 26752 26753 26754 26755 26756 26757 26758 26759 26760 26761 26762 26763 26764 26765 26766 26767 26768 26769 26770 26771 26772 26773 26774 26775 26776 26777 26778 26779 26780 26781 26782 26783 26784 26785 26786 26787 26788 26789 26790 26791 26792 26793 26794 26795 26796 26797 26798 26799 26800 26801 26802 26803 26804 26805 26806 26807 26808 26809 26810 26811 26812 26813 26814 26815 26816 26817 26818 26819 26820 26821 26822 26823 26824 26825 26826 26827 26828 26829 26830 26831 26832 26833 26834 26835 26836 26837 26838 26839 26840 26841 26842 26843 26844 26845 26846 26847 26848 26849 26850 26851 26852 26853 26854 26855 26856 26857 26858 26859 26860 26861 26862 26863 26864 26865 26866 26867 26868 26869 26870 26871 26872 26873 26874 26875 26876 26877 26878 26879 26880 26881 26882 26883 26884 26885 26886 26887 26888 26889 26890 26891 26892 26893 26894 26895 26896 26897 26898 26899 26900 26901 26902 26903 26904 26905 26906 26907 26908 26909 26910 26911 26912 26913 26914 26915 26916 26917 26918 26919 26920 26921 26922 26923 26924 26925 26926 26927 26928 26929 26930 26931 26932 26933 26934 26935 26936 26937 26938 26939 26940 26941 26942 26943 26944 26945 26946 26947 26948 26949 26950 26951 26952 26953 26954 26955 26956 26957 26958 26959 26960 26961 26962 26963 26964 26965 26966 26967 26968 26969 26970 26971 26972 26973 26974 26975 26976 26977 26978 26979 26980 26981 26982 26983 26984 26985 26986 26987 26988 26989 26990 26991 26992 26993 26994 26995 26996 26997 26998 26999 27000 27001 27002 27003 27004 27005 27006 27007 27008 27009 27010 27011 27012 27013 27014 27015 27016 27017 27018 27019 27020 27021 27022 27023 27024 27025 27026 27027 27028 27029 27030 27031 27032 27033 27034 27035 27036 27037 27038 27039 27040 27041 27042 27043 27044 27045 27046 27047 27048 27049 27050 27051 27052 27053 27054 27055 27056 27057 27058 27059 27060 27061 27062 27063 27064 27065 27066 27067 27068 27069 27070 27071 27072 27073 27074 27075 27076 27077 27078 27079 27080 27081 27082 27083 27084 27085 27086 27087 27088 27089 27090 27091 27092 27093 27094 27095 27096 27097 27098 27099 27100 27101 27102 27103 27104 27105 27106 27107 27108 27109 27110 27111 27112 27113 27114 27115 27116 27117 27118 27119 27120 27121 27122 27123 27124 27125 27126 27127 27128 27129 27130 27131 27132 27133 27134 27135 27136 27137 27138 27139 27140 27141 27142 27143 27144 27145 27146 27147 27148 27149 27150 27151 27152 27153 27154 27155 27156 27157 27158 27159 27160 27161 27162 27163 27164 27165 27166 27167 27168 27169 27170 27171 27172 27173 27174 27175 27176 27177 27178 27179 27180 27181 27182 27183 27184 27185 27186 27187 27188 27189 27190 27191 27192 27193 27194 27195 27196 27197 27198 27199 27200 27201 27202 27203 27204 27205 27206 27207 27208 27209 27210 27211 27212 27213 27214 27215 27216 27217 27218 27219 27220 27221 27222 27223 27224 27225 27226 27227 27228 27229 27230 27231 27232 27233 27234 27235 27236 27237 27238 27239 27240 27241 27242 27243 27244 27245 27246 27247 27248 27249 27250 27251 27252 27253 27254 27255 27256 27257 27258 27259 27260 27261 27262 27263 27264 27265 27266 27267 27268 27269 27270 27271 27272 27273 27274 27275 27276 27277 27278 27279 27280 27281 27282 27283 27284 27285 27286 27287 27288 27289 27290 27291 27292 27293 27294 27295 27296 27297 27298 27299 27300 27301 27302 27303 27304 27305 27306 27307 27308 27309 27310 27311 27312 27313 27314 27315 27316 27317 27318 27319 27320 27321 27322 27323 27324 27325 27326 27327 27328 27329 27330 27331 27332 27333 27334 27335 27336 27337 27338 27339 27340 27341 27342 27343 27344 27345 27346 27347 27348 27349 27350 27351 27352 27353 27354 27355 27356 27357 27358 27359 27360 27361 27362 27363 27364 27365 27366 27367 27368 27369 27370 27371 27372 27373 27374 27375 27376 27377 27378 27379 27380 27381 27382 27383 27384 27385 27386 27387 27388 27389 27390 27391 27392 27393 27394 27395 27396 27397 27398 27399 27400 27401 27402 27403 27404 27405 27406 27407 27408 27409 27410 27411 27412 27413 27414 27415 27416 27417 27418 27419 27420 27421 27422 27423 27424 27425 27426 27427 27428 27429 27430 27431 27432 27433 27434 27435 27436 27437 27438 27439 27440 27441 27442 27443 27444 27445 27446 27447 27448 27449 27450 27451 27452 27453 27454 27455 27456 27457 27458 27459 27460 27461 27462 27463 27464 27465 27466 27467 27468 27469 27470 27471 27472 27473 27474 27475 27476 27477 27478 27479 27480 27481 27482 27483 27484 27485 27486 27487 27488 27489 27490 27491 27492 27493 27494 27495 27496 27497 27498 27499 27500 27501 27502 27503 27504 27505 27506 27507 27508 27509 27510 27511 27512 27513 27514 27515 27516 27517 27518 27519 27520 27521 27522 27523 27524 27525 27526 27527 27528 27529 27530 27531 27532 27533 27534 27535 27536 27537 27538 27539 27540 27541 27542 27543 27544 27545 27546 27547 27548 27549 27550 27551 27552 27553 27554 27555 27556 27557 27558 27559 27560 27561 27562 27563 27564 27565 27566 27567 27568 27569 27570 27571 27572 27573 27574 27575 27576 27577 27578 27579 27580 27581 27582 27583 27584 27585 27586 27587 27588 27589 27590 27591 27592 27593 27594 27595 27596 27597 27598 27599 27600 27601 27602 27603 27604 27605 27606 27607 27608 27609 27610 27611 27612 27613 27614 27615 27616 27617 27618 27619 27620 27621 27622 27623 27624 27625 27626 27627 27628 27629 27630 27631 27632 27633 27634 27635 27636 27637 27638 27639 27640 27641 27642 27643 27644 27645 27646 27647 27648 27649 27650 27651 27652 27653 27654 27655 27656 27657 27658 27659 27660 27661 27662 27663 27664 27665 27666 27667 27668 27669 27670 27671 27672 27673 27674 27675 27676 27677 27678 27679 27680 27681 27682 27683 27684 27685 27686 27687 27688 27689 27690 27691 27692 27693 27694 27695 27696 27697 27698 27699 27700 27701 27702 27703 27704 27705 27706 27707 27708 27709 27710 27711 27712 27713 27714 27715 27716 27717 27718 27719 27720 27721 27722 27723 27724 27725 27726 27727 27728 27729 27730 27731 27732 27733 27734 27735 27736 27737 27738 27739 27740 27741 27742 27743 27744 27745 27746 27747 27748 27749 27750 27751 27752 27753 27754 27755 27756 27757 27758 27759 27760 27761 27762 27763 27764 27765 27766 27767 27768 27769 27770 27771 27772 27773 27774 27775 27776 27777 27778 27779 27780 27781 27782 27783 27784 27785 27786 27787 27788 27789 27790 27791 27792 27793 27794 27795 27796 27797 27798 27799 27800 27801 27802 27803 27804 27805 27806 27807 27808 27809 27810 27811 27812 27813 27814 27815 27816 27817 27818 27819 27820 27821 27822 27823 27824 27825 27826 27827 27828 27829 27830 27831 27832 27833 27834 27835 27836 27837 27838 27839 27840 27841 27842 27843 27844 27845 27846 27847 27848 27849 27850 27851 27852 27853 27854 27855 27856 27857 27858 27859 27860 27861 27862 27863 27864 27865 27866 27867 27868 27869 27870 27871 27872 27873 27874 27875 27876 27877 27878 27879 27880 27881 27882 27883 27884 27885 27886 27887 27888 27889 27890 27891 27892 27893 27894 27895 27896 27897 27898 27899 27900 27901 27902 27903 27904 27905 27906 27907 27908 27909 27910 27911 27912 27913 27914 27915 27916 27917 27918 27919 27920 27921 27922 27923 27924 27925 27926 27927 27928 27929 27930 27931 27932 27933 27934 27935 27936 27937 27938 27939 27940 27941 27942 27943 27944 27945 27946 27947 27948 27949 27950 27951 27952 27953 27954 27955 27956 27957 27958 27959 27960 27961 27962 27963 27964 27965 27966 27967 27968 27969 27970 27971 27972 27973 27974 27975 27976 27977 27978 27979 27980 27981 27982 27983 27984 27985 27986 27987 27988 27989 27990 27991 27992 27993 27994 27995 27996 27997 27998 27999 28000 28001 28002 28003 28004 28005 28006 28007 28008 28009 28010 28011 28012 28013 28014 28015 28016 28017 28018 28019 28020 28021 28022 28023 28024 28025 28026 28027 28028 28029 28030 28031 28032 28033 28034 28035 28036 28037 28038 28039 28040 28041 28042 28043 28044 28045 28046 28047 28048 28049 28050 28051 28052 28053 28054 28055 28056 28057 28058 28059 28060 28061 28062 28063 28064 28065 28066 28067 28068 28069 28070 28071 28072 28073 28074 28075 28076 28077 28078 28079 28080 28081 28082 28083 28084 28085 28086 28087 28088 28089 28090 28091 28092 28093 28094 28095 28096 28097 28098 28099 28100 28101 28102 28103 28104 28105 28106 28107 28108 28109 28110 28111 28112 28113 28114 28115 28116 28117 28118 28119 28120 28121 28122 28123 28124 28125 28126 28127 28128 28129 28130 28131 28132 28133 28134 28135 28136 28137 28138 28139 28140 28141 28142 28143 28144 28145 28146 28147 28148 28149 28150 28151 28152 28153 28154 28155 28156 28157 28158 28159 28160 28161 28162 28163 28164 28165 28166 28167 28168 28169 28170 28171 28172 28173 28174 28175 28176 28177 28178 28179 28180 28181 28182 28183 28184 28185 28186 28187 28188 28189 28190 28191 28192 28193 28194 28195 28196 28197 28198 28199 28200 28201 28202 28203 28204 28205 28206 28207 28208 28209 28210 28211 28212 28213 28214 28215 28216 28217 28218 28219 28220 28221 28222 28223 28224 28225 28226 28227 28228 28229 28230 28231 28232 28233 28234 28235 28236 28237 28238 28239 28240 28241 28242 28243 28244 28245 28246 28247 28248 28249 28250 28251 28252 28253 28254 28255 28256 28257 28258 28259 28260 28261 28262 28263 28264 28265 28266 28267 28268 28269 28270 28271 28272 28273 28274 28275 28276 28277 28278 28279 28280 28281 28282 28283 28284 28285 28286 28287 28288 28289 28290 28291 28292 28293 28294 28295 28296 28297 28298 28299 28300 28301 28302 28303 28304 28305 28306 28307 28308 28309 28310 28311 28312 28313 28314 28315 28316 28317 28318 28319 28320 28321 28322 28323 28324 28325 28326 28327 28328 28329 28330 28331 28332 28333 28334 28335 28336 28337 28338 28339 28340 28341 28342 28343 28344 28345 28346 28347 28348 28349 28350 28351 28352 28353 28354 28355 28356 28357 28358 28359 28360 28361 28362 28363 28364 28365 28366 28367 28368 28369 28370 28371 28372 28373 28374 28375 28376 28377 28378 28379 28380 28381 28382 28383 28384 28385 28386 28387 28388 28389 28390 28391 28392 28393 28394 28395 28396 28397 28398 28399 28400 28401 28402 28403 28404 28405 28406 28407 28408 28409 28410 28411 28412 28413 28414 28415 28416 28417 28418 28419 28420 28421 28422 28423 28424 28425 28426 28427 28428 28429 28430 28431 28432 28433 28434 28435 28436 28437 28438 28439 28440 28441 28442 28443 28444 28445 28446 28447 28448 28449 28450 28451 28452 28453 28454 28455 28456 28457 28458 28459 28460 28461 28462 28463 28464 28465 28466 28467 28468 28469 28470 28471 28472 28473 28474 28475 28476 28477 28478 28479 28480 28481 28482 28483 28484 28485 28486 28487 28488 28489 28490 28491 28492 28493 28494 28495 28496 28497 28498 28499 28500 28501 28502 28503 28504 28505 28506 28507 28508 28509 28510 28511 28512 28513 28514 28515 28516 28517 28518 28519 28520 28521 28522 28523 28524 28525 28526 28527 28528 28529 28530 28531 28532 28533 28534 28535 28536 28537 28538 28539 28540 28541 28542 28543 28544 28545 28546 28547 28548 28549 28550 28551 28552 28553 28554 28555 28556 28557 28558 28559 28560 28561 28562 28563 28564 28565 28566 28567 28568 28569 28570 28571 28572 28573 28574 28575 28576 28577 28578 28579 28580 28581 28582 28583 28584 28585 28586 28587 28588 28589 28590 28591 28592 28593 28594 28595 28596 28597 28598 28599 28600 28601 28602 28603 28604 28605 28606 28607 28608 28609 28610 28611 28612 28613 28614 28615 28616 28617 28618 28619 28620 28621 28622 28623 28624 28625 28626 28627 28628 28629 28630 28631 28632 28633 28634 28635 28636 28637 28638 28639 28640 28641 28642 28643 28644 28645 28646 28647 28648 28649 28650 28651 28652 28653 28654 28655 28656 28657 28658 28659 28660 28661 28662 28663 28664 28665 28666 28667 28668 28669 28670 28671 28672 28673 28674 28675 28676 28677 28678 28679 28680 28681 28682 28683 28684 28685 28686 28687 28688 28689 28690 28691 28692 28693 28694 28695 28696 28697 28698 28699 28700 28701 28702 28703 28704 28705 28706 28707 28708 28709 28710 28711 28712 28713 28714 28715 28716 28717 28718 28719 28720 28721 28722 28723 28724 28725 28726 28727 28728 28729 28730 28731 28732 28733 28734 28735 28736 28737 28738 28739 28740 28741 28742 28743 28744 28745 28746 28747 28748 28749 28750 28751 28752 28753 28754 28755 28756 28757 28758 28759 28760 28761 28762 28763 28764 28765 28766 28767 28768 28769 28770 28771 28772 28773 28774 28775 28776 28777 28778 28779 28780 28781 28782 28783 28784 28785 28786 28787 28788 28789 28790 28791 28792 28793 28794 28795 28796 28797 28798 28799 28800 28801 28802 28803 28804 28805 28806 28807 28808 28809 28810 28811 28812 28813 28814 28815 28816 28817 28818 28819 28820 28821 28822 28823 28824 28825 28826 28827 28828 28829 28830 28831 28832 28833 28834 28835 28836 28837 28838 28839 28840 28841 28842 28843 28844 28845 28846 28847 28848 28849 28850 28851 28852 28853 28854 28855 28856 28857 28858 28859 28860 28861 28862 28863 28864 28865 28866 28867 28868 28869 28870 28871 28872 28873 28874 28875 28876 28877 28878 28879 28880 28881 28882 28883 28884 28885 28886 28887 28888 28889 28890 28891 28892 28893 28894 28895 28896 28897 28898 28899 28900 28901 28902 28903 28904 28905 28906 28907 28908 28909 28910 28911 28912 28913 28914 28915 28916 28917 28918 28919 28920 28921 28922 28923 28924 28925 28926 28927 28928 28929 28930 28931 28932 28933 28934 28935 28936 28937 28938 28939 28940 28941 28942 28943 28944 28945 28946 28947 28948 28949 28950 28951 28952 28953 28954 28955 28956 28957 28958 28959 28960 28961 28962 28963 28964 28965 28966 28967 28968 28969 28970 28971 28972 28973 28974 28975 28976 28977 28978 28979 28980 28981 28982 28983 28984 28985 28986 28987 28988 28989 28990 28991 28992 28993 28994 28995 28996 28997 28998 28999 29000 29001 29002 29003 29004 29005 29006 29007 29008 29009 29010 29011 29012 29013 29014 29015 29016 29017 29018 29019 29020 29021 29022 29023 29024 29025 29026 29027 29028 29029 29030 29031 29032 29033 29034 29035 29036 29037 29038 29039 29040 29041 29042 29043 29044 29045 29046 29047 29048 29049 29050 29051 29052 29053 29054 29055 29056 29057 29058 29059 29060 29061 29062 29063 29064 29065 29066 29067 29068 29069 29070 29071 29072 29073 29074 29075 29076 29077 29078 29079 29080 29081 29082 29083 29084 29085 29086 29087 29088 29089 29090 29091 29092 29093 29094 29095 29096 29097 29098 29099 29100 29101 29102 29103 29104 29105 29106 29107 29108 29109 29110 29111 29112 29113 29114 29115 29116 29117 29118 29119 29120 29121 29122 29123 29124 29125 29126 29127 29128 29129 29130 29131 29132 29133 29134 29135 29136 29137 29138 29139 29140 29141 29142 29143 29144 29145 29146 29147 29148 29149 29150 29151 29152 29153 29154 29155 29156 29157 29158 29159 29160 29161 29162 29163 29164 29165 29166 29167 29168 29169 29170 29171 29172 29173 29174 29175 29176 29177 29178 29179 29180 29181 29182 29183 29184 29185 29186 29187 29188 29189 29190 29191 29192 29193 29194 29195 29196 29197 29198 29199 29200 29201 29202 29203 29204 29205 29206 29207 29208 29209 29210 29211 29212 29213 29214 29215 29216 29217 29218 29219 29220 29221 29222 29223 29224 29225 29226 29227 29228 29229 29230 29231 29232 29233 29234 29235 29236 29237 29238 29239 29240 29241 29242 29243 29244 29245 29246 29247 29248 29249 29250 29251 29252 29253 29254 29255 29256 29257 29258 29259 29260 29261 29262 29263 29264 29265 29266 29267 29268 29269 29270 29271 29272 29273 29274 29275 29276 29277 29278 29279 29280 29281 29282 29283 29284 29285 29286 29287 29288 29289 29290 29291 29292 29293 29294 29295 29296 29297 29298 29299 29300 29301 29302 29303 29304 29305 29306 29307 29308 29309 29310 29311 29312 29313 29314 29315 29316 29317 29318 29319 29320 29321 29322 29323 29324 29325 29326 29327 29328 29329 29330 29331 29332 29333 29334 29335 29336 29337 29338 29339 29340 29341 29342 29343 29344 29345 29346 29347 29348 29349 29350 29351 29352 29353 29354 29355 29356 29357 29358 29359 29360 29361 29362 29363 29364 29365 29366 29367 29368 29369 29370 29371 29372 29373 29374 29375 29376 29377 29378 29379 29380 29381 29382 29383 29384 29385 29386 29387 29388 29389 29390 29391 29392 29393 29394 29395 29396 29397 29398 29399 29400 29401 29402 29403 29404 29405 29406 29407 29408 29409 29410 29411 29412 29413 29414 29415 29416 29417 29418 29419 29420 29421 29422 29423 29424 29425 29426 29427 29428 29429 29430 29431 29432 29433 29434 29435 29436 29437 29438 29439 29440 29441 29442 29443 29444 29445 29446 29447 29448 29449 29450 29451 29452 29453 29454 29455 29456 29457 29458 29459 29460 29461 29462 29463 29464 29465 29466 29467 29468 29469 29470 29471 29472 29473 29474 29475 29476 29477 29478 29479 29480 29481 29482 29483 29484 29485 29486 29487 29488 29489 29490 29491 29492 29493 29494 29495 29496 29497 29498 29499 29500 29501 29502 29503 29504 29505 29506 29507 29508 29509 29510 29511 29512 29513 29514 29515 29516 29517 29518 29519 29520 29521 29522 29523 29524 29525 29526 29527 29528 29529 29530 29531 29532 29533 29534 29535 29536 29537 29538 29539 29540 29541 29542 29543 29544 29545 29546 29547 29548 29549 29550 29551 29552 29553 29554 29555 29556 29557 29558 29559 29560 29561 29562 29563 29564 29565 29566 29567 29568 29569 29570 29571 29572 29573 29574 29575 29576 29577 29578 29579 29580 29581 29582 29583 29584 29585 29586 29587 29588 29589 29590 29591 29592 29593 29594 29595 29596 29597 29598 29599 29600 29601 29602 29603 29604 29605 29606 29607 29608 29609 29610 29611 29612 29613 29614 29615 29616 29617 29618 29619 29620 29621 29622 29623 29624 29625 29626 29627 29628 29629 29630 29631 29632 29633 29634 29635 29636 29637 29638 29639 29640 29641 29642 29643 29644 29645 29646 29647 29648 29649 29650 29651 29652 29653 29654 29655 29656 29657 29658 29659 29660 29661 29662 29663 29664 29665 29666 29667 29668 29669 29670 29671 29672 29673 29674 29675 29676 29677 29678 29679 29680 29681 29682 29683 29684 29685 29686 29687 29688 29689 29690 29691 29692 29693 29694 29695 29696 29697 29698 29699 29700 29701 29702 29703 29704 29705 29706 29707 29708 29709 29710 29711 29712 29713 29714 29715 29716 29717 29718 29719 29720 29721 29722 29723 29724 29725 29726 29727 29728 29729 29730 29731 29732 29733 29734 29735 29736 29737 29738 29739 29740 29741 29742 29743 29744 29745 29746 29747 29748 29749 29750 29751 29752 29753 29754 29755 29756 29757 29758 29759 29760 29761 29762 29763 29764 29765 29766 29767 29768 29769 29770 29771 29772 29773 29774 29775 29776 29777 29778 29779 29780 29781 29782 29783 29784 29785 29786 29787 29788 29789 29790 29791 29792 29793 29794 29795 29796 29797 29798 29799 29800 29801 29802 29803 29804 29805 29806 29807 29808 29809 29810 29811 29812 29813 29814 29815 29816 29817 29818 29819 29820 29821 29822 29823 29824 29825 29826 29827 29828 29829 29830 29831 29832 29833 29834 29835 29836 29837 29838 29839 29840 29841 29842 29843 29844 29845 29846 29847 29848 29849 29850 29851 29852 29853 29854 29855 29856 29857 29858 29859 29860 29861 29862 29863 29864 29865 29866 29867 29868 29869 29870 29871 29872 29873 29874 29875 29876 29877 29878 29879 29880 29881 29882 29883 29884 29885 29886 29887 29888 29889 29890 29891 29892 29893 29894 29895 29896 29897 29898 29899 29900 29901 29902 29903 29904 29905 29906 29907 29908 29909 29910 29911 29912 29913 29914 29915 29916 29917 29918 29919 29920 29921 29922 29923 29924 29925 29926 29927 29928 29929 29930 29931 29932 29933 29934 29935 29936 29937 29938 29939 29940 29941 29942 29943 29944 29945 29946 29947 29948 29949 29950 29951 29952 29953 29954 29955 29956 29957 29958 29959 29960 29961 29962 29963 29964 29965 29966 29967 29968 29969 29970 29971 29972 29973 29974 29975 29976 29977 29978 29979 29980 29981 29982 29983 29984 29985 29986 29987 29988 29989 29990 29991 29992 29993 29994 29995 29996 29997 29998 29999 30000 30001 30002 30003 30004 30005 30006 30007 30008 30009 30010 30011 30012 30013 30014 30015 30016 30017 30018 30019 30020 30021 30022 30023 30024 30025 30026 30027 30028 30029 30030 30031 30032 30033 30034 30035 30036 30037 30038 30039 30040 30041 30042 30043 30044 30045 30046 30047 30048 30049 30050 30051 30052 30053 30054 30055 30056 30057 30058 30059 30060 30061 30062 30063 30064 30065 30066 30067 30068 30069 30070 30071 30072 30073 30074 30075 30076 30077 30078 30079 30080 30081 30082 30083 30084 30085 30086 30087 30088 30089 30090 30091 30092 30093 30094 30095 30096 30097 30098 30099 30100 30101 30102 30103 30104 30105 30106 30107 30108 30109 30110 30111 30112 30113 30114 30115 30116 30117 30118 30119 30120 30121 30122 30123 30124 30125 30126 30127 30128 30129 30130 30131 30132 30133 30134 30135 30136 30137 30138 30139 30140 30141 30142 30143 30144 30145 30146 30147 30148 30149 30150 30151 30152 30153 30154 30155 30156 30157 30158 30159 30160 30161 30162 30163 30164 30165 30166 30167 30168 30169 30170 30171 30172 30173 30174 30175 30176 30177 30178 30179 30180 30181 30182 30183 30184 30185 30186 30187 30188 30189 30190 30191 30192 30193 30194 30195 30196 30197 30198 30199 30200 30201 30202 30203 30204 30205 30206 30207 30208 30209 30210 30211 30212 30213 30214 30215 30216 30217 30218 30219 30220 30221 30222 30223 30224 30225 30226 30227 30228 30229 30230 30231 30232 30233 30234 30235 30236 30237 30238 30239 30240 30241 30242 30243 30244 30245 30246 30247 30248 30249 30250 30251 30252 30253 30254 30255 30256 30257 30258 30259 30260 30261 30262 30263 30264 30265 30266 30267 30268 30269 30270 30271 30272 30273 30274 30275 30276 30277 30278 30279 30280 30281 30282 30283 30284 30285 30286 30287 30288 30289 30290 30291 30292 30293 30294 30295 30296 30297 30298 30299 30300 30301 30302 30303 30304 30305 30306 30307 30308 30309 30310 30311 30312 30313 30314 30315 30316 30317 30318 30319 30320 30321 30322 30323 30324 30325 30326 30327 30328 30329 30330 30331 30332 30333 30334 30335 30336 30337 30338 30339 30340 30341 30342 30343 30344 30345 30346 30347 30348 30349 30350 30351 30352 30353 30354 30355 30356 30357 30358 30359 30360 30361 30362 30363 30364 30365 30366 30367 30368 30369 30370 30371 30372 30373 30374 30375 30376 30377 30378 30379 30380 30381 30382 30383 30384 30385 30386 30387 30388 30389 30390 30391 30392 30393 30394 30395 30396 30397 30398 30399 30400 30401 30402 30403 30404 30405 30406 30407 30408 30409 30410 30411 30412 30413 30414 30415 30416 30417 30418 30419 30420 30421 30422 30423 30424 30425 30426 30427 30428 30429 30430 30431 30432 30433 30434 30435 30436 30437 30438 30439 30440 30441 30442 30443 30444 30445 30446 30447 30448 30449 30450 30451 30452 30453 30454 30455 30456 30457 30458 30459 30460 30461 30462 30463 30464 30465 30466 30467 30468 30469 30470 30471 30472 30473 30474 30475 30476 30477 30478 30479 30480 30481 30482 30483 30484 30485 30486 30487 30488 30489 30490 30491 30492 30493 30494 30495 30496 30497 30498 30499 30500 30501 30502 30503 30504 30505 30506 30507 30508 30509 30510 30511 30512 30513 30514 30515 30516 30517 30518 30519 30520 30521 30522 30523 30524 30525 30526 30527 30528 30529 30530 30531 30532 30533 30534 30535 30536 30537 30538 30539 30540 30541 30542 30543 30544 30545 30546 30547 30548 30549 30550 30551 30552 30553 30554 30555 30556 30557 30558 30559 30560 30561 30562 30563 30564 30565 30566 30567 30568 30569 30570 30571 30572 30573 30574 30575 30576 30577 30578 30579 30580 30581 30582 30583 30584 30585 30586 30587 30588 30589 30590 30591 30592 30593 30594 30595 30596 30597 30598 30599 30600 30601 30602 30603 30604 30605 30606 30607 30608 30609 30610 30611 30612 30613 30614 30615 30616 30617 30618 30619 30620 30621 30622 30623 30624 30625 30626 30627 30628 30629 30630 30631 30632 30633 30634 30635 30636 30637 30638 30639 30640 30641 30642 30643 30644 30645 30646 30647 30648 30649 30650 30651 30652 30653 30654 30655 30656 30657 30658 30659 30660 30661 30662 30663 30664 30665 30666 30667 30668 30669 30670 30671 30672 30673 30674 30675 30676 30677 30678 30679 30680 30681 30682 30683 30684 30685 30686 30687 30688 30689 30690 30691 30692 30693 30694 30695 30696 30697 30698 30699 30700 30701 30702 30703 30704 30705 30706 30707 30708 30709 30710 30711 30712 30713 30714 30715 30716 30717 30718 30719 30720 30721 30722 30723 30724 30725 30726 30727 30728 30729 30730 30731 30732 30733 30734 30735 30736 30737 30738 30739 30740 30741 30742 30743 30744 30745 30746 30747 30748 30749 30750 30751 30752 30753 30754 30755 30756 30757 30758 30759 30760 30761 30762 30763 30764 30765 30766 30767 30768 30769 30770 30771 30772 30773 30774 30775 30776 30777 30778 30779 30780 30781 30782 30783 30784 30785 30786 30787 30788 30789 30790 30791 30792 30793 30794 30795 30796 30797 30798 30799 30800 30801 30802 30803 30804 30805 30806 30807 30808 30809 30810 30811 30812 30813 30814 30815 30816 30817 30818 30819 30820 30821 30822 30823 30824 30825 30826 30827 30828 30829 30830 30831 30832 30833 30834 30835 30836 30837 30838 30839 30840 30841 30842 30843 30844 30845 30846 30847 30848 30849 30850 30851 30852 30853 30854 30855 30856 30857 30858 30859 30860 30861 30862 30863 30864 30865 30866 30867 30868 30869 30870 30871 30872 30873 30874 30875 30876 30877 30878 30879 30880 30881 30882 30883 30884 30885 30886 30887 30888 30889 30890 30891 30892 30893 30894 30895 30896 30897 30898 30899 30900 30901 30902 30903 30904 30905 30906 30907 30908 30909 30910 30911 30912 30913 30914 30915 30916 30917 30918 30919 30920 30921 30922 30923 30924 30925 30926 30927 30928 30929 30930 30931 30932 30933 30934 30935 30936 30937 30938 30939 30940 30941 30942 30943 30944 30945 30946 30947 30948 30949 30950 30951 30952 30953 30954 30955 30956 30957 30958 30959 30960 30961 30962 30963 30964 30965 30966 30967 30968 30969 30970 30971 30972 30973 30974 30975 30976 30977 30978 30979 30980 30981 30982 30983 30984 30985 30986 30987 30988 30989 30990 30991 30992 30993 30994 30995 30996 30997 30998 30999 31000 31001 31002 31003 31004 31005 31006 31007 31008 31009 31010 31011 31012 31013 31014 31015 31016 31017 31018 31019 31020 31021 31022 31023 31024 31025 31026 31027 31028 31029 31030 31031 31032 31033 31034 31035 31036 31037 31038 31039 31040 31041 31042 31043 31044 31045 31046 31047 31048 31049 31050 31051 31052 31053 31054 31055 31056 31057 31058 31059 31060 31061 31062 31063 31064 31065 31066 31067 31068 31069 31070 31071 31072 31073 31074 31075 31076 31077 31078 31079 31080 31081 31082 31083 31084 31085 31086 31087 31088 31089 31090 31091 31092 31093 31094 31095 31096 31097 31098 31099 31100 31101 31102 31103 31104 31105 31106 31107 31108 31109 31110 31111 31112 31113 31114 31115 31116 31117 31118 31119 31120 31121 31122 31123 31124 31125 31126 31127 31128 31129 31130 31131 31132 31133 31134 31135 31136 31137 31138 31139 31140 31141 31142 31143 31144 31145 31146 31147 31148 31149 31150 31151 31152 31153 31154 31155 31156 31157 31158 31159 31160 31161 31162 31163 31164 31165 31166 31167 31168 31169 31170 31171 31172 31173 31174 31175 31176 31177 31178 31179 31180 31181 31182 31183 31184 31185 31186 31187 31188 31189 31190 31191 31192 31193 31194 31195 31196 31197 31198 31199 31200 31201 31202 31203 31204 31205 31206 31207 31208 31209 31210 31211 31212 31213 31214 31215 31216 31217 31218 31219 31220 31221 31222 31223 31224 31225 31226 31227 31228 31229 31230 31231 31232 31233 31234 31235 31236 31237 31238 31239 31240 31241 31242 31243 31244 31245 31246 31247 31248 31249 31250 31251 31252 31253 31254 31255 31256 31257 31258 31259 31260 31261 31262 31263 31264 31265 31266 31267 31268 31269 31270 31271 31272 31273 31274 31275 31276 31277 31278 31279 31280 31281 31282 31283 31284 31285 31286 31287 31288 31289 31290 31291 31292 31293 31294 31295 31296 31297 31298 31299 31300 31301 31302 31303 31304 31305 31306 31307 31308 31309 31310 31311 31312 31313 31314 31315 31316 31317 31318 31319 31320 31321 31322 31323 31324 31325 31326 31327 31328 31329 31330 31331 31332 31333 31334 31335 31336 31337 31338 31339 31340 31341 31342 31343 31344 31345 31346 31347 31348 31349 31350 31351 31352 31353 31354 31355 31356 31357 31358 31359 31360 31361 31362 31363 31364 31365 31366 31367 31368 31369 31370 31371 31372 31373 31374 31375 31376 31377 31378 31379 31380 31381 31382 31383 31384 31385 31386 31387 31388 31389 31390 31391 31392 31393 31394 31395 31396 31397 31398 31399 31400 31401 31402 31403 31404 31405 31406 31407 31408 31409 31410 31411 31412 31413 31414 31415 31416 31417 31418 31419 31420 31421 31422 31423 31424 31425 31426 31427 31428 31429 31430 31431 31432 31433 31434 31435 31436 31437 31438 31439 31440 31441 31442 31443 31444 31445 31446 31447 31448 31449 31450 31451 31452 31453 31454 31455 31456 31457 31458 31459 
</DataArray>
<DataArray type="UInt32" Name="offsets" format="ascii">
3 6 9 12 15 18 20 23 26 29 32 35 37 40 43 45 48 51 54 56 59 62 65 68 71 74 77 80 83 86 89 92 95 98 101 104 107 110 113 116 119 122 125 128 131 134 137 140 143 146 148 151 153 156 159 162 164 167 170 173 176 179 182 185 187 190 193 195 198 201 204 207 210 213 216 218 221 224 227 230 232 235 238 241 244 247 249 252 255 258 260 263 266 269 272 275 278 281 284 287 290 293 296 299 302 305 308 311 313 316 319 322 325 327 330 333 336 339 342 345 347 350 353 356 358 361 363 366 368 371 374 376 379 382 385 388 391 394 397 399 402 405 408 411 414 417 420 423 426 429 432 435 437 440 443 446 449 452 455 458 460 463 466 469 472 475 478 481 484 486 489 492 495 498 501 504 506 509 512 515 518 521 523 526 528 531 534 537 540 543 545 548 550 553 555 557 560 563 565 568 571 574 577 580 583 586 589 592 595 598 601 604 607 610 613 616 619 622 625 628 631 634 637 640 643 646 649 652 655 658 661 664 667 670 673 676 678 681 683 686 689 692 695 698 701 704 707 710 712 715 717 720 723 726 729 732 734 737 740 743 746 748 751 754 757 760 763 766 769 772 775 778 781 783 786 789 791 794 797 800 803 806 809 812 815 818 821 824 827 830 833 836 839 842 845 848 851 854 857 860 863 866 869 872 875 878 881 884 887 890 893 896 899 902 905 908 911 914 917 919 922 925 928 930 933 936 939 941 944 947 950 953 955 958 961 964 967 969 972 975 978 981 984 987 990 993 996 999 1002 1004 1007 1010 1013 1016 1019 1022 1025 1028 1031 1034 1037 1040 1043 1046 1049 1052 1055 1058 1061 1064 1067 1070 1073 1076 1078 1080 1083 1086 1089 1092 1095 1098 1101 1104 1107 1110 1112 1115 1118 1121 1124 1127 1130 1133 1136 1139 1142 1145 1148 1151 1154 1157 1160 1163 1166 1169 1172 1175 1178 1181 1183 1186 1189 1192 1194 1197 1200 1203 1206 1209 1212 1215 1217 1220 1223 1226 1229 1232 1235 1238 1241 1244 1246 1249 1252 1255 1257 1260 1263 1266 1269 1272 1275 1278 1280 1283 1286 1289 1292 1295 1298 1301 1304 1307 1310 1313 1316 1319 1322 1325 1328 1331 1334 1336 1339 1342 1345 1348 1351 1354 1357 1360 1363 1366 1369 1372 1375 1378 1381 1384 1387 1390 1393 1396 1398 1401 1404 1407 1409 1412 1415 1417 1420 1422 1425 1428 1431 1433 1436 1439 1442 1445 1447 1450 1453 1456 1458 1461 1464 1467 1470 1473 1475 1478 1481 1484 1487 1490 1493 1496 1499 1501 1504 1507 1510 1513 1516 1519 1522 1525 1528 1531 1534 1537 1540 1543 1546 1549 1552 1555 1558 1561 1564 1567 1570 1573 1575 1578 1580 1583 1586 1589 1592 1595 1598 1601 1604 1606 1609 1612 1615 1618 1621 1623 1626 1629 1632 1635 1638 1641 1643 1646 1648 1651 1654 1657 1660 1663 1666 1669 1672 1675 1678 1681 1684 1687 1690 1693 1696 1699 1702 1705 1708 1711 1714 1716 1718 1721 1724 1727 1729 1732 1735 1738 1741 1743 1746 1749 1752 1755 1758 1761 1764 1767 1769 1772 1775 1778 1780 1783 1786 1789 1792 1795 1798 1801 1804 1806 1808 1811 1813 1816 1819 1821 1824 1826 1829 1832 1835 1838 1841 1844 1846 1849 1852 1855 1858 1861 1863 1866 1869 1871 1874 1877 1879 1882 1885 1888 1890 1893 1896 1899 1902 1905 1908 1911 1914 1917 1920 1923 1926 1929 1932 1934 1937 1940 1943 1946 1949 1951 1954 1957 1960 1962 1965 1968 1970 1972 1975 1978 1981 1984 1987 1990 1993 1995 1998 2001 2004 2007 2009 2012 2015 2018 2021 2023 2026 2029 2032 2035 2038 2041 2044 2047 2050 2052 2055 2058 2061 2064 2067 2070 2072 2075 2078 2080 2083 2086 2089 2092 2095 2097 2100 2103 2105 2108 2111 2114 2117 2120 2123 2126 2129 2131 2133 2136 2139 2142 2145 2148 2151 2153 2156 2159 2162 2165 2168 2171 2173 2176 2179 2182 2185 2188 2191 2193 2196 2199 2202 2205 2208 2211 2214 2217 2220 2223 2225 2228 2231 2234 2237 2240 2242 2245 2248 2250 2253 2256 2259 2262 2265 2268 2270 2273 2275 2278 2281 2284 2286 2289 2292 2294 2297 2300 2303 2306 2309 2312 2315 2318 2321 2324 2327 2330 2333 2335 2338 2341 2344 2346 2349 2352 2355 2358 2361 2364 2367 2370 2373 2376 2378 2381 2384 2387 2390 2393 2396 2399 2402 2405 2408 2411 2414 2417 2420 2423 2426 2429 2432 2434 2437 2440 2442 2445 2448 2451 2454 2457 2460 2463 2466 2469 2472 2475 2478 2481 2484 2487 2490 2493 2495 2498 2501 2504 2507 2510 2513 2516 2519 2522 2525 2528 2531 2534 2536 2539 2542 2545 2548 2551 2554 2557 2560 2563 2566 2569 2572 2575 2578 2581 2584 2586 2589 2592 2595 2597 2600 2603 2606 2609 2612 2615 2618 2620 2623 2626 2628 2631 2633 2636 2638 2641 2643 2646 2649 2652 2655 2657 2660 2663 2666 2669 2672 2675 2677 2680 2683 2685 2688 2691 2694 2697 2700 2702 2704 2707 2710 2713 2716 2719 2722 2725 2728 2731 2734 2737 2740 2743 2746 2749 2752 2755 2758 2761 2764 2767 2770 2773 2776 2778 2781 2784 2787 2790 2793 2796 2799 2802 2805 2808 2811 2814 2817 2820 2823 2826 2829 2832 2835 2838 2841 2844 2847 2850 2853 2856 2859 2862 2865 2867 2870 2873 2876 2879 2882 2885 2888 2891 2894 2897 2900 2902 2905 2908 2911 2914 2917 2920 2922 2925 2928 2930 2933 2935 2938 2941 2944 2946 2949 2952 2955 2957 2960 2963 2965 2968 2970 2973 2976 2978 2981 2984 2986 2989 2991 2994 2997 3000 3003 3006 3008 3011 3013 3016 3019 3022 3025 3027 3029 3032 3035 3037 3040 3043 3045 3048 3050 3053 3056 3058 3061 3064 3067 3069 3072 3075 3077 3079 3082 3085 3088 3090 3092 3095 3098 3101 3104 3107 3110 3113 3116 3118 3121 3123 3126 3128 3131 3133 3136 3138 3141 3143 3146 3149 3152 3154 3157 3160 3162 3165 3168 3170 3173 3175 3177 3180 3182 3184 3187 3190 3192 3195 3197 3200 3203 3206 3209 3212 3215 3218 3220 3223 3226 3229 3232 3234 3237 3240 3243 3246 3249 3252 3255 3258 3261 3263 3266 3268 3271 3274 3277 3280 3283 3286 3289 3292 3295 3298 3301 3304 3307 3309 3312 3314 3317 3320 3322 3325 3328 3331 3333 3336 3339 3342 3345 3348 3351 3354 3356 3359 3362 3365 3368 3371 3373 3375 3378 3381 3384 3387 3390 3393 3396 3398 3401 3404 3407 3409 3412 3415 3418 3421 3424 3427 3430 3433 3436 3438 3441 3444 3447 3450 3453 3456 3459 3462 3465 3468 3471 3473 3476 3479 3482 3485 3488 3491 3493 3496 3499 3502 3505 3507 3510 3513 3516 3519 3522 3525 3528 3531 3534 3537 3540 3543 3546 3549 3552 3555 3558 3561 3564 3566 3569 3572 3575 3578 3580 3583 3586 3589 3592 3595 3598 3601 3604 3607 3610 3613 3616 3619 3622 3625 3627 3630 3633 3635 3638 3640 3643 3646 3649 3652 3655 3658 3660 3663 3666 3669 3672 3675 3677 3680 3683 3686 3689 3692 3694 3696 3699 3702 3705 3708 3711 3714 3717 3720 3723 3726 3729 3732 3735 3738 3741 3744 3747 3750 3753 3756 3759 3761 3764 3767 3770 3773 3776 3779 3782 3785 3788 3791 3794 3796 3799 3801 3804 3807 3810 3813 3815 3818 3821 3823 3826 3829 3831 3834 3837 3839 3842 3845 3848 3851 3854 3857 3859 3862 3865 3868 3871 3874 3877 3880 3882 3885 3888 3890 3893 3896 3898 3901 3904 3907 3910 3913 3915 3918 3921 3924 3927 3930 3933 3936 3939 3942 3945 3948 3951 3953 3956 3959 3962 3965 3968 3971 3974 3977 3980 3983 3986 3989 3992 3995 3997 3999 4002 4005 4007 4010 4012 4015 4017 4019 4022 4025 4028 4031 4033 4035 4037 4040 4043 4045 4048 4051 4053 4056 4059 4062 4065 4067 4070 4073 4076 4079 4082 4085 4088 4090 4093 4096 4098 4100 4103 4106 4108 4111 4113 4116 4119 4122 4125 4128 4131 4134 4137 4140 4143 4146 4149 4152 4155 4158 4161 4164 4167 4170 4173 4176 4178 4180 4183 4186 4189 4192 4195 4198 4201 4204 4207 4210 4212 4215 4218 4221 4224 4226 4229 4232 4235 4238 4241 4244 4246 4249 4252 4255 4257 4260 4263 4266 4269 4272 4275 4277 4280 4283 4286 4289 4292 4295 4297 4300 4303 4305 4308 4311 4314 4317 4320 4323 4326 4329 4332 4335 4338 4341 4344 4347 4350 4353 4356 4359 4362 4365 4368 4371 4374 4377 4379 4382 4385 4388 4391 4394 4397 4400 4403 4406 4409 4412 4415 4418 4420 4423 4425 4428 4431 4434 4437 4440 4443 4446 4449 4452 4455 4458 4461 4464 4467 4470 4473 4476 4478 4481 4484 4487 4489 4492 4495 4498 4500 4503 4506 4509 4512 4514 4517 4520 4523 4526 4529 4532 4535 4538 4541 4544 4547 4550 4553 4556 4559 4562 4565 4568 4571 4574 4577 4580 4583 4586 4589 4592 4595 4598 4601 4604 4607 4610 4613 4616 4619 4622 4625 4627 4630 4633 4636 4639 4642 4645 4648 4650 4653 4656 4658 4661 4663 4666 4669 4672 4675 4678 4680 4683 4686 4689 4691 4694 4697 4700 4703 4706 4709 4712 4715 4718 4721 4724 4727 4730 4733 4736 4739 4742 4745 4748 4751 4753 4756 4759 4762 4765 4768 4771 4774 4777 4780 4783 4786 4789 4792 4795 4798 4801 4804 4807 4810 4813 4816 4819 4822 4825 4828 4831 4834 4836 4838 4841 4844 4847 4850 4853 4856 4858 4861 4864 4867 4870 4873 4876 4879 4881 4883 4886 4889 4891 4893 4896 4899 4902 4905 4907 4909 4912 4915 4918 4921 4924 4926 4929 4932 4935 4937 4940 4943 4946 4949 4952 4955 4958 4961 4964 4966 4969 4972 4975 4977 4980 4983 4985 4988 4990 4993 4995 4998 5000 5002 5005 5008 5010 5012 5015 5018 5021 5024 5027 5030 5032 5035 5037 5040 5043 5046 5049 5051 5054 5057 5060 5063 5066 5069 5072 5074 5077 5079 5082 5085 5088 5091 5094 5097 5100 5103 5106 5109 5112 5115 5118 5120 5123 5125 5128 5131 5134 5137 5140 5143 5146 5149 5152 5155 5158 5161 5164 5166 5169 5172 5175 5178 5181 5184 5187 5190 5193 5196 5198 5201 5204 5207 5210 5213 5216 5219 5222 5225 5228 5231 5234 5237 5240 5242 5245 5247 5250 5253 5256 5258 5261 5264 5267 5270 5273 5276 5279 5282 5285 5288 5291 5294 5297 5300 5303 5305 5307 5310 5313 5316 5319 5322 5325 5328 5331 5334 5337 5340 5343 5346 5349 5351 5354 5357 5360 5363 5366 5368 5371 5374 5377 5380 5383 5386 5388 5391 5394 5397 5400 5403 5406 5409 5412 5415 5418 5421 5424 5426 5429 5432 5435 5438 5441 5444 5446 5449 5452 5455 5457 5460 5463 5466 5469 5472 5474 5477 5480 5483 5485 5488 5491 5494 5497 5500 5503 5506 5509 5512 5514 5517 5520 5523 5526 5529 5532 5535 5538 5541 5544 5546 5549 5552 5555 5557 5560 5563 5566 5569 5572 5575 5578 5581 5584 5587 5590 5593 5596 5599 5602 5605 5608 5611 5614 5617 5620 5623 5626 5628 5631 5634 5637 5640 5643 5646 5649 5652 5655 5658 5661 5664 5667 5670 5673 5676 5679 5682 5685 5688 5691 5694 5697 5700 5702 5705 5708 5711 5714 5717 5720 5723 5725 5728 5731 5734 5736 5739 5742 5745 5748 5751 5754 5757 5760 5762 5765 5767 5770 5773 5775 5778 5780 5783 5786 5789 5792 5795 5798 5800 5803 5806 5809 5811 5813 5816 5818 5821 5824 5827 5830 5833 5835 5838 5841 5844 5847 5850 5853 5856 5859 5862 5865 5868 5871 5874 5877 5880 5882 5885 5888 5890 5893 5896 5899 5901 5904 5906 5909 5911 5914 5916 5919 5922 5924 5926 5929 5932 5935 5937 5940 5942 5945 5948 5951 5954 5957 5960 5963 5966 5969 5971 5974 5977 5980 5982 5985 5988 5991 5994 5997 6000 6003 6006 6009 6012 6015 6017 6020 6023 6026 6028 6031 6034 6037 6040 6043 6046 6049 6052 6055 6057 6060 6063 6065 6068 6071 6074 6076 6079 6082 6084 6087 6090 6093 6096 6099 6102 6105 6108 6111 6114 6117 6120 6123 6126 6129 6132 6135 6138 6141 6144 6147 6150 6152 6155 6158 6160 6163 6166 6169 6172 6175 6178 6181 6183 6186 6189 6192 6195 6198 6201 6204 6207 6210 6213 6216 6219 6221 6224 6227 6230 6232 6235 6238 6240 6242 6245 6247 6250 6253 6256 6259 6262 6264 6267 6270 6273 6276 6279 6281 6284 6287 6290 6292 6294 6297 6300 6303 6305 6308 6311 6314 6316 6319 6322 6325 6327 6329 6332 6335 6337 6340 6343 6346 6349 6352 6355 6357 6359 6362 6365 6368 6371 6374 6377 6380 6383 6386 6389 6392 6394 6397 6400 6403 6406 6409 6412 6415 6418 6421 6424 6427 6430 6433 6436 6439 6442 6444 6447 6450 6453 6455 6458 6461 6464 6467 6470 6473 6476 6479 6482 6485 6487 6489 6492 6495 6498 6501 6503 6506 6509 6512 6515 6518 6521 6523 6526 6528 6531 6534 6537 6540 6543 6546 6548 6550 6553 6556 6559 6562 6565 6568 6571 6574 6576 6578 6581 6584 6587 6590 6593 6596 6598 6601 6604 6607 6610 6612 6615 6617 6620 6623 6626 6629 6632 6634 6637 6639 6641 6644 6647 6649 6651 6654 6657 6659 6662 6664 6666 6669 6672 6675 6677 6679 6682 6685 6688 6691 6694 6697 6700 6703 6706 6709 6711 6714 6717 6720 6722 6724 6727 6729 6731 6734 6737 6740 6743 6746 6748 6751 6753 6756 6758 6761 6764 6767 6769 6772 6774 6776 6779 6782 6784 6787 6790 6792 6795 6798 6801 6804 6806 6809 6812 6815 6818 6821 6824 6827 6830 6833 6836 6839 6842 6844 6847 6850 6853 6856 6859 6861 6864 6866 6869 6871 6874 6876 6879 6881 6884 6886 6889 6892 6895 6898 6901 6903 6905 6908 6910 6912 6914 6917 6920 6923 6926 6928 6931 6934 6937 6940 6943 6945 6948 6951 6954 6957 6960 6963 6965 6968 6971 6974 6977 6979 6982 6985 6987 6990 6992 6994 6997 7000 7003 7006 7009 7012 7014 7016 7018 7020 7023 7026 7028 7031 7033 7036 7038 7040 7043 7046 7049 7052 7055 7058 7061 7064 7067 7070 7073 7076 7078 7081 7084 7086 7089 7092 7095 7098 7101 7104 7107 7110 7113 7116 7119 7121 7124 7127 7130 7133 7135 7138 7141 7143 7146 7149 7152 7154 7157 7159 7162 7165 7168 7171 7174 7177 7180 7183 7186 7188 7191 7194 7197 7200 7203 7205 7208 7211 7214 7217 7220 7223 7226 7229 7232 7235 7238 7241 7244 7247 7250 7252 7255 7258 7261 7264 7266 7269 7272 7275 7278 7280 7283 7286 7289 7292 7295 7298 7301 7304 7307 7310 7313 7316 7319 7322 7325 7328 7331 7334 7336 7339 7342 7345 7348 7350 7353 7356 7359 7362 7365 7368 7371 7374 7377 7380 7383 7385 7388 7391 7394 7396 7398 7401 7404 7407 7409 7411 7413 7416 7418 7421 7424 7426 7429 7432 7434 7437 7440 7442 7445 7447 7450 7453 7456 7459 7462 7465 7468 7471 7474 7477 7480 7483 7486 7489 7492 7495 7498 7501 7504 7507 7509 7511 7514 7517 7520 7522 7525 7527 7530 7533 7536 7539 7542 7545 7548 7551 7554 7557 7559 7562 7565 7568 7571 7574 7577 7580 7583 7586 7588 7591 7594 7597 7600 7603 7606 7608 7611 7614 7617 7620 7623 7626 7629 7632 7635 7638 7641 7644 7646 7649 7651 7654 7657 7660 7663 7666 7669 7672 7675 7678 7681 7684 7687 7690 7693 7696 7699 7702 7705 7707 7710 7712 7715 7717 7720 7723 7725 7728 7730 7733 7736 7738 7741 7744 7746 7749 7752 7755 7758 7761 7764 7766 7769 7772 7774 7776 7779 7782 7784 7787 7790 7792 7795 7797 7799 7802 7805 7808 7811 7814 7817 7819 7822 7825 7828 7831 7834 7837 7840 7843 7846 7849 7851 7854 7857 7859 7862 7865 7868 7870 7873 7876 7879 7882 7885 7888 7891 7893 7896 7899 7902 7904 7907 7910 7912 7915 7918 7921 7924 7927 7930 7933 7936 7939 7942 7945 7948 7951 7954 7957 7960 7963 7966 7969 7972 7975 7978 7981 7984 7987 7990 7993 7996 7999 8002 8005 8008 8011 8014 8017 8020 8023 8026 8029 8032 8035 8038 8041 8044 8047 8050 8052 8055 8058 8061 8064 8067 8070 8073 8076 8079 8082 8085 8088 8091 8094 8097 8100 8103 8106 8109 8112 8114 8117 8119 8122 8125 8128 8131 8134 8137 8140 8142 8145 8148 8151 8154 8157 8160 8163 8165 8168 8171 8174 8177 8180 8183 8185 8188 8190 8193 8196 8199 8201 8204 8207 8210 8213 8216 8219 8222 8225 8228 8231 8234 8237 8239 8242 8245 8248 8251 8253 8256 8259 8262 8264 8266 8269 8272 8275 8277 8279 8282 8285 8288 8291 8294 8297 8300 8303 8306 8309 8312 8315 8318 8321 8324 8327 8330 8333 8336 8339 8341 8344 8347 8350 8353 8355 8358 8361 8364 8366 8369 8372 8375 8378 8381 8384 8387 8390 8393 8396 8398 8400 8403 8406 8409 8412 8414 8417 8420 8423 8426 8429 8432 8434 8437 8440 8442 8445 8448 8450 8453 8456 8459 8462 8465 8468 8471 8474 8477 8480 8483 8486 8489 8492 8495 8498 8501 8504 8507 8510 8513 8516 8519 8522 8525 8528 8531 8534 8537 8540 8543 8546 8549 8552 8555 8558 8561 8564 8567 8570 8573 8576 8579 8582 8585 8588 8591 8594 8596 8599 8602 8605 8608 8611 8613 8616 8619 8621 8624 8627 8629 8632 8635 8638 8641 8644 8647 8650 8653 8656 8659 8662 8665 8668 8671 8674 8677 8680 8683 8686 8688 8691 8694 8697 8700 8703 8705 8708 8711 8714 8717 8720 8723 8726 8729 8732 8735 8738 8741 8743 8746 8749 8752 8755 8758 8760 8763 8766 8769 8771 8774 8777 8780 8783 8786 8789 8791 8794 8797 8800 8803 8805 8808 8811 8814 8817 8819 8822 8825 8828 8830 8833 8836 8839 8841 8844 8847 8849 8852 8855 8858 8861 8864 8867 8870 8873 8876 8879 8882 8885 8888 8891 8894 8897 8900 8903 8906 8909 8912 8915 8918 8920 8923 8926 8929 8931 8934 8937 8940 8943 8946 8949 8952 8955 8958 8961 8964 8967 8970 8973 8976 8979 8982 8984 8986 8989 8992 8994 8997 9000 9002 9005 9007 9010 9012 9015 9018 9021 9024 9026 9029 9032 9035 9038 9040 9043 9045 9048 9051 9054 9057 9060 9063 9066 9069 9072 9075 9078 9081 9084 9087 9089 9092 9095 9098 9101 9104 9107 9110 9113 9116 9119 9121 9124 9127 9130 9133 9136 9139 9142 9145 9148 9151 9153 9156 9159 9162 9165 9168 9170 9173 9176 9179 9182 9185 9187 9190 9193 9196 9199 9201 9204 9207 9210 9213 9216 9219 9222 9225 9228 9231 9234 9237 9239 9242 9245 9248 9251 9254 9256 9259 9262 9265 9268 9271 9274 9276 9279 9282 9285 9288 9291 9294 9296 9299 9302 9305 9308 9311 9314 9317 9320 9323 9326 9329 9332 9335 9338 9341 9344 9347 9350 9353 9356 9359 9362 9365 9368 9371 9373 9376 9379 9382 9385 9388 9391 9393 9396 9399 9402 9405 9407 9410 9413 9415 9418 9421 9424 9427 9430 9433 9436 9439 9442 9444 9447 9450 9452 9455 9458 9461 9463 9466 9469 9472 9475 9477 9480 9483 9486 9489 9492 9495 9498 9501 9504 9506 9509 9512 9515 9518 9521 9524 9527 9530 9533 9536 9539 9542 9545 9548 9551 9554 9557 9560 9563 9566 9569 9572 9575 9578 9580 9583 9586 9589 9592 9595 9598 9601 9604 9607 9610 9612 9615 9618 9621 9624 9627 9630 9633 9635 9638 9641 9644 9647 9649 9652 9655 9658 9661 9664 9667 9670 9673 9676 9679 9682 9685 9688 9691 9694 9697 9700 9703 9706 9709 9712 9715 9718 9721 9724 9727 9730 9733 9736 9739 9742 9745 9748 9751 9754 9757 9760 9763 9766 9769 9772 9775 9778 9781 9784 9787 9790 9792 9795 9798 9801 9804 9807 9810 9813 9816 9819 9822 9825 9828 9831 9834 9836 9839 9842 9845 9848 9851 9854 9857 9860 9862 9865 9868 9871 9874 9876 9878 9881 9884 9886 9888 9891 9894 9897 9900 9903 9906 9909 9912 9915 9918 9921 9924 9927 9930 9933 9936 9938 9941 9944 9947 9950 9953 9956 9959 9962 9965 9968 9971 9973 9976 9979 9982 9985 9988 9991 9994 9997 10000 10002 10004 10007 10010 10012 10015 10018 10021 10024 10027 10030 10032 10035 10038 10041 10044 10046 10049 10052 10055 10058 10061 10064 10067 10070 10073 10076 10079 10082 10084 10087 10090 10093 10096 10098 10101 10104 10107 10110 10113 10116 10119 10122 10125 10127 10129 10132 10135 10138 10141 10143 10146 10149 10152 10155 10158 10161 10163 10166 10169 10172 10175 10178 10181 10184 10187 10190 10193 10196 10199 10202 10205 10208 10210 10213 10216 10219 10222 10225 10228 10231 10234 10237 10240 10243 10246 10249 10252 10255 10258 10261 10264 10267 10270 10273 10276 10279 10282 10285 10288 10291 10293 10296 10299 10302 10304 10307 10310 10313 10316 10319 10322 10325 10328 10331 10333 10336 10339 10342 10345 10348 10351 10354 10357 10360 10362 10365 10368 10371 10374 10377 10380 10383 10386 10389 10392 10395 10398 10401 10404 10407 10409 10412 10415 10418 10421 10424 10427 10430 10432 10435 10438 10441 10444 10447 10450 10453 10456 10459 10462 10465 10468 10471 10474 10477 10480 10483 10486 10489 10492 10495 10498 10501 10504 10507 10510 10513 10516 10519 10522 10524 10527 10530 10533 10536 10538 10541 10544 10547 10550 10553 10555 10558 10560 10563 10566 10569 10572 10575 10578 10580 10583 10586 10589 10591 10594 10597 10600 10603 10606 10609 10612 10615 10618 10621 10624 10627 10630 10633 10636 10639 10642 10645 10648 10651 10654 10657 10660 10663 10666 10669 10672 10675 10678 10680 10683 10686 10689 10692 10695 10697 10700 10703 10706 10709 10712 10715 10718 10720 10723 10726 10729 10732 10735 10738 10741 10743 10746 10748 10751 10754 10757 10760 10763 10765 10767 10770 10773 10775 10778 10781 10783 10786 10788 10790 10792 10795 10797 10800 10802 10804 10806 10809 10812 10814 10816 10819 10822 10824 10827 10830 10833 10836 10839 10841 10844 10847 10849 10852 10854 10857 10860 10863 10866 10869 10871 10874 10877 10879 10882 10884 10887 10889 10891 10894 10897 10900 10903 10906 10908 10911 10914 10916 10919 10922 10925 10928 10931 10934 10936 10939 10942 10945 10948 10951 10954 10957 10960 10963 10966 10969 10972 10975 10978 10981 10983 10986 10989 10992 10995 10998 11000 11003 11005 11007 11010 11013 11016 11019 11022 11025 11028 11031 11034 11037 11040 11043 11046 11049 11052 11055 11058 11061 11064 11067 11070 11072 11075 11078 11081 11083 11086 11089 11091 11094 11097 11100 11103 11106 11109 11112 11115 11118 11121 11123 11126 11128 11131 11134 11137 11140 11143 11145 11148 11151 11154 11157 11159 11162 11165 11168 11171 11174 11177 11180 11183 11186 11189 11192 11195 11198 11201 11204 11207 11210 11213 11216 11219 11222 11225 11228 11231 11234 11237 11240 11243 11246 11249 11252 11255 11257 11260 11262 11265 11267 11270 11272 11275 11278 11281 11283 11285 11288 11290 11292 11295 11298 11301 11303 11306 11309 11312 11315 11318 11321 11324 11327 11330 11333 11336 11339 11342 11345 11348 11351 11354 11357 11360 11363 11366 11369 11372 11375 11378 11381 11384 11387 11390 11393 11396 11399 11402 11405 11408 11411 11414 11417 11420 11423 11426 11429 11432 11435 11438 11441 11444 11447 11450 11453 11456 11459 11462 11465 11468 11471 11474 11477 11480 11483 11486 11489 11492 11494 11497 11500 11503 11506 11509 11512 11514 11516 11519 11522 11525 11528 11531 11534 11536 11539 11542 11545 11548 11550 11553 11556 11559 11562 11565 11567 11570 11572 11575 11578 11581 11584 11586 11589 11592 11595 11598 11601 11604 11607 11610 11613 11616 11619 11622 11625 11628 11631 11634 11637 11640 11643 11646 11649 11652 11655 11658 11661 11663 11666 11669 11672 11675 11678 11681 11684 11687 11690 11692 11694 11697 11700 11703 11705 11707 11710 11713 11716 11719 11722 11724 11727 11729 11732 11735 11737 11740 11743 11746 11749 11752 11755 11758 11761 11764 11767 11770 11773 11775 11778 11781 11784 11787 11789 11792 11795 11798 11801 11804 11807 11810 11812 11815 11818 11821 11824 11827 11830 11833 11836 11839 11842 11845 11848 11851 11854 11857 11860 11863 11866 11868 11871 11874 11877 11879 11882 11885 11888 11891 11894 11897 11900 11903 11906 11909 11912 11915 11918 11921 11923 11925 11928 11931 11934 11937 11940 11943 11946 11949 11952 11955 11958 11960 11963 11966 11969 11972 11975 11978 11981 11983 11986 11989 11992 11995 11998 12001 12004 12007 12010 12013 12016 12019 12022 12025 12028 12031 12034 12037 12040 12042 12044 12047 12050 12053 12056 12059 12062 12064 12067 12070 12073 12076 12079 12082 12085 12088 12091 12094 12097 12100 12103 12106 12109 12112 12115 12118 12121 12124 12127 12130 12133 12136 12139 12142 12145 12148 12150 12152 12155 12158 12161 12164 12167 12169 12172 12175 12177 12180 12183 12186 12189 12191 12194 12197 12200 12202 12204 12207 12209 12211 12214 12217 12220 12223 12225 12228 12231 12234 12237 12240 12243 12246 12248 12251 12253 12256 12258 12261 12264 12266 12268 12271 12274 12277 12279 12282 12284 12287 12290 12293 12296 12299 12302 12305 12308 12311 12313 12316 12319 12322 12325 12328 12330 12333 12336 12339 12342 12345 12348 12351 12354 12357 12360 12363 12366 12368 12371 12374 12377 12380 12383 12386 12389 12392 12395 12397 12400 12403 12406 12409 12412 12415 12418 12421 12423 12425 12427 12430 12433 12436 12438 12441 12444 12446 12449 12452 12455 12458 12461 12464 12466 12469 12472 12475 12477 12479 12482 12484 12487 12490 12493 12496 12498 12500 12503 12506 12508 12511 12514 12516 12519 12522 12525 12528 12531 12534 12537 12539 12542 12544 12547 12549 12551 12554 12557 12560 12563 12566 12569 12572 12575 12577 12580 12583 12586 12589 12592 12594 12597 12600 12603 12606 12609 12612 12615 12618 12621 12624 12627 12630 12633 12636 12639 12642 12645 12648 12651 12654 12657 12660 12663 12666 12669 12672 12675 12678 12681 12684 12687 12690 12693 12696 12699 12702 12705 12708 12711 12714 12717 12720 12723 12726 12729 12732 12735 12738 12741 12744 12747 12750 12753 12756 12759 12762 12765 12768 12771 12774 12777 12780 12783 12786 12788 12791 12794 12797 12800 12803 12806 12809 12812 12815 12818 12821 12824 12827 12830 12833 12836 12839 12842 12845 12848 12851 12854 12857 12860 12863 12866 12869 12872 12875 12878 12880 12883 12886 12889 12891 12893 12895 12898 12901 12904 12907 12910 12913 12916 12918 12920 12923 12926 12929 12931 12934 12936 12939 12942 12945 12948 12951 12954 12956 12959 12962 12964 12967 12970 12973 12976 12979 12982 12985 12988 12991 12994 12997 13000 13002 13005 13008 13011 13014 13017 13020 13023 13025 13028 13030 13032 13035 13038 13041 13044 13046 13049 13051 13053 13056 13059 13062 13065 13067 13070 13073 13075 13077 13080 13083 13086 13089 13091 13094 13097 13099 13102 13105 13108 13111 13114 13117 13120 13123 13126 13129 13131 13134 13136 13139 13142 13145 13148 13150 13153 13156 13159 13162 13165 13167 13170 13173 13176 13179 13182 13185 13188 13191 13194 13197 13200 13203 13206 13209 13212 13214 13217 13220 13223 13225 13227 13230 13233 13236 13239 13242 13245 13248 13251 13254 13257 13260 13263 13266 13268 13271 13273 13276 13279 13282 13284 13287 13290 13293 13295 13298 13301 13304 13307 13309 13312 13315 13318 13321 13324 13326 13329 13332 13335 13338 13341 13344 13346 13349 13352 13355 13358 13361 13364 13367 13370 13373 13376 13378 13380 13383 13385 13388 13391 13394 13397 13399 13402 13405 13407 13410 13413 13415 13418 13421 13424 13426 13428 13431 13433 13435 13438 13441 13444 13447 13450 13452 13455 13458 13460 13463 13466 13469 13471 13474 13476 13479 13482 13485 13488 13491 13494 13497 13499 13502 13505 13508 13511 13514 13517 13520 13523 13526 13529 13532 13535 13537 13540 13543 13546 13549 13552 13554 13557 13560 13562 13565 13567 13570 13573 13575 13578 13580 13583 13586 13588 13590 13593 13596 13599 13601 13603 13606 13609 13611 13614 13617 13620 13623 13626 13628 13630 13632 13634 13636 13638 13641 13644 13647 13649 13652 13654 13656 13658 13661 13664 13667 13669 13672 13675 13677 13680 13683 13686 13688 13691 13694 13696 13699 13702 13705 13708 13710 13712 13715 13718 13721 13724 13727 13729 13732 13735 13738 13741 13744 13747 13749 13751 13754 13757 13759 13762 13764 13767 13770 13773 13776 13779 13782 13785 13788 13791 13794 13797 13800 13803 13806 13809 13812 13815 13818 13821 13823 13826 13829 13832 13835 13837 13840 13842 13845 13848 13851 13853 13856 13859 13862 13864 13867 13870 13873 13876 13879 13882 13885 13888 13891 13894 13897 13900 13903 13906 13908 13910 13913 13916 13919 13922 13925 13928 13931 13934 13937 13940 13943 13946 13949 13952 13955 13957 13960 13963 13966 13969 13971 13974 13976 13979 13982 13985 13988 13991 13994 13997 14000 14003 14006 14009 14012 14015 14018 14021 14024 14027 14030 14033 14036 14039 14042 14045 14048 14051 14054 14057 14060 14063 14066 14069 14072 14075 14078 14080 14082 14085 14088 14090 14093 14095 14098 14100 14102 14105 14108 14111 14114 14117 14120 14122 14124 14127 14130 14132 14135 14138 14141 14143 14146 14149 14152 14155 14158 14161 14164 14166 14169 14172 14175 14178 14181 14184 14186 14189 14192 14195 14198 14201 14204 14207 14210 14213 14216 14219 14221 14224 14227 14230 14233 14236 14239 14242 14245 14248 14250 14253 14256 14259 14262 14264 14267 14270 14273 14276 14279 14281 14284 14287 14290 14293 14296 14299 14302 14305 14308 14311 14314 14317 14320 14323 14326 14329 14332 14335 14338 14341 14344 14347 14350 14353 14356 14358 14361 14364 14367 14370 14373 14376 14379 14382 14385 14388 14391 14394 14397 14400 14402 14405 14408 14411 14414 14417 14420 14422 14425 14427 14430 14433 14436 14439 14441 14444 14446 14449 14452 14455 14458 14461 14464 14467 14469 14472 14475 14478 14481 14484 14487 14490 14493 14495 14498 14501 14504 14507 14510 14513 14516 14518 14521 14524 14527 14530 14533 14536 14539 14542 14545 14548 14551 14554 14557 14560 14562 14565 14568 14571 14574 14576 14578 14581 14584 14587 14590 14593 14596 14599 14601 14604 14606 14609 14611 14614 14617 14619 14621 14624 14626 14629 14632 14635 14638 14641 14644 14647 14650 14652 14655 14657 14660 14663 14666 14669 14671 14674 14677 14679 14682 14685 14688 14691 14694 14696 14699 14702 14705 14708 14711 14714 14717 14720 14723 14726 14729 14732 14735 14737 14740 14743 14745 14748 14751 14754 14756 14759 14762 14765 14768 14771 14773 14776 14779 14781 14784 14786 14789 14792 14795 14798 14801 14804 14807 14809 14812 14815 14817 14820 14823 14826 14828 14831 14834 14837 14840 14843 14846 14849 14852 14855 14858 14860 14863 14866 14869 14871 14874 14877 14880 14883 14885 14888 14891 14894 14897 14900 14903 14906 14909 14912 14915 14918 14921 14924 14927 14930 14933 14936 14939 14942 14945 14947 14950 14953 14956 14958 14961 14964 14967 14970 14973 14976 14979 14982 14985 14987 14990 14993 14996 14999 15002 15004 15007 15010 15013 15016 15019 15022 15025 15028 15031 15034 15037 15040 15043 15046 15049 15052 15055 15058 15061 15064 15067 15069 15072 15075 15078 15081 15084 15086 15088 15091 15094 15097 15100 15102 15105 15108 15111 15114 15117 15120 15123 15126 15128 15131 15134 15137 15140 15143 15146 15149 15151 15153 15156 15159 15162 15165 15168 15170 15173 15176 15179 15182 15185 15188 15191 15194 15197 15200 15202 15205 15207 15210 15212 15215 15217 15220 15223 15226 15229 15231 15234 15237 15240 15243 15246 15249 15252 15255 15258 15261 15264 15267 15270 15273 15276 15279 15282 15285 15288 15291 15293 15296 15299 15301 15304 15307 15310 15313 15316 15319 15322 15325 15328 15330 15333 15336 15338 15341 15344 15347 15350 15352 15355 15358 15361 15364 15367 15370 15373 15376 15379 15382 15385 15388 15391 15394 15397 15400 15403 15406 15409 15412 15415 15418 15420 15423 15426 15429 15432 15435 15438 15441 15444 15447 15450 15453 15456 15459 15462 15465 15468 15471 15474 15477 15480 15483 15486 15489 15492 15495 15497 15500 15503 15506 15509 15512 15515 15518 15521 15524 15527 15530 15533 15536 15539 15542 15544 15547 15550 15553 15556 15559 15562 15565 15568 15571 15574 15577 15580 15582 15585 15588 15591 15594 15596 15598 15601 15604 15607 15609 15612 15614 15617 15620 15623 15625 15628 15631 15634 15637 15639 15641 15644 15647 15649 15652 15655 15658 15661 15664 15667 15670 15673 15675 15678 15681 15684 15687 15690 15693 15696 15699 15702 15705 15708 15711 15714 15716 15719 15721 15724 15727 15730 15733 15736 15739 15742 15744 15747 15750 15753 15756 15759 15761 15763 15766 15769 15772 15775 15778 15781 15784 15786 15789 15792 15795 15798 15801 15803 15806 15809 15812 15815 15818 15820 15823 15826 15829 15832 15835 15837 15840 15843 15846 15849 15852 15855 15858 15861 15864 15867 15870 15873 15876 15879 15882 15885 15888 15891 15894 15897 15900 15903 15906 15909 15912 15914 15917 15920 15923 15926 15929 15932 15935 15938 15941 15944 15947 15950 15952 15955 15957 15959 15962 15965 15968 15971 15974 15976 15979 15982 15985 15988 15991 15994 15996 15999 16001 16004 16007 16010 16013 16016 16019 16022 16025 16028 16031 16034 16037 16040 16043 16046 16048 16051 16053 16056 16059 16062 16065 16068 16070 16073 16076 16079 16082 16085 16088 16091 16094 16097 16100 16103 16106 16109 16112 16115 16118 16121 16124 16127 16130 16133 16135 16138 16141 16144 16147 16150 16153 16156 16159 16162 16164 16167 16170 16173 16176 16179 16181 16184 16187 16190 16193 16195 16198 16201 16204 16207 16210 16212 16215 16218 16221 16224 16227 16229 16232 16235 16238 16241 16244 16247 16250 16253 16256 16259 16262 16264 16267 16270 16273 16275 16278 16281 16284 16287 16290 16292 16295 16298 16301 16303 16305 16308 16311 16314 16317 16320 16323 16326 16328 16331 16334 16337 16340 16343 16346 16349 16351 16354 16357 16360 16363 16366 16368 16371 16374 16377 16380 16383 16386 16389 16392 16395 16398 16401 16404 16407 16409 16412 16415 16418 16421 16424 16427 16430 16433 16436 16439 16442 16444 16447 16450 16453 16456 16459 16462 16465 16468 16471 16474 16477 16480 16483 16486 16489 16492 16495 16498 16501 16504 16507 16510 16513 16516 16518 16521 16523 16526 16528 16531 16534 16537 16540 16542 16545 16547 16550 16553 16555 16558 16561 16564 16567 16570 16573 16576 16579 16582 16585 16588 16591 16594 16597 16600 16603 16606 16609 16611 16614 16617 16620 16623 16626 16629 16632 16635 16638 16641 16644 16647 16650 16653 16655 16658 16661 16664 16667 16670 16673 16676 16678 16680 16683 16686 16689 16692 16695 16697 16700 16703 16706 16709 16712 16715 16718 16721 16724 16727 16730 16733 16736 16739 16742 16744 16747 16750 16753 16756 16759 16762 16765 16768 16771 16774 16776 16779 16782 16785 16788 16790 16793 16796 16799 16802 16805 16808 16811 16814 16817 16820 16823 16826 16829 16832 16835 16838 16841 16844 16847 16849 16852 16855 16858 16860 16863 16866 16869 16871 16874 16877 16880 16883 16886 16889 16892 16895 16898 16901 16904 16907 16910 16913 16916 16918 16921 16924 16927 16930 16933 16936 16939 16941 16944 16947 16950 16953 16956 16959 16962 16965 16968 16971 16974 16977 16980 16983 16986 16989 16992 16995 16998 17001 17004 17007 17010 17013 17016 17019 17022 17025 17028 17031 17033 17036 17038 17041 17044 17047 17050 17053 17056 17059 17062 17064 17067 17070 17073 17076 17079 17082 17085 17088 17091 17094 17097 17099 17102 17105 17108 17111 17114 17117 17120 17122 17125 17128 17131 17134 17137 17140 17143 17145 17148 17151 17154 17157 17160 17162 17165 17168 17171 17173 17176 17179 17182 17185 17188 17191 17194 17197 17200 17203 17206 17209 17212 17215 17218 17221 17224 17226 17229 17232 17234 17237 17240 17243 17245 17248 17251 17254 17257 17260 17263 17265 17268 17271 17273 17276 17279 17282 17285 17288 17291 17293 17296 17299 17302 17304 17307 17310 17313 17316 17319 17322 17325 17328 17331 17333 17336 17339 17341 17344 17347 17350 17353 17356 17359 17362 17365 17368 17370 17372 17375 17378 17381 17384 17387 17390 17393 17395 17397 17400 17403 17406 17409 17412 17415 17418 17421 17424 17427 17430 17433 17436 17439 17442 17445 17448 17451 17453 17456 17459 17462 17465 17468 17471 17474 17477 17480 17483 17486 17489 17492 17495 17498 17501 17504 17506 17509 17512 17514 17517 17520 17523 17526 17529 17532 17535 17538 17541 17544 17547 17550 17552 17555 17558 17561 17564 17567 17569 17572 17575 17578 17581 17584 17587 17590 17593 17596 17599 17602 17605 17608 17611 17614 17617 17620 17623 17626 17629 17632 17635 17638 17641 17644 17647 17650 17652 17655 17658 17661 17664 17667 17669 17672 17675 17678 17681 17684 17687 17690 17693 17695 17698 17701 17704 17707 17710 17713 17716 17718 17721 17724 17727 17730 17733 17736 17739 17742 17745 17747 17750 17753 17756 17759 17762 17765 17767 17770 17773 17776 17779 17782 17785 17788 17791 17794 17796 17799 17802 17805 17807 17810 17812 17815 17818 17821 17824 17827 17829 17832 17835 17837 17840 17842 17845 17848 17851 17854 17857 17860 17862 17864 17867 17870 17872 17875 17877 17880 17883 17886 17889 17892 17895 17898 17901 17904 17907 17910 17913 17916 17918 17921 17923 17926 17929 17932 17934 17937 17940 17943 17946 17948 17951 17954 17957 17960 17963 17966 17969 17972 17975 17978 17981 17983 17986 17989 17992 17995 17998 18001 18003 18006 18009 18012 18014 18017 18020 18022 18025 18028 18031 18034 18037 18040 18043 18046 18049 18052 18055 18058 18061 18064 18067 18070 18073 18076 18079 18082 18085 18088 18091 18094 18097 18100 18103 18105 18108 18111 18114 18117 18120 18122 18125 18128 18131 18134 18137 18140 18143 18146 18149 18152 18155 18158 18161 18164 18166 18169 18172 18175 18178 18181 18184 18186 18189 18192 18195 18197 18200 18203 18206 18209 18212 18215 18218 18221 18224 18227 18230 18233 18236 18239 18242 18245 18248 18251 18254 18257 18260 18263 18266 18269 18272 18274 18277 18280 18283 18286 18289 18292 18295 18298 18300 18302 18305 18308 18311 18314 18317 18320 18323 18326 18329 18331 18334 18337 18339 18342 18344 18347 18349 18352 18355 18358 18361 18364 18367 18369 18372 18375 18378 18381 18383 18386 18389 18391 18394 18397 18400 18403 18406 18408 18411 18414 18417 18420 18423 18426 18429 18432 18435 18438 18441 18444 18447 18450 18452 18454 18457 18460 18463 18466 18469 18472 18475 18478 18481 18484 18487 18490 18492 18495 18498 18500 18503 18506 18508 18510 18513 18516 18519 18521 18524 18527 18530 18533 18535 18537 18540 18543 18545 18548 18551 18554 18556 18559 18562 18565 18568 18571 18574 18577 18580 18582 18585 18588 18591 18594 18597 18599 18602 18605 18608 18610 18613 18616 18619 18621 18624 18627 18630 18633 18635 18638 18641 18643 18645 18648 18651 18654 18657 18660 18663 18665 18668 18671 18674 18677 18680 18683 18686 18689 18692 18695 18698 18701 18704 18707 18710 18713 18716 18718 18721 18724 18727 18730 18733 18736 18739 18741 18744 18747 18750 18752 18755 18758 18760 18763 18766 18769 18772 18775 18777 18779 18782 18785 18788 18791 18794 18796 18799 18802 18805 18808 18810 18813 18815 18818 18821 18824 18827 18830 18833 18836 18838 18841 18844 18846 18849 18852 18855 18857 18860 18863 18865 18867 18870 18873 18876 18879 18882 18885 18888 18890 18893 18896 18898 18901 18904 18907 18909 18912 18915 18918 18921 18924 18927 18930 18933 18936 18939 18942 18945 18948 18951 18954 18957 18960 18963 18966 18969 18972 18975 18978 18981 18984 18987 18990 18993 18996 18999 19002 19005 19008 19011 19014 19017 19020 19023 19026 19029 19032 19035 19038 19041 19044 19047 19050 19053 19056 19059 19062 19065 19068 19071 19074 19077 19080 19083 19086 19089 19092 19095 19098 19101 19104 19107 19110 19113 19116 19119 19122 19125 19128 19131 19134 19137 19140 19143 19146 19149 19152 19155 19157 19160 19162 19165 19168 19171 19173 19176 19179 19182 19185 19188 19191 19194 19197 19200 19203 19206 19209 19212 19215 19217 19220 19223 19226 19229 19232 19234 19236 19238 19241 19244 19247 19250 19253 19255 19257 19260 19263 19266 19269 19271 19274 19277 19280 19283 19286 19289 19292 19295 19297 19300 19302 19305 19308 19311 19314 19317 19320 19323 19326 19329 19332 19335 19338 19341 19344 19347 19350 19353 19356 19359 19362 19365 19368 19371 19374 19377 19380 19383 19386 19389 19392 19395 19398 19401 19404 19407 19410 19413 19416 19418 19421 19424 19427 19430 19433 19436 19439 19441 19444 19447 19450 19453 19456 19459 19462 19465 19467 19470 19473 19476 19478 19481 19484 19487 19490 19493 19496 19499 19502 19505 19508 19511 19514 19517 19520 19523 19526 19529 19532 19535 19538 19541 19544 19547 19550 19553 19555 19558 19561 19563 19566 19569 19572 19575 19578 19581 19584 19587 19590 19593 19596 19599 19601 19604 19607 19610 19613 19616 19618 19621 19624 19627 19630 19632 19635 19637 19640 19643 19646 19648 19651 19654 19657 19659 19662 19664 19667 19670 19672 19674 19676 19679 19682 19685 19687 19690 19693 19695 19697 19700 19703 19706 19709 19712 19715 19718 19721 19724 19727 19730 19733 19736 19739 19742 19745 19747 19750 19753 19755 19758 19761 19764 19767 19770 19773 19776 19779 19782 19784 19787 19790 19792 19795 19798 19800 19803 19806 19809 19812 19815 19818 19821 19824 19827 19830 19833 19836 19839 19842 19845 19847 19850 19853 19856 19858 19861 19864 19867 19869 19872 19874 19877 19880 19883 19886 19889 19892 19895 19898 19900 19903 19906 19909 19912 19915 19918 19921 19924 19927 19930 19933 19936 19939 19941 19944 19947 19950 19953 19956 19959 19962 19965 19967 19970 19973 19976 19979 19982 19984 19987 19990 19993 19996 19999 20002 20005 20007 20010 20012 20015 20018 20021 20024 20027 20030 20033 20036 20039 20042 20045 20048 20051 20053 20056 20059 20062 20065 20068 20071 20074 20076 20079 20082 20085 20088 20091 20094 20097 20100 20103 20106 20109 20112 20115 20118 20121 20124 20127 20130 20133 20136 20139 20142 20145 20148 20151 20154 20157 20160 20163 20165 20168 20171 20174 20176 20179 20181 20183 20186 20189 20191 20193 20196 20199 20202 20205 20208 20210 20213 20216 20219 20222 20225 20228 20231 20234 20237 20240 20242 20245 20247 20250 20253 20256 20259 20261 20264 20267 20270 20273 20276 20279 20282 20285 20288 20291 20293 20296 20299 20302 20305 20308 20311 20314 20317 20320 20323 20326 20329 20331 20334 20337 20340 20343 20345 20348 20351 20354 20357 20360 20363 20365 20368 20371 20374 20376 20379 20381 20384 20387 20390 20393 20395 20398 20401 20404 20407 20410 20413 20416 20419 20422 20425 20428 20431 20434 20437 20440 20443 20446 20449 20452 20455 20458 20461 20464 20467 20470 20473 20476 20479 20482 20485 20488 20491 20494 20497 20500 20503 20506 20509 20511 20514 20517 20520 20523 20525 20528 20531 20534 20537 20540 20543 20546 20549 20552 20555 20557 20560 20563 20566 20569 20572 20575 20578 20581 20584 20587 20590 20593 20595 20598 20601 20604 20606 20609 20612 20615 20618 20621 20624 20627 20629 20632 20635 20638 20641 20644 20646 20649 20652 20655 20658 20661 20664 20667 20670 20673 20676 20679 20682 20685 20688 20691 20694 20697 20700 20703 20706 20709 20712 20715 20718 20721 20724 20727 20730 20733 20736 20739 20742 20745 20748 20751 20754 20757 20759 20762 20765 20768 20771 20774 20777 20780 20783 20786 20789 20792 20795 20798 20801 20804 20807 20809 20812 20815 20817 20820 20823 20826 20829 20832 20835 20838 20841 20844 20847 20850 20853 20856 20859 20862 20865 20868 20871 20874 20877 20880 20883 20886 20889 20892 20895 20898 20901 20904 20907 20910 20913 20916 20919 20922 20925 20928 20931 20934 20937 20940 20943 20945 20948 20951 20954 20956 20959 20962 20965 20968 20970 20973 20976 20979 20981 20984 20987 20990 20993 20996 20999 21002 21005 21008 21011 21014 21017 21020 21023 21025 21028 21031 21034 21037 21039 21041 21044 21047 21050 21053 21056 21059 21062 21065 21068 21070 21073 21075 21078 21081 21084 21087 21090 21093 21096 21099 21102 21105 21108 21111 21114 21117 21119 21122 21125 21128 21131 21134 21137 21140 21143 21146 21149 21152 21155 21158 21161 21163 21166 21169 21172 21175 21177 21180 21183 21186 21189 21191 21194 21196 21199 21202 21205 21207 21210 21213 21215 21218 21221 21224 21227 21229 21232 21235 21238 21241 21244 21246 21249 21252 21254 21257 21260 21263 21266 21268 21271 21274 21277 21280 21283 21286 21289 21291 21294 21297 21300 21303 21305 21308 21311 21313 21316 21319 21321 21324 21326 21329 21332 21335 21338 21340 21343 21346 21349 21351 21354 21357 21360 21363 21366 21369 21372 21374 21377 21380 21383 21386 21389 21392 21395 21398 21401 21404 21407 21410 21413 21416 21419 21422 21425 21427 21430 21433 21436 21438 21441 21444 21447 21450 21453 21456 21459 21462 21465 21468 21471 21474 21477 21480 21483 21486 21489 21492 21495 21498 21501 21504 21507 21510 21513 21516 21519 21522 21525 21528 21531 21534 21537 21540 21543 21546 21549 21551 21554 21557 21560 21562 21565 21568 21570 21572 21575 21578 21581 21584 21587 21590 21593 21596 21599 21602 21604 21607 21610 21613 21616 21619 21622 21625 21628 21631 21634 21637 21640 21643 21646 21649 21651 21654 21657 21660 21663 21666 21669 21672 21675 21678 21681 21684 21687 21690 21692 21695 21698 21701 21704 21707 21709 21712 21715 21718 21721 21723 21726 21729 21732 21735 21738 21740 21743 21746 21749 21752 21755 21758 21761 21764 21767 21770 21772 21775 21777 21780 21783 21786 21789 21791 21794 21796 21799 21802 21805 21808 21811 21814 21816 21818 21821 21824 21826 21829 21832 21835 21838 21841 21844 21847 21850 21852 21855 21858 21861 21864 21867 21870 21873 21876 21879 21882 21885 21888 21891 21894 21897 21900 21902 21905 21907 21910 21913 21916 21919 21922 21925 21928 21931 21934 21937 21940 21943 21946 21949 21952 21955 21958 21961 21964 21967 21970 21972 21975 21978 21981 21984 21987 21990 21993 21996 21999 22002 22005 22008 22011 22014 22017 22020 22023 22026 22029 22032 22035 22038 22041 22044 22047 22050 22053 22056 22059 22062 22065 22068 22071 22074 22076 22079 22082 22085 22088 22091 22094 22097 22100 22103 22106 22108 22111 22114 22117 22119 22122 22124 22127 22130 22133 22136 22139 22142 22145 22148 22151 22154 22156 22159 22162 22164 22167 22170 22173 22176 22179 22182 22185 22188 22191 22194 22197 22200 22203 22206 22209 22212 22215 22218 22221 22224 22227 22230 22233 22236 22239 22242 22245 22248 22251 22254 22257 22260 22263 22266 22269 22272 22275 22278 22281 22284 22287 22290 22293 22296 22299 22302 22305 22308 22311 22314 22317 22320 22323 22326 22329 22332 22335 22338 22341 22344 22346 22349 22352 22355 22358 22361 22364 22366 22368 22371 22374 22377 22380 22383 22386 22389 22392 22395 22397 22400 22403 22406 22409 22412 22415 22418 22421 22424 22427 22430 22433 22436 22439 22442 22445 22448 22451 22454 22457 22460 22463 22466 22469 22472 22475 22478 22481 22484 22487 22490 22493 22496 22499 22502 22505 22508 22511 22514 22517 22520 22523 22526 22529 22532 22535 22538 22541 22544 22547 22550 22553 22556 22559 22562 22565 22568 22571 22573 22576 22578 22581 22584 22587 22590 22593 22596 22599 22602 22604 22607 22610 22613 22616 22619 22622 22625 22628 22631 22633 22636 22639 22642 22645 22648 22651 22654 22656 22659 22662 22665 22668 22671 22674 22677 22680 22683 22686 22689 22692 22694 22697 22700 22702 22705 22708 22711 22714 22717 22720 22723 22726 22729 22732 22735 22738 22741 22744 22747 22750 22753 22756 22759 22762 22765 22768 22771 22774 22777 22780 22783 22786 22789 22792 22795 22798 22801 22804 22807 22810 22813 22816 22819 22822 22825 22828 22831 22834 22837 22840 22843 22845 22848 22851 22854 22857 22859 22862 22865 22867 22870 22873 22876 22879 22882 22884 22887 22890 22893 22896 22898 22901 22904 22907 22910 22912 22915 22918 22920 22923 22926 22929 22931 22934 22937 22940 22943 22946 22949 22952 22955 22958 22961 22964 22967 22970 22973 22976 22979 22982 22985 22988 22991 22994 22997 23000 23003 23006 23009 23012 23014 23016 23019 23021 23024 23027 23030 23032 23035 23038 23041 23044 23047 23050 23053 23056 23059 23061 23064 23066 23069 23072 23074 23077 23080 23082 23085 23088 23091 23094 23097 23100 23103 23106 23109 23112 23115 23118 23121 23124 23127 23130 23133 23136 23139 23142 23145 23148 23151 23154 23157 23159 23162 23165 23168 23171 23174 23176 23179 23182 23185 23188 23191 23194 23197 23199 23201 23204 23207 23210 23212 23215 23218 23221 23224 23226 23229 23232 23235 23237 23240 23243 23246 23249 23252 23255 23258 23261 23264 23266 23269 23272 23275 23278 23281 23284 23287 23290 23293 23295 23298 23301 23304 23306 23309 23312 23315 23318 23320 23323 23326 23328 23331 23334 23337 23340 23343 23346 23349 23351 23354 23357 23360 23363 23366 23369 23371 23374 23377 23380 23383 23386 23389 23391 23394 23397 23400 23403 23406 23409 23412 23415 23417 23420 23423 23426 23428 23431 23434 23437 23440 23443 23446 23449 23452 23455 23458 23461 23464 23467 23470 23473 23476 23479 23482 23485 23488 23491 23494 23497 23500 23503 23506 23509 23512 23515 23518 23521 23524 23527 23530 23533 23536 23539 23542 23545 23548 23551 23554 23557 23560 23563 23566 23569 23572 23575 23578 23581 23584 23587 23589 23592 23595 23597 23600 23602 23605 23608 23610 23613 23616 23619 23622 23625 23628 23631 23634 23637 23639 23642 23645 23648 23651 23654 23657 23659 23662 23665 23668 23671 23674 23677 23679 23682 23684 23687 23690 23692 23695 23698 23700 23703 23706 23708 23711 23714 23717 23720 23723 23726 23729 23732 23735 23738 23741 23744 23747 23749 23752 23754 23757 23760 23762 23765 23768 23771 23774 23777 23779 23782 23785 23788 23791 23794 23797 23800 23803 23806 23809 23812 23815 23818 23821 23824 23826 23829 23832 23834 23837 23840 23843 23846 23848 23851 23854 23857 23860 23863 23866 23869 23872 23875 23877 23880 23883 23886 23889 23892 23895 23898 23901 23904 23907 23909 23912 23915 23918 23921 23924 23926 23928 23931 23934 23937 23940 23943 23946 23949 23951 23953 23956 23959 23962 23965 23968 23971 23974 23977 23979 23982 23985 23987 23990 23992 23995 23998 24000 24003 24006 24009 24012 24015 24018 24020 24023 24026 24029 24032 24035 24038 24041 24044 24047 24050 24052 24055 24058 24061 24064 24067 24070 24072 24074 24077 24080 24083 24086 24088 24091 24094 24097 24100 24103 24106 24109 24112 24115 24118 24121 24124 24127 24130 24133 24136 24139 24142 24144 24147 24150 24153 24156 24158 24161 24164 24167 24170 24173 24176 24179 24182 24185 24188 24191 24194 24197 24199 24202 24205 24208 24211 24214 24217 24220 24223 24225 24228 24231 24234 24236 24239 24242 24245 24248 24251 24253 24256 24258 24261 24264 24267 24270 24273 24276 24279 24282 24285 24288 24291 24294 24297 24300 24302 24305 24308 24311 24314 24317 24320 24323 24326 24329 24332 24334 24337 24340 24343 24346 24349 24352 24355 24357 24359 24362 24365 24368 24371 24374 24377 24379 24382 24385 24388 24391 24394 24397 24400 24403 24406 24409 24411 24414 24417 24420 24423 24425 24427 24430 24432 24435 24438 24441 24444 24447 24450 24453 24455 24458 24460 24463 24466 24469 24472 24475 24478 24481 24484 24487 24489 24492 24495 24498 24501 24504 24507 24510 24513 24516 24519 24522 24525 24528 24531 24534 24537 24540 24543 24546 24549 24552 24555 24558 24561 24563 24566 24569 24572 24575 24578 24581 24584 24587 24590 24593 24596 24599 24602 24605 24608 24611 24614 24617 24620 24623 24626 24629 24632 24635 24638 24641 24644 24647 24650 24653 24656 24659 24662 24665 24668 24671 24674 24677 24680 24683 24686 24689 24692 24695 24698 24701 24704 24706 24709 24712 24715 24718 24720 24723 24726 24729 24732 24735 24738 24741 24743 24746 24749 24751 24754 24757 24760 24763 24766 24769 24772 24775 24778 24781 24784 24787 24790 24793 24796 24798 24800 24803 24806 24809 24812 24815 24818 24821 24824 24826 24829 24832 24835 24838 24841 24844 24847 24850 24853 24856 24858 24861 24863 24866 24869 24872 24875 24878 24881 24884 24887 24890 24893 24896 24899 24902 24905 24908 24911 24914 24917 24920 24923 24926 24929 24932 24935 24938 24941 24944 24947 24950 24953 24956 24959 24962 24965 24968 24971 24974 24977 24980 24983 24986 24989 24992 24995 24998 25001 25004 25007 25010 25013 25016 25019 25022 25025 25028 25031 25034 25037 25040 25043 25046 25048 25051 25054 25056 25059 25062 25065 25068 25071 25074 25077 25080 25083 25085 25088 25091 25094 25097 25100 25103 25106 25109 25112 25115 25118 25121 25123 25126 25129 25132 25134 25137 25140 25143 25146 25149 25152 25155 25158 25161 25164 25167 25170 25173 25176 25179 25182 25185 25188 25191 25194 25197 25199 25202 25205 25208 25210 25213 25216 25219 25222 25225 25228 25230 25232 25235 25238 25241 25244 25247 25250 25253 25256 25259 25262 25265 25268 25271 25274 25277 25280 25283 25286 25289 25292 25295 25298 25301 25304 25307 25310 25313 25316 25319 25322 25325 25328 25331 25334 25337 25339 25342 25345 25348 25351 25354 25357 25360 25363 25366 25369 25372 25375 25378 25381 25384 25387 25390 25393 25396 25399 25402 25405 25408 25411 25413 25416 25419 25422 25425 25428 25431 25434 25437 25440 25443 25446 25449 25452 25454 25456 25459 25462 25465 25467 25469 25472 25475 25478 25481 25484 25487 25490 25493 25496 25499 25502 25505 25508 25510 25513 25516 25519 25522 25524 25527 25530 25533 25536 25539 25541 25544 25547 25550 25553 25556 25559 25562 25565 25567 25570 25573 25576 25578 25581 25584 25586 25589 25592 25594 25597 25600 25603 25605 25608 25611 25613 25616 25619 25622 25625 25628 25631 25633 25636 25639 25642 25645 25647 25650 25653 25656 25659 25662 25665 25668 25671 25674 25677 25680 25682 25685 25688 25691 25694 25697 25700 25703 25706 25709 25712 25715 25718 25721 25724 25727 25730 25733 25736 25739 25742 25745 25748 25751 25754 25756 25759 25761 25763 25766 25769 25772 25774 25777 25780 25783 25786 25788 25791 25794 25797 25800 25803 25806 25809 25812 25814 25817 25820 25823 25825 25828 25831 25834 25837 25840 25843 25846 25849 25852 25855 25858 25861 25864 25867 25870 25873 25876 25879 25882 25885 25887 25890 25893 25896 25899 25902 25905 25908 25911 25914 25917 25920 25923 25925 25928 25931 25934 25937 25940 25943 25945 25948 25950 25952 25955 25958 25961 25964 25967 25970 25973 25976 25979 25982 25984 25987 25990 25993 25996 25998 26001 26004 26007 26009 26012 26015 26017 26020 26023 26026 26029 26032 26035 26038 26041 26044 26047 26049 26052 26054 26057 26060 26063 26065 26068 26070 26073 26076 26079 26082 26084 26086 26088 26091 26094 26097 26100 26103 26106 26108 26111 26114 26117 26120 26123 26126 26129 26131 26134 26137 26140 26143 26146 26149 26152 26155 26158 26161 26164 26167 26170 26173 26175 26178 26180 26183 26186 26189 26192 26195 26198 26200 26203 26206 26209 26212 26214 26217 26220 26222 26225 26228 26231 26233 26236 26238 26241 26244 26246 26249 26252 26255 26258 26261 26263 26266 26268 26271 26274 26277 26280 26283 26286 26289 26292 26295 26298 26300 26303 26305 26308 26311 26314 26317 26320 26322 26324 26327 26329 26332 26335 26338 26340 26342 26344 26346 26349 26352 26355 26357 26360 26362 26365 26367 26369 26372 26375 26378 26380 26383 26386 26389 26391 26393 26396 26398 26401 26404 26406 26409 26412 26415 26418 26421 26424 26427 26430 26433 26436 26439 26442 26445 26448 26451 26454 26457 26460 26463 26466 26469 26471 26474 26477 26480 26483 26485 26488 26490 26493 26495 26498 26501 26504 26507 26510 26512 26514 26517 26519 26522 26525 26527 26530 26533 26536 26539 26542 26544 26547 26550 26552 26555 26558 26561 26563 26565 26568 26571 26574 26576 26579 26581 26583 26586 26589 26591 26594 26596 26599 26602 26604 26607 26609 26612 26615 26618 26621 26624 26627 26629 26632 26635 26638 26640 26643 26646 26649 26652 26655 26658 26661 26664 26667 26670 26673 26676 26679 26682 26685 26688 26691 26694 26697 26700 26703 26706 26709 26712 26715 26718 26721 26724 26726 26729 26732 26735 26737 26740 26742 26745 26748 26750 26753 26756 26759 26762 26765 26768 26771 26774 26777 26780 26782 26785 26788 26791 26794 26797 26800 26803 26806 26809 26812 26815 26818 26821 26824 26826 26828 26831 26834 26837 26840 26843 26845 26847 26850 26853 26855 26857 26860 26863 26866 26869 26872 26875 26878 26881 26884 26887 26890 26893 26896 26899 26902 26905 26908 26911 26914 26916 26919 26922 26925 26928 26931 26934 26937 26940 26942 26945 26948 26951 26954 26957 26960 26963 26966 26969 26972 26975 26977 26979 26982 26985 26988 26991 26994 26997 27000 27003 27006 27009 27012 27015 27018 27021 27024 27027 27030 27033 27036 27039 27042 27045 27048 27051 27054 27057 27060 27063 27066 27069 27072 27075 27078 27080 27083 27086 27088 27091 27094 27097 27100 27103 27106 27109 27112 27115 27118 27121 27124 27127 27130 27133 27136 27139 27142 27145 27148 27151 27154 27157 27160 27163 27166 27169 27172 27175 27178 27181 27184 27187 27190 27193 27195 27198 27201 27204 27207 27210 27213 27216 27219 27222 27225 27227 27230 27233 27236 27239 27242 27245 27248 27250 27253 27256 27259 27262 27265 27268 27271 27274 27277 27280 27283 27286 27289 27292 27295 27298 27301 27304 27307 27310 27313 27316 27319 27322 27325 27328 27331 27334 27337 27340 27343 27346 27349 27352 27355 27358 27361 27364 27367 27369 27372 27375 27378 27381 27383 27386 27389 27392 27395 27398 27401 27404 27407 27410 27413 27416 27419 27422 27424 27427 27430 27433 27436 27439 27442 27444 27447 27450 27452 27454 27457 27460 27462 27464 27467 27470 27473 27476 27478 27480 27483 27486 27489 27492 27494 27496 27499 27502 27505 27508 27511 27514 27517 27519 27522 27525 27528 27531 27534 27537 27540 27543 27546 27548 27551 27554 27557 27559 27562 27564 27567 27569 27572 27575 27577 27580 27583 27585 27588 27591 27594 27597 27599 27602 27605 27608 27611 27614 27617 27620 27623 27625 27628 27631 27634 27637 27640 27643 27645 27648 27651 27654 27657 27660 27663 27666 27669 27672 27675 27678 27680 27683 27686 27689 27692 27695 27698 27701 27704 27707 27710 27713 27716 27719 27722 27724 27727 27730 27733 27736 27739 27742 27744 27747 27750 27752 27755 27758 27761 27764 27767 27770 27773 27776 27779 27782 27785 27788 27791 27794 27797 27800 27803 27806 27808 27811 27814 27817 27820 27823 27826 27829 27831 27834 27837 27840 27843 27846 27849 27852 27855 27858 27861 27863 27866 27869 27872 27874 27877 27880 27882 27885 27887 27890 27893 27896 27899 27901 27903 27906 27909 27912 27915 27918 27920 27922 27925 27927 27929 27932 27934 27936 27939 27942 27945 27947 27950 27953 27956 27959 27962 27965 27967 27970 27973 27975 27977 27980 27983 27986 27989 27992 27995 27998 28001 28004 28007 28009 28011 28014 28017 28020 28022 28025 28028 28031 28033 28036 28039 28042 28045 28048 28051 28054 28057 28060 28063 28066 28069 28072 28075 28078 28081 28084 28087 28089 28092 28095 28097 28100 28103 28105 28107 28110 28113 28116 28118 28121 28124 28127 28130 28132 28135 28138 28141 28144 28147 28150 28153 28156 28159 28161 28164 28167 28169 28172 28175 28178 28181 28184 28187 28190 28193 28196 28198 28200 28203 28206 28209 28212 28215 28218 28220 28223 28226 28228 28231 28234 28237 28240 28243 28246 28249 28252 28255 28258 28261 28263 28266 28269 28272 28275 28278 28281 28283 28286 28289 28292 28295 28298 28301 28304 28307 28309 28312 28314 28317 28320 28323 28326 28328 28330 28333 28336 28338 28341 28344 28347 28350 28353 28356 28359 28362 28365 28368 28371 28374 28377 28380 28383 28386 28389 28392 28395 28398 28400 28403 28405 28408 28411 28414 28417 28420 28423 28426 28428 28431 28434 28437 28440 28443 28446 28449 28452 28455 28458 28461 28464 28467 28470 28473 28476 28479 28482 28485 28488 28490 28492 28495 28498 28501 28504 28507 28510 28513 28515 28518 28521 28523 28526 28528 28531 28534 28536 28538 28541 28544 28547 28550 28552 28555 28558 28560 28563 28566 28569 28572 28574 28577 28579 28582 28585 28588 28591 28594 28597 28600 28603 28606 28609 28612 28615 28618 28621 28624 28627 28630 28632 28635 28638 28641 28643 28646 28649 28652 28654 28657 28659 28661 28664 28667 28670 28673 28675 28678 28681 28684 28686 28689 28691 28693 28695 28698 28701 28704 28707 28710 28712 28715 28718 28721 28724 28727 28730 28733 28736 28739 28742 28745 28748 28750 28753 28756 28759 28762 28764 28767 28770 28773 28776 28779 28782 28785 28788 28791 28794 28797 28800 28803 28806 28809 28812 28815 28817 28820 28823 28826 28829 28832 28835 28838 28841 28843 28846 28848 28851 28854 28857 28860 28863 28865 28868 28871 28874 28877 28879 28882 28884 28887 28889 28892 28894 28897 28900 28902 28905 28908 28911 28914 28917 28920 28923 28926 28929 28932 28935 28938 28941 28944 28947 28950 28953 28956 28958 28961 28964 28967 28970 28973 28976 28979 28981 28984 28987 28990 28993 28996 28998 29000 29003 29006 29009 29012 29015 29018 29021 29024 29027 29030 29033 29036 29039 29042 29045 29048 29050 29053 29056 29059 29062 29065 29068 29071 29074 29076 29079 29082 29084 29087 29090 29093 29096 29099 29102 29105 29108 29110 29113 29116 29119 29121 29124 29127 29130 29133 29135 29138 29141 29144 29147 29150 29153 29156 29159 29162 29165 29168 29171 29174 29177 29180 29183 29186 29189 29192 29195 29197 29200 29203 29206 29209 29212 29215 29218 29220 29223 29226 29229 29232 29235 29237 29240 29243 29246 29249 29252 29255 29258 29261 29264 29267 29270 29273 29276 29279 29282 29285 29288 29291 29294 29297 29300 29303 29306 29309 29312 29315 29317 29320 29323 29325 29327 29330 29333 29335 29338 29341 29344 29347 29349 29352 29355 29358 29361 29364 29367 29370 29373 29375 29377 29380 29383 29386 29389 29392 29394 29397 29400 29403 29405 29408 29411 29413 29416 29418 29421 29424 29427 29430 29433 29435 29438 29440 29443 29446 29449 29452 29455 29458 29461 29464 29467 29470 29473 29476 29479 29482 29485 29488 29491 29494 29497 29500 29503 29506 29508 29511 29514 29517 29520 29523 29525 29528 29531 29534 29537 29539 29542 29545 29548 29551 29554 29557 29560 29563 29566 29568 29571 29574 29577 29580 29582 29584 29587 29590 29593 29596 29599 29602 29605 29607 29609 29612 29615 29618 29621 29624 29626 29628 29630 29633 29635 29638 29641 29643 29646 29649 29652 29654 29657 29660 29662 29665 29668 29671 29673 29676 29679 29682 29685 29687 29690 29693 29695 29698 29701 29704 29707 29710 29713 29715 29718 29721 29724 29726 29729 29732 29735 29738 29741 29744 29747 29750 29753 29756 29759 29761 29764 29767 29770 29773 29776 29779 29782 29785 29788 29791 29794 29797 29800 29803 29806 29809 29812 29815 29818 29821 29824 29827 29830 29833 29836 29839 29841 29843 29846 29849 29852 29854 29857 29859 29862 29865 29868 29871 29874 29877 29880 29882 29885 29888 29891 29894 29897 29900 29903 29906 29909 29912 29915 29918 29921 29924 29927 29930 29933 29936 29938 29940 29943 29945 29948 29951 29954 29957 29960 29962 29965 29968 29970 29973 29976 29979 29982 29985 29988 29991 29994 29997 29999 30002 30005 30008 30011 30014 30017 30020 30022 30025 30028 30030 30033 30035 30038 30041 30044 30046 30049 30052 30054 30057 30060 30063 30066 30069 30072 30075 30077 30080 30083 30086 30089 30091 30094 30097 30100 30103 30105 30108 30111 30113 30116 30119 30122 30125 30128 30131 30134 30137 30140 30142 30145 30148 30151 30153 30156 30159 30162 30165 30168 30171 30174 30176 30178 30181 30183 30186 30189 30192 30195 30198 30201 30204 30207 30210 30213 30216 30218 30221 30224 30227 30230 30233 30236 30238 30241 30244 30247 30250 30253 30256 30258 30261 30264 30267 30270 30273 30276 30279 30282 30285 30288 30291 30294 30297 30300 30303 30306 30309 30312 30315 30318 30321 30324 30327 30330 30333 30336 30339 30342 30344 30347 30350 30353 30356 30358 30361 30364 30367 30370 30373 30375 30378 30381 30384 30387 30390 30393 30396 30398 30401 30404 30407 30410 30413 30416 30419 30422 30425 30428 30431 30434 30437 30440 30443 30445 30448 30451 30453 30456 30459 30462 30464 30467 30470 30472 30475 30477 30480 30483 30486 30489 30492 30494 30497 30500 30503 30506 30508 30511 30514 30516 30518 30521 30524 30526 30528 30530 30533 30536 30539 30542 30544 30547 30549 30551 30554 30556 30559 30562 30565 30568 30571 30574 30577 30580 30583 30586 30588 30591 30594 30597 30600 30603 30606 30609 30612 30614 30616 30619 30621 30624 30627 30630 30633 30635 30638 30641 30643 30646 30649 30652 30655 30657 30660 30662 30665 30668 30670 30673 30676 30679 30682 30685 30688 30690 30693 30696 30699 30701 30703 30706 30709 30712 30715 30718 30721 30724 30727 30730 30733 30736 30739 30742 30745 30748 30751 30754 30756 30759 30761 30764 30767 30770 30773 30776 30779 30782 30785 30788 30791 30794 30797 30800 30803 30806 30808 30811 30814 30816 30819 30822 30825 30828 30831 30834 30837 30840 30842 30844 30847 30850 30853 30856 30859 30862 30865 30868 30871 30874 30877 30880 30883 30886 30889 30892 30895 30898 30900 30903 30905 30908 30911 30914 30917 30919 30922 30924 30927 30930 30933 30936 30939 30942 30945 30948 30951 30953 30956 30959 30962 30965 30968 30971 30974 30977 30980 30983 30986 30989 30992 30994 30997 30999 31002 31004 31007 31009 31012 31015 31018 31021 31024 31026 31029 31032 31035 31038 31041 31044 31046 31049 31052 31055 31058 31061 31064 31067 31070 31072 31074 31077 31080 31083 31085 31088 31091 31094 31097 31100 31102 31105 31108 31111 31113 31116 31119 31122 31125 31127 31130 31133 31136 31139 31142 31145 31148 31151 31154 31157 31160 31163 31166 31169 31172 31175 31178 31181 31184 31187 31190 31193 31196 31199 31202 31205 31208 31210 31213 31216 31219 31221 31224 31227 31230 31232 31235 31238 31241 31244 31247 31250 31252 31255 31258 31261 31264 31267 31270 31273 31276 31278 31281 31284 31287 31290 31293 31296 31298 31301 31304 31306 31309 31312 31315 31318 31321 31324 31327 31330 31332 31335 31337 31339 31342 31345 31348 31351 31354 31357 31360 31363 31366 31369 31372 31375 31378 31381 31384 31387 31390 31393 31396 31399 31402 31405 31408 31411 31414 31416 31419 31422 31425 31427 31429 31432 31435 31438 31441 31443 31446 31448 31450 31453 31456 31458 31460 
</DataArray>
<DataArray type="UInt32" Name="types" format="ascii">
5 5 5 5 5 5 3 5 5 5 5 5 3 5 5 3 5 5 5 3 5 5 5 5 5 5 5 5 5 5 5 5 5 5 5 5 5 5 5 5 5 5 5 5 5 5 5 5 5 5 3 5 3 5 5 5 3 5 5 5 5 5 5 5 3 5 5 3 5 5 5 5 5 5 5 3 5 5 5 5 3 5 5 5 5 5 3 5 5 5 3 5 5 5 5 5 5 5 5 5 5 5 5 5 5 5 5 5 3 5 5 5 5 3 5 5 5 5 5 5 3 5 5 5 3 5 3 5 3 5 5 3 5 5 5 5 5 5 5 3 5 5 5 5 5 5 5 5 5 5 5 5 3 5 5 5 5 5 5 5 3 5 5 5 5 5 5 5 5 3 5 5 5 5 5 5 3 5 5 5 5 5 3 5 3 5 5 5 5 5 3 5 3 5 3 3 5 5 3 5 5 5 5 5 5 5 5 5 5 5 5 5 5 5 5 5 5 5 5 5 5 5 5 5 5 5 5 5 5 5 5 5 5 5 5 5 3 5 3 5 5 5 5 5 5 5 5 5 3 5 3 5 5 5 5 5 3 5 5 5 5 3 5 5 5 5 5 5 5 5 5 5 5 3 5 5 3 5 5 5 5 5 5 5 5 5 5 5 5 5 5 5 5 5 5 5 5 5 5 5 5 5 5 5 5 5 5 5 5 5 5 5 5 5 5 5 5 5 5 3 5 5 5 3 5 5 5 3 5 5 5 5 3 5 5 5 5 3 5 5 5 5 5 5 5 5 5 5 5 3 5 5 5 5 5 5 5 5 5 5 5 5 5 5 5 5 5 5 5 5 5 5 5 5 3 3 5 5 5 5 5 5 5 5 5 5 3 5 5 5 5 5 5 5 5 5 5 5 5 5 5 5 5 5 5 5 5 5 5 5 3 5 5 5 3 5 5 5 5 5 5 5 3 5 5 5 5 5 5 5 5 5 3 5 5 5 3 5 5 5 5 5 5 5 3 5 5 5 5 5 5 5 5 5 5 5 5 5 5 5 5 5 5 3 5 5 5 5 5 5 5 5 5 5 5 5 5 5 5 5 5 5 5 5 3 5 5 5 3 5 5 3 5 3 5 5 5 3 5 5 5 5 3 5 5 5 3 5 5 5 5 5 3 5 5 5 5 5 5 5 5 3 5 5 5 5 5 5 5 5 5 5 5 5 5 5 5 5 5 5 5 5 5 5 5 5 3 5 3 5 5 5 5 5 5 5 5 3 5 5 5 5 5 3 5 5 5 5 5 5 3 5 3 5 5 5 5 5 5 5 5 5 5 5 5 5 5 5 5 5 5 5 5 5 5 3 3 5 5 5 3 5 5 5 5 3 5 5 5 5 5 5 5 5 3 5 5 5 3 5 5 5 5 5 5 5 5 3 3 5 3 5 5 3 5 3 5 5 5 5 5 5 3 5 5 5 5 5 3 5 5 3 5 5 3 5 5 5 3 5 5 5 5 5 5 5 5 5 5 5 5 5 5 3 5 5 5 5 5 3 5 5 5 3 5 5 3 3 5 5 5 5 5 5 5 3 5 5 5 5 3 5 5 5 5 3 5 5 5 5 5 5 5 5 5 3 5 5 5 5 5 5 3 5 5 3 5 5 5 5 5 3 5 5 3 5 5 5 5 5 5 5 5 3 3 5 5 5 5 5 5 3 5 5 5 5 5 5 3 5 5 5 5 5 5 3 5 5 5 5 5 5 5 5 5 5 3 5 5 5 5 5 3 5 5 3 5 5 5 5 5 5 3 5 3 5 5 5 3 5 5 3 5 5 5 5 5 5 5 5 5 5 5 5 5 3 5 5 5 3 5 5 5 5 5 5 5 5 5 5 3 5 5 5 5 5 5 5 5 5 5 5 5 5 5 5 5 5 5 3 5 5 3 5 5 5 5 5 5 5 5 5 5 5 5 5 5 5 5 5 3 5 5 5 5 5 5 5 5 5 5 5 5 5 3 5 5 5 5 5 5 5 5 5 5 5 5 5 5 5 5 3 5 5 5 3 5 5 5 5 5 5 5 3 5 5 3 5 3 5 3 5 3 5 5 5 5 3 5 5 5 5 5 5 3 5 5 3 5 5 5 5 5 3 3 5 5 5 5 5 5 5 5 5 5 5 5 5 5 5 5 5 5 5 5 5 5 5 5 3 5 5 5 5 5 5 5 5 5 5 5 5 5 5 5 5 5 5 5 5 5 5 5 5 5 5 5 5 5 3 5 5 5 5 5 5 5 5 5 5 5 3 5 5 5 5 5 5 3 5 5 3 5 3 5 5 5 3 5 5 5 3 5 5 3 5 3 5 5 3 5 5 3 5 3 5 5 5 5 5 3 5 3 5 5 5 5 3 3 5 5 3 5 5 3 5 3 5 5 3 5 5 5 3 5 5 3 3 5 5 5 3 3 5 5 5 5 5 5 5 5 3 5 3 5 3 5 3 5 3 5 3 5 5 5 3 5 5 3 5 5 3 5 3 3 5 3 3 5 5 3 5 3 5 5 5 5 5 5 5 3 5 5 5 5 3 5 5 5 5 5 5 5 5 5 3 5 3 5 5 5 5 5 5 5 5 5 5 5 5 5 3 5 3 5 5 3 5 5 5 3 5 5 5 5 5 5 5 3 5 5 5 5 5 3 3 5 5 5 5 5 5 5 3 5 5 5 3 5 5 5 5 5 5 5 5 5 3 5 5 5 5 5 5 5 5 5 5 5 3 5 5 5 5 5 5 3 5 5 5 5 3 5 5 5 5 5 5 5 5 5 5 5 5 5 5 5 5 5 5 5 3 5 5 5 5 3 5 5 5 5 5 5 5 5 5 5 5 5 5 5 5 3 5 5 3 5 3 5 5 5 5 5 5 3 5 5 5 5 5 3 5 5 5 5 5 3 3 5 5 5 5 5 5 5 5 5 5 5 5 5 5 5 5 5 5 5 5 5 3 5 5 5 5 5 5 5 5 5 5 5 3 5 3 5 5 5 5 3 5 5 3 5 5 3 5 5 3 5 5 5 5 5 5 3 5 5 5 5 5 5 5 3 5 5 3 5 5 3 5 5 5 5 5 3 5 5 5 5 5 5 5 5 5 5 5 5 3 5 5 5 5 5 5 5 5 5 5 5 5 5 5 3 3 5 5 3 5 3 5 3 3 5 5 5 5 3 3 3 5 5 3 5 5 3 5 5 5 5 3 5 5 5 5 5 5 5 3 5 5 3 3 5 5 3 5 3 5 5 5 5 5 5 5 5 5 5 5 5 5 5 5 5 5 5 5 5 5 3 3 5 5 5 5 5 5 5 5 5 5 3 5 5 5 5 3 5 5 5 5 5 5 3 5 5 5 3 5 5 5 5 5 5 3 5 5 5 5 5 5 3 5 5 3 5 5 5 5 5 5 5 5 5 5 5 5 5 5 5 5 5 5 5 5 5 5 5 5 3 5 5 5 5 5 5 5 5 5 5 5 5 5 3 5 3 5 5 5 5 5 5 5 5 5 5 5 5 5 5 5 5 5 3 5 5 5 3 5 5 5 3 5 5 5 5 3 5 5 5 5 5 5 5 5 5 5 5 5 5 5 5 5 5 5 5 5 5 5 5 5 5 5 5 5 5 5 5 5 5 5 5 5 5 3 5 5 5 5 5 5 5 3 5 5 3 5 3 5 5 5 5 5 3 5 5 5 3 5 5 5 5 5 5 5 5 5 5 5 5 5 5 5 5 5 5 5 5 3 5 5 5 5 5 5 5 5 5 5 5 5 5 5 5 5 5 5 5 5 5 5 5 5 5 5 5 3 3 5 5 5 5 5 5 3 5 5 5 5 5 5 5 3 3 5 5 3 3 5 5 5 5 3 3 5 5 5 5 5 3 5 5 5 3 5 5 5 5 5 5 5 5 5 3 5 5 5 3 5 5 3 5 3 5 3 5 3 3 5 5 3 3 5 5 5 5 5 5 3 5 3 5 5 5 5 3 5 5 5 5 5 5 5 3 5 3 5 5 5 5 5 5 5 5 5 5 5 5 5 3 5 3 5 5 5 5 5 5 5 5 5 5 5 5 5 3 5 5 5 5 5 5 5 5 5 5 3 5 5 5 5 5 5 5 5 5 5 5 5 5 5 3 5 3 5 5 5 3 5 5 5 5 5 5 5 5 5 5 5 5 5 5 5 3 3 5 5 5 5 5 5 5 5 5 5 5 5 5 5 3 5 5 5 5 5 3 5 5 5 5 5 5 3 5 5 5 5 5 5 5 5 5 5 5 5 3 5 5 5 5 5 5 3 5 5 5 3 5 5 5 5 5 3 5 5 5 3 5 5 5 5 5 5 5 5 5 3 5 5 5 5 5 5 5 5 5 5 3 5 5 5 3 5 5 5 5 5 5 5 5 5 5 5 5 5 5 5 5 5 5 5 5 5 5 5 3 5 5 5 5 5 5 5 5 5 5 5 5 5 5 5 5 5 5 5 5 5 5 5 5 3 5 5 5 5 5 5 5 3 5 5 5 3 5 5 5 5 5 5 5 5 3 5 3 5 5 3 5 3 5 5 5 5 5 5 3 5 5 5 3 3 5 3 5 5 5 5 5 3 5 5 5 5 5 5 5 5 5 5 5 5 5 5 5 3 5 5 3 5 5 5 3 5 3 5 3 5 3 5 5 3 3 5 5 5 3 5 3 5 5 5 5 5 5 5 5 5 3 5 5 5 3 5 5 5 5 5 5 5 5 5 5 5 3 5 5 5 3 5 5 5 5 5 5 5 5 5 3 5 5 3 5 5 5 3 5 5 3 5 5 5 5 5 5 5 5 5 5 5 5 5 5 5 5 5 5 5 5 5 5 3 5 5 3 5 5 5 5 5 5 5 3 5 5 5 5 5 5 5 5 5 5 5 5 3 5 5 5 3 5 5 3 3 5 3 5 5 5 5 5 3 5 5 5 5 5 3 5 5 5 3 3 5 5 5 3 5 5 5 3 5 5 5 3 3 5 5 3 5 5 5 5 5 5 3 3 5 5 5 5 5 5 5 5 5 5 5 3 5 5 5 5 5 5 5 5 5 5 5 5 5 5 5 5 3 5 5 5 3 5 5 5 5 5 5 5 5 5 5 3 3 5 5 5 5 3 5 5 5 5 5 5 3 5 3 5 5 5 5 5 5 3 3 5 5 5 5 5 5 5 5 3 3 5 5 5 5 5 5 3 5 5 5 5 3 5 3 5 5 5 5 5 3 5 3 3 5 5 3 3 5 5 3 5 3 3 5 5 5 3 3 5 5 5 5 5 5 5 5 5 5 3 5 5 5 3 3 5 3 3 5 5 5 5 5 3 5 3 5 3 5 5 5 3 5 3 3 5 5 3 5 5 3 5 5 5 5 3 5 5 5 5 5 5 5 5 5 5 5 5 3 5 5 5 5 5 3 5 3 5 3 5 3 5 3 5 3 5 5 5 5 5 3 3 5 3 3 3 5 5 5 5 3 5 5 5 5 5 3 5 5 5 5 5 5 3 5 5 5 5 3 5 5 3 5 3 3 5 5 5 5 5 5 3 3 3 3 5 5 3 5 3 5 3 3 5 5 5 5 5 5 5 5 5 5 5 5 3 5 5 3 5 5 5 5 5 5 5 5 5 5 5 3 5 5 5 5 3 5 5 3 5 5 5 3 5 3 5 5 5 5 5 5 5 5 5 3 5 5 5 5 5 3 5 5 5 5 5 5 5 5 5 5 5 5 5 5 5 3 5 5 5 5 3 5 5 5 5 3 5 5 5 5 5 5 5 5 5 5 5 5 5 5 5 5 5 5 3 5 5 5 5 3 5 5 5 5 5 5 5 5 5 5 5 3 5 5 5 3 3 5 5 5 3 3 3 5 3 5 5 3 5 5 3 5 5 3 5 3 5 5 5 5 5 5 5 5 5 5 5 5 5 5 5 5 5 5 5 5 3 3 5 5 5 3 5 3 5 5 5 5 5 5 5 5 5 5 3 5 5 5 5 5 5 5 5 5 3 5 5 5 5 5 5 3 5 5 5 5 5 5 5 5 5 5 5 5 3 5 3 5 5 5 5 5 5 5 5 5 5 5 5 5 5 5 5 5 5 3 5 3 5 3 5 5 3 5 3 5 5 3 5 5 3 5 5 5 5 5 5 3 5 5 3 3 5 5 3 5 5 3 5 3 3 5 5 5 5 5 5 3 5 5 5 5 5 5 5 5 5 5 3 5 5 3 5 5 5 3 5 5 5 5 5 5 5 3 5 5 5 3 5 5 3 5 5 5 5 5 5 5 5 5 5 5 5 5 5 5 5 5 5 5 5 5 5 5 5 5 5 5 5 5 5 5 5 5 5 5 5 5 5 5 5 5 5 5 5 5 5 3 5 5 5 5 5 5 5 5 5 5 5 5 5 5 5 5 5 5 5 5 3 5 3 5 5 5 5 5 5 5 3 5 5 5 5 5 5 5 3 5 5 5 5 5 5 3 5 3 5 5 5 3 5 5 5 5 5 5 5 5 5 5 5 5 3 5 5 5 5 3 5 5 5 3 3 5 5 5 3 3 5 5 5 5 5 5 5 5 5 5 5 5 5 5 5 5 5 5 5 5 3 5 5 5 5 3 5 5 5 3 5 5 5 5 5 5 5 5 5 5 3 3 5 5 5 5 3 5 5 5 5 5 5 3 5 5 3 5 5 3 5 5 5 5 5 5 5 5 5 5 5 5 5 5 5 5 5 5 5 5 5 5 5 5 5 5 5 5 5 5 5 5 5 5 5 5 5 5 5 5 5 5 5 5 5 5 5 5 3 5 5 5 5 5 3 5 5 3 5 5 3 5 5 5 5 5 5 5 5 5 5 5 5 5 5 5 5 5 5 5 3 5 5 5 5 5 3 5 5 5 5 5 5 5 5 5 5 5 5 3 5 5 5 5 5 3 5 5 5 3 5 5 5 5 5 5 3 5 5 5 5 3 5 5 5 5 3 5 5 5 3 5 5 5 3 5 5 3 5 5 5 5 5 5 5 5 5 5 5 5 5 5 5 5 5 5 5 5 5 5 5 3 5 5 5 3 5 5 5 5 5 5 5 5 5 5 5 5 5 5 5 5 5 3 3 5 5 3 5 5 3 5 3 5 3 5 5 5 5 3 5 5 5 5 3 5 3 5 5 5 5 5 5 5 5 5 5 5 5 5 5 3 5 5 5 5 5 5 5 5 5 5 3 5 5 5 5 5 5 5 5 5 5 3 5 5 5 5 5 3 5 5 5 5 5 3 5 5 5 5 3 5 5 5 5 5 5 5 5 5 5 5 5 3 5 5 5 5 5 3 5 5 5 5 5 5 3 5 5 5 5 5 5 3 5 5 5 5 5 5 5 5 5 5 5 5 5 5 5 5 5 5 5 5 5 5 5 5 5 3 5 5 5 5 5 5 3 5 5 5 5 3 5 5 3 5 5 5 5 5 5 5 5 5 3 5 5 3 5 5 5 3 5 5 5 5 3 5 5 5 5 5 5 5 5 5 3 5 5 5 5 5 5 5 5 5 5 5 5 5 5 5 5 5 5 5 5 5 5 5 5 3 5 5 5 5 5 5 5 5 5 5 3 5 5 5 5 5 5 5 3 5 5 5 5 3 5 5 5 5 5 5 5 5 5 5 5 5 5 5 5 5 5 5 5 5 5 5 5 5 5 5 5 5 5 5 5 5 5 5 5 5 5 5 5 5 5 5 5 5 5 5 5 3 5 5 5 5 5 5 5 5 5 5 5 5 5 5 3 5 5 5 5 5 5 5 5 3 5 5 5 5 3 3 5 5 3 3 5 5 5 5 5 5 5 5 5 5 5 5 5 5 5 5 3 5 5 5 5 5 5 5 5 5 5 5 3 5 5 5 5 5 5 5 5 5 3 3 5 5 3 5 5 5 5 5 5 3 5 5 5 5 3 5 5 5 5 5 5 5 5 5 5 5 5 3 5 5 5 5 3 5 5 5 5 5 5 5 5 5 3 3 5 5 5 5 3 5 5 5 5 5 5 3 5 5 5 5 5 5 5 5 5 5 5 5 5 5 5 3 5 5 5 5 5 5 5 5 5 5 5 5 5 5 5 5 5 5 5 5 5 5 5 5 5 5 5 3 5 5 5 3 5 5 5 5 5 5 5 5 5 3 5 5 5 5 5 5 5 5 5 3 5 5 5 5 5 5 5 5 5 5 5 5 5 5 5 3 5 5 5 5 5 5 5 3 5 5 5 5 5 5 5 5 5 5 5 5 5 5 5 5 5 5 5 5 5 5 5 5 5 5 5 5 5 5 3 5 5 5 5 3 5 5 5 5 5 3 5 3 5 5 5 5 5 5 3 5 5 5 3 5 5 5 5 5 5 5 5 5 5 5 5 5 5 5 5 5 5 5 5 5 5 5 5 5 5 5 5 5 3 5 5 5 5 5 3 5 5 5 5 5 5 5 3 5 5 5 5 5 5 5 3 5 3 5 5 5 5 5 3 3 5 5 3 5 5 3 5 3 3 3 5 3 5 3 3 3 5 5 3 3 5 5 3 5 5 5 5 5 3 5 5 3 5 3 5 5 5 5 5 3 5 5 3 5 3 5 3 3 5 5 5 5 5 3 5 5 3 5 5 5 5 5 5 3 5 5 5 5 5 5 5 5 5 5 5 5 5 5 5 3 5 5 5 5 5 3 5 3 3 5 5 5 5 5 5 5 5 5 5 5 5 5 5 5 5 5 5 5 5 5 3 5 5 5 3 5 5 3 5 5 5 5 5 5 5 5 5 5 3 5 3 5 5 5 5 5 3 5 5 5 5 3 5 5 5 5 5 5 5 5 5 5 5 5 5 5 5 5 5 5 5 5 5 5 5 5 5 5 5 5 5 5 5 5 3 5 3 5 3 5 3 5 5 5 3 3 5 3 3 5 5 5 3 5 5 5 5 5 5 5 5 5 5 5 5 5 5 5 5 5 5 5 5 5 5 5 5 5 5 5 5 5 5 5 5 5 5 5 5 5 5 5 5 5 5 5 5 5 5 5 5 5 5 5 5 5 5 5 5 5 5 5 5 5 5 5 3 5 5 5 5 5 5 3 3 5 5 5 5 5 5 3 5 5 5 5 3 5 5 5 5 5 3 5 3 5 5 5 5 3 5 5 5 5 5 5 5 5 5 5 5 5 5 5 5 5 5 5 5 5 5 5 5 5 5 3 5 5 5 5 5 5 5 5 5 3 3 5 5 5 3 3 5 5 5 5 5 3 5 3 5 5 3 5 5 5 5 5 5 5 5 5 5 5 5 3 5 5 5 5 3 5 5 5 5 5 5 5 3 5 5 5 5 5 5 5 5 5 5 5 5 5 5 5 5 5 5 3 5 5 5 3 5 5 5 5 5 5 5 5 5 5 5 5 5 5 3 3 5 5 5 5 5 5 5 5 5 5 5 3 5 5 5 5 5 5 5 3 5 5 5 5 5 5 5 5 5 5 5 5 5 5 5 5 5 5 5 3 3 5 5 5 5 5 5 3 5 5 5 5 5 5 5 5 5 5 5 5 5 5 5 5 5 5 5 5 5 5 5 5 5 5 5 5 3 3 5 5 5 5 5 3 5 5 3 5 5 5 5 3 5 5 5 3 3 5 3 3 5 5 5 5 3 5 5 5 5 5 5 5 3 5 3 5 3 5 5 3 3 5 5 5 3 5 3 5 5 5 5 5 5 5 5 5 3 5 5 5 5 5 3 5 5 5 5 5 5 5 5 5 5 5 5 3 5 5 5 5 5 5 5 5 5 3 5 5 5 5 5 5 5 5 3 3 3 5 5 5 3 5 5 3 5 5 5 5 5 5 3 5 5 5 3 3 5 3 5 5 5 5 3 3 5 5 3 5 5 3 5 5 5 5 5 5 5 3 5 3 5 3 3 5 5 5 5 5 5 5 5 3 5 5 5 5 5 3 5 5 5 5 5 5 5 5 5 5 5 5 5 5 5 5 5 5 5 5 5 5 5 5 5 5 5 5 5 5 5 5 5 5 5 5 5 5 5 5 5 5 5 5 5 5 5 5 5 5 5 5 5 5 5 5 5 5 5 5 5 5 5 5 3 5 5 5 5 5 5 5 5 5 5 5 5 5 5 5 5 5 5 5 5 5 5 5 5 5 5 5 5 5 5 3 5 5 5 3 3 3 5 5 5 5 5 5 5 3 3 5 5 5 3 5 3 5 5 5 5 5 5 3 5 5 3 5 5 5 5 5 5 5 5 5 5 5 5 3 5 5 5 5 5 5 5 3 5 3 3 5 5 5 5 3 5 3 3 5 5 5 5 3 5 5 3 3 5 5 5 5 3 5 5 3 5 5 5 5 5 5 5 5 5 5 3 5 3 5 5 5 5 3 5 5 5 5 5 3 5 5 5 5 5 5 5 5 5 5 5 5 5 5 5 3 5 5 5 3 3 5 5 5 5 5 5 5 5 5 5 5 5 5 3 5 3 5 5 5 3 5 5 5 3 5 5 5 5 3 5 5 5 5 5 3 5 5 5 5 5 5 3 5 5 5 5 5 5 5 5 5 5 3 3 5 3 5 5 5 5 3 5 5 3 5 5 3 5 5 5 3 3 5 3 3 5 5 5 5 5 3 5 5 3 5 5 5 3 5 3 5 5 5 5 5 5 5 3 5 5 5 5 5 5 5 5 5 5 5 5 3 5 5 5 5 5 3 5 5 3 5 3 5 5 3 5 3 5 5 3 3 5 5 5 3 3 5 5 3 5 5 5 5 5 3 3 3 3 3 3 5 5 5 3 5 3 3 3 5 5 5 3 5 5 3 5 5 5 3 5 5 3 5 5 5 5 3 3 5 5 5 5 5 3 5 5 5 5 5 5 3 3 5 5 3 5 3 5 5 5 5 5 5 5 5 5 5 5 5 5 5 5 5 5 5 5 3 5 5 5 5 3 5 3 5 5 5 3 5 5 5 3 5 5 5 5 5 5 5 5 5 5 5 5 5 5 3 3 5 5 5 5 5 5 5 5 5 5 5 5 5 5 5 3 5 5 5 5 3 5 3 5 5 5 5 5 5 5 5 5 5 5 5 5 5 5 5 5 5 5 5 5 5 5 5 5 5 5 5 5 5 5 5 5 5 3 3 5 5 3 5 3 5 3 3 5 5 5 5 5 5 3 3 5 5 3 5 5 5 3 5 5 5 5 5 5 5 3 5 5 5 5 5 5 3 5 5 5 5 5 5 5 5 5 5 5 3 5 5 5 5 5 5 5 5 5 3 5 5 5 5 3 5 5 5 5 5 3 5 5 5 5 5 5 5 5 5 5 5 5 5 5 5 5 5 5 5 5 5 5 5 5 5 3 5 5 5 5 5 5 5 5 5 5 5 5 5 5 3 5 5 5 5 5 5 3 5 3 5 5 5 5 3 5 3 5 5 5 5 5 5 5 3 5 5 5 5 5 5 5 5 3 5 5 5 5 5 5 5 3 5 5 5 5 5 5 5 5 5 5 5 5 5 5 3 5 5 5 5 3 3 5 5 5 5 5 5 5 3 5 3 5 3 5 5 3 3 5 3 5 5 5 5 5 5 5 5 3 5 3 5 5 5 5 3 5 5 3 5 5 5 5 5 3 5 5 5 5 5 5 5 5 5 5 5 5 5 3 5 5 3 5 5 5 3 5 5 5 5 5 3 5 5 3 5 3 5 5 5 5 5 5 5 3 5 5 3 5 5 5 3 5 5 5 5 5 5 5 5 5 5 3 5 5 5 3 5 5 5 5 3 5 5 5 5 5 5 5 5 5 5 5 5 5 5 5 5 5 5 5 5 3 5 5 5 3 5 5 5 5 5 5 5 5 5 3 5 5 5 5 5 3 5 5 5 5 5 5 5 5 5 5 5 5 5 5 5 5 5 5 5 5 5 3 5 5 5 5 5 3 3 5 5 5 5 3 5 5 5 5 5 5 5 5 3 5 5 5 5 5 5 5 3 3 5 5 5 5 5 3 5 5 5 5 5 5 5 5 5 5 3 5 3 5 3 5 3 5 5 5 5 3 5 5 5 5 5 5 5 5 5 5 5 5 5 5 5 5 5 5 5 5 3 5 5 3 5 5 5 5 5 5 5 5 5 3 5 5 3 5 5 5 5 3 5 5 5 5 5 5 5 5 5 5 5 5 5 5 5 5 5 5 5 5 5 5 3 5 5 5 5 5 5 5 5 5 5 5 5 5 5 5 5 5 5 5 5 5 5 5 5 5 3 5 5 5 5 5 5 5 5 5 5 5 5 5 5 5 3 5 5 5 5 5 5 5 5 5 5 5 5 3 5 5 5 5 3 3 5 5 5 3 5 3 5 5 5 3 5 5 5 5 3 3 5 5 3 5 5 5 5 5 5 5 5 3 5 5 5 5 5 5 5 5 5 5 5 5 5 3 5 3 5 5 5 5 5 5 5 3 5 5 5 5 5 3 3 5 5 5 5 5 5 5 3 5 5 5 5 5 3 5 5 5 5 5 3 5 5 5 5 5 3 5 5 5 5 5 5 5 5 5 5 5 5 5 5 5 5 5 5 5 5 5 5 5 5 5 3 5 5 5 5 5 5 5 5 5 5 5 5 3 5 3 3 5 5 5 5 5 3 5 5 5 5 5 5 3 5 3 5 5 5 5 5 5 5 5 5 5 5 5 5 5 5 3 5 3 5 5 5 5 5 3 5 5 5 5 5 5 5 5 5 5 5 5 5 5 5 5 5 5 5 5 5 3 5 5 5 5 5 5 5 5 5 3 5 5 5 5 5 3 5 5 5 5 3 5 5 5 5 5 3 5 5 5 5 5 3 5 5 5 5 5 5 5 5 5 5 5 3 5 5 5 3 5 5 5 5 5 3 5 5 5 3 3 5 5 5 5 5 5 5 3 5 5 5 5 5 5 5 3 5 5 5 5 5 3 5 5 5 5 5 5 5 5 5 5 5 5 5 3 5 5 5 5 5 5 5 5 5 5 5 3 5 5 5 5 5 5 5 5 5 5 5 5 5 5 5 5 5 5 5 5 5 5 5 5 3 5 3 5 3 5 5 5 5 3 5 3 5 5 3 5 5 5 5 5 5 5 5 5 5 5 5 5 5 5 5 5 5 3 5 5 5 5 5 5 5 5 5 5 5 5 5 5 3 5 5 5 5 5 5 5 3 3 5 5 5 5 5 3 5 5 5 5 5 5 5 5 5 5 5 5 5 5 5 3 5 5 5 5 5 5 5 5 5 5 3 5 5 5 5 3 5 5 5 5 5 5 5 5 5 5 5 5 5 5 5 5 5 5 5 3 5 5 5 3 5 5 5 3 5 5 5 5 5 5 5 5 5 5 5 5 5 5 5 3 5 5 5 5 5 5 5 3 5 5 5 5 5 5 5 5 5 5 5 5 5 5 5 5 5 5 5 5 5 5 5 5 5 5 5 5 5 5 3 5 3 5 5 5 5 5 5 5 5 3 5 5 5 5 5 5 5 5 5 5 5 3 5 5 5 5 5 5 5 3 5 5 5 5 5 5 5 3 5 5 5 5 5 3 5 5 5 3 5 5 5 5 5 5 5 5 5 5 5 5 5 5 5 5 5 3 5 5 3 5 5 5 3 5 5 5 5 5 5 3 5 5 3 5 5 5 5 5 5 3 5 5 5 3 5 5 5 5 5 5 5 5 5 3 5 5 3 5 5 5 5 5 5 5 5 5 3 3 5 5 5 5 5 5 5 3 3 5 5 5 5 5 5 5 5 5 5 5 5 5 5 5 5 5 5 3 5 5 5 5 5 5 5 5 5 5 5 5 5 5 5 5 5 3 5 5 3 5 5 5 5 5 5 5 5 5 5 5 5 3 5 5 5 5 5 3 5 5 5 5 5 5 5 5 5 5 5 5 5 5 5 5 5 5 5 5 5 5 5 5 5 5 5 3 5 5 5 5 5 3 5 5 5 5 5 5 5 5 3 5 5 5 5 5 5 5 3 5 5 5 5 5 5 5 5 5 3 5 5 5 5 5 5 3 5 5 5 5 5 5 5 5 5 3 5 5 5 3 5 3 5 5 5 5 5 3 5 5 3 5 3 5 5 5 5 5 5 3 3 5 5 3 5 3 5 5 5 5 5 5 5 5 5 5 5 5 5 3 5 3 5 5 5 3 5 5 5 5 3 5 5 5 5 5 5 5 5 5 5 5 3 5 5 5 5 5 5 3 5 5 5 3 5 5 3 5 5 5 5 5 5 5 5 5 5 5 5 5 5 5 5 5 5 5 5 5 5 5 5 5 5 5 3 5 5 5 5 5 3 5 5 5 5 5 5 5 5 5 5 5 5 5 5 3 5 5 5 5 5 5 3 5 5 5 3 5 5 5 5 5 5 5 5 5 5 5 5 5 5 5 5 5 5 5 5 5 5 5 5 5 3 5 5 5 5 5 5 5 5 3 3 5 5 5 5 5 5 5 5 5 3 5 5 3 5 3 5 3 5 5 5 5 5 5 3 5 5 5 5 3 5 5 3 5 5 5 5 5 3 5 5 5 5 5 5 5 5 5 5 5 5 5 5 3 3 5 5 5 5 5 5 5 5 5 5 5 5 3 5 5 3 5 5 3 3 5 5 5 3 5 5 5 5 3 3 5 5 3 5 5 5 3 5 5 5 5 5 5 5 5 3 5 5 5 5 5 3 5 5 5 3 5 5 5 3 5 5 5 5 3 5 5 3 3 5 5 5 5 5 5 3 5 5 5 5 5 5 5 5 5 5 5 5 5 5 5 5 5 3 5 5 5 5 5 5 5 3 5 5 5 3 5 5 3 5 5 5 5 5 3 3 5 5 5 5 5 3 5 5 5 5 3 5 3 5 5 5 5 5 5 5 3 5 5 3 5 5 5 3 5 5 3 3 5 5 5 5 5 5 5 3 5 5 3 5 5 5 3 5 5 5 5 5 5 5 5 5 5 5 5 5 5 5 5 5 5 5 5 5 5 5 5 5 5 5 5 5 5 5 5 5 5 5 5 5 5 5 5 5 5 5 5 5 5 5 5 5 5 5 5 5 5 5 5 5 5 5 5 5 5 5 5 5 5 5 5 5 5 5 5 5 5 5 5 5 5 5 5 5 5 3 5 3 5 5 5 3 5 5 5 5 5 5 5 5 5 5 5 5 5 5 3 5 5 5 5 5 3 3 3 5 5 5 5 5 3 3 5 5 5 5 3 5 5 5 5 5 5 5 5 3 5 3 5 5 5 5 5 5 5 5 5 5 5 5 5 5 5 5 5 5 5 5 5 5 5 5 5 5 5 5 5 5 5 5 5 5 5 5 5 5 3 5 5 5 5 5 5 5 3 5 5 5 5 5 5 5 5 3 5 5 5 3 5 5 5 5 5 5 5 5 5 5 5 5 5 5 5 5 5 5 5 5 5 5 5 5 5 3 5 5 3 5 5 5 5 5 5 5 5 5 5 5 5 3 5 5 5 5 5 3 5 5 5 5 3 5 3 5 5 5 3 5 5 5 3 5 3 5 5 3 3 3 5 5 5 3 5 5 3 3 5 5 5 5 5 5 5 5 5 5 5 5 5 5 5 5 3 5 5 3 5 5 5 5 5 5 5 5 5 3 5 5 3 5 5 3 5 5 5 5 5 5 5 5 5 5 5 5 5 5 5 3 5 5 5 3 5 5 5 3 5 3 5 5 5 5 5 5 5 5 3 5 5 5 5 5 5 5 5 5 5 5 5 5 3 5 5 5 5 5 5 5 5 3 5 5 5 5 5 3 5 5 5 5 5 5 5 3 5 3 5 5 5 5 5 5 5 5 5 5 5 5 5 3 5 5 5 5 5 5 5 3 5 5 5 5 5 5 5 5 5 5 5 5 5 5 5 5 5 5 5 5 5 5 5 5 5 5 5 5 5 3 5 5 5 3 5 3 3 5 5 3 3 5 5 5 5 5 3 5 5 5 5 5 5 5 5 5 5 3 5 3 5 5 5 5 3 5 5 5 5 5 5 5 5 5 5 3 5 5 5 5 5 5 5 5 5 5 5 5 3 5 5 5 5 3 5 5 5 5 5 5 3 5 5 5 3 5 3 5 5 5 5 3 5 5 5 5 5 5 5 5 5 5 5 5 5 5 5 5 5 5 5 5 5 5 5 5 5 5 5 5 5 5 5 5 5 5 5 5 5 5 3 5 5 5 5 3 5 5 5 5 5 5 5 5 5 5 3 5 5 5 5 5 5 5 5 5 5 5 5 3 5 5 5 3 5 5 5 5 5 5 5 3 5 5 5 5 5 3 5 5 5 5 5 5 5 5 5 5 5 5 5 5 5 5 5 5 5 5 5 5 5 5 5 5 5 5 5 5 5 5 5 5 5 5 5 3 5 5 5 5 5 5 5 5 5 5 5 5 5 5 5 5 3 5 5 3 5 5 5 5 5 5 5 5 5 5 5 5 5 5 5 5 5 5 5 5 5 5 5 5 5 5 5 5 5 5 5 5 5 5 5 5 5 5 5 5 5 5 3 5 5 5 3 5 5 5 5 3 5 5 5 3 5 5 5 5 5 5 5 5 5 5 5 5 5 5 3 5 5 5 5 3 3 5 5 5 5 5 5 5 5 5 3 5 3 5 5 5 5 5 5 5 5 5 5 5 5 5 5 3 5 5 5 5 5 5 5 5 5 5 5 5 5 5 3 5 5 5 5 3 5 5 5 5 3 5 3 5 5 5 3 5 5 3 5 5 5 5 3 5 5 5 5 5 3 5 5 3 5 5 5 5 3 5 5 5 5 5 5 5 3 5 5 5 5 3 5 5 3 5 5 3 5 3 5 5 5 5 3 5 5 5 3 5 5 5 5 5 5 5 3 5 5 5 5 5 5 5 5 5 5 5 5 5 5 5 5 5 3 5 5 5 3 5 5 5 5 5 5 5 5 5 5 5 5 5 5 5 5 5 5 5 5 5 5 5 5 5 5 5 5 5 5 5 5 5 5 5 5 5 3 5 5 5 3 5 5 3 3 5 5 5 5 5 5 5 5 5 5 3 5 5 5 5 5 5 5 5 5 5 5 5 5 5 5 3 5 5 5 5 5 5 5 5 5 5 5 5 5 3 5 5 5 5 5 3 5 5 5 5 3 5 5 5 5 5 3 5 5 5 5 5 5 5 5 5 5 3 5 3 5 5 5 5 3 5 3 5 5 5 5 5 5 3 3 5 5 3 5 5 5 5 5 5 5 5 3 5 5 5 5 5 5 5 5 5 5 5 5 5 5 5 5 3 5 3 5 5 5 5 5 5 5 5 5 5 5 5 5 5 5 5 5 5 5 5 5 3 5 5 5 5 5 5 5 5 5 5 5 5 5 5 5 5 5 5 5 5 5 5 5 5 5 5 5 5 5 5 5 5 5 5 3 5 5 5 5 5 5 5 5 5 5 3 5 5 5 3 5 3 5 5 5 5 5 5 5 5 5 5 3 5 5 3 5 5 5 5 5 5 5 5 5 5 5 5 5 5 5 5 5 5 5 5 5 5 5 5 5 5 5 5 5 5 5 5 5 5 5 5 5 5 5 5 5 5 5 5 5 5 5 5 5 5 5 5 5 5 5 5 5 5 5 5 3 5 5 5 5 5 5 3 3 5 5 5 5 5 5 5 5 5 3 5 5 5 5 5 5 5 5 5 5 5 5 5 5 5 5 5 5 5 5 5 5 5 5 5 5 5 5 5 5 5 5 5 5 5 5 5 5 5 5 5 5 5 5 5 5 5 5 5 5 5 5 5 5 5 5 5 5 3 5 3 5 5 5 5 5 5 5 5 3 5 5 5 5 5 5 5 5 5 3 5 5 5 5 5 5 5 3 5 5 5 5 5 5 5 5 5 5 5 5 3 5 5 3 5 5 5 5 5 5 5 5 5 5 5 5 5 5 5 5 5 5 5 5 5 5 5 5 5 5 5 5 5 5 5 5 5 5 5 5 5 5 5 5 5 5 5 5 5 5 5 3 5 5 5 5 3 5 5 3 5 5 5 5 5 3 5 5 5 5 3 5 5 5 5 3 5 5 3 5 5 5 3 5 5 5 5 5 5 5 5 5 5 5 5 5 5 5 5 5 5 5 5 5 5 5 5 5 5 5 3 3 5 3 5 5 5 3 5 5 5 5 5 5 5 5 5 3 5 3 5 5 3 5 5 3 5 5 5 5 5 5 5 5 5 5 5 5 5 5 5 5 5 5 5 5 5 5 5 5 5 3 5 5 5 5 5 3 5 5 5 5 5 5 5 3 3 5 5 5 3 5 5 5 5 3 5 5 5 3 5 5 5 5 5 5 5 5 5 3 5 5 5 5 5 5 5 5 5 3 5 5 5 3 5 5 5 5 3 5 5 3 5 5 5 5 5 5 5 3 5 5 5 5 5 5 3 5 5 5 5 5 5 3 5 5 5 5 5 5 5 5 3 5 5 5 3 5 5 5 5 5 5 5 5 5 5 5 5 5 5 5 5 5 5 5 5 5 5 5 5 5 5 5 5 5 5 5 5 5 5 5 5 5 5 5 5 5 5 5 5 5 5 5 5 5 5 5 5 5 3 5 5 3 5 3 5 5 3 5 5 5 5 5 5 5 5 5 3 5 5 5 5 5 5 3 5 5 5 5 5 5 3 5 3 5 5 3 5 5 3 5 5 3 5 5 5 5 5 5 5 5 5 5 5 5 5 3 5 3 5 5 3 5 5 5 5 5 3 5 5 5 5 5 5 5 5 5 5 5 5 5 5 5 3 5 5 3 5 5 5 5 3 5 5 5 5 5 5 5 5 5 3 5 5 5 5 5 5 5 5 5 5 3 5 5 5 5 5 3 3 5 5 5 5 5 5 5 3 3 5 5 5 5 5 5 5 5 3 5 5 3 5 3 5 5 3 5 5 5 5 5 5 3 5 5 5 5 5 5 5 5 5 5 3 5 5 5 5 5 5 3 3 5 5 5 5 3 5 5 5 5 5 5 5 5 5 5 5 5 5 5 5 5 5 5 3 5 5 5 5 3 5 5 5 5 5 5 5 5 5 5 5 5 5 3 5 5 5 5 5 5 5 5 3 5 5 5 3 5 5 5 5 5 3 5 3 5 5 5 5 5 5 5 5 5 5 5 5 5 5 3 5 5 5 5 5 5 5 5 5 5 3 5 5 5 5 5 5 5 3 3 5 5 5 5 5 5 3 5 5 5 5 5 5 5 5 5 5 3 5 5 5 5 3 3 5 3 5 5 5 5 5 5 5 3 5 3 5 5 5 5 5 5 5 5 5 3 5 5 5 5 5 5 5 5 5 5 5 5 5 5 5 5 5 5 5 5 5 5 5 5 3 5 5 5 5 5 5 5 5 5 5 5 5 5 5 5 5 5 5 5 5 5 5 5 5 5 5 5 5 5 5 5 5 5 5 5 5 5 5 5 5 5 5 5 5 5 5 5 3 5 5 5 5 3 5 5 5 5 5 5 5 3 5 5 3 5 5 5 5 5 5 5 5 5 5 5 5 5 5 5 3 3 5 5 5 5 5 5 5 5 3 5 5 5 5 5 5 5 5 5 5 3 5 3 5 5 5 5 5 5 5 5 5 5 5 5 5 5 5 5 5 5 5 5 5 5 5 5 5 5 5 5 5 5 5 5 5 5 5 5 5 5 5 5 5 5 5 5 5 5 5 5 5 5 5 5 5 5 5 5 5 5 5 5 5 3 5 5 3 5 5 5 5 5 5 5 5 5 3 5 5 5 5 5 5 5 5 5 5 5 5 3 5 5 5 3 5 5 5 5 5 5 5 5 5 5 5 5 5 5 5 5 5 5 5 5 5 3 5 5 5 3 5 5 5 5 5 5 3 3 5 5 5 5 5 5 5 5 5 5 5 5 5 5 5 5 5 5 5 5 5 5 5 5 5 5 5 5 5 5 5 5 5 5 5 3 5 5 5 5 5 5 5 5 5 5 5 5 5 5 5 5 5 5 5 5 5 5 5 5 3 5 5 5 5 5 5 5 5 5 5 5 5 5 3 3 5 5 5 3 3 5 5 5 5 5 5 5 5 5 5 5 5 5 3 5 5 5 5 3 5 5 5 5 5 3 5 5 5 5 5 5 5 5 3 5 5 5 3 5 5 3 5 5 3 5 5 5 3 5 5 3 5 5 5 5 5 5 3 5 5 5 5 3 5 5 5 5 5 5 5 5 5 5 5 3 5 5 5 5 5 5 5 5 5 5 5 5 5 5 5 5 5 5 5 5 5 5 5 5 3 5 3 3 5 5 5 3 5 5 5 5 3 5 5 5 5 5 5 5 5 3 5 5 5 3 5 5 5 5 5 5 5 5 5 5 5 5 5 5 5 5 5 5 5 5 3 5 5 5 5 5 5 5 5 5 5 5 5 3 5 5 5 5 5 5 3 5 3 3 5 5 5 5 5 5 5 5 5 5 3 5 5 5 5 3 5 5 5 3 5 5 3 5 5 5 5 5 5 5 5 5 5 3 5 3 5 5 5 3 5 3 5 5 5 5 3 3 3 5 5 5 5 5 5 3 5 5 5 5 5 5 5 3 5 5 5 5 5 5 5 5 5 5 5 5 5 5 3 5 3 5 5 5 5 5 5 3 5 5 5 5 3 5 5 3 5 5 5 3 5 3 5 5 3 5 5 5 5 5 3 5 3 5 5 5 5 5 5 5 5 5 5 3 5 3 5 5 5 5 5 3 3 5 3 5 5 5 3 3 3 3 5 5 5 3 5 3 5 3 3 5 5 5 3 5 5 5 3 3 5 3 5 5 3 5 5 5 5 5 5 5 5 5 5 5 5 5 5 5 5 5 5 5 5 5 3 5 5 5 5 3 5 3 5 3 5 5 5 5 5 3 3 5 3 5 5 3 5 5 5 5 5 3 5 5 3 5 5 5 3 3 5 5 5 3 5 3 3 5 5 3 5 3 5 5 3 5 3 5 5 5 5 5 5 3 5 5 5 3 5 5 5 5 5 5 5 5 5 5 5 5 5 5 5 5 5 5 5 5 5 5 5 5 5 5 5 5 3 5 5 5 3 5 3 5 5 3 5 5 5 5 5 5 5 5 5 5 3 5 5 5 5 5 5 5 5 5 5 5 5 5 5 3 3 5 5 5 5 5 3 3 5 5 3 3 5 5 5 5 5 5 5 5 5 5 5 5 5 5 5 5 5 5 5 3 5 5 5 5 5 5 5 5 3 5 5 5 5 5 5 5 5 5 5 5 3 3 5 5 5 5 5 5 5 5 5 5 5 5 5 5 5 5 5 5 5 5 5 5 5 5 5 5 5 5 5 5 5 5 5 3 5 5 3 5 5 5 5 5 5 5 5 5 5 5 5 5 5 5 5 5 5 5 5 5 5 5 5 5 5 5 5 5 5 5 5 5 5 5 3 5 5 5 5 5 5 5 5 5 5 3 5 5 5 5 5 5 5 3 5 5 5 5 5 5 5 5 5 5 5 5 5 5 5 5 5 5 5 5 5 5 5 5 5 5 5 5 5 5 5 5 5 5 5 5 5 5 5 3 5 5 5 5 3 5 5 5 5 5 5 5 5 5 5 5 5 5 3 5 5 5 5 5 5 3 5 5 3 3 5 5 3 3 5 5 5 5 3 3 5 5 5 5 3 3 5 5 5 5 5 5 5 3 5 5 5 5 5 5 5 5 5 3 5 5 5 3 5 3 5 3 5 5 3 5 5 3 5 5 5 5 3 5 5 5 5 5 5 5 5 3 5 5 5 5 5 5 3 5 5 5 5 5 5 5 5 5 5 5 3 5 5 5 5 5 5 5 5 5 5 5 5 5 5 3 5 5 5 5 5 5 3 5 5 3 5 5 5 5 5 5 5 5 5 5 5 5 5 5 5 5 5 5 3 5 5 5 5 5 5 5 3 5 5 5 5 5 5 5 5 5 5 3 5 5 5 3 5 5 3 5 3 5 5 5 5 3 3 5 5 5 5 5 3 3 5 3 3 5 3 3 5 5 5 3 5 5 5 5 5 5 3 5 5 3 3 5 5 5 5 5 5 5 5 5 5 3 3 5 5 5 3 5 5 5 3 5 5 5 5 5 5 5 5 5 5 5 5 5 5 5 5 5 5 3 5 5 3 5 5 3 3 5 5 5 3 5 5 5 5 3 5 5 5 5 5 5 5 5 5 3 5 5 3 5 5 5 5 5 5 5 5 5 3 3 5 5 5 5 5 5 3 5 5 3 5 5 5 5 5 5 5 5 5 5 5 3 5 5 5 5 5 5 3 5 5 5 5 5 5 5 5 3 5 3 5 5 5 5 3 3 5 5 3 5 5 5 5 5 5 5 5 5 5 5 5 5 5 5 5 5 5 5 5 3 5 3 5 5 5 5 5 5 5 3 5 5 5 5 5 5 5 5 5 5 5 5 5 5 5 5 5 5 5 5 3 3 5 5 5 5 5 5 5 3 5 5 3 5 3 5 5 3 3 5 5 5 5 3 5 5 3 5 5 5 5 3 5 3 5 5 5 5 5 5 5 5 5 5 5 5 5 5 5 5 5 3 5 5 5 3 5 5 5 3 5 3 3 5 5 5 5 3 5 5 5 3 5 3 3 3 5 5 5 5 5 3 5 5 5 5 5 5 5 5 5 5 5 5 3 5 5 5 5 3 5 5 5 5 5 5 5 5 5 5 5 5 5 5 5 5 5 3 5 5 5 5 5 5 5 5 3 5 3 5 5 5 5 5 3 5 5 5 5 3 5 3 5 3 5 3 5 5 3 5 5 5 5 5 5 5 5 5 5 5 5 5 5 5 5 5 5 3 5 5 5 5 5 5 5 3 5 5 5 5 5 3 3 5 5 5 5 5 5 5 5 5 5 5 5 5 5 5 5 3 5 5 5 5 5 5 5 5 3 5 5 3 5 5 5 5 5 5 5 5 3 5 5 5 3 5 5 5 5 3 5 5 5 5 5 5 5 5 5 5 5 5 5 5 5 5 5 5 5 5 3 5 5 5 5 5 5 5 3 5 5 5 5 5 3 5 5 5 5 5 5 5 5 5 5 5 5 5 5 5 5 5 5 5 5 5 5 5 5 5 5 3 5 5 3 3 5 5 3 5 5 5 5 3 5 5 5 5 5 5 5 5 3 3 5 5 5 5 5 3 5 5 5 3 5 5 3 5 3 5 5 5 5 5 3 5 3 5 5 5 5 5 5 5 5 5 5 5 5 5 5 5 5 5 5 5 5 5 5 3 5 5 5 5 5 3 5 5 5 5 3 5 5 5 5 5 5 5 5 5 3 5 5 5 5 3 3 5 5 5 5 5 5 5 3 3 5 5 5 5 5 3 3 3 5 3 5 5 3 5 5 5 3 5 5 3 5 5 5 3 5 5 5 5 3 5 5 3 5 5 5 5 5 5 3 5 5 5 3 5 5 5 5 5 5 5 5 5 5 5 3 5 5 5 5 5 5 5 5 5 5 5 5 5 5 5 5 5 5 5 5 5 5 5 5 5 5 3 3 5 5 5 3 5 3 5 5 5 5 5 5 5 3 5 5 5 5 5 5 5 5 5 5 5 5 5 5 5 5 5 5 3 3 5 3 5 5 5 5 5 3 5 5 3 5 5 5 5 5 5 5 5 5 3 5 5 5 5 5 5 5 3 5 5 3 5 3 5 5 5 3 5 5 3 5 5 5 5 5 5 5 3 5 5 5 5 3 5 5 5 5 3 5 5 3 5 5 5 5 5 5 5 5 5 3 5 5 5 3 5 5 5 5 5 5 5 3 3 5 3 5 5 5 5 5 5 5 5 5 5 5 3 5 5 5 5 5 5 3 5 5 5 5 5 5 3 5 5 5 5 5 5 5 5 5 5 5 5 5 5 5 5 5 5 5 5 5 5 5 5 5 5 5 5 3 5 5 5 5 3 5 5 5 5 5 3 5 5 5 5 5 5 5 3 5 5 5 5 5 5 5 5 5 5 5 5 5 5 5 3 5 5 3 5 5 5 3 5 5 3 5 3 5 5 5 5 5 3 5 5 5 5 3 5 5 3 3 5 5 3 3 3 5 5 5 5 3 5 3 3 5 3 5 5 5 5 5 5 5 5 5 5 3 5 5 5 5 5 5 5 5 3 3 5 3 5 5 5 5 3 5 5 3 5 5 5 5 3 5 3 5 5 3 5 5 5 5 5 5 3 5 5 5 3 3 5 5 5 5 5 5 5 5 5 5 5 5 5 5 5 5 5 3 5 3 5 5 5 5 5 5 5 5 5 5 5 5 5 5 5 3 5 5 3 5 5 5 5 5 5 5 5 3 3 5 5 5 5 5 5 5 5 5 5 5 5 5 5 5 5 5 5 3 5 3 5 5 5 5 3 5 3 5 5 5 5 5 5 5 5 5 3 5 5 5 5 5 5 5 5 5 5 5 5 5 3 5 3 5 3 5 3 5 5 5 5 5 3 5 5 5 5 5 5 3 5 5 5 5 5 5 5 5 3 3 5 5 5 3 5 5 5 5 5 3 5 5 5 3 5 5 5 5 3 5 5 5 5 5 5 5 5 5 5 5 5 5 5 5 5 5 5 5 5 5 5 5 5 5 5 5 3 5 5 5 3 5 5 5 3 5 5 5 5 5 5 3 5 5 5 5 5 5 5 5 3 5 5 5 5 5 5 3 5 5 3 5 5 5 5 5 5 5 5 3 5 3 3 5 5 5 5 5 5 5 5 5 5 5 5 5 5 5 5 5 5 5 5 5 5 5 5 5 3 5 5 5 3 3 5 5 5 5 3 5 3 3 5 5 3 3 
</DataArray>
</Cells>
<PointData Scalars="" Vectors="displacement," Tensors="">
<DataArray type="Float64" Name="displacement" NumberOfComponents="3" format="ascii">
-0.055000504970116444 -0.054996945839937764 0 -0.054650137410435201 -0.050814721836282821 0 -0.05280185639298686 -0.054479690929482794 0 -0.055000504970116444 -0.054996945839937764 0 -0.054650137410435201 -0.050814721836282821 0 -0.05499513805079434 -0.050434301512023591 0 -0.055000504970116444 -0.054996945839937764 0 -0.05280185639298686 -0.054479690929482794 0 -0.049876466318769123 -0.055799654905520739 0 -0.055000504970116444 -0.054996945839937764 0 -0.049876466318769123 -0.055799654905520739 0 -0.045928231002043178 -0.054996971028251053 0 -0.054650137410435201 -0.050814721836282821 0 -0.05499513805079434 -0.050434301512023591 0 -0.053989711917114637 -0.048437613749398339 0 -0.054650137410435201 -0.050814721836282821 0 -0.053258409487489479 -0.049965136325910389 0 -0.053989711917114637 -0.048437613749398339 0 -0.054224470070724978 -0.051037498600864636 0 -0.052586548125013961 -0.051965296603148602 0 -0.054650137410435201 -0.050814721836282821 0 -0.053258409487489479 -0.049965136325910389 0 -0.052623210300726947 -0.049633194193661939 0 -0.051122644358345411 -0.050830012152261246 0 -0.049503973710030041 -0.051163791889131213 0 -0.048529739201143764 -0.052254844063304204 0 -0.053258409487489479 -0.049965136325910389 0 -0.051122644358345411 -0.050830012152261246 0 -0.052623210300726947 -0.049633194193661939 0 -0.051122644358345411 -0.050830012152261246 0 -0.052623210300726947 -0.049633194193661939 0 -0.049503973710030041 -0.051163791889131213 0 -0.052623210300726947 -0.049633194193661939 0 -0.049503973710030041 -0.051163791889131213 0 -0.049692114775975273 -0.049998595802112217 0 -0.052586548125013961 -0.051965296603148602 0 -0.049775844929690671 -0.052919126146282976 0 -0.049876466318769123 -0.055799654905520739 0 -0.045928231002043178 -0.054996971028251053 0 -0.046458457819723069 -0.056149880705937599 0 -0.045928231002043178 -0.054996971028251053 0 -0.046458457819723069 -0.056149880705937599 0 -0.043716950813676068 -0.054673720647757197 0 -0.046563963976028695 -0.053855805786067509 0 -0.04418239688819723 -0.054492022176404288 0 -0.046440387188096288 -0.051460518827511827 0 -0.044924110916714402 -0.053095848991314379 0 -0.047077498464746875 -0.052214573042775492 0 -0.046440387188096288 -0.051460518827511827 0 -0.043716950813676068 -0.054673720647757197 0 -0.044924110916714402 -0.053095848991314379 0 -0.049692114775975273 -0.049998595802112217 0 -0.046440387188096288 -0.051460518827511827 0 -0.047077498464746875 -0.052214573042775492 0 -0.049775844929690671 -0.052919126146282976 0 -0.046563963976028695 -0.053855805786067509 0 -0.045928231002043178 -0.054996971028251053 0 -0.043716950813676068 -0.054673720647757197 0 -0.039293416152586254 -0.054996027134354884 0 -0.043716950813676068 -0.054673720647757197 0 -0.044924110916714402 -0.053095848991314379 0 -0.043625303577832904 -0.054077474818455783 0 -0.043716950813676068 -0.054673720647757197 0 -0.043625303577832904 -0.054077474818455783 0 -0.041426634258483495 -0.055067871508064935 0 -0.043625303577832904 -0.054077474818455783 0 -0.042892702048737727 -0.054821568855222109 0 -0.041426634258483495 -0.055067871508064935 0 -0.043625303577832904 -0.054077474818455783 0 -0.042892702048737727 -0.054821568855222109 0 -0.044803246434295632 -0.053626189412990966 0 -0.044924110916714402 -0.053095848991314379 0 -0.043625303577832904 -0.054077474818455783 0 -0.044803246434295632 -0.053626189412990966 0 -0.042892702048737727 -0.054821568855222109 0 -0.044803246434295632 -0.053626189412990966 0 -0.044697572649383469 -0.054104415113150249 0 -0.044803246434295632 -0.053626189412990966 0 -0.044697572649383469 -0.054104415113150249 0 -0.046305783009723607 -0.053144510668875315 0 -0.044697572649383469 -0.054104415113150249 0 -0.046305783009723607 -0.053144510668875315 0 -0.046350135362002179 -0.053693731491957906 0 -0.042892702048737727 -0.054821568855222109 0 -0.044697572649383469 -0.054104415113150249 0 -0.043489161337602215 -0.054853902447119685 0 -0.044697572649383469 -0.054104415113150249 0 -0.043489161337602215 -0.054853902447119685 0 -0.044557303985878621 -0.054681039989685015 0 -0.049503973710030041 -0.051163791889131213 0 -0.049692114775975273 -0.049998595802112217 0 -0.047077498464746875 -0.052214573042775492 0 -0.044924110916714402 -0.053095848991314379 0 -0.044803246434295632 -0.053626189412990966 0 -0.047077498464746875 -0.052214573042775492 0 -0.044803246434295632 -0.053626189412990966 0 -0.047077498464746875 -0.052214573042775492 0 -0.046305783009723607 -0.053144510668875315 0 -0.047077498464746875 -0.052214573042775492 0 -0.046305783009723607 -0.053144510668875315 0 -0.048529739201143764 -0.052254844063304204 0 -0.046305783009723607 -0.053144510668875315 0 -0.048529739201143764 -0.052254844063304204 0 -0.046350135362002179 -0.053693731491957906 0 -0.049503973710030041 -0.051163791889131213 0 -0.047077498464746875 -0.052214573042775492 0 -0.048529739201143764 -0.052254844063304204 0 -0.048529739201143764 -0.052254844063304204 0 -0.048517177231927576 -0.052924648604657905 0 -0.050519158470955235 -0.051396086371328815 0 -0.046350135362002179 -0.053693731491957906 0 -0.048517177231927576 -0.052924648604657905 0 -0.045751512697510537 -0.054725171823665958 0 -0.048529739201143764 -0.052254844063304204 0 -0.046350135362002179 -0.053693731491957906 0 -0.048517177231927576 -0.052924648604657905 0 -0.047284992220206136 -0.054654626753754557 0 -0.048517177231927576 -0.052924648604657905 0 -0.045751512697510537 -0.054725171823665958 0 -0.047284992220206136 -0.054654626753754557 0 -0.048517177231927576 -0.052924648604657905 0 -0.050549662606456346 -0.051361362168059803 0 -0.048517177231927576 -0.052924648604657905 0 -0.050549662606456346 -0.051361362168059803 0 -0.050519158470955235 -0.051396086371328815 0 -0.043282787537231998 -0.055298801610530794 0 -0.043975483677822939 -0.055496126730183941 0 -0.042799841015207264 -0.055773894205632162 0 -0.043489161337602215 -0.054853902447119685 0 -0.043282787537231998 -0.055298801610530794 0 -0.044557303985878621 -0.054681039989685015 0 -0.043282787537231998 -0.055298801610530794 0 -0.044557303985878621 -0.054681039989685015 0 -0.043975483677822939 -0.055496126730183941 0 -0.044557303985878621 -0.054681039989685015 0 -0.045751512697510537 -0.054725171823665958 0 -0.043975483677822939 -0.055496126730183941 0 -0.046350135362002179 -0.053693731491957906 0 -0.044557303985878621 -0.054681039989685015 0 -0.045751512697510537 -0.054725171823665958 0 -0.044697572649383469 -0.054104415113150249 0 -0.046350135362002179 -0.053693731491957906 0 -0.044557303985878621 -0.054681039989685015 0 -0.047284992220206136 -0.054654626753754557 0 -0.045751512697510537 -0.054725171823665958 0 -0.044080952923487973 -0.055935133258747258 0 -0.051425325642750305 -0.053879680307128093 0 -0.04832863340099252 -0.048703204275986497 0 -0.045751512697510537 -0.054725171823665958 0 -0.043975483677822939 -0.055496126730183941 0 -0.044080952923487973 -0.055935133258747258 0 -0.046136115139334112 -0.055599717465733202 0 -0.04832863340099252 -0.048703204275986497 0 -0.043975483677822939 -0.055496126730183941 0 -0.04378753120413819 -0.056297921958697997 0 -0.042799841015207264 -0.055773894205632162 0 -0.058596604006831948 -0.052598696715831582 0 -0.056526782636776948 -0.050073264886152623 0 -0.058906737316766766 -0.049027965828663027 0 -0.048240214331346856 -0.03643004329739629 0 -0.048218106784940568 -0.035543516977496137 0 -0.049104936717707326 -0.035910051962899786 0 -0.04832863340099252 -0.048703204275986497 0 -0.053965054866402948 -0.041307242473479798 0 -0.054188176391790695 -0.051699520454633989 0 -0.058596604006831948 -0.052598696715831582 0 -0.056526782636776948 -0.050073264886152623 0 -0.054188176391790695 -0.051699520454633989 0 -0.056526782636776948 -0.050073264886152623 0 -0.054783398845990407 -0.049416388821293171 0 -0.056526782636776948 -0.050073264886152623 0 -0.056250312795504041 -0.047348144823908561 0 -0.058906737316766766 -0.049027965828663027 0 -0.056526782636776948 -0.050073264886152623 0 -0.056250312795504041 -0.047348144823908561 0 -0.054783398845990407 -0.049416388821293171 0 -0.056250312795504041 -0.047348144823908561 0 -0.053884800156554676 -0.047491239619885946 0 -0.054838096214138876 -0.045682392438357304 0 -0.056250312795504041 -0.047348144823908561 0 -0.058906737316766766 -0.049027965828663027 0 -0.059381722555003777 -0.044878266516251132 0 -0.048218106784940568 -0.035543516977496137 0 -0.048838339854332925 -0.034694641511789574 0 -0.048288399083499724 -0.034536513732517461 0 -0.053965054866402948 -0.041307242473479798 0 -0.053678948213058686 -0.040262497688289905 0 -0.05279839946987569 -0.049468020307913245 0 -0.051377912822965159 -0.04948241339337911 0 -0.050549662606456346 -0.051361362168059803 0 -0.054188176391790695 -0.051699520454633989 0 -0.05279839946987569 -0.049468020307913245 0 -0.050549662606456346 -0.051361362168059803 0 -0.051425325642750305 -0.053879680307128093 0 -0.049943046112421209 -0.051379050760485767 0 -0.054188176391790695 -0.051699520454633989 0 -0.05279839946987569 -0.049468020307913245 0 -0.054783398845990407 -0.049416388821293171 0 -0.05279839946987569 -0.049468020307913245 0 -0.054783398845990407 -0.049416388821293171 0 -0.053884800156554676 -0.047491239619885946 0 -0.05279839946987569 -0.049468020307913245 0 -0.053884800156554676 -0.047491239619885946 0 -0.052128896609679704 -0.046900648591412276 0 -0.056250312795504041 -0.047348144823908561 0 -0.054783398845990407 -0.049416388821293171 0 -0.053884800156554676 -0.047491239619885946 0 -0.053884800156554676 -0.047491239619885946 0 -0.052128896609679704 -0.046900648591412276 0 -0.052574889199805207 -0.045658062476793229 0 -0.052128896609679704 -0.046900648591412276 0 -0.051377912822965159 -0.04948241339337911 0 -0.050561193333281775 -0.050189443376334589 0 -0.05279839946987569 -0.049468020307913245 0 -0.052128896609679704 -0.046900648591412276 0 -0.051377912822965159 -0.04948241339337911 0 -0.052282782859183988 -0.046976838910910174 0 -0.051426922778362721 -0.047560565409787682 0 -0.052128896609679704 -0.046900648591412276 0 -0.051863949692119056 -0.04528935848526594 0 -0.051872211104186168 -0.045819846611229634 0 -0.051377912822965159 -0.04948241339337911 0 -0.050561193333281775 -0.050189443376334589 0 -0.050549662606456346 -0.051361362168059803 0 -0.050561193333281775 -0.050189443376334589 0 -0.050549662606456346 -0.051361362168059803 0 -0.051619155656447833 -0.050144331130388992 0 -0.050561193333281775 -0.050189443376334589 0 -0.05292045050192859 -0.048929753272415166 0 -0.051619155656447833 -0.050144331130388992 0 -0.051426922778362721 -0.047560565409787682 0 -0.052999376749849836 -0.046446811668750691 0 -0.051863949692119056 -0.04528935848526594 0 -0.052885172949705246 -0.044903518179712353 0 -0.053505085694337873 -0.044009239533731148 0 -0.051863949692119056 -0.04528935848526594 0 -0.052885172949705246 -0.044903518179712353 0 -0.052556362370780686 -0.045330094255005851 0 -0.051863949692119056 -0.04528935848526594 0 -0.052556362370780686 -0.045330094255005851 0 -0.052048202403410133 -0.045634378995327102 0 -0.052885172949705246 -0.044903518179712353 0 -0.052556362370780686 -0.045330094255005851 0 -0.053785989605271166 -0.045130052829729414 0 -0.052885172949705246 -0.044903518179712353 0 -0.053785989605271166 -0.045130052829729414 0 -0.053505085694337873 -0.044009239533731148 0 -0.055114037932114987 -0.043207498394746434 0 -0.054999904838068395 -0.043436243669900981 0 -0.056616702767498174 -0.041295460966902127 0 -0.056103775800138783 -0.041108400249514759 0 -0.055000039019085484 -0.043435660483914465 0 -0.053785989605271166 -0.045130052829729414 0 -0.054998884614445749 -0.043443533238230643 0 -0.053505085694337873 -0.044009239533731148 0 -0.056103775800138783 -0.041108400249514759 0 -0.055000039019085484 -0.043435660483914465 0 -0.054999625851166863 -0.040493060351254655 0 -0.054998974393142989 -0.044121026763718769 0 -0.052999376749849836 -0.046446811668750691 0 -0.055000748721742682 -0.044113082727593629 0 -0.054998884614445749 -0.043443533238230643 0 -0.053505085694337873 -0.044009239533731148 0 -0.05292045050192859 -0.048929753272415166 0 -0.053989711917114637 -0.048437613749398339 0 -0.051619155656447833 -0.050144331130388992 0 -0.05499513805079434 -0.050434301512023591 0 -0.054996479753584147 -0.044135590413495782 0 -0.053989711917114637 -0.048437613749398339 0 -0.054996479753584147 -0.044135590413495782 0 -0.05292045050192859 -0.048929753272415166 0 -0.053989711917114637 -0.048437613749398339 0 -0.053258409487489479 -0.049965136325910389 0 -0.053989711917114637 -0.048437613749398339 0 -0.052281516768405693 -0.050007941479303444 0 -0.051122644358345411 -0.050830012152261246 0 -0.052281516768405693 -0.050007941479303444 0 -0.050519158470955235 -0.051396086371328815 0 -0.053258409487489479 -0.049965136325910389 0 -0.051122644358345411 -0.050830012152261246 0 -0.052281516768405693 -0.050007941479303444 0 -0.051122644358345411 -0.050830012152261246 0 -0.048529739201143764 -0.052254844063304204 0 -0.050519158470955235 -0.051396086371328815 0 -0.050549662606456346 -0.051361362168059803 0 -0.050519158470955235 -0.051396086371328815 0 -0.051619155656447833 -0.050144331130388992 0 -0.052281516768405693 -0.050007941479303444 0 -0.050519158470955235 -0.051396086371328815 0 -0.051619155656447833 -0.050144331130388992 0 -0.053989711917114637 -0.048437613749398339 0 -0.052281516768405693 -0.050007941479303444 0 -0.051619155656447833 -0.050144331130388992 0 -0.032010829343528079 -0.057503421243800132 0 -0.031859451650389344 -0.05767293018304237 0 -0.031993853222672591 -0.057702104248586739 0 -0.032010829343528079 -0.057503421243800132 0 -0.031859451650389344 -0.05767293018304237 0 -0.031722100972885102 -0.057499027787649461 0 -0.031859451650389344 -0.05767293018304237 0 -0.031666182950752117 -0.057734494075801161 0 -0.031722100972885102 -0.057499027787649461 0 -0.031666182950752117 -0.057734494075801161 0 -0.031548404147378452 -0.057734898503309783 0 -0.031722100972885102 -0.057499027787649461 0 -0.031859451650389344 -0.05767293018304237 0 -0.031666182950752117 -0.057734494075801161 0 -0.031869773544653382 -0.057835707671842547 0 -0.029088922625182648 -0.058208641587005082 0 -0.029260486385991109 -0.057129075157102874 0 -0.031238847154210481 -0.057520770475480244 0 -0.030745877010729474 -0.058072663065656956 0 -0.031084449827970845 -0.057897370699919383 0 -0.031666182950752117 -0.057734494075801161 0 -0.031869773544653382 -0.057835707671842547 0 -0.031316476197616072 -0.057903596128555126 0 -0.031859451650389344 -0.05767293018304237 0 -0.031869773544653382 -0.057835707671842547 0 -0.031993853222672591 -0.057702104248586739 0 -0.028489159326468481 -0.056356053187696153 0 -0.029241579578962021 -0.057679197396044712 0 -0.026603579960690536 -0.056596041283346464 0 -0.027713696258985621 -0.057487194862068672 0 -0.029260486385991109 -0.057129075157102874 0 -0.026603579960690536 -0.056596041283346464 0 -0.028777831712234237 -0.057520510739515335 0 -0.026961428143843578 -0.056627298856350934 0 -0.029088922625182648 -0.058208641587005082 0 -0.027713696258985621 -0.057487194862068672 0 -0.029260486385991109 -0.057129075157102874 0 -0.028489159326468481 -0.056356053187696153 0 -0.029678070822126579 -0.056172596965242301 0 -0.029241579578962021 -0.057679197396044712 0 -0.028489159326468481 -0.056356053187696153 0 -0.028383645936999713 -0.054999972686183209 0 -0.026603579960690536 -0.056596041283346464 0 -0.028489159326468481 -0.056356053187696153 0 -0.028383645936999713 -0.054999972686183209 0 -0.029678070822126579 -0.056172596965242301 0 -0.030889074654801979 -0.054999930612476947 0 -0.029678070822126579 -0.056172596965242301 0 -0.031373438677149111 -0.056826379893248916 0 -0.028383645936999713 -0.054999972686183209 0 -0.030889074654801979 -0.054999930612476947 0 -0.029678070822126579 -0.056172596965242301 0 -0.028777831712234237 -0.057520510739515335 0 -0.033903325112466222 -0.056566545810612927 0 -0.029241579578962021 -0.057679197396044712 0 -0.031373438677149111 -0.056826379893248916 0 -0.031900089110733866 -0.058666343602069786 0 -0.029678070822126579 -0.056172596965242301 0 -0.029241579578962021 -0.057679197396044712 0 -0.031373438677149111 -0.056826379893248916 0 -0.031980456735941853 -0.056132330104217441 0 -0.034789153826150394 -0.056135372505919379 0 -0.032805995537688794 -0.057513454457930553 0 -0.03166541317626545 -0.056619473164103352 0 -0.033903325112466222 -0.056566545810612927 0 -0.030892006588663128 -0.054999339786510296 0 -0.031980456735941853 -0.056132330104217441 0 -0.034789153826150394 -0.056135372505919379 0 -0.030889426898423306 -0.055000076888886106 0 -0.03166541317626545 -0.056619473164103352 0 -0.039267771007353076 -0.054539901829864811 0 -0.03952566137266561 -0.055269315394405542 0 -0.040288608225677952 -0.054905596727874713 0 -0.033903325112466222 -0.056566545810612927 0 -0.038315562927985554 -0.056322536899336272 0 -0.034789153826150394 -0.056135372505919379 0 -0.032805995537688794 -0.057513454457930553 0 -0.035586256165463265 -0.057802614807343874 0 -0.031238847154210481 -0.057520770475480244 0 -0.031316476197616072 -0.057903596128555126 0 -0.031391312628698625 -0.057937963552330135 0 -0.033903325112466222 -0.056566545810612927 0 -0.035601351855388159 -0.057870219833575237 0 -0.029088922625182648 -0.058208641587005082 0 -0.031238847154210481 -0.057520770475480244 0 -0.031316476197616072 -0.057903596128555126 0 -0.031316476197616072 -0.057903596128555126 0 -0.031391312628698625 -0.057937963552330135 0 -0.031548404147378452 -0.057734898503309783 0 -0.031391312628698625 -0.057937963552330135 0 -0.031548404147378452 -0.057734898503309783 0 -0.031372681312646741 -0.057416176113246779 0 -0.031666182950752117 -0.057734494075801161 0 -0.031316476197616072 -0.057903596128555126 0 -0.031548404147378452 -0.057734898503309783 0 -0.03952566137266561 -0.055269315394405542 0 -0.039998684205137573 -0.055433013563881944 0 -0.03977548360687725 -0.055932218189094038 0 -0.03952566137266561 -0.055269315394405542 0 -0.039998684205137573 -0.055433013563881944 0 -0.040288608225677952 -0.054905596727874713 0 -0.030892006588663128 -0.054999339786510296 0 -0.034789153826150394 -0.056135372505919379 0 -0.039293416152586254 -0.054996027134354884 0 -0.039800109438861267 -0.056275576648406885 0 -0.038315562927985554 -0.056322536899336272 0 -0.0404155514182871 -0.055601018502904762 0 -0.041226738334625278 -0.055338401842389195 0 -0.040288608225677952 -0.054905596727874713 0 -0.039998684205137573 -0.055433013563881944 0 -0.0404155514182871 -0.055601018502904762 0 -0.040288608225677952 -0.054905596727874713 0 -0.03868652863201124 -0.0574478042554456 0 -0.038520410086939613 -0.056057795007574136 0 -0.035586256165463265 -0.057802614807343874 0 -0.034789153826150394 -0.056135372505919379 0 -0.038520410086939613 -0.056057795007574136 0 -0.035586256165463265 -0.057802614807343874 0 -0.034789153826150394 -0.056135372505919379 0 -0.038520410086939613 -0.056057795007574136 0 -0.039293416152586254 -0.054996027134354884 0 -0.038520410086939613 -0.056057795007574136 0 -0.039293416152586254 -0.054996027134354884 0 -0.041426634258483495 -0.055067871508064935 0 -0.043716950813676068 -0.054673720647757197 0 -0.039293416152586254 -0.054996027134354884 0 -0.041426634258483495 -0.055067871508064935 0 -0.042892702048737727 -0.054821568855222109 0 -0.041426634258483495 -0.055067871508064935 0 -0.040829085943136945 -0.055840201496625774 0 -0.03868652863201124 -0.0574478042554456 0 -0.038520410086939613 -0.056057795007574136 0 -0.040829085943136945 -0.055840201496625774 0 -0.038520410086939613 -0.056057795007574136 0 -0.041426634258483495 -0.055067871508064935 0 -0.040829085943136945 -0.055840201496625774 0 -0.03868652863201124 -0.0574478042554456 0 -0.040829085943136945 -0.055840201496625774 0 -0.041866168630818469 -0.055848247602340632 0 -0.041226738334625278 -0.055338401842389195 0 -0.041866168630818469 -0.055848247602340632 0 -0.041425086144912637 -0.055891831969150749 0 -0.039800109438861267 -0.056275576648406885 0 -0.041593393316834246 -0.055991552512770909 0 -0.042892702048737727 -0.054821568855222109 0 -0.043489161337602215 -0.054853902447119685 0 -0.041866168630818469 -0.055848247602340632 0 -0.042892702048737727 -0.054821568855222109 0 -0.040829085943136945 -0.055840201496625774 0 -0.041866168630818469 -0.055848247602340632 0 -0.041866168630818469 -0.055848247602340632 0 -0.042799841015207264 -0.055773894205632162 0 -0.041828513469245106 -0.056196382361723425 0 -0.043282787537231998 -0.055298801610530794 0 -0.041866168630818469 -0.055848247602340632 0 -0.042799841015207264 -0.055773894205632162 0 -0.043489161337602215 -0.054853902447119685 0 -0.043282787537231998 -0.055298801610530794 0 -0.041866168630818469 -0.055848247602340632 0 -0.041866168630818469 -0.055848247602340632 0 -0.041425086144912637 -0.055891831969150749 0 -0.041828513469245106 -0.056196382361723425 0 -0.049068872600408084 -0.036410388843330546 0 -0.049104936717707326 -0.035910051962899786 0 -0.048670043130590118 -0.036798131059072231 0 -0.04832863340099252 -0.048703204275986497 0 -0.044773867909597379 -0.045957850065203455 0 -0.048240214331346856 -0.03643004329739629 0 -0.049068872600408084 -0.036410388843330546 0 -0.049104936717707326 -0.035910051962899786 0 -0.04378753120413819 -0.056297921958697997 0 -0.042799841015207264 -0.055773894205632162 0 -0.041828513469245106 -0.056196382361723425 0 -0.048218106784940568 -0.035543516977496137 0 -0.049104936717707326 -0.035910051962899786 0 -0.048955316096621591 -0.035274406736323823 0 -0.048218106784940568 -0.035543516977496137 0 -0.048955316096621591 -0.035274406736323823 0 -0.048838339854332925 -0.034694641511789574 0 -0.048955316096621591 -0.035274406736323823 0 -0.049484947806181651 -0.03480147718157349 0 -0.048838339854332925 -0.034694641511789574 0 -0.049484947806181651 -0.03480147718157349 0 -0.049546075461113129 -0.035316095729167808 0 -0.049959932948756537 -0.03517349306733851 0 -0.048955316096621591 -0.035274406736323823 0 -0.049484947806181651 -0.03480147718157349 0 -0.049546075461113129 -0.035316095729167808 0 -0.049104936717707326 -0.035910051962899786 0 -0.049546075461113129 -0.035316095729167808 0 -0.050063257106359713 -0.035372125689613239 0 -0.049049906011974793 -0.03591106748032797 0 -0.049260132081632893 -0.036063555246799196 0 -0.049104936717707326 -0.035910051962899786 0 -0.048955316096621591 -0.035274406736323823 0 -0.049546075461113129 -0.035316095729167808 0 -0.049546075461113129 -0.035316095729167808 0 -0.050063257106359713 -0.035372125689613239 0 -0.049959932948756537 -0.03517349306733851 0 -0.050063257106359713 -0.035372125689613239 0 -0.049959932948756537 -0.03517349306733851 0 -0.050146749042568273 -0.035012300586063257 0 -0.049484947806181651 -0.03480147718157349 0 -0.049959932948756537 -0.03517349306733851 0 -0.05009172793294582 -0.03444887318954909 0 -0.049959932948756537 -0.03517349306733851 0 -0.050799345093737097 -0.034452512900861064 0 -0.05009172793294582 -0.03444887318954909 0 -0.050146749042568273 -0.035012300586063257 0 -0.050346490965163714 -0.034863252827028755 0 -0.05014229768074787 -0.034427568315779963 0 -0.049994127728687769 -0.035100970862468425 0 -0.050470313583532038 -0.034438466627692614 0 -0.049959932948756537 -0.03517349306733851 0 -0.050146749042568273 -0.035012300586063257 0 -0.05014229768074787 -0.034427568315779963 0 -0.050146749042568273 -0.035012300586063257 0 -0.050243084535471216 -0.035117704658588537 0 -0.050346490965163714 -0.034863252827028755 0 -0.050063257106359713 -0.035372125689613239 0 -0.050146749042568273 -0.035012300586063257 0 -0.050243084535471216 -0.035117704658588537 0 -0.050063257106359713 -0.035372125689613239 0 -0.050243084535471216 -0.035117704658588537 0 -0.050387738558480735 -0.035081938065973726 0 -0.0484256133453939 -0.036396934651468482 0 -0.046950396160216699 -0.037031937021124832 0 -0.047137386867453154 -0.037166030535746235 0 -0.049260132081632893 -0.036063555246799196 0 -0.048789944094151001 -0.036123789843044825 0 -0.048670043130590118 -0.036798131059072231 0 -0.0484256133453939 -0.036396934651468482 0 -0.047137386867453154 -0.037166030535746235 0 -0.044773867909597379 -0.045957850065203455 0 -0.045249956369073446 -0.046149248298772372 0 -0.049068872600408084 -0.036410388843330546 0 -0.048670043130590118 -0.036798131059072231 0 -0.0484256133453939 -0.036396934651468482 0 -0.0404155514182871 -0.055601018502904762 0 -0.041226738334625278 -0.055338401842389195 0 -0.040891801501386368 -0.056123386788237743 0 -0.041425086144912637 -0.055891831969150749 0 -0.041828513469245106 -0.056196382361723425 0 -0.040891801501386368 -0.056123386788237743 0 -0.041226738334625278 -0.055338401842389195 0 -0.041425086144912637 -0.055891831969150749 0 -0.040891801501386368 -0.056123386788237743 0 -0.0404155514182871 -0.055601018502904762 0 -0.040891801501386368 -0.056123386788237743 0 -0.03977548360687725 -0.055932218189094038 0 -0.045249956369073446 -0.046149248298772372 0 -0.041038118433475594 -0.047649074527083821 0 -0.039998684205137573 -0.055433013563881944 0 -0.0404155514182871 -0.055601018502904762 0 -0.03977548360687725 -0.055932218189094038 0 -0.035601351855388159 -0.057870219833575237 0 -0.041038118433475594 -0.047649074527083821 0 -0.0484256133453939 -0.036396934651468482 0 -0.04671506508136488 -0.036344531829179079 0 -0.046950396160216699 -0.037031937021124832 0 -0.041038118433475594 -0.047649074527083821 0 -0.044557078744621836 -0.035436716727154351 0 -0.041038118433475594 -0.047649074527083821 0 -0.037890036483689493 -0.046765109221081319 0 -0.031548404147378452 -0.057734898503309783 0 -0.031372681312646741 -0.057416176113246779 0 -0.031722100972885102 -0.057499027787649461 0 -0.046638964022582483 -0.036425536155955181 0 -0.045212109118830203 -0.037135786150263791 0 -0.044870395990275903 -0.036309496097429485 0 -0.048789944094151001 -0.036123789843044825 0 -0.047677127008594146 -0.036007948927950444 0 -0.046638964022582483 -0.036425536155955181 0 -0.046950396160216699 -0.037031937021124832 0 -0.045212109118830203 -0.037135786150263791 0 -0.050627186627773872 -0.034955778368373977 0 -0.050387738558480735 -0.035081938065973726 0 -0.050743446777369729 -0.034998078391257695 0 -0.050627186627773872 -0.034955778368373977 0 -0.050805873537440913 -0.034831926299606686 0 -0.050743446777369729 -0.034998078391257695 0 -0.050627186627773872 -0.034955778368373977 0 -0.050642103756525822 -0.034852328379822897 0 -0.050805873537440913 -0.034831926299606686 0 -0.050627186627773872 -0.034955778368373977 0 -0.050516690138945816 -0.034979272161526534 0 -0.050642103756525822 -0.034852328379822897 0 -0.050516690138945816 -0.034979272161526534 0 -0.050434617193739539 -0.035004008955596591 0 -0.050387738558480735 -0.035081938065973726 0 -0.046950396160216699 -0.037031937021124832 0 -0.047137386867453154 -0.037166030535746235 0 -0.045212109118830203 -0.037135786150263791 0 -0.050627186627773872 -0.034955778368373977 0 -0.050516690138945816 -0.034979272161526534 0 -0.050387738558480735 -0.035081938065973726 0 -0.050243084535471216 -0.035117704658588537 0 -0.050387738558480735 -0.035081938065973726 0 -0.050368890920159122 -0.035021787535359977 0 -0.050434617193739539 -0.035004008955596591 0 -0.050387738558480735 -0.035081938065973726 0 -0.050368890920159122 -0.035021787535359977 0 -0.050243084535471216 -0.035117704658588537 0 -0.050368890920159122 -0.035021787535359977 0 -0.050346490965163714 -0.034863252827028755 0 -0.050368890920159122 -0.035021787535359977 0 -0.050472474498123449 -0.034925402903985672 0 -0.050346490965163714 -0.034863252827028755 0 -0.050472474498123449 -0.034925402903985672 0 -0.050346490965163714 -0.034863252827028755 0 -0.050593796856707403 -0.034713751507053116 0 -0.050516690138945816 -0.034979272161526534 0 -0.050434617193739539 -0.035004008955596591 0 -0.050472474498123449 -0.034925402903985672 0 -0.050434617193739539 -0.035004008955596591 0 -0.050368890920159122 -0.035021787535359977 0 -0.050472474498123449 -0.034925402903985672 0 -0.050346490965163714 -0.034863252827028755 0 -0.050502133890268412 -0.034449864324213167 0 -0.050593796856707403 -0.034713751507053116 0 -0.050346490965163714 -0.034863252827028755 0 -0.050502133890268412 -0.034449864324213167 0 -0.05014229768074787 -0.034427568315779963 0 -0.05073322504133717 -0.034509818944213344 0 -0.050593796856707403 -0.034713751507053116 0 -0.05081927483450565 -0.034649661076132404 0 -0.050502133890268412 -0.034449864324213167 0 -0.05073322504133717 -0.034509818944213344 0 -0.050795443871073168 -0.034177309717625101 0 -0.050502133890268412 -0.034449864324213167 0 -0.05073322504133717 -0.034509818944213344 0 -0.050593796856707403 -0.034713751507053116 0 -0.050593796856707403 -0.034713751507053116 0 -0.050642103756525822 -0.034852328379822897 0 -0.05081927483450565 -0.034649661076132404 0 -0.050472474498123449 -0.034925402903985672 0 -0.050593796856707403 -0.034713751507053116 0 -0.050642103756525822 -0.034852328379822897 0 -0.050516690138945816 -0.034979272161526534 0 -0.050472474498123449 -0.034925402903985672 0 -0.050642103756525822 -0.034852328379822897 0 -0.050642103756525822 -0.034852328379822897 0 -0.05081927483450565 -0.034649661076132404 0 -0.050805873537440913 -0.034831926299606686 0 -0.05081927483450565 -0.034649661076132404 0 -0.0509663528058324 -0.034412317161488438 0 -0.051005261080004714 -0.034645436614254739 0 -0.05081927483450565 -0.034649661076132404 0 -0.051005261080004714 -0.034645436614254739 0 -0.050805873537440913 -0.034831926299606686 0 -0.051005261080004714 -0.034645436614254739 0 -0.050938365617020996 -0.034851289171847481 0 -0.050805873537440913 -0.034831926299606686 0 -0.05073322504133717 -0.034509818944213344 0 -0.0509663528058324 -0.034412317161488438 0 -0.050795443871073168 -0.034177309717625101 0 -0.05073322504133717 -0.034509818944213344 0 -0.05081927483450565 -0.034649661076132404 0 -0.0509663528058324 -0.034412317161488438 0 -0.0509663528058324 -0.034412317161488438 0 -0.051182347806830439 -0.034309211076690958 0 -0.051005261080004714 -0.034645436614254739 0 -0.0509663528058324 -0.034412317161488438 0 -0.051182347806830439 -0.034309211076690958 0 -0.051060151148327758 -0.034046371768450732 0 -0.051005261080004714 -0.034645436614254739 0 -0.051093502813014134 -0.034799005732096662 0 -0.051187000341933929 -0.034583438862277369 0 -0.051182347806830439 -0.034309211076690958 0 -0.051005261080004714 -0.034645436614254739 0 -0.051187000341933929 -0.034583438862277369 0 -0.050938365617020996 -0.034851289171847481 0 -0.05102209392769113 -0.034955852121458568 0 -0.051093502813014134 -0.034799005732096662 0 -0.051005261080004714 -0.034645436614254739 0 -0.050938365617020996 -0.034851289171847481 0 -0.051093502813014134 -0.034799005732096662 0 -0.050938365617020996 -0.034851289171847481 0 -0.050743446777369729 -0.034998078391257695 0 -0.05102209392769113 -0.034955852121458568 0 -0.050938365617020996 -0.034851289171847481 0 -0.050805873537440913 -0.034831926299606686 0 -0.050743446777369729 -0.034998078391257695 0 -0.047677127008594146 -0.036007948927950444 0 -0.048365611585748453 -0.036036152225303854 0 -0.045212109118830203 -0.037135786150263791 0 -0.044870395990275903 -0.036309496097429485 0 -0.043217370966841501 -0.0368791723392193 0 -0.03746001459823016 -0.047014953709628375 0 -0.037890036483689493 -0.046765109221081319 0 -0.043023682528808165 -0.036144666068549922 0 -0.044870395990275903 -0.036309496097429485 0 -0.043217370966841501 -0.0368791723392193 0 -0.037249208037669138 -0.018141457415250108 0 -0.036819074254047672 -0.017820473740929654 0 -0.03769513341227302 -0.018045698597692929 0 -0.037249208037669138 -0.018141457415250108 0 -0.037129085161553464 -0.018054310016572608 0 -0.037263838346224161 -0.018377240119292891 0 -0.037249208037669138 -0.018141457415250108 0 -0.037263838346224161 -0.018377240119292891 0 -0.037576826664833848 -0.018440905313534154 0 -0.037249208037669138 -0.018141457415250108 0 -0.037129085161553464 -0.018054310016572608 0 -0.036819074254047672 -0.017820473740929654 0 -0.042957513116337352 -0.021736197946994475 0 -0.044756503051736535 -0.02403573680323225 0 -0.042524597420335479 -0.021744199168931722 0 -0.037129085161553464 -0.018054310016572608 0 -0.037212870568985403 -0.017895831147458467 0 -0.036819074254047672 -0.017820473740929654 0 -0.037354754080130163 -0.017745155608250213 0 -0.037129085161553464 -0.018054310016572608 0 -0.037212870568985403 -0.017895831147458467 0 -0.037354754080130163 -0.017745155608250213 0 -0.037129085161553464 -0.018054310016572608 0 -0.037031111856037614 -0.018595397112253775 0 -0.039251445914906459 -0.018738329115281317 0 -0.045351522621385906 -0.02646435429206441 0 -0.037354754080130163 -0.017745155608250213 0 -0.037545382599584322 -0.017971191493387977 0 -0.037212870568985403 -0.017895831147458467 0 -0.045351522621385906 -0.02646435429206441 0 -0.047503501581515048 -0.027773394822793514 0 -0.051194614613166066 -0.033156430149683253 0 -0.051201236085954768 -0.033298329834104863 0 -0.051344734300926204 -0.032849957767124044 0 -0.051194614613166066 -0.033156430149683253 0 -0.051201236085954768 -0.033298329834104863 0 -0.051158107311211974 -0.033464649289150057 0 -0.037031111856037614 -0.018595397112253775 0 -0.037431244227275492 -0.018760069241589933 0 -0.037573433650473262 -0.019614017433376523 0 -0.051201972173339341 -0.033439862967204623 0 -0.051163799000960922 -0.033268803697596258 0 -0.051292494332496878 -0.033717920178069405 0 -0.051201972173339341 -0.033439862967204623 0 -0.051201236085954768 -0.033298329834104863 0 -0.051158107311211974 -0.033464649289150057 0 -0.051000792510954178 -0.032823090248276933 0 -0.045351522621385906 -0.02646435429206441 0 -0.037031111856037614 -0.018595397112253775 0 -0.037263838346224161 -0.018377240119292891 0 -0.037431244227275492 -0.018760069241589933 0 -0.037129085161553464 -0.018054310016572608 0 -0.037031111856037614 -0.018595397112253775 0 -0.037263838346224161 -0.018377240119292891 0 -0.037263838346224161 -0.018377240119292891 0 -0.037431244227275492 -0.018760069241589933 0 -0.037576826664833848 -0.018440905313534154 0 -0.051201972173339341 -0.033439862967204623 0 -0.051167245320170696 -0.033736747845158184 0 -0.051292494332496878 -0.033717920178069405 0 -0.045351522621385906 -0.02646435429206441 0 -0.045267716261520152 -0.026609654787077254 0 -0.051201972173339341 -0.033439862967204623 0 -0.051167245320170696 -0.033736747845158184 0 -0.051158107311211974 -0.033464649289150057 0 -0.051167245320170696 -0.033736747845158184 0 -0.051232591386846806 -0.034000959384028431 0 -0.051292494332496878 -0.033717920178069405 0 -0.051182347806830439 -0.034309211076690958 0 -0.051232591386846806 -0.034000959384028431 0 -0.051060151148327758 -0.034046371768450732 0 -0.051167245320170696 -0.033736747845158184 0 -0.051232591386846806 -0.034000959384028431 0 -0.051060151148327758 -0.034046371768450732 0 -0.051060151148327758 -0.034046371768450732 0 -0.051013223837748721 -0.033740608050253043 0 -0.050795443871073168 -0.034177309717625101 0 -0.0509663528058324 -0.034412317161488438 0 -0.051060151148327758 -0.034046371768450732 0 -0.050795443871073168 -0.034177309717625101 0 -0.051194614613166066 -0.033156430149683253 0 -0.051013223837748721 -0.033740608050253043 0 -0.051158107311211974 -0.033464649289150057 0 -0.051167245320170696 -0.033736747845158184 0 -0.051060151148327758 -0.034046371768450732 0 -0.051013223837748721 -0.033740608050253043 0 -0.051167245320170696 -0.033736747845158184 0 -0.051013223837748721 -0.033740608050253043 0 -0.051158107311211974 -0.033464649289150057 0 -0.051194614613166066 -0.033156430149683253 0 -0.051013223837748721 -0.033740608050253043 0 -0.050460077471919412 -0.033822312320801406 0 -0.051013223837748721 -0.033740608050253043 0 -0.050795443871073168 -0.034177309717625101 0 -0.050460077471919412 -0.033822312320801406 0 -0.051178696962894059 -0.033217387576880565 0 -0.05090817539448652 -0.033699142921865655 0 -0.050502133890268412 -0.034449864324213167 0 -0.050795443871073168 -0.034177309717625101 0 -0.050460077471919412 -0.033822312320801406 0 -0.050502133890268412 -0.034449864324213167 0 -0.050460077471919412 -0.033822312320801406 0 -0.05014229768074787 -0.034427568315779963 0 -0.05090817539448652 -0.033699142921865655 0 -0.050470313583532038 -0.034438466627692614 0 -0.051373534839291975 -0.033561260784001345 0 -0.051152217243086967 -0.032907741414634359 0 -0.050846341710502785 -0.033210593054726144 0 -0.051373534839291975 -0.033561260784001345 0 -0.051152217243086967 -0.032907741414634359 0 -0.051297821964772561 -0.033037142965223767 0 -0.051194614613166066 -0.033156430149683253 0 -0.051373534839291975 -0.033561260784001345 0 -0.051297821964772561 -0.033037142965223767 0 -0.051194614613166066 -0.033156430149683253 0 -0.051297821964772561 -0.033037142965223767 0 -0.051344734300926204 -0.032849957767124044 0 -0.051297821964772561 -0.033037142965223767 0 -0.051344734300926204 -0.032849957767124044 0 -0.051326805658327958 -0.032624547275783573 0 -0.042957513116337352 -0.021736197946994475 0 -0.042524597420335479 -0.021744199168931722 0 -0.041446671348088021 -0.019942748982045368 0 -0.051344734300926204 -0.032849957767124044 0 -0.051326805658327958 -0.032624547275783573 0 -0.051397964402316566 -0.032166182629460978 0 -0.051326805658327958 -0.032624547275783573 0 -0.051207449800377863 -0.032442778189796025 0 -0.051324178833356361 -0.032344546307776292 0 -0.051152217243086967 -0.032907741414634359 0 -0.051326805658327958 -0.032624547275783573 0 -0.051207449800377863 -0.032442778189796025 0 -0.051152217243086967 -0.032907741414634359 0 -0.051297821964772561 -0.033037142965223767 0 -0.051326805658327958 -0.032624547275783573 0 -0.051152217243086967 -0.032907741414634359 0 -0.050836473038375393 -0.032745651334736323 0 -0.051207449800377863 -0.032442778189796025 0 -0.050836473038375393 -0.032745651334736323 0 -0.051207449800377863 -0.032442778189796025 0 -0.050922834346784115 -0.032210143901387669 0 -0.050836473038375393 -0.032745651334736323 0 -0.050382672917376352 -0.032557000486483738 0 -0.050922834346784115 -0.032210143901387669 0 -0.050382672917376352 -0.032557000486483738 0 -0.050279009789491458 -0.033082219562618136 0 -0.049794193517064961 -0.032691644980296274 0 -0.050836473038375393 -0.032745651334736323 0 -0.050382672917376352 -0.032557000486483738 0 -0.050279009789491458 -0.033082219562618136 0 -0.050279009789491458 -0.033082219562618136 0 -0.050846341710502785 -0.033210593054726144 0 -0.050470589232813168 -0.033740258803462597 0 -0.050836473038375393 -0.032745651334736323 0 -0.050279009789491458 -0.033082219562618136 0 -0.050846341710502785 -0.033210593054726144 0 -0.051152217243086967 -0.032907741414634359 0 -0.050836473038375393 -0.032745651334736323 0 -0.050846341710502785 -0.033210593054726144 0 -0.051373534839291975 -0.033561260784001345 0 -0.050846341710502785 -0.033210593054726144 0 -0.050470589232813168 -0.033740258803462597 0 -0.051373534839291975 -0.033561260784001345 0 -0.050799345093737097 -0.034452512900861064 0 -0.050470589232813168 -0.033740258803462597 0 -0.05009172793294582 -0.03444887318954909 0 -0.050470589232813168 -0.033740258803462597 0 -0.049742115043597677 -0.033995308758585398 0 -0.050799345093737097 -0.034452512900861064 0 -0.05009172793294582 -0.03444887318954909 0 -0.050470589232813168 -0.033740258803462597 0 -0.050279009789491458 -0.033082219562618136 0 -0.050470589232813168 -0.033740258803462597 0 -0.0498785296352501 -0.033485071057813974 0 -0.050470589232813168 -0.033740258803462597 0 -0.0498785296352501 -0.033485071057813974 0 -0.049742115043597677 -0.033995308758585398 0 -0.0498785296352501 -0.033485071057813974 0 -0.049742115043597677 -0.033995308758585398 0 -0.049313218491405617 -0.033523131125517518 0 -0.049742115043597677 -0.033995308758585398 0 -0.049188922844483819 -0.034082261734428139 0 -0.049313218491405617 -0.033523131125517518 0 -0.049484947806181651 -0.03480147718157349 0 -0.049742115043597677 -0.033995308758585398 0 -0.049188922844483819 -0.034082261734428139 0 -0.049484947806181651 -0.03480147718157349 0 -0.05009172793294582 -0.03444887318954909 0 -0.049742115043597677 -0.033995308758585398 0 -0.049484947806181651 -0.03480147718157349 0 -0.048838339854332925 -0.034694641511789574 0 -0.049188922844483819 -0.034082261734428139 0 -0.048838339854332925 -0.034694641511789574 0 -0.048727510798040101 -0.034079526011464766 0 -0.049188922844483819 -0.034082261734428139 0 -0.048727510798040101 -0.034079526011464766 0 -0.049188922844483819 -0.034082261734428139 0 -0.048898806112846339 -0.033612785987784388 0 -0.049188922844483819 -0.034082261734428139 0 -0.049313218491405617 -0.033523131125517518 0 -0.048898806112846339 -0.033612785987784388 0 -0.049313218491405617 -0.033523131125517518 0 -0.049662880693266909 -0.033107485901805608 0 -0.049076741057153338 -0.032809454359189194 0 -0.049313218491405617 -0.033523131125517518 0 -0.048898806112846339 -0.033612785987784388 0 -0.049076741057153338 -0.032809454359189194 0 -0.048898806112846339 -0.033612785987784388 0 -0.049076741057153338 -0.032809454359189194 0 -0.048393313575093126 -0.033584724121930878 0 -0.049662880693266909 -0.033107485901805608 0 -0.049794193517064961 -0.032691644980296274 0 -0.049076741057153338 -0.032809454359189194 0 -0.0498785296352501 -0.033485071057813974 0 -0.049313218491405617 -0.033523131125517518 0 -0.049662880693266909 -0.033107485901805608 0 -0.050279009789491458 -0.033082219562618136 0 -0.0498785296352501 -0.033485071057813974 0 -0.049662880693266909 -0.033107485901805608 0 -0.050279009789491458 -0.033082219562618136 0 -0.049662880693266909 -0.033107485901805608 0 -0.049794193517064961 -0.032691644980296274 0 -0.049794193517064961 -0.032691644980296274 0 -0.049076741057153338 -0.032809454359189194 0 -0.049705880062522204 -0.032098979455979594 0 -0.050382672917376352 -0.032557000486483738 0 -0.049794193517064961 -0.032691644980296274 0 -0.049705880062522204 -0.032098979455979594 0 -0.055634899489203166 -0.028359711293874219 0 -0.05572822828894311 -0.030017080365082265 0 -0.056374038730024743 -0.029333650543006667 0 -0.05213982041966065 -0.029976626813615053 0 -0.05155222810532703 -0.030913947033665373 0 -0.055634899489203166 -0.028359711293874219 0 -0.05572822828894311 -0.030017080365082265 0 -0.053593424945706104 -0.029483979053944523 0 -0.05572822828894311 -0.030017080365082265 0 -0.052984620235966354 -0.030669128447849126 0 -0.055683242453534725 -0.031205301135949045 0 -0.05572822828894311 -0.030017080365082265 0 -0.055683242453534725 -0.031205301135949045 0 -0.05727142661354731 -0.030555521938723448 0 -0.05155222810532703 -0.030913947033665373 0 -0.050712934092410775 -0.030913524624635307 0 -0.05572822828894311 -0.030017080365082265 0 -0.053593424945706104 -0.029483979053944523 0 -0.052984620235966354 -0.030669128447849126 0 -0.053593424945706104 -0.029483979053944523 0 -0.052984620235966354 -0.030669128447849126 0 -0.05058470926567122 -0.030816691895993266 0 -0.052984620235966354 -0.030669128447849126 0 -0.054991704288905395 -0.033105329958111954 0 -0.050476382592316828 -0.030741299350391101 0 -0.05038125938329361 -0.030142633266118185 0 -0.050468544584212641 -0.03069521243379017 0 -0.052984620235966354 -0.030669128447849126 0 -0.055683242453534725 -0.031205301135949045 0 -0.054991704288905395 -0.033105329958111954 0 -0.055683242453534725 -0.031205301135949045 0 -0.054991704288905395 -0.033105329958111954 0 -0.057175303823299835 -0.032169674744510969 0 -0.045053393320149238 -0.027176057904205703 0 -0.043983225160412955 -0.024128943115292411 0 -0.044735281883118976 -0.022675321363763479 0 -0.043983225160412955 -0.024128943115292411 0 -0.044735281883118976 -0.022675321363763479 0 -0.043934479697038946 -0.023219401040955458 0 -0.044859606427619714 -0.022671778823948385 0 -0.04606898807834775 -0.023624742451420246 0 -0.044735281883118976 -0.022675321363763479 0 -0.043059920074986213 -0.020500278634561928 0 -0.043459900832941496 -0.022311810513765139 0 -0.045053393320149238 -0.027176057904205703 0 -0.044735281883118976 -0.022675321363763479 0 -0.049402426009636589 -0.026656938001377195 0 -0.045053393320149238 -0.027176057904205703 0 -0.049402426009636589 -0.026656938001377195 0 -0.050476382592316828 -0.030741299350391101 0 -0.041843196831854314 -0.020604952686831463 0 -0.043059920074986213 -0.020500278634561928 0 -0.041094817696461068 -0.019309792079907382 0 -0.04606898807834775 -0.023624742451420246 0 -0.046459212437407672 -0.025150589314438625 0 -0.049402426009636589 -0.026656938001377195 0 -0.051846758060087601 -0.031097311450883625 0 -0.050476382592316828 -0.030741299350391101 0 -0.041843196831854314 -0.020604952686831463 0 -0.043059920074986213 -0.020500278634561928 0 -0.042447657563534941 -0.021666141275244237 0 -0.043059920074986213 -0.020500278634561928 0 -0.042447657563534941 -0.021666141275244237 0 -0.043459900832941496 -0.022311810513765139 0 -0.041843196831854314 -0.020604952686831463 0 -0.042447657563534941 -0.021666141275244237 0 -0.041737311287498947 -0.021302941500613452 0 -0.042447657563534941 -0.021666141275244237 0 -0.041589193707491458 -0.021818952450410586 0 -0.041737311287498947 -0.021302941500613452 0 -0.041589193707491458 -0.021818952450410586 0 -0.041095397973877394 -0.0210636203110303 0 -0.04018099368141511 -0.021552558702496335 0 -0.041589193707491458 -0.021818952450410586 0 -0.041737311287498947 -0.021302941500613452 0 -0.041095397973877394 -0.0210636203110303 0 -0.041843196831854314 -0.020604952686831463 0 -0.041737311287498947 -0.021302941500613452 0 -0.041095397973877394 -0.0210636203110303 0 -0.041843196831854314 -0.020604952686831463 0 -0.040754512593979095 -0.020053437100257834 0 -0.041094817696461068 -0.019309792079907382 0 -0.041095397973877394 -0.0210636203110303 0 -0.040754512593979095 -0.020053437100257834 0 -0.039824617372747811 -0.020496483778825673 0 -0.041843196831854314 -0.020604952686831463 0 -0.041095397973877394 -0.0210636203110303 0 -0.040754512593979095 -0.020053437100257834 0 -0.046459212437407672 -0.025150589314438625 0 -0.046064381726687365 -0.025935220466789664 0 -0.051846758060087601 -0.031097311450883625 0 -0.051088459396545986 -0.031648219533122184 0 -0.051365273299422573 -0.031947339050764377 0 -0.041094817696461068 -0.019309792079907382 0 -0.040901952274619124 -0.01994072911055168 0 -0.040694930075689299 -0.019406620917534242 0 -0.040754512593979095 -0.020053437100257834 0 -0.041094817696461068 -0.019309792079907382 0 -0.040694930075689299 -0.019406620917534242 0 -0.051846758060087601 -0.031097311450883625 0 -0.050476382592316828 -0.030741299350391101 0 -0.051013886222117201 -0.031152231758211121 0 -0.050476382592316828 -0.030741299350391101 0 -0.05058470926567122 -0.030816691895993266 0 -0.051013886222117201 -0.031152231758211121 0 -0.052984620235966354 -0.030669128447849126 0 -0.050476382592316828 -0.030741299350391101 0 -0.05058470926567122 -0.030816691895993266 0 -0.051013886222117201 -0.031152231758211121 0 -0.051088459396545986 -0.031648219533122184 0 -0.050539630682544315 -0.031547512568929612 0 -0.05058470926567122 -0.030816691895993266 0 -0.051013886222117201 -0.031152231758211121 0 -0.050539630682544315 -0.031547512568929612 0 -0.051846758060087601 -0.031097311450883625 0 -0.051013886222117201 -0.031152231758211121 0 -0.051088459396545986 -0.031648219533122184 0 -0.049705880062522204 -0.032098979455979594 0 -0.05058470926567122 -0.030816691895993266 0 -0.050539630682544315 -0.031547512568929612 0 -0.051088459396545986 -0.031648219533122184 0 -0.050539630682544315 -0.031547512568929612 0 -0.05040269431653608 -0.032030429512462273 0 -0.049705880062522204 -0.032098979455979594 0 -0.050539630682544315 -0.031547512568929612 0 -0.05040269431653608 -0.032030429512462273 0 -0.050382672917376352 -0.032557000486483738 0 -0.049705880062522204 -0.032098979455979594 0 -0.05040269431653608 -0.032030429512462273 0 -0.050382672917376352 -0.032557000486483738 0 -0.05040269431653608 -0.032030429512462273 0 -0.050922834346784115 -0.032210143901387669 0 -0.051088459396545986 -0.031648219533122184 0 -0.05040269431653608 -0.032030429512462273 0 -0.050922834346784115 -0.032210143901387669 0 -0.051846758060087601 -0.031097311450883625 0 -0.051365273299422573 -0.031947339050764377 0 -0.051397964402316566 -0.032166182629460978 0 -0.051207449800377863 -0.032442778189796025 0 -0.051365273299422573 -0.031947339050764377 0 -0.051330330189502289 -0.032216227516735682 0 -0.051207449800377863 -0.032442778189796025 0 -0.050922834346784115 -0.032210143901387669 0 -0.051365273299422573 -0.031947339050764377 0 -0.051088459396545986 -0.031648219533122184 0 -0.050922834346784115 -0.032210143901387669 0 -0.051365273299422573 -0.031947339050764377 0 -0.040901952274619124 -0.01994072911055168 0 -0.041446671348088021 -0.019942748982045368 0 -0.040694930075689299 -0.019406620917534242 0 -0.051365273299422573 -0.031947339050764377 0 -0.051397964402316566 -0.032166182629460978 0 -0.051330330189502289 -0.032216227516735682 0 -0.051397964402316566 -0.032166182629460978 0 -0.051330330189502289 -0.032216227516735682 0 -0.051324178833356361 -0.032344546307776292 0 -0.051207449800377863 -0.032442778189796025 0 -0.051330330189502289 -0.032216227516735682 0 -0.051324178833356361 -0.032344546307776292 0 -0.051326805658327958 -0.032624547275783573 0 -0.051397964402316566 -0.032166182629460978 0 -0.051324178833356361 -0.032344546307776292 0 -0.039251445914906459 -0.018738329115281317 0 -0.040391767720199742 -0.019320913773503669 0 -0.047503501581515048 -0.027773394822793514 0 -0.046064381726687365 -0.025935220466789664 0 -0.042524597420335479 -0.021744199168931722 0 -0.040901952274619124 -0.01994072911055168 0 -0.041446671348088021 -0.019942748982045368 0 -0.037354754080130163 -0.017745155608250213 0 -0.03798303571997811 -0.018089301592218967 0 -0.038862196384191673 -0.018064411079973818 0 -0.037354754080130163 -0.017745155608250213 0 -0.03798303571997811 -0.018089301592218967 0 -0.037545382599584322 -0.017971191493387977 0 -0.03798303571997811 -0.018089301592218967 0 -0.038327091264062307 -0.018775277775445791 0 -0.03749086976287553 -0.018229604798388577 0 -0.03798303571997811 -0.018089301592218967 0 -0.038862196384191673 -0.018064411079973818 0 -0.038327091264062307 -0.018775277775445791 0 -0.038327091264062307 -0.018775277775445791 0 -0.039223625952538574 -0.019191916022037122 0 -0.038573661600548224 -0.019917414295706475 0 -0.038862196384191673 -0.018064411079973818 0 -0.038327091264062307 -0.018775277775445791 0 -0.039223625952538574 -0.019191916022037122 0 -0.038327091264062307 -0.018775277775445791 0 -0.038573661600548224 -0.019917414295706475 0 -0.037096322198930602 -0.019273843979410839 0 -0.039223625952538574 -0.019191916022037122 0 -0.039758767032846788 -0.019782081702012809 0 -0.038573661600548224 -0.019917414295706475 0 -0.038862196384191673 -0.018064411079973818 0 -0.039223625952538574 -0.019191916022037122 0 -0.040694930075689299 -0.019406620917534242 0 -0.040391767720199742 -0.019320913773503669 0 -0.040574777966834986 -0.019306858171438165 0 -0.039223625952538574 -0.019191916022037122 0 -0.040694930075689299 -0.019406620917534242 0 -0.039758767032846788 -0.019782081702012809 0 -0.040754512593979095 -0.020053437100257834 0 -0.040694930075689299 -0.019406620917534242 0 -0.039758767032846788 -0.019782081702012809 0 -0.040754512593979095 -0.020053437100257834 0 -0.039758767032846788 -0.019782081702012809 0 -0.039824617372747811 -0.020496483778825673 0 -0.039758767032846788 -0.019782081702012809 0 -0.039824617372747811 -0.020496483778825673 0 -0.038573661600548224 -0.019917414295706475 0 -0.039824617372747811 -0.020496483778825673 0 -0.04018099368141511 -0.021552558702496335 0 -0.038645666207305009 -0.021227781744952299 0 -0.041095397973877394 -0.0210636203110303 0 -0.039824617372747811 -0.020496483778825673 0 -0.04018099368141511 -0.021552558702496335 0 -0.04018099368141511 -0.021552558702496335 0 -0.038645666207305009 -0.021227781744952299 0 -0.038992490456022967 -0.0225083356057449 0 -0.038645666207305009 -0.021227781744952299 0 -0.038573661600548224 -0.019917414295706475 0 -0.037312166736019593 -0.020779082417144216 0 -0.039824617372747811 -0.020496483778825673 0 -0.038645666207305009 -0.021227781744952299 0 -0.038573661600548224 -0.019917414295706475 0 -0.038573661600548224 -0.019917414295706475 0 -0.037312166736019593 -0.020779082417144216 0 -0.037096322198930602 -0.019273843979410839 0 -0.037312166736019593 -0.020779082417144216 0 -0.035978972170903491 -0.02041541629293251 0 -0.037096322198930602 -0.019273843979410839 0 -0.037312166736019593 -0.020779082417144216 0 -0.035680888502826046 -0.021813883891813809 0 -0.037119835742273725 -0.022448312315546375 0 -0.038645666207305009 -0.021227781744952299 0 -0.037312166736019593 -0.020779082417144216 0 -0.037119835742273725 -0.022448312315546375 0 -0.037312166736019593 -0.020779082417144216 0 -0.035680888502826046 -0.021813883891813809 0 -0.035978972170903491 -0.02041541629293251 0 -0.035680888502826046 -0.021813883891813809 0 -0.035978972170903491 -0.02041541629293251 0 -0.034279016675819701 -0.020741856320167854 0 -0.035978972170903491 -0.02041541629293251 0 -0.035455303472010029 -0.019295761560074783 0 -0.037096322198930602 -0.019273843979410839 0 -0.035455303472010029 -0.019295761560074783 0 -0.037096322198930602 -0.019273843979410839 0 -0.036819074254047672 -0.017820473740929654 0 -0.038327091264062307 -0.018775277775445791 0 -0.037096322198930602 -0.019273843979410839 0 -0.03749086976287553 -0.018229604798388577 0 -0.037096322198930602 -0.019273843979410839 0 -0.03749086976287553 -0.018229604798388577 0 -0.036819074254047672 -0.017820473740929654 0 -0.03749086976287553 -0.018229604798388577 0 -0.037545382599584322 -0.017971191493387977 0 -0.037212870568985403 -0.017895831147458467 0 -0.03798303571997811 -0.018089301592218967 0 -0.03749086976287553 -0.018229604798388577 0 -0.037545382599584322 -0.017971191493387977 0 -0.03749086976287553 -0.018229604798388577 0 -0.037212870568985403 -0.017895831147458467 0 -0.036819074254047672 -0.017820473740929654 0 -0.035455303472010029 -0.019295761560074783 0 -0.036819074254047672 -0.017820473740929654 0 -0.03459082756820523 -0.018269615030818365 0 -0.058263358694539157 -0.036366009547512047 0 -0.057307637062259838 -0.038608467966607517 0 -0.058782339571568899 -0.036242818356148877 0 -0.057457640233195953 -0.036506788620502127 0 -0.057825318254886612 -0.038580772045876829 0 -0.057756360089179747 -0.036445777884123821 0 -0.058525485831363001 -0.037503085266791129 0 -0.05867843464643941 -0.035959090048571389 0 -0.057756360089179747 -0.036445777884123821 0 -0.057654308357718793 -0.037948706689779454 0 -0.058525485831363001 -0.037503085266791129 0 -0.058263358694539157 -0.036366009547512047 0 -0.058809256896743566 -0.035104005944258936 0 -0.057756360089179747 -0.036445777884123821 0 -0.05867843464643941 -0.035959090048571389 0 -0.058819578730122939 -0.034988123089161341 0 -0.058782339571568899 -0.036242818356148877 0 -0.058819578730122939 -0.034988123089161341 0 -0.058529534429356884 -0.034990519407016238 0 -0.058049567535143891 -0.035586948979476576 0 -0.058529534429356884 -0.034990519407016238 0 -0.057194123131182849 -0.034823150404260823 0 -0.058782339571568899 -0.036242818356148877 0 -0.058049567535143891 -0.035586948979476576 0 -0.057457640233195953 -0.036506788620502127 0 -0.058782339571568899 -0.036242818356148877 0 -0.058049567535143891 -0.035586948979476576 0 -0.058529534429356884 -0.034990519407016238 0 -0.056247530441887857 -0.036257159015241451 0 -0.057457640233195953 -0.036506788620502127 0 -0.057194123131182849 -0.034823150404260823 0 -0.058049567535143891 -0.035586948979476576 0 -0.057457640233195953 -0.036506788620502127 0 -0.057194123131182849 -0.034823150404260823 0 -0.055000255199203443 -0.034607644023417782 0 -0.056872065558603996 -0.034367230167854736 0 -0.054999992945694624 -0.034608663068865189 0 -0.056247530441887857 -0.036257159015241451 0 -0.057194123131182849 -0.034823150404260823 0 -0.054999992945694624 -0.034608663068865189 0 -0.054999825107648385 -0.037550198769102455 0 -0.056247530441887857 -0.036257159015241451 0 -0.054999825107648385 -0.037550198769102455 0 -0.056247530441887857 -0.036257159015241451 0 -0.05652625853553736 -0.037622605543668204 0 -0.057457640233195953 -0.036506788620502127 0 -0.05652625853553736 -0.037622605543668204 0 -0.057825318254886612 -0.038580772045876829 0 -0.056247530441887857 -0.036257159015241451 0 -0.057457640233195953 -0.036506788620502127 0 -0.05652625853553736 -0.037622605543668204 0 -0.05652625853553736 -0.037622605543668204 0 -0.057825318254886612 -0.038580772045876829 0 -0.056140558295735242 -0.039110662542590963 0 -0.054999825107648385 -0.037550198769102455 0 -0.05652625853553736 -0.037622605543668204 0 -0.056140558295735242 -0.039110662542590963 0 -0.054999825107648385 -0.037550198769102455 0 -0.056140558295735242 -0.039110662542590963 0 -0.054999625851166863 -0.040493060351254655 0 -0.056103775800138783 -0.041108400249514759 0 -0.056140558295735242 -0.039110662542590963 0 -0.054999625851166863 -0.040493060351254655 0 -0.056136683258594292 -0.040900481328307432 0 -0.057307637062259838 -0.038608467966607517 0 -0.056103775800138783 -0.041108400249514759 0 -0.057825318254886612 -0.038580772045876829 0 -0.056140558295735242 -0.039110662542590963 0 -0.056103775800138783 -0.041108400249514759 0 -0.056800559223038914 -0.038587550675979868 0 -0.056756945625498462 -0.040070968489826345 0 -0.056616702767498174 -0.041295460966902127 0 -0.056756945625498462 -0.040070968489826345 0 -0.057490192532549195 -0.039290724554518042 0 -0.055114037932114987 -0.043207498394746434 0 -0.054844490211230598 -0.042606362320295611 0 -0.056616702767498174 -0.041295460966902127 0 -0.056103775800138783 -0.041108400249514759 0 -0.056756945625498462 -0.040070968489826345 0 -0.052556362370780686 -0.045330094255005851 0 -0.053785989605271166 -0.045130052829729414 0 -0.052202627044208832 -0.045921252063854862 0 -0.052556362370780686 -0.045330094255005851 0 -0.052048202403410133 -0.045634378995327102 0 -0.052202627044208832 -0.045921252063854862 0 -0.052048202403410133 -0.045634378995327102 0 -0.052202627044208832 -0.045921252063854862 0 -0.051978921058102687 -0.045711373079197697 0 -0.056800559223038914 -0.038587550675979868 0 -0.056756945625498462 -0.040070968489826345 0 -0.057490192532549195 -0.039290724554518042 0 -0.057756360089179747 -0.036445777884123821 0 -0.056800559223038914 -0.038587550675979868 0 -0.057654308357718793 -0.037948706689779454 0 -0.056800559223038914 -0.038587550675979868 0 -0.057490192532549195 -0.039290724554518042 0 -0.057654308357718793 -0.037948706689779454 0 -0.054844490211230598 -0.042606362320295611 0 -0.055267907480349085 -0.041185054161715494 0 -0.057490192532549195 -0.039290724554518042 0 -0.057654308357718793 -0.037948706689779454 0 -0.058525485831363001 -0.037503085266791129 0 -0.052202627044208832 -0.045921252063854862 0 -0.051829409348220466 -0.045072124339910639 0 -0.051928613353313668 -0.045533495955159785 0 -0.051829409348220466 -0.045072124339910639 0 -0.051928613353313668 -0.045533495955159785 0 -0.052108362106233416 -0.045463006273070643 0 -0.051863949692119056 -0.04528935848526594 0 -0.052048202403410133 -0.045634378995327102 0 -0.051872211104186168 -0.045819846611229634 0 -0.051928613353313668 -0.045533495955159785 0 -0.051978921058102687 -0.045711373079197697 0 -0.051872211104186168 -0.045819846611229634 0 -0.052202627044208832 -0.045921252063854862 0 -0.051928613353313668 -0.045533495955159785 0 -0.051978921058102687 -0.045711373079197697 0 -0.051928613353313668 -0.045533495955159785 0 -0.051872211104186168 -0.045819846611229634 0 -0.052108362106233416 -0.045463006273070643 0 -0.052048202403410133 -0.045634378995327102 0 -0.051978921058102687 -0.045711373079197697 0 -0.051872211104186168 -0.045819846611229634 0 -0.052128896609679704 -0.046900648591412276 0 -0.051872211104186168 -0.045819846611229634 0 -0.052204614112008524 -0.045788131749719158 0 -0.051872211104186168 -0.045819846611229634 0 -0.052204614112008524 -0.045788131749719158 0 -0.052108362106233416 -0.045463006273070643 0 -0.052204614112008524 -0.045788131749719158 0 -0.052108362106233416 -0.045463006273070643 0 -0.052542734554495985 -0.045301471561302403 0 -0.052204614112008524 -0.045788131749719158 0 -0.052574889199805207 -0.045658062476793229 0 -0.052542734554495985 -0.045301471561302403 0 -0.052128896609679704 -0.046900648591412276 0 -0.052204614112008524 -0.045788131749719158 0 -0.052574889199805207 -0.045658062476793229 0 -0.052574889199805207 -0.045658062476793229 0 -0.055312891335792196 -0.04320429074339395 0 -0.054618362390441703 -0.041020131654333637 0 -0.052574889199805207 -0.045658062476793229 0 -0.054838096214138876 -0.045682392438357304 0 -0.055312891335792196 -0.04320429074339395 0 -0.053884800156554676 -0.047491239619885946 0 -0.052574889199805207 -0.045658062476793229 0 -0.054838096214138876 -0.045682392438357304 0 -0.052574889199805207 -0.045658062476793229 0 -0.054618362390441703 -0.041020131654333637 0 -0.052943978004194654 -0.037976263442406191 0 -0.052470128491948306 -0.04501517999918353 0 -0.052542734554495985 -0.045301471561302403 0 -0.053435259211380134 -0.044611353010617603 0 -0.052692551621407582 -0.045068929686898025 0 -0.05286332615365532 -0.041834181927655645 0 -0.052574889199805207 -0.045658062476793229 0 -0.052542734554495985 -0.045301471561302403 0 -0.053435259211380134 -0.044611353010617603 0 -0.051829409348220466 -0.045072124339910639 0 -0.052470128491948306 -0.04501517999918353 0 -0.052711964306034566 -0.044541756767973603 0 -0.051829409348220466 -0.045072124339910639 0 -0.052470128491948306 -0.04501517999918353 0 -0.052108362106233416 -0.045463006273070643 0 -0.052470128491948306 -0.04501517999918353 0 -0.052108362106233416 -0.045463006273070643 0 -0.052542734554495985 -0.045301471561302403 0 -0.048838339854332925 -0.034694641511789574 0 -0.048727510798040101 -0.034079526011464766 0 -0.048288399083499724 -0.034536513732517461 0 -0.056465493277837703 -0.044623074506173067 0 -0.055312891335792196 -0.04320429074339395 0 -0.057417735460060799 -0.042323879622137142 0 -0.059381722555003777 -0.044878266516251132 0 -0.056465493277837703 -0.044623074506173067 0 -0.057417735460060799 -0.042323879622137142 0 -0.056250312795504041 -0.047348144823908561 0 -0.059381722555003777 -0.044878266516251132 0 -0.056465493277837703 -0.044623074506173067 0 -0.056250312795504041 -0.047348144823908561 0 -0.054838096214138876 -0.045682392438357304 0 -0.056465493277837703 -0.044623074506173067 0 -0.054838096214138876 -0.045682392438357304 0 -0.056465493277837703 -0.044623074506173067 0 -0.055312891335792196 -0.04320429074339395 0 -0.055312891335792196 -0.04320429074339395 0 -0.054618362390441703 -0.041020131654333637 0 -0.056555284221477646 -0.040507005913875453 0 -0.054618362390441703 -0.041020131654333637 0 -0.056555284221477646 -0.040507005913875453 0 -0.056199225895392106 -0.037604603638797293 0 -0.054618362390441703 -0.041020131654333637 0 -0.056199225895392106 -0.037604603638797293 0 -0.052943978004194654 -0.037976263442406191 0 -0.056555284221477646 -0.040507005913875453 0 -0.057911024119426231 -0.038637641765638379 0 -0.056199225895392106 -0.037604603638797293 0 -0.056555284221477646 -0.040507005913875453 0 -0.057755506926618613 -0.040114561154506539 0 -0.057911024119426231 -0.038637641765638379 0 -0.056555284221477646 -0.040507005913875453 0 -0.057755506926618613 -0.040114561154506539 0 -0.057417735460060799 -0.042323879622137142 0 -0.055312891335792196 -0.04320429074339395 0 -0.056555284221477646 -0.040507005913875453 0 -0.057417735460060799 -0.042323879622137142 0 -0.059381722555003777 -0.044878266516251132 0 -0.057417735460060799 -0.042323879622137142 0 -0.059086902321671568 -0.040332626517965216 0 -0.059381722555003777 -0.044878266516251132 0 -0.059733829287780073 -0.039548523245752101 0 -0.059086902321671568 -0.040332626517965216 0 -0.048727510798040101 -0.034079526011464766 0 -0.048288399083499724 -0.034536513732517461 0 -0.048393313575093126 -0.033584724121930878 0 -0.053678948213058686 -0.040262497688289905 0 -0.055652381756278679 -0.03452941624064032 0 -0.057755506926618613 -0.040114561154506539 0 -0.057417735460060799 -0.042323879622137142 0 -0.059086902321671568 -0.040332626517965216 0 -0.057755506926618613 -0.040114561154506539 0 -0.059086902321671568 -0.040332626517965216 0 -0.057911024119426231 -0.038637641765638379 0 -0.059734913854462994 -0.039413812018580796 0 -0.059086902321671568 -0.040332626517965216 0 -0.057911024119426231 -0.038637641765638379 0 -0.055652381756278679 -0.03452941624064032 0 -0.055801986348548389 -0.035867340204538523 0 -0.048727510798040101 -0.034079526011464766 0 -0.048898806112846339 -0.033612785987784388 0 -0.048393313575093126 -0.033584724121930878 0 -0.055634899489203166 -0.028359711293874219 0 -0.057186560818495782 -0.026603514115413718 0 -0.057171372872238231 -0.02818374150503351 0 -0.05213982041966065 -0.029976626813615053 0 -0.055652381756278679 -0.03452941624064032 0 -0.059734913854462994 -0.039413812018580796 0 -0.059153159577056483 -0.034558627957997953 0 -0.057911024119426231 -0.038637641765638379 0 -0.055652381756278679 -0.03452941624064032 0 -0.058090800407758568 -0.031226690151165668 0 -0.059153159577056483 -0.034558627957997953 0 -0.057911024119426231 -0.038637641765638379 0 -0.056199225895392106 -0.037604603638797293 0 -0.059153159577056483 -0.034558627957997953 0 -0.056199225895392106 -0.037604603638797293 0 -0.05603242448464843 -0.034415612969464819 0 -0.056199225895392106 -0.037604603638797293 0 -0.05603242448464843 -0.034415612969464819 0 -0.052943978004194654 -0.037976263442406191 0 -0.057092329974603666 -0.03458839694778626 0 -0.05286332615365532 -0.041834181927655645 0 -0.0552252232477436 -0.031017121533549935 0 -0.05603242448464843 -0.034415612969464819 0 -0.052943978004194654 -0.037976263442406191 0 -0.0552252232477436 -0.031017121533549935 0 -0.056679672691913291 -0.031405093827830084 0 -0.05603242448464843 -0.034415612969464819 0 -0.059153159577056483 -0.034558627957997953 0 -0.056679672691913291 -0.031405093827830084 0 -0.057305989413610613 -0.030582566680927317 0 -0.057171372872238231 -0.02818374150503351 0 -0.056374038730024743 -0.029333650543006667 0 -0.057305989413610613 -0.030582566680927317 0 -0.058090800407758568 -0.031226690151165668 0 -0.05758431410761803 -0.030921155903536321 0 -0.059153159577056483 -0.034558627957997953 0 -0.056679672691913291 -0.031405093827830084 0 -0.05603242448464843 -0.034415612969464819 0 -0.055634899489203166 -0.028359711293874219 0 -0.057171372872238231 -0.02818374150503351 0 -0.056374038730024743 -0.029333650543006667 0 -0.051829409348220466 -0.045072124339910639 0 -0.052711964306034566 -0.044541756767973603 0 -0.052683772884638824 -0.043708126190931847 0 -0.055267907480349085 -0.041185054161715494 0 -0.05572008345360633 -0.040469399631321963 0 -0.058525485831363001 -0.037503085266791129 0 -0.059236142399691466 -0.03594379473318169 0 -0.05867843464643941 -0.035959090048571389 0 -0.052470128491948306 -0.04501517999918353 0 -0.052711964306034566 -0.044541756767973603 0 -0.053435259211380134 -0.044611353010617603 0 -0.052711964306034566 -0.044541756767973603 0 -0.053435259211380134 -0.044611353010617603 0 -0.052683772884638824 -0.043708126190931847 0 -0.059236142399691466 -0.03594379473318169 0 -0.058966430802080881 -0.035217831031358789 0 -0.059149953052168996 -0.034872859098411049 0 -0.059569206677353707 -0.034732019790005057 0 -0.059236142399691466 -0.03594379473318169 0 -0.059149953052168996 -0.034872859098411049 0 -0.057092329974603666 -0.03458839694778626 0 -0.05572008345360633 -0.040469399631321963 0 -0.054344183927492913 -0.042184547200576121 0 -0.053435259211380134 -0.044611353010617603 0 -0.052683772884638824 -0.043708126190931847 0 -0.058966430802080881 -0.035217831031358789 0 -0.05867843464643941 -0.035959090048571389 0 -0.058819578730122939 -0.034988123089161341 0 -0.059236142399691466 -0.03594379473318169 0 -0.058966430802080881 -0.035217831031358789 0 -0.05867843464643941 -0.035959090048571389 0 -0.058240656550062365 -0.033470090058764376 0 -0.058293114434292283 -0.033164928572748602 0 -0.05794447489874506 -0.033180880055172605 0 -0.058240656550062365 -0.033470090058764376 0 -0.058415755962214336 -0.033322110055040981 0 -0.058293114434292283 -0.033164928572748602 0 -0.058240656550062365 -0.033470090058764376 0 -0.058415755962214336 -0.033322110055040981 0 -0.058655008224250786 -0.033438327168843776 0 -0.058966430802080881 -0.035217831031358789 0 -0.058905670343844821 -0.034825281802584714 0 -0.059149953052168996 -0.034872859098411049 0 -0.058966430802080881 -0.035217831031358789 0 -0.058819578730122939 -0.034988123089161341 0 -0.058905670343844821 -0.034825281802584714 0 -0.0586295194098349 -0.034120471154290601 0 -0.059259127799527828 -0.03388845820824176 0 -0.058905670343844821 -0.034825281802584714 0 -0.059149953052168996 -0.034872859098411049 0 -0.059213670424847077 -0.033850781718293178 0 -0.058240656550062365 -0.033470090058764376 0 -0.058655008224250786 -0.033438327168843776 0 -0.059213670424847077 -0.033850781718293178 0 -0.059569206677353707 -0.034732019790005057 0 -0.059149953052168996 -0.034872859098411049 0 -0.059213670424847077 -0.033850781718293178 0 -0.058655008224250786 -0.033438327168843776 0 -0.058886376171203125 -0.033323676139633038 0 -0.059213670424847077 -0.033850781718293178 0 -0.058415755962214336 -0.033322110055040981 0 -0.058655008224250786 -0.033438327168843776 0 -0.058512648384722997 -0.033197857845955026 0 -0.058655008224250786 -0.033438327168843776 0 -0.058512648384722997 -0.033197857845955026 0 -0.058711696413458782 -0.033105323227384513 0 -0.058512648384722997 -0.033197857845955026 0 -0.058711696413458782 -0.033105323227384513 0 -0.058541354385259758 -0.032952113750310943 0 -0.058886376171203125 -0.033323676139633038 0 -0.058711696413458782 -0.033105323227384513 0 -0.058912012491465257 -0.032957928351805277 0 -0.058655008224250786 -0.033438327168843776 0 -0.058886376171203125 -0.033323676139633038 0 -0.058711696413458782 -0.033105323227384513 0 -0.058741367832083086 -0.032829989378910511 0 -0.058912012491465257 -0.032957928351805277 0 -0.05883332665476667 -0.032769004658596473 0 -0.058711696413458782 -0.033105323227384513 0 -0.058741367832083086 -0.032829989378910511 0 -0.058912012491465257 -0.032957928351805277 0 -0.058711696413458782 -0.033105323227384513 0 -0.058741367832083086 -0.032829989378910511 0 -0.058541354385259758 -0.032952113750310943 0 -0.058331608066075416 -0.032871527436921746 0 -0.058114921733825112 -0.032912779540056399 0 -0.058293114434292283 -0.033164928572748602 0 -0.058541354385259758 -0.032952113750310943 0 -0.058331608066075416 -0.032871527436921746 0 -0.058541489014459089 -0.032676948090106933 0 -0.058541354385259758 -0.032952113750310943 0 -0.058331608066075416 -0.032871527436921746 0 -0.058293114434292283 -0.033164928572748602 0 -0.058331608066075416 -0.032871527436921746 0 -0.058114921733825112 -0.032912779540056399 0 -0.058172776977103428 -0.032605979285783578 0 -0.058114921733825112 -0.032912779540056399 0 -0.058172776977103428 -0.032605979285783578 0 -0.057816391933115829 -0.032745607679787424 0 -0.058114921733825112 -0.032912779540056399 0 -0.058293114434292283 -0.033164928572748602 0 -0.05794447489874506 -0.033180880055172605 0 -0.058415755962214336 -0.033322110055040981 0 -0.058512648384722997 -0.033197857845955026 0 -0.058293114434292283 -0.033164928572748602 0 -0.058512648384722997 -0.033197857845955026 0 -0.058541354385259758 -0.032952113750310943 0 -0.058293114434292283 -0.033164928572748602 0 -0.056679672691913291 -0.031405093827830084 0 -0.057305989413610613 -0.030582566680927317 0 -0.05727142661354731 -0.030555521938723448 0 -0.05572822828894311 -0.030017080365082265 0 -0.057305989413610613 -0.030582566680927317 0 -0.05727142661354731 -0.030555521938723448 0 -0.05572822828894311 -0.030017080365082265 0 -0.056374038730024743 -0.029333650543006667 0 -0.057305989413610613 -0.030582566680927317 0 -0.059843085267693046 -0.028590544849181502 0 -0.059263998959266879 -0.030417076063020673 0 -0.05727142661354731 -0.030555521938723448 0 -0.057092329974603666 -0.03458839694778626 0 -0.057794522435433225 -0.028995423114323324 0 -0.0552252232477436 -0.031017121533549935 0 -0.056679672691913291 -0.031405093827830084 0 -0.05727142661354731 -0.030555521938723448 0 -0.057092329974603666 -0.03458839694778626 0 -0.059426943931694454 -0.031503295494205177 0 -0.059569206677353707 -0.034732019790005057 0 -0.05947050423083259 -0.033555880604583178 0 -0.059213670424847077 -0.033850781718293178 0 -0.058886376171203125 -0.033323676139633038 0 -0.059213670424847077 -0.033850781718293178 0 -0.05909275357069825 -0.03318933427556698 0 -0.05947050423083259 -0.033555880604583178 0 -0.059213670424847077 -0.033850781718293178 0 -0.05909275357069825 -0.03318933427556698 0 -0.058886376171203125 -0.033323676139633038 0 -0.05909275357069825 -0.03318933427556698 0 -0.058912012491465257 -0.032957928351805277 0 -0.058912012491465257 -0.032957928351805277 0 -0.058722720361117184 -0.032497431061913176 0 -0.05883332665476667 -0.032769004658596473 0 -0.05909275357069825 -0.03318933427556698 0 -0.058912012491465257 -0.032957928351805277 0 -0.058722720361117184 -0.032497431061913176 0 -0.059263998959266879 -0.030417076063020673 0 -0.058722720361117184 -0.032497431061913176 0 -0.058097500465095334 -0.031417275449760071 0 -0.05947050423083259 -0.033555880604583178 0 -0.05909275357069825 -0.03318933427556698 0 -0.058722720361117184 -0.032497431061913176 0 -0.059426943931694454 -0.031503295494205177 0 -0.058831722152530241 -0.032714216141496784 0 -0.059263998959266879 -0.030417076063020673 0 -0.058097500465095334 -0.031417275449760071 0 -0.05727142661354731 -0.030555521938723448 0 -0.058097500465095334 -0.031417275449760071 0 -0.057175303823299835 -0.032169674744510969 0 -0.05727142661354731 -0.030555521938723448 0 -0.058722720361117184 -0.032497431061913176 0 -0.058097500465095334 -0.031417275449760071 0 -0.057175303823299835 -0.032169674744510969 0 -0.055683242453534725 -0.031205301135949045 0 -0.057175303823299835 -0.032169674744510969 0 -0.05727142661354731 -0.030555521938723448 0 -0.054991704288905395 -0.033105329958111954 0 -0.057175303823299835 -0.032169674744510969 0 -0.058408974238869225 -0.033379329623347755 0 -0.05038125938329361 -0.030142633266118185 0 -0.049741647727464124 -0.02863737173585398 0 -0.045053393320149238 -0.027176057904205703 0 -0.043983225160412955 -0.024128943115292411 0 -0.042937765296296684 -0.024084781012499348 0 -0.058722720361117184 -0.032497431061913176 0 -0.057175303823299835 -0.032169674744510969 0 -0.058408974238869225 -0.033379329623347755 0 -0.058408974238869225 -0.033379329623347755 0 -0.058753150464905812 -0.032868287393411688 0 -0.05878120914543164 -0.032468370924697273 0 -0.058722720361117184 -0.032497431061913176 0 -0.058408974238869225 -0.033379329623347755 0 -0.058753150464905812 -0.032868287393411688 0 -0.05883332665476667 -0.032769004658596473 0 -0.058753150464905812 -0.032868287393411688 0 -0.058754468357356558 -0.03269420183999748 0 -0.058722720361117184 -0.032497431061913176 0 -0.05883332665476667 -0.032769004658596473 0 -0.058753150464905812 -0.032868287393411688 0 -0.049741647727464124 -0.02863737173585398 0 -0.056279696771721975 -0.028370218731849341 0 -0.043297416231484573 -0.024067851396766215 0 -0.045029489241831595 -0.023825429781493417 0 -0.044106769084540642 -0.024859360768363481 0 -0.042860343489344851 -0.023708337633658066 0 -0.050345857307520649 -0.022308731129703802 0 -0.042937765296296684 -0.024084781012499348 0 -0.043297416231484573 -0.024067851396766215 0 -0.045029489241831595 -0.023825429781493417 0 -0.043081435825359039 -0.023336965591694545 0 -0.043297416231484573 -0.024067851396766215 0 -0.042724171151236667 -0.023032913204689712 0 -0.043081435825359039 -0.023336965591694545 0 -0.043297416231484573 -0.024067851396766215 0 -0.043337728585969217 -0.023667937363502516 0 -0.043081435825359039 -0.023336965591694545 0 -0.043337728585969217 -0.023667937363502516 0 -0.043489581690306936 -0.0232600813821702 0 -0.043983225160412955 -0.024128943115292411 0 -0.042937765296296684 -0.024084781012499348 0 -0.043418720132880347 -0.023767786516759246 0 -0.043297416231484573 -0.024067851396766215 0 -0.043418720132880347 -0.023767786516759246 0 -0.043337728585969217 -0.023667937363502516 0 -0.042937765296296684 -0.024084781012499348 0 -0.043297416231484573 -0.024067851396766215 0 -0.043418720132880347 -0.023767786516759246 0 -0.043418720132880347 -0.023767786516759246 0 -0.043934479697038946 -0.023219401040955458 0 -0.043489581690306936 -0.0232600813821702 0 -0.043418720132880347 -0.023767786516759246 0 -0.043337728585969217 -0.023667937363502516 0 -0.043489581690306936 -0.0232600813821702 0 -0.043983225160412955 -0.024128943115292411 0 -0.043418720132880347 -0.023767786516759246 0 -0.043934479697038946 -0.023219401040955458 0 -0.058382438590681485 -0.032474215168824982 0 -0.058613952380631947 -0.032393246011394941 0 -0.058179043938047376 -0.032202344424267948 0 -0.058382438590681485 -0.032474215168824982 0 -0.058541489014459089 -0.032676948090106933 0 -0.058613952380631947 -0.032393246011394941 0 -0.058172776977103428 -0.032605979285783578 0 -0.058179043938047376 -0.032202344424267948 0 -0.057738945009206143 -0.032265888412059587 0 -0.058382438590681485 -0.032474215168824982 0 -0.058172776977103428 -0.032605979285783578 0 -0.058179043938047376 -0.032202344424267948 0 -0.058331608066075416 -0.032871527436921746 0 -0.058172776977103428 -0.032605979285783578 0 -0.058541489014459089 -0.032676948090106933 0 -0.058382438590681485 -0.032474215168824982 0 -0.058172776977103428 -0.032605979285783578 0 -0.058541489014459089 -0.032676948090106933 0 -0.058741367832083086 -0.032829989378910511 0 -0.058541489014459089 -0.032676948090106933 0 -0.058754468357356558 -0.03269420183999748 0 -0.058741367832083086 -0.032829989378910511 0 -0.058541354385259758 -0.032952113750310943 0 -0.058541489014459089 -0.032676948090106933 0 -0.058741367832083086 -0.032829989378910511 0 -0.05883332665476667 -0.032769004658596473 0 -0.058754468357356558 -0.03269420183999748 0 -0.058753150464905812 -0.032868287393411688 0 -0.058754468357356558 -0.03269420183999748 0 -0.05878120914543164 -0.032468370924697273 0 -0.058541489014459089 -0.032676948090106933 0 -0.058754468357356558 -0.03269420183999748 0 -0.058613952380631947 -0.032393246011394941 0 -0.058754468357356558 -0.03269420183999748 0 -0.058613952380631947 -0.032393246011394941 0 -0.05878120914543164 -0.032468370924697273 0 -0.056777136437669774 -0.03031320227140526 0 -0.056279696771721975 -0.028370218731849341 0 -0.056279696771721975 -0.028370218731849341 0 -0.050345857307520649 -0.022308731129703802 0 -0.060659414700418732 -0.027370542567139531 0 -0.061220456659736702 -0.026288799659106864 0 -0.061718353850231375 -0.026165999765578905 0 -0.060659414700418732 -0.027370542567139531 0 -0.061220456659736702 -0.026288799659106864 0 -0.060092255187467525 -0.026134244432903707 0 -0.058783136934003506 -0.032164042864485189 0 -0.058179043938047376 -0.032202344424267948 0 -0.057801882784690853 -0.031636062150348851 0 -0.056279696771721975 -0.028370218731849341 0 -0.058502958914736364 -0.028423258699829947 0 -0.060659414700418732 -0.027370542567139531 0 -0.058043364122734024 -0.02641371461952299 0 -0.060092255187467525 -0.026134244432903707 0 -0.058613952380631947 -0.032393246011394941 0 -0.058783136934003506 -0.032164042864485189 0 -0.058179043938047376 -0.032202344424267948 0 -0.058179043938047376 -0.032202344424267948 0 -0.057738945009206143 -0.032265888412059587 0 -0.057801882784690853 -0.031636062150348851 0 -0.057002175952821491 -0.031939814946718714 0 -0.057738945009206143 -0.032265888412059587 0 -0.057801882784690853 -0.031636062150348851 0 -0.056835049938352145 -0.031136069898624875 0 -0.058502958914736364 -0.028423258699829947 0 -0.056995055957746558 -0.029680635136064434 0 -0.056796829192849889 -0.027776797065317285 0 -0.058752202327631627 -0.028462826741709239 0 -0.057002175952821491 -0.031939814946718714 0 -0.057454433957644997 -0.032448035014392342 0 -0.057283617560376379 -0.032833076030767183 0 -0.057002175952821491 -0.031939814946718714 0 -0.057454433957644997 -0.032448035014392342 0 -0.057738945009206143 -0.032265888412059587 0 -0.057454433957644997 -0.032448035014392342 0 -0.057738945009206143 -0.032265888412059587 0 -0.057816391933115829 -0.032745607679787424 0 -0.058172776977103428 -0.032605979285783578 0 -0.057738945009206143 -0.032265888412059587 0 -0.057816391933115829 -0.032745607679787424 0 -0.058114921733825112 -0.032912779540056399 0 -0.057816391933115829 -0.032745607679787424 0 -0.05794447489874506 -0.033180880055172605 0 -0.057816391933115829 -0.032745607679787424 0 -0.05794447489874506 -0.033180880055172605 0 -0.057283617560376379 -0.032833076030767183 0 -0.057454433957644997 -0.032448035014392342 0 -0.057816391933115829 -0.032745607679787424 0 -0.057283617560376379 -0.032833076030767183 0 -0.058039916905262903 -0.03426151947536378 0 -0.056872065558603996 -0.034367230167854736 0 -0.057283617560376379 -0.032833076030767183 0 -0.057614553201773028 -0.033547791022690149 0 -0.056696856262895438 -0.03387594091638757 0 -0.058240656550062365 -0.033470090058764376 0 -0.05794447489874506 -0.033180880055172605 0 -0.057614553201773028 -0.033547791022690149 0 -0.058819578730122939 -0.034988123089161341 0 -0.058905670343844821 -0.034825281802584714 0 -0.058529534429356884 -0.034990519407016238 0 -0.0586295194098349 -0.034120471154290601 0 -0.058039916905262903 -0.03426151947536378 0 -0.05794447489874506 -0.033180880055172605 0 -0.057283617560376379 -0.032833076030767183 0 -0.057614553201773028 -0.033547791022690149 0 -0.055000249604544714 -0.034605499831022513 0 -0.056475532864644913 -0.032706191969293127 0 -0.055405756469380313 -0.032144131210129587 0 -0.055000249604544714 -0.034605499831022513 0 -0.055405756469380313 -0.032144131210129587 0 -0.054999663191507009 -0.031651833543009704 0 -0.055000249604544714 -0.034605499831022513 0 -0.056696856262895438 -0.03387594091638757 0 -0.056475532864644913 -0.032706191969293127 0 -0.057283617560376379 -0.032833076030767183 0 -0.056696856262895438 -0.03387594091638757 0 -0.056475532864644913 -0.032706191969293127 0 -0.057002175952821491 -0.031939814946718714 0 -0.057283617560376379 -0.032833076030767183 0 -0.056475532864644913 -0.032706191969293127 0 -0.056475532864644913 -0.032706191969293127 0 -0.055809343981161365 -0.03206437276172093 0 -0.055405756469380313 -0.032144131210129587 0 -0.055997820576455165 -0.030989158376743521 0 -0.055405756469380313 -0.032144131210129587 0 -0.054999663191507009 -0.031651833543009704 0 -0.055624526462727808 -0.031218064137219486 0 -0.055426016991005599 -0.031962067304647283 0 -0.055624526462727808 -0.031218064137219486 0 -0.055000514005939742 -0.031648598145520214 0 -0.055874429158818441 -0.031043009322901324 0 -0.05499999480117989 -0.031648940574989654 0 -0.054999988674303772 -0.028454143357939391 0 -0.055624526462727808 -0.031218064137219486 0 -0.056565502842947681 -0.029105102148411006 0 -0.055874429158818441 -0.031043009322901324 0 -0.057038921031162211 -0.028710231181058591 0 -0.054999988674303772 -0.028454143357939391 0 -0.056995055957746558 -0.029680635136064434 0 -0.05524148573135311 -0.030902084501321994 0 -0.05601747771449795 -0.029338873546671217 0 -0.056835049938352145 -0.031136069898624875 0 -0.055624526462727808 -0.031218064137219486 0 -0.057002175952821491 -0.031939814946718714 0 -0.056475532864644913 -0.032706191969293127 0 -0.055809343981161365 -0.03206437276172093 0 -0.056565502842947681 -0.029105102148411006 0 -0.056878110874129383 -0.026257236193262864 0 -0.056995055957746558 -0.029680635136064434 0 -0.05601747771449795 -0.029338873546671217 0 -0.056796829192849889 -0.027776797065317285 0 -0.057038921031162211 -0.028710231181058591 0 -0.054999988674303772 -0.028454143357939391 0 -0.056313018972003484 -0.027053867768336935 0 -0.056313018972003484 -0.027053867768336935 0 -0.056601537502712282 -0.025829233865213706 0 -0.054999993883459629 -0.025259384250062026 0 -0.054999988674303772 -0.028454143357939391 0 -0.056313018972003484 -0.027053867768336935 0 -0.054999993883459629 -0.025259384250062026 0 -0.056313018972003484 -0.027053867768336935 0 -0.056601537502712282 -0.025829233865213706 0 -0.058194923759529248 -0.026387706846004829 0 -0.057038921031162211 -0.028710231181058591 0 -0.056313018972003484 -0.027053867768336935 0 -0.058194923759529248 -0.026387706846004829 0 -0.056760962380969525 -0.025878209917135617 0 -0.056878110874129383 -0.026257236193262864 0 -0.057395719585202759 -0.02475010072251525 0 -0.058689978402809678 -0.025245912443265576 0 -0.05727507858743295 -0.022347826744075448 0 -0.056582694264438467 -0.025780623493573813 0 -0.057395719585202759 -0.02475010072251525 0 -0.056284457476708842 -0.024033854243975066 0 -0.056582694264438467 -0.025780623493573813 0 -0.058147817361912227 -0.026319326820032039 0 -0.057395719585202759 -0.02475010072251525 0 -0.058147817361912227 -0.026319326820032039 0 -0.057395719585202759 -0.02475010072251525 0 -0.058689978402809678 -0.025245912443265576 0 -0.056582694264438467 -0.025780623493573813 0 -0.054999988954230833 -0.025259256370079652 0 -0.056284457476708842 -0.024033854243975066 0 -0.056760962380969525 -0.025878209917135617 0 -0.055000378441004368 -0.025259481154140274 0 -0.058110036694483072 -0.026344468634249132 0 -0.057639992612803691 -0.024530234711491985 0 -0.058825606309583528 -0.024408581909935636 0 -0.058110036694483072 -0.026344468634249132 0 -0.056769694950091897 -0.025218595265007571 0 -0.057639992612803691 -0.024530234711491985 0 -0.056878110874129383 -0.026257236193262864 0 -0.058502958914736364 -0.028423258699829947 0 -0.055448389894250244 -0.025428713456314193 0 -0.058110036694483072 -0.026344468634249132 0 -0.056769694950091897 -0.025218595265007571 0 -0.056769694950091897 -0.025218595265007571 0 -0.056179429834442435 -0.024934300324397706 0 -0.056546849125047358 -0.024629470711552984 0 -0.056878110874129383 -0.026257236193262864 0 -0.056758182887439709 -0.024727035187689886 0 -0.055448389894250244 -0.025428713456314193 0 -0.056769694950091897 -0.025218595265007571 0 -0.056179429834442435 -0.024934300324397706 0 -0.055448389894250244 -0.025428713456314193 0 -0.056179429834442435 -0.024934300324397706 0 -0.055934655633274849 -0.024419673655946581 0 -0.056179429834442435 -0.024934300324397706 0 -0.055934655633274849 -0.024419673655946581 0 -0.056546849125047358 -0.024629470711552984 0 -0.056758182887439709 -0.024727035187689886 0 -0.056583098370380593 -0.023353638828179483 0 -0.055934655633274849 -0.024419673655946581 0 -0.056887153732694019 -0.023994777716595705 0 -0.05657807334885176 -0.023079529952436523 0 -0.056887153732694019 -0.023994777716595705 0 -0.057723151818569365 -0.023398987250022402 0 -0.05657807334885176 -0.023079529952436523 0 -0.056887153732694019 -0.023994777716595705 0 -0.056546849125047358 -0.024629470711552984 0 -0.057639992612803691 -0.024530234711491985 0 -0.056769694950091897 -0.025218595265007571 0 -0.056546849125047358 -0.024629470711552984 0 -0.057639992612803691 -0.024530234711491985 0 -0.055934655633274849 -0.024419673655946581 0 -0.056887153732694019 -0.023994777716595705 0 -0.056546849125047358 -0.024629470711552984 0 -0.056887153732694019 -0.023994777716595705 0 -0.057639992612803691 -0.024530234711491985 0 -0.057723151818569365 -0.023398987250022402 0 -0.057723151818569365 -0.023398987250022402 0 -0.058844316488420437 -0.022965900459885856 0 -0.058825606309583528 -0.024408581909935636 0 -0.057639992612803691 -0.024530234711491985 0 -0.057723151818569365 -0.023398987250022402 0 -0.058825606309583528 -0.024408581909935636 0 -0.057627599750059454 -0.022035627011409754 0 -0.058844316488420437 -0.022965900459885856 0 -0.058954689632115566 -0.021783869786658788 0 -0.057723151818569365 -0.023398987250022402 0 -0.057627599750059454 -0.022035627011409754 0 -0.058844316488420437 -0.022965900459885856 0 -0.057723151818569365 -0.023398987250022402 0 -0.057627599750059454 -0.022035627011409754 0 -0.05657807334885176 -0.023079529952436523 0 -0.055940288296882072 -0.024360212134003488 0 -0.05657807334885176 -0.023079529952436523 0 -0.054627516788454775 -0.021640320723557902 0 -0.057627599750059454 -0.022035627011409754 0 -0.05657807334885176 -0.023079529952436523 0 -0.056337590683822797 -0.021337132773143988 0 -0.05657807334885176 -0.023079529952436523 0 -0.056337590683822797 -0.021337132773143988 0 -0.054627516788454775 -0.021640320723557902 0 -0.058784185514203759 -0.0203672765397226 0 -0.056590698958779627 -0.019629162576418103 0 -0.056337590683822797 -0.021337132773143988 0 -0.057922037043371316 -0.020464325554651788 0 -0.055608407870233176 -0.019787280008579666 0 -0.057627599750059454 -0.022035627011409754 0 -0.056337590683822797 -0.021337132773143988 0 -0.057922037043371316 -0.020464325554651788 0 -0.057627599750059454 -0.022035627011409754 0 -0.057922037043371316 -0.020464325554651788 0 -0.058954689632115566 -0.021783869786658788 0 -0.054999988954230833 -0.025259256370079652 0 -0.056284457476708842 -0.024033854243975066 0 -0.054999975770691885 -0.022190161726763698 0 -0.056284457476708842 -0.024033854243975066 0 -0.05727507858743295 -0.022347826744075448 0 -0.054999975770691885 -0.022190161726763698 0 -0.056758182887439709 -0.024727035187689886 0 -0.055974705194408246 -0.022012462881399925 0 -0.057395719585202759 -0.02475010072251525 0 -0.056284457476708842 -0.024033854243975066 0 -0.05727507858743295 -0.022347826744075448 0 -0.054627516788454775 -0.021640320723557902 0 -0.053370926456140298 -0.019036643555573114 0 -0.055608407870233176 -0.019787280008579666 0 -0.056337590683822797 -0.021337132773143988 0 -0.054627516788454775 -0.021640320723557902 0 -0.055608407870233176 -0.019787280008579666 0 -0.055974705194408246 -0.022012462881399925 0 -0.05502306479815481 -0.019236412320242494 0 -0.05727507858743295 -0.022347826744075448 0 -0.054999975770691885 -0.022190161726763698 0 -0.055828782075740296 -0.019407134655353833 0 -0.054999975770691885 -0.022190161726763698 0 -0.055828782075740296 -0.019407134655353833 0 -0.054999990876696637 -0.01912091886440908 0 -0.05502306479815481 -0.019236412320242494 0 -0.055000415643270621 -0.019121157250035933 0 -0.05502306479815481 -0.019236412320242494 0 -0.055124643537702793 -0.018100635608439095 0 -0.055830833426833516 -0.019403029215545115 0 -0.054999987791075212 -0.019120898057137521 0 -0.055000005456864093 -0.017843195588106171 0 -0.055761044520144347 -0.018985148449885133 0 -0.056352470955358509 -0.017902270950947465 0 -0.057185682415624842 -0.018390544854180946 0 -0.055761044520144347 -0.018985148449885133 0 -0.056352470955358509 -0.017902270950947465 0 -0.055000097762231796 -0.017842619456932395 0 -0.056352470955358509 -0.017902270950947465 0 -0.055000097762231796 -0.017842619456932395 0 -0.056228522705030301 -0.016971044474247056 0 -0.057503964753635353 -0.017273283525157262 0 -0.057185682415624842 -0.018390544854180946 0 -0.058723490597938979 -0.01806603917457527 0 -0.056352470955358509 -0.017902270950947465 0 -0.057503964753635353 -0.017273283525157262 0 -0.056228522705030301 -0.016971044474247056 0 -0.056352470955358509 -0.017902270950947465 0 -0.057503964753635353 -0.017273283525157262 0 -0.057185682415624842 -0.018390544854180946 0 -0.05502306479815481 -0.019236412320242494 0 -0.056590698958779627 -0.019629162576418103 0 -0.055761044520144347 -0.018985148449885133 0 -0.057185682415624842 -0.018390544854180946 0 -0.057801911177515493 -0.019561909120494655 0 -0.057185682415624842 -0.018390544854180946 0 -0.057801911177515493 -0.019561909120494655 0 -0.058723490597938979 -0.01806603917457527 0 -0.059509559702560992 -0.02017932569239898 0 -0.057801911177515493 -0.019561909120494655 0 -0.058723490597938979 -0.01806603917457527 0 -0.059509559702560992 -0.02017932569239898 0 -0.058723490597938979 -0.01806603917457527 0 -0.060518353949077834 -0.018452134259354491 0 -0.057476851768750392 -0.016525856659187765 0 -0.057891629821542015 -0.018664770790018038 0 -0.058723490597938979 -0.01806603917457527 0 -0.060044840376758425 -0.016046382289769356 0 -0.060518353949077834 -0.018452134259354491 0 -0.057503964753635353 -0.017273283525157262 0 -0.058723490597938979 -0.01806603917457527 0 -0.058494565140647471 -0.015880597798867243 0 -0.058723490597938979 -0.01806603917457527 0 -0.058494565140647471 -0.015880597798867243 0 -0.060044840376758425 -0.016046382289769356 0 -0.05492715036844005 -0.017013467441184291 0 -0.054657192137271715 -0.015544656236834565 0 -0.055629747491305559 -0.015218397230895664 0 -0.057476851768750392 -0.016525856659187765 0 -0.056995615526321576 -0.014443492233971813 0 -0.058494565140647471 -0.015880597798867243 0 -0.060044840376758425 -0.016046382289769356 0 -0.059347776323085293 -0.013351047011137783 0 -0.058494565140647471 -0.015880597798867243 0 -0.056943059566307248 -0.015036738530768159 0 -0.059347776323085293 -0.013351047011137783 0 -0.056943059566307248 -0.015036738530768159 0 -0.054999850820062694 -0.016288105915481195 0 -0.054999865342990208 -0.013455217399925369 0 -0.056943059566307248 -0.015036738530768159 0 -0.054999850820062694 -0.016288105915481195 0 -0.056228522705030301 -0.016971044474247056 0 -0.055000097762231796 -0.017842619456932395 0 -0.054999850820062694 -0.016288105915481195 0 -0.056228522705030301 -0.016971044474247056 0 -0.057503964753635353 -0.017273283525157262 0 -0.058494565140647471 -0.015880597798867243 0 -0.056943059566307248 -0.015036738530768159 0 -0.057503964753635353 -0.017273283525157262 0 -0.056943059566307248 -0.015036738530768159 0 -0.056228522705030301 -0.016971044474247056 0 -0.057015959912911966 -0.019778077493835491 0 -0.055890896214876723 -0.019220277351073022 0 -0.055087667868233312 -0.020597849650090653 0 -0.052583798826299835 -0.023877419344341663 0 -0.052441834430361621 -0.022045113597214894 0 -0.050619177736392518 -0.022815219286251322 0 -0.054628439489331056 -0.021930942766128548 0 -0.055400937198801237 -0.020883799388352681 0 -0.057015959912911966 -0.019778077493835491 0 -0.056930804612713243 -0.017854541448370391 0 -0.058072170421611446 -0.018408820570902297 0 -0.057015959912911966 -0.019778077493835491 0 -0.055890896214876723 -0.019220277351073022 0 -0.056930804612713243 -0.017854541448370391 0 -0.055890896214876723 -0.019220277351073022 0 -0.054998950646345898 -0.017864968678643806 0 -0.056930804612713243 -0.017854541448370391 0 -0.055890896214876723 -0.019220277351073022 0 -0.05462700944124118 -0.019876026904846383 0 -0.054998950646345898 -0.017864968678643806 0 -0.05492715036844005 -0.017013467441184291 0 -0.055629747491305559 -0.015218397230895664 0 -0.056255123056000549 -0.015794984045303311 0 -0.05492715036844005 -0.017013467441184291 0 -0.056247134883093027 -0.017240993298033157 0 -0.056255123056000549 -0.015794984045303311 0 -0.055454760394261247 -0.018556318357659175 0 -0.055655360869723045 -0.016850627393440717 0 -0.05492715036844005 -0.017013467441184291 0 -0.056247134883093027 -0.017240993298033157 0 -0.055258941928763801 -0.018854067087534659 0 -0.055890896214876723 -0.019220277351073022 0 -0.05462700944124118 -0.019876026904846383 0 -0.055087667868233312 -0.020597849650090653 0 -0.055454760394261247 -0.018556318357659175 0 -0.055410941025046907 -0.019918394850747895 0 -0.05462700944124118 -0.019876026904846383 0 -0.055087667868233312 -0.020597849650090653 0 -0.054801270194194555 -0.021068252918700323 0 -0.055087667868233312 -0.020597849650090653 0 -0.054801270194194555 -0.021068252918700323 0 -0.054879366859720419 -0.021032350452383594 0 -0.055087667868233312 -0.020597849650090653 0 -0.054879366859720419 -0.021032350452383594 0 -0.054769623111020432 -0.021244504106616619 0 -0.056247134883093027 -0.017240993298033157 0 -0.056034878462081175 -0.018899509146047423 0 -0.055258941928763801 -0.018854067087534659 0 -0.055258941928763801 -0.018854067087534659 0 -0.055399176715846689 -0.020693740642021168 0 -0.055357823512937034 -0.020647516659090422 0 -0.057891629821542015 -0.018664770790018038 0 -0.057955582399302083 -0.020571283242743495 0 -0.059509559702560992 -0.02017932569239898 0 -0.060518353949077834 -0.018452134259354491 0 -0.060728973712597195 -0.020560743378541788 0 -0.056034878462081175 -0.018899509146047423 0 -0.055258941928763801 -0.018854067087534659 0 -0.055357823512937034 -0.020647516659090422 0 -0.055410941025046907 -0.019918394850747895 0 -0.055372764375172377 -0.020532293746685196 0 -0.054801270194194555 -0.021068252918700323 0 -0.054803835003909396 -0.020913325399904554 0 -0.055357823512937034 -0.020647516659090422 0 -0.054879366859720419 -0.021032350452383594 0 -0.054803835003909396 -0.020913325399904554 0 -0.054769623111020432 -0.021244504106616619 0 -0.054801270194194555 -0.021068252918700323 0 -0.054879366859720419 -0.021032350452383594 0 -0.054803835003909396 -0.020913325399904554 0 -0.054803835003909396 -0.020913325399904554 0 -0.053550465714898889 -0.020039027998141661 0 -0.054749246062505738 -0.020637262584147442 0 -0.054803835003909396 -0.020913325399904554 0 -0.054769623111020432 -0.021244504106616619 0 -0.053550465714898889 -0.020039027998141661 0 -0.054769623111020432 -0.021244504106616619 0 -0.052441834430361621 -0.022045113597214894 0 -0.053550465714898889 -0.020039027998141661 0 -0.057015959912911966 -0.019778077493835491 0 -0.055087667868233312 -0.020597849650090653 0 -0.054769623111020432 -0.021244504106616619 0 -0.052583798826299835 -0.023877419344341663 0 -0.054769623111020432 -0.021244504106616619 0 -0.052441834430361621 -0.022045113597214894 0 -0.054628439489331056 -0.021930942766128548 0 -0.054920200425583446 -0.021101070285396855 0 -0.051854715255572996 -0.02178907657882475 0 -0.048560908358345076 -0.023059125445488059 0 -0.052441834430361621 -0.022045113597214894 0 -0.053550465714898889 -0.020039027998141661 0 -0.050694586566787589 -0.020861005919168542 0 -0.050295811931130134 -0.023611016620024315 0 -0.047419584367114812 -0.022297070107893051 0 -0.046337855448332285 -0.025301419472787197 0 -0.050295811931130134 -0.023611016620024315 0 -0.050293936483677686 -0.020203825324854732 0 -0.047419584367114812 -0.022297070107893051 0 -0.053550465714898889 -0.020039027998141661 0 -0.054749246062505738 -0.020637262584147442 0 -0.054319871777883187 -0.02045620175599585 0 -0.050295811931130134 -0.023611016620024315 0 -0.051889917536767728 -0.020868585683143141 0 -0.054319871777883187 -0.02045620175599585 0 -0.050295811931130134 -0.023611016620024315 0 -0.051889917536767728 -0.020868585683143141 0 -0.050293936483677686 -0.020203825324854732 0 -0.051854715255572996 -0.02178907657882475 0 -0.054095085416663406 -0.020587346250930519 0 -0.051889917536767728 -0.020868585683143141 0 -0.052574907747714936 -0.019367689197054914 0 -0.054319871777883187 -0.02045620175599585 0 -0.051889917536767728 -0.020868585683143141 0 -0.052574907747714936 -0.019367689197054914 0 -0.050293936483677686 -0.020203825324854732 0 -0.052574907747714936 -0.019367689197054914 0 -0.051197321599883279 -0.017903040782356883 0 -0.050293936483677686 -0.020203825324854732 0 -0.052574907747714936 -0.019367689197054914 0 -0.051197321599883279 -0.017903040782356883 0 -0.05450576464940967 -0.017778283439514053 0 -0.051197321599883279 -0.017903040782356883 0 -0.050293936483677686 -0.020203825324854732 0 -0.04670959673209215 -0.018997196545057965 0 -0.050293936483677686 -0.020203825324854732 0 -0.047419584367114812 -0.022297070107893051 0 -0.04670959673209215 -0.018997196545057965 0 -0.058784185514203759 -0.0203672765397226 0 -0.060596654803001519 -0.021073729089014479 0 -0.057922037043371316 -0.020464325554651788 0 -0.060681674591238161 -0.021136951688194797 0 -0.058954689632115566 -0.021783869786658788 0 -0.059509559702560992 -0.02017932569239898 0 -0.060728973712597195 -0.020560743378541788 0 -0.060681674591238161 -0.021136951688194797 0 -0.055399176715846689 -0.020693740642021168 0 -0.055357823512937034 -0.020647516659090422 0 -0.054319871777883187 -0.02045620175599585 0 -0.054803835003909396 -0.020913325399904554 0 -0.055357823512937034 -0.020647516659090422 0 -0.054749246062505738 -0.020637262584147442 0 -0.055357823512937034 -0.020647516659090422 0 -0.054749246062505738 -0.020637262584147442 0 -0.054319871777883187 -0.02045620175599585 0 -0.060728973712597195 -0.020560743378541788 0 -0.060681674591238161 -0.021136951688194797 0 -0.061254933437449241 -0.023419220565427137 0 -0.057955582399302083 -0.020571283242743495 0 -0.058757014307397736 -0.020269121349653356 0 -0.055399176715846689 -0.020693740642021168 0 -0.054319871777883187 -0.02045620175599585 0 -0.05450576464940967 -0.017778283439514053 0 -0.060681674591238161 -0.021136951688194797 0 -0.059963216064850208 -0.022625089141058947 0 -0.061254933437449241 -0.023419220565427137 0 -0.052574907747714936 -0.019367689197054914 0 -0.054319871777883187 -0.02045620175599585 0 -0.05450576464940967 -0.017778283439514053 0 -0.060681674591238161 -0.021136951688194797 0 -0.059963216064850208 -0.022625089141058947 0 -0.058954689632115566 -0.021783869786658788 0 -0.059963216064850208 -0.022625089141058947 0 -0.058844316488420437 -0.022965900459885856 0 -0.058954689632115566 -0.021783869786658788 0 -0.059963216064850208 -0.022625089141058947 0 -0.058844316488420437 -0.022965900459885856 0 -0.059899698336207403 -0.024018081465696575 0 -0.058825606309583528 -0.024408581909935636 0 -0.059899698336207403 -0.024018081465696575 0 -0.059719261116395972 -0.025225587464534353 0 -0.058844316488420437 -0.022965900459885856 0 -0.058825606309583528 -0.024408581909935636 0 -0.059899698336207403 -0.024018081465696575 0 -0.059899698336207403 -0.024018081465696575 0 -0.060697636924107054 -0.025386070115619684 0 -0.059719261116395972 -0.025225587464534353 0 -0.059899698336207403 -0.024018081465696575 0 -0.061254933437449241 -0.023419220565427137 0 -0.060697636924107054 -0.025386070115619684 0 -0.058757014307397736 -0.020269121349653356 0 -0.050345857307520649 -0.022308731129703802 0 -0.059963216064850208 -0.022625089141058947 0 -0.059899698336207403 -0.024018081465696575 0 -0.061254933437449241 -0.023419220565427137 0 -0.061254933437449241 -0.023419220565427137 0 -0.060697636924107054 -0.025386070115619684 0 -0.061972210513189449 -0.026065583657762202 0 -0.061220456659736702 -0.026288799659106864 0 -0.060697636924107054 -0.025386070115619684 0 -0.061972210513189449 -0.026065583657762202 0 -0.061220456659736702 -0.026288799659106864 0 -0.060697636924107054 -0.025386070115619684 0 -0.060092255187467525 -0.026134244432903707 0 -0.060697636924107054 -0.025386070115619684 0 -0.059719261116395972 -0.025225587464534353 0 -0.060092255187467525 -0.026134244432903707 0 -0.058502958914736364 -0.028423258699829947 0 -0.059719167386534718 -0.024959722163148072 0 -0.058110036694483072 -0.026344468634249132 0 -0.058825606309583528 -0.024408581909935636 0 -0.059719261116395972 -0.025225587464534353 0 -0.058043364122734024 -0.02641371461952299 0 -0.059719261116395972 -0.025225587464534353 0 -0.060092255187467525 -0.026134244432903707 0 -0.047668372516281983 -0.018249354050593459 0 -0.04542630212701726 -0.020935774331722487 0 -0.045162353326111647 -0.021836166315357154 0 -0.044393993616871623 -0.02193312309371041 0 -0.044223141564175859 -0.022549394307720984 0 -0.051197321599883279 -0.017903040782356883 0 -0.049817701077684171 -0.016075871056218972 0 -0.04670959673209215 -0.018997196545057965 0 -0.045162353326111647 -0.021836166315357154 0 -0.044723794509528486 -0.021272337185740956 0 -0.044393993616871623 -0.02193312309371041 0 -0.051197321599883279 -0.017903040782356883 0 -0.049817701077684171 -0.016075871056218972 0 -0.052158760069468832 -0.01569574206633698 0 -0.05450576464940967 -0.017778283439514053 0 -0.052158760069468832 -0.01569574206633698 0 -0.05260417045808953 -0.013456696178368522 0 -0.051197321599883279 -0.017903040782356883 0 -0.05450576464940967 -0.017778283439514053 0 -0.052158760069468832 -0.01569574206633698 0 -0.047668372516281983 -0.018249354050593459 0 -0.050345857307520649 -0.022308731129703802 0 -0.049817701077684171 -0.016075871056218972 0 -0.052158760069468832 -0.01569574206633698 0 -0.05260417045808953 -0.013456696178368522 0 -0.059738786719885001 -0.022803084365088183 0 -0.050345857307520649 -0.022308731129703802 0 -0.043081435825359039 -0.023336965591694545 0 -0.042724171151236667 -0.023032913204689712 0 -0.043489581690306936 -0.0232600813821702 0 -0.042724171151236667 -0.023032913204689712 0 -0.043489581690306936 -0.0232600813821702 0 -0.044091539137418478 -0.02271183161709156 0 -0.045162353326111647 -0.021836166315357154 0 -0.046240235135587428 -0.020855447172286327 0 -0.044723794509528486 -0.021272337185740956 0 -0.050345857307520649 -0.022308731129703802 0 -0.043185030613142467 -0.022149660520622741 0 -0.043934479697038946 -0.023219401040955458 0 -0.043489581690306936 -0.0232600813821702 0 -0.044091539137418478 -0.02271183161709156 0 -0.044735281883118976 -0.022675321363763479 0 -0.043934479697038946 -0.023219401040955458 0 -0.044091539137418478 -0.02271183161709156 0 -0.043185030613142467 -0.022149660520622741 0 -0.043979881305833649 -0.02223512903007608 0 -0.044735281883118976 -0.022675321363763479 0 -0.044091539137418478 -0.02271183161709156 0 -0.043870602864079934 -0.022946849523449123 0 -0.044393993616871623 -0.02193312309371041 0 -0.043606638020930198 -0.021717345565114725 0 -0.044223141564175859 -0.022549394307720984 0 -0.044723794509528486 -0.021272337185740956 0 -0.044393993616871623 -0.02193312309371041 0 -0.043606638020930198 -0.021717345565114725 0 -0.043606638020930198 -0.021717345565114725 0 -0.044223141564175859 -0.022549394307720984 0 -0.043374392184238247 -0.022505950069558255 0 -0.043606638020930198 -0.021717345565114725 0 -0.042279742305596654 -0.022462877099792871 0 -0.043374392184238247 -0.022505950069558255 0 -0.043870602864079934 -0.022946849523449123 0 -0.043459900832941496 -0.022311810513765139 0 -0.042624731399593996 -0.022403109467073301 0 -0.044735281883118976 -0.022675321363763479 0 -0.043870602864079934 -0.022946849523449123 0 -0.043459900832941496 -0.022311810513765139 0 -0.042447657563534941 -0.021666141275244237 0 -0.043459900832941496 -0.022311810513765139 0 -0.042624731399593996 -0.022403109467073301 0 -0.042447657563534941 -0.021666141275244237 0 -0.041589193707491458 -0.021818952450410586 0 -0.042624731399593996 -0.022403109467073301 0 -0.041589193707491458 -0.021818952450410586 0 -0.042624731399593996 -0.022403109467073301 0 -0.041890464311177558 -0.022446173821188325 0 -0.042624731399593996 -0.022403109467073301 0 -0.041890464311177558 -0.022446173821188325 0 -0.042279742305596654 -0.022462877099792871 0 -0.041589193707491458 -0.021818952450410586 0 -0.041890464311177558 -0.022446173821188325 0 -0.040469250079992039 -0.022394338706320776 0 -0.041589193707491458 -0.021818952450410586 0 -0.04018099368141511 -0.021552558702496335 0 -0.040469250079992039 -0.022394338706320776 0 -0.041689547651036545 -0.022461125952550318 0 -0.039912808426992616 -0.023003678415874935 0 -0.041890464311177558 -0.022446173821188325 0 -0.042279742305596654 -0.022462877099792871 0 -0.041636013580089747 -0.022500160023849729 0 -0.041890464311177558 -0.022446173821188325 0 -0.040469250079992039 -0.022394338706320776 0 -0.039410766057077412 -0.024136788785445222 0 -0.041890464311177558 -0.022446173821188325 0 -0.041636013580089747 -0.022500160023849729 0 -0.040475786096365159 -0.021846499027144251 0 -0.043979881305833649 -0.02223512903007608 0 -0.042365937739133351 -0.022499188452609429 0 -0.043870602864079934 -0.022946849523449123 0 -0.042624731399593996 -0.022403109467073301 0 -0.042279742305596654 -0.022462877099792871 0 -0.042279742305596654 -0.022462877099792871 0 -0.042658735685877719 -0.022833358380440386 0 -0.043374392184238247 -0.022505950069558255 0 -0.042279742305596654 -0.022462877099792871 0 -0.042658735685877719 -0.022833358380440386 0 -0.041636013580089747 -0.022500160023849729 0 -0.041636013580089747 -0.022500160023849729 0 -0.04168879488198976 -0.023678985116235302 0 -0.040248581821197643 -0.023001122853752297 0 -0.042658735685877719 -0.022833358380440386 0 -0.041636013580089747 -0.022500160023849729 0 -0.04168879488198976 -0.023678985116235302 0 -0.042658735685877719 -0.022833358380440386 0 -0.042999856046983899 -0.023676022394796627 0 -0.043925328860111162 -0.022731073796455503 0 -0.042658735685877719 -0.022833358380440386 0 -0.04168879488198976 -0.023678985116235302 0 -0.042999856046983899 -0.023676022394796627 0 -0.042999856046983899 -0.023676022394796627 0 -0.043925328860111162 -0.022731073796455503 0 -0.043774074269359996 -0.024476112546092811 0 -0.043925328860111162 -0.022731073796455503 0 -0.047419584367114812 -0.022297070107893051 0 -0.046337855448332285 -0.025301419472787197 0 -0.043925328860111162 -0.022731073796455503 0 -0.047419584367114812 -0.022297070107893051 0 -0.04670959673209215 -0.018997196545057965 0 -0.044068620263216791 -0.022475086631729303 0 -0.04542630212701726 -0.020935774331722487 0 -0.043925328860111162 -0.022731073796455503 0 -0.044223141564175859 -0.022549394307720984 0 -0.043374392184238247 -0.022505950069558255 0 -0.042658735685877719 -0.022833358380440386 0 -0.043925328860111162 -0.022731073796455503 0 -0.043374392184238247 -0.022505950069558255 0 -0.035240807870165154 -0.023342475649391708 0 -0.035441675939379275 -0.02427883955202317 0 -0.034138710941578124 -0.024346094527049559 0 -0.035240807870165154 -0.023342475649391708 0 -0.036444368788625364 -0.023698599565852491 0 -0.035441675939379275 -0.02427883955202317 0 -0.035680888502826046 -0.021813883891813809 0 -0.035240807870165154 -0.023342475649391708 0 -0.037119835742273725 -0.022448312315546375 0 -0.035240807870165154 -0.023342475649391708 0 -0.037119835742273725 -0.022448312315546375 0 -0.036444368788625364 -0.023698599565852491 0 -0.037119835742273725 -0.022448312315546375 0 -0.036444368788625364 -0.023698599565852491 0 -0.037739957261574537 -0.023539916793072244 0 -0.036444368788625364 -0.023698599565852491 0 -0.037739957261574537 -0.023539916793072244 0 -0.036953133476541965 -0.024868718043492253 0 -0.037739957261574537 -0.023539916793072244 0 -0.039410766057077412 -0.024136788785445222 0 -0.036953133476541965 -0.024868718043492253 0 -0.037739957261574537 -0.023539916793072244 0 -0.038992490456022967 -0.0225083356057449 0 -0.039410766057077412 -0.024136788785445222 0 -0.037119835742273725 -0.022448312315546375 0 -0.037739957261574537 -0.023539916793072244 0 -0.038992490456022967 -0.0225083356057449 0 -0.038645666207305009 -0.021227781744952299 0 -0.037119835742273725 -0.022448312315546375 0 -0.038992490456022967 -0.0225083356057449 0 -0.038992490456022967 -0.0225083356057449 0 -0.040469250079992039 -0.022394338706320776 0 -0.039410766057077412 -0.024136788785445222 0 -0.04018099368141511 -0.021552558702496335 0 -0.038992490456022967 -0.0225083356057449 0 -0.040469250079992039 -0.022394338706320776 0 -0.041636013580089747 -0.022500160023849729 0 -0.040475786096365159 -0.021846499027144251 0 -0.040248581821197643 -0.023001122853752297 0 -0.04168879488198976 -0.023678985116235302 0 -0.040248581821197643 -0.023001122853752297 0 -0.039363915837829867 -0.024342546294570857 0 -0.039363915837829867 -0.024342546294570857 0 -0.037806697101330847 -0.022568258431743961 0 -0.03697576095673976 -0.024619696502001222 0 -0.040248581821197643 -0.023001122853752297 0 -0.039363915837829867 -0.024342546294570857 0 -0.037806697101330847 -0.022568258431743961 0 -0.039912808426992616 -0.023003678415874935 0 -0.037401035974450964 -0.02372562420186768 0 -0.040475786096365159 -0.021846499027144251 0 -0.040248581821197643 -0.023001122853752297 0 -0.037806697101330847 -0.022568258431743961 0 -0.036444368788625364 -0.023698599565852491 0 -0.036953133476541965 -0.024868718043492253 0 -0.035441675939379275 -0.02427883955202317 0 -0.037401035974450964 -0.02372562420186768 0 -0.035365670614562791 -0.024516637005062552 0 -0.037806697101330847 -0.022568258431743961 0 -0.03697576095673976 -0.024619696502001222 0 -0.035146060025993596 -0.024569930084084087 0 -0.035146060025993596 -0.024569930084084087 0 -0.035405835010337949 -0.025597250226016645 0 -0.03384214649488352 -0.024759599240612565 0 -0.03697576095673976 -0.024619696502001222 0 -0.035146060025993596 -0.024569930084084087 0 -0.035405835010337949 -0.025597250226016645 0 -0.035146060025993596 -0.024569930084084087 0 -0.035441675939379275 -0.02427883955202317 0 -0.034138710941578124 -0.024346094527049559 0 -0.036953133476541965 -0.024868718043492253 0 -0.035146060025993596 -0.024569930084084087 0 -0.035441675939379275 -0.02427883955202317 0 -0.034755248020052518 -0.026977517360909073 0 -0.035405835010337949 -0.025597250226016645 0 -0.03602855699876642 -0.026778783827542434 0 -0.034755248020052518 -0.026977517360909073 0 -0.03602855699876642 -0.026778783827542434 0 -0.035382720859725492 -0.028071187941275198 0 -0.03697576095673976 -0.024619696502001222 0 -0.035405835010337949 -0.025597250226016645 0 -0.037439741805083589 -0.025791069474504526 0 -0.037439741805083589 -0.025791069474504526 0 -0.03602855699876642 -0.026778783827542434 0 -0.037211378578386932 -0.027378750612562446 0 -0.035405835010337949 -0.025597250226016645 0 -0.037439741805083589 -0.025791069474504526 0 -0.03602855699876642 -0.026778783827542434 0 -0.037439741805083589 -0.025791069474504526 0 -0.039689067003614367 -0.02617228160465062 0 -0.037211378578386932 -0.027378750612562446 0 -0.039363915837829867 -0.024342546294570857 0 -0.03697576095673976 -0.024619696502001222 0 -0.037439741805083589 -0.025791069474504526 0 -0.039363915837829867 -0.024342546294570857 0 -0.037439741805083589 -0.025791069474504526 0 -0.039689067003614367 -0.02617228160465062 0 -0.039363915837829867 -0.024342546294570857 0 -0.039689067003614367 -0.02617228160465062 0 -0.041330558886681169 -0.024819615337775901 0 -0.04168879488198976 -0.023678985116235302 0 -0.039363915837829867 -0.024342546294570857 0 -0.041330558886681169 -0.024819615337775901 0 -0.039689067003614367 -0.02617228160465062 0 -0.041330558886681169 -0.024819615337775901 0 -0.042457363110802629 -0.025359460320171133 0 -0.039689067003614367 -0.02617228160465062 0 -0.038661608144587627 -0.027903141417013482 0 -0.039729821074612391 -0.027737792437964044 0 -0.03971630382129545 -0.025998162330040452 0 -0.041050921409190012 -0.026617459343913838 0 -0.038661608144587627 -0.027903141417013482 0 -0.038986581855991242 -0.029093746504131896 0 -0.037835199312498402 -0.028982793825717702 0 -0.038661608144587627 -0.027903141417013482 0 -0.038986581855991242 -0.029093746504131896 0 -0.039729821074612391 -0.027737792437964044 0 -0.037835199312498402 -0.028982793825717702 0 -0.036746573079456057 -0.028703525559430398 0 -0.036343854416339784 -0.029973338818631002 0 -0.038661608144587627 -0.027903141417013482 0 -0.037835199312498402 -0.028982793825717702 0 -0.036746573079456057 -0.028703525559430398 0 -0.039689067003614367 -0.02617228160465062 0 -0.038661608144587627 -0.027903141417013482 0 -0.037211378578386932 -0.027378750612562446 0 -0.038661608144587627 -0.027903141417013482 0 -0.037211378578386932 -0.027378750612562446 0 -0.036746573079456057 -0.028703525559430398 0 -0.037211378578386932 -0.027378750612562446 0 -0.036746573079456057 -0.028703525559430398 0 -0.035382720859725492 -0.028071187941275198 0 -0.03602855699876642 -0.026778783827542434 0 -0.037211378578386932 -0.027378750612562446 0 -0.035382720859725492 -0.028071187941275198 0 -0.036746573079456057 -0.028703525559430398 0 -0.035407305865845611 -0.029259002417132064 0 -0.035382720859725492 -0.028071187941275198 0 -0.036746573079456057 -0.028703525559430398 0 -0.035407305865845611 -0.029259002417132064 0 -0.036343854416339784 -0.029973338818631002 0 -0.035407305865845611 -0.029259002417132064 0 -0.035382720859725492 -0.028071187941275198 0 -0.033518861590747087 -0.028888472202534161 0 -0.035407305865845611 -0.029259002417132064 0 -0.034063890743376658 -0.029817073808212913 0 -0.033518861590747087 -0.028888472202534161 0 -0.034755248020052518 -0.026977517360909073 0 -0.035382720859725492 -0.028071187941275198 0 -0.033518861590747087 -0.028888472202534161 0 -0.045914258178485948 -0.023954527840518922 0 -0.048560908358345076 -0.023059125445488059 0 -0.047939055140172375 -0.02215102988722803 0 -0.050619177736392518 -0.022815219286251322 0 -0.050694586566787589 -0.020861005919168542 0 -0.052441834430361621 -0.022045113597214894 0 -0.050619177736392518 -0.022815219286251322 0 -0.050694586566787589 -0.020861005919168542 0 -0.043791063838596288 -0.025682125494182972 0 -0.046337855448332285 -0.025301419472787197 0 -0.043774074269359996 -0.024476112546092811 0 -0.043925328860111162 -0.022731073796455503 0 -0.046337855448332285 -0.025301419472787197 0 -0.043774074269359996 -0.024476112546092811 0 -0.042999856046983899 -0.023676022394796627 0 -0.043774074269359996 -0.024476112546092811 0 -0.04289339577524514 -0.024774931314753057 0 -0.043791063838596288 -0.025682125494182972 0 -0.043774074269359996 -0.024476112546092811 0 -0.04289339577524514 -0.024774931314753057 0 -0.04168879488198976 -0.023678985116235302 0 -0.042999856046983899 -0.023676022394796627 0 -0.04289339577524514 -0.024774931314753057 0 -0.04168879488198976 -0.023678985116235302 0 -0.04289339577524514 -0.024774931314753057 0 -0.041330558886681169 -0.024819615337775901 0 -0.039689067003614367 -0.02617228160465062 0 -0.042457363110802629 -0.025359460320171133 0 -0.042561904597865678 -0.025737846505126644 0 -0.04289339577524514 -0.024774931314753057 0 -0.041330558886681169 -0.024819615337775901 0 -0.042457363110802629 -0.025359460320171133 0 -0.042457363110802629 -0.025359460320171133 0 -0.043356500801082325 -0.025279188313710219 0 -0.043911495687752718 -0.024980556154848562 0 -0.043791063838596288 -0.025682125494182972 0 -0.043356500801082325 -0.025279188313710219 0 -0.043911495687752718 -0.024980556154848562 0 -0.043791063838596288 -0.025682125494182972 0 -0.04289339577524514 -0.024774931314753057 0 -0.043356500801082325 -0.025279188313710219 0 -0.04289339577524514 -0.024774931314753057 0 -0.042457363110802629 -0.025359460320171133 0 -0.043356500801082325 -0.025279188313710219 0 -0.046742381612556873 -0.024828639410065637 0 -0.043911495687752718 -0.024980556154848562 0 -0.045827201498409964 -0.026124440228659476 0 -0.047939055140172375 -0.02215102988722803 0 -0.046742381612556873 -0.024828639410065637 0 -0.043911495687752718 -0.024980556154848562 0 -0.045914258178485948 -0.023954527840518922 0 -0.044085357104082012 -0.024889577321783169 0 -0.043911495687752718 -0.024980556154848562 0 -0.042561904597865678 -0.025737846505126644 0 -0.045827201498409964 -0.026124440228659476 0 -0.042457363110802629 -0.025359460320171133 0 -0.043911495687752718 -0.024980556154848562 0 -0.042561904597865678 -0.025737846505126644 0 -0.038986581855991242 -0.029093746504131896 0 -0.039729821074612391 -0.027737792437964044 0 -0.040473749659003758 -0.028780683851203748 0 -0.041050921409190012 -0.026617459343913838 0 -0.043090806942751581 -0.027321542300657007 0 -0.046742381612556873 -0.024828639410065637 0 -0.045827201498409964 -0.026124440228659476 0 -0.049138817900905796 -0.024883207444721975 0 -0.045827201498409964 -0.026124440228659476 0 -0.049138817900905796 -0.024883207444721975 0 -0.048850424146518613 -0.026132672393836681 0 -0.047939055140172375 -0.02215102988722803 0 -0.046742381612556873 -0.024828639410065637 0 -0.049138817900905796 -0.024883207444721975 0 -0.047939055140172375 -0.02215102988722803 0 -0.050619177736392518 -0.022815219286251322 0 -0.049138817900905796 -0.024883207444721975 0 -0.052583798826299835 -0.023877419344341663 0 -0.050619177736392518 -0.022815219286251322 0 -0.049138817900905796 -0.024883207444721975 0 -0.052583798826299835 -0.023877419344341663 0 -0.049138817900905796 -0.024883207444721975 0 -0.050928010869892237 -0.02513768124704675 0 -0.049138817900905796 -0.024883207444721975 0 -0.048850424146518613 -0.026132672393836681 0 -0.050928010869892237 -0.02513768124704675 0 -0.049421932479173605 -0.024233735850839967 0 -0.055400937198801237 -0.020883799388352681 0 -0.050357192665857801 -0.025126488324519219 0 -0.048850424146518613 -0.026132672393836681 0 -0.050928010869892237 -0.02513768124704675 0 -0.058853633296721927 -0.017146289089127527 0 -0.058699348705440677 -0.016663797795202918 0 -0.058066092943635059 -0.017151289302881699 0 -0.049421932479173605 -0.024233735850839967 0 -0.053859315018161685 -0.01916860508552988 0 -0.058853633296721927 -0.017146289089127527 0 -0.058699348705440677 -0.016663797795202918 0 -0.058708020589682837 -0.016457107421197534 0 -0.054949920715112198 -0.017461458772705312 0 -0.053859315018161685 -0.01916860508552988 0 -0.042440025166680904 -0.030793094501823142 0 -0.041446334314338897 -0.029804013704622927 0 -0.041051355578937 -0.030997796048868993 0 -0.049421932479173605 -0.024233735850839967 0 -0.044817686147307627 -0.028232754769518975 0 -0.040473749659003758 -0.028780683851203748 0 -0.041446334314338897 -0.029804013704622927 0 -0.040133142660962941 -0.030021400506268645 0 -0.043090806942751581 -0.027321542300657007 0 -0.044817686147307627 -0.028232754769518975 0 -0.038986581855991242 -0.029093746504131896 0 -0.040133142660962941 -0.030021400506268645 0 -0.038416818368718464 -0.030554048931496481 0 -0.038986581855991242 -0.029093746504131896 0 -0.040473749659003758 -0.028780683851203748 0 -0.040133142660962941 -0.030021400506268645 0 -0.040173499430891497 -0.031041568143854545 0 -0.039470414974930638 -0.031664016013745203 0 -0.038416818368718464 -0.030554048931496481 0 -0.040133142660962941 -0.030021400506268645 0 -0.040173499430891497 -0.031041568143854545 0 -0.038416818368718464 -0.030554048931496481 0 -0.038982894209967561 -0.031539870311062951 0 -0.038442373487178362 -0.030637072190947121 0 -0.041446334314338897 -0.029804013704622927 0 -0.040133142660962941 -0.030021400506268645 0 -0.041051355578937 -0.030997796048868993 0 -0.040133142660962941 -0.030021400506268645 0 -0.040173499430891497 -0.031041568143854545 0 -0.041051355578937 -0.030997796048868993 0 -0.040173499430891497 -0.031041568143854545 0 -0.041051355578937 -0.030997796048868993 0 -0.040482097952957187 -0.031799682822558711 0 -0.040482097952957187 -0.031799682822558711 0 -0.039470414974930638 -0.031664016013745203 0 -0.040312322769807153 -0.032635440503878219 0 -0.040173499430891497 -0.031041568143854545 0 -0.040482097952957187 -0.031799682822558711 0 -0.039470414974930638 -0.031664016013745203 0 -0.038568077244604371 -0.031698601197970057 0 -0.038513257579288737 -0.032447217200583994 0 -0.037598846960526615 -0.032236328955285769 0 -0.037673027435595467 -0.032186437342845924 0 -0.038187195373236386 -0.033173555306765634 0 -0.038513257579288737 -0.032447217200583994 0 -0.037598846960526615 -0.032236328955285769 0 -0.038704342328918721 -0.033104123255460458 0 -0.038568077244604371 -0.031698601197970057 0 -0.038513257579288737 -0.032447217200583994 0 -0.039127391852911655 -0.032731810128379203 0 -0.038982894209967561 -0.031539870311062951 0 -0.039660256458142834 -0.033190745347254878 0 -0.037598846960526615 -0.032236328955285769 0 -0.037880577011218899 -0.032647375150294491 0 -0.038047333433272761 -0.03260672546215649 0 -0.038513257579288737 -0.032447217200583994 0 -0.039127391852911655 -0.032731810128379203 0 -0.038704342328918721 -0.033104123255460458 0 -0.040312322769807153 -0.032635440503878219 0 -0.041645317182855995 -0.032281091718468477 0 -0.040981088448001399 -0.033559572918767676 0 -0.040482097952957187 -0.031799682822558711 0 -0.040312322769807153 -0.032635440503878219 0 -0.041645317182855995 -0.032281091718468477 0 -0.046767033435466267 -0.024137460246787965 0 -0.047108960389772046 -0.024332443116241952 0 -0.047247048799710603 -0.023657703507293803 0 -0.049885048648133375 -0.021797932677183399 0 -0.053859315018161685 -0.01916860508552988 0 -0.049421932479173605 -0.024233735850839967 0 -0.043585098333888392 -0.028807212799032065 0 -0.047097005409215222 -0.023506186692637952 0 -0.046767033435466267 -0.024137460246787965 0 -0.047247048799710603 -0.023657703507293803 0 -0.041051355578937 -0.030997796048868993 0 -0.040482097952957187 -0.031799682822558711 0 -0.041645317182855995 -0.032281091718468477 0 -0.042440025166680904 -0.030793094501823142 0 -0.041051355578937 -0.030997796048868993 0 -0.041645317182855995 -0.032281091718468477 0 -0.034014369764994626 -0.030894269386773945 0 -0.035064311164732666 -0.030226576756208785 0 -0.035527233778901011 -0.031080290487885659 0 -0.034014369764994626 -0.030894269386773945 0 -0.035527233778901011 -0.031080290487885659 0 -0.034528393025769051 -0.031777604591230565 0 -0.034014369764994626 -0.030894269386773945 0 -0.034063890743376658 -0.029817073808212913 0 -0.035064311164732666 -0.030226576756208785 0 -0.035407305865845611 -0.029259002417132064 0 -0.034063890743376658 -0.029817073808212913 0 -0.035064311164732666 -0.030226576756208785 0 -0.035064311164732666 -0.030226576756208785 0 -0.036343854416339784 -0.029973338818631002 0 -0.035527233778901011 -0.031080290487885659 0 -0.035407305865845611 -0.029259002417132064 0 -0.035064311164732666 -0.030226576756208785 0 -0.036343854416339784 -0.029973338818631002 0 -0.036343854416339784 -0.029973338818631002 0 -0.035527233778901011 -0.031080290487885659 0 -0.036858937871949278 -0.03076794079400846 0 -0.035527233778901011 -0.031080290487885659 0 -0.036858937871949278 -0.03076794079400846 0 -0.03634089582330375 -0.031571885007582096 0 -0.036858937871949278 -0.03076794079400846 0 -0.037268843050143934 -0.031296318824113198 0 -0.03634089582330375 -0.031571885007582096 0 -0.036343854416339784 -0.029973338818631002 0 -0.036858937871949278 -0.03076794079400846 0 -0.037598054215850843 -0.029916326616700746 0 -0.037835199312498402 -0.028982793825717702 0 -0.036343854416339784 -0.029973338818631002 0 -0.037598054215850843 -0.029916326616700746 0 -0.038986581855991242 -0.029093746504131896 0 -0.037598054215850843 -0.029916326616700746 0 -0.038416818368718464 -0.030554048931496481 0 -0.038986581855991242 -0.029093746504131896 0 -0.037835199312498402 -0.028982793825717702 0 -0.037598054215850843 -0.029916326616700746 0 -0.038416818368718464 -0.030554048931496481 0 -0.037268843050143934 -0.031296318824113198 0 -0.037885181840680009 -0.031559849954881952 0 -0.036858937871949278 -0.03076794079400846 0 -0.037598054215850843 -0.029916326616700746 0 -0.038416818368718464 -0.030554048931496481 0 -0.036858937871949278 -0.03076794079400846 0 -0.038416818368718464 -0.030554048931496481 0 -0.037268843050143934 -0.031296318824113198 0 -0.038568077244604371 -0.031698601197970057 0 -0.038416818368718464 -0.030554048931496481 0 -0.037885181840680009 -0.031559849954881952 0 -0.037268843050143934 -0.031296318824113198 0 -0.037885181840680009 -0.031559849954881952 0 -0.036906457652015813 -0.032004834040249515 0 -0.037885181840680009 -0.031559849954881952 0 -0.037598846960526615 -0.032236328955285769 0 -0.036906457652015813 -0.032004834040249515 0 -0.038568077244604371 -0.031698601197970057 0 -0.037885181840680009 -0.031559849954881952 0 -0.037598846960526615 -0.032236328955285769 0 -0.037598846960526615 -0.032236328955285769 0 -0.037729277922950756 -0.032638550006422712 0 -0.036906457652015813 -0.032004834040249515 0 -0.036886113670635601 -0.032510454557495252 0 -0.036839769995802338 -0.032019806502016482 0 -0.037598846960526615 -0.032236328955285769 0 -0.037729277922950756 -0.032638550006422712 0 -0.037880577011218899 -0.032647375150294491 0 -0.036104171164012336 -0.03270614322149961 0 -0.036071734108674251 -0.032517283408569561 0 -0.036906457652015813 -0.032004834040249515 0 -0.036071734108674251 -0.032517283408569561 0 -0.036092305504159608 -0.0321640641929518 0 -0.036906457652015813 -0.032004834040249515 0 -0.036071734108674251 -0.032517283408569561 0 -0.035522488952260782 -0.032585520901740821 0 -0.03577761863097613 -0.032775707719917314 0 -0.036071734108674251 -0.032517283408569561 0 -0.036092305504159608 -0.0321640641929518 0 -0.035522488952260782 -0.032585520901740821 0 -0.036092305504159608 -0.0321640641929518 0 -0.03634089582330375 -0.031571885007582096 0 -0.035498375428291595 -0.031953830391703686 0 -0.036092305504159608 -0.0321640641929518 0 -0.036906457652015813 -0.032004834040249515 0 -0.03634089582330375 -0.031571885007582096 0 -0.037268843050143934 -0.031296318824113198 0 -0.036906457652015813 -0.032004834040249515 0 -0.03634089582330375 -0.031571885007582096 0 -0.035527233778901011 -0.031080290487885659 0 -0.03634089582330375 -0.031571885007582096 0 -0.035498375428291595 -0.031953830391703686 0 -0.035527233778901011 -0.031080290487885659 0 -0.035498375428291595 -0.031953830391703686 0 -0.034528393025769051 -0.031777604591230565 0 -0.035498375428291595 -0.031953830391703686 0 -0.03483769673448163 -0.032358429816394425 0 -0.034528393025769051 -0.031777604591230565 0 -0.035498375428291595 -0.031953830391703686 0 -0.035522488952260782 -0.032585520901740821 0 -0.03483769673448163 -0.032358429816394425 0 -0.035522488952260782 -0.032585520901740821 0 -0.03483769673448163 -0.032358429816394425 0 -0.034768194173476499 -0.032850958194800307 0 -0.036092305504159608 -0.0321640641929518 0 -0.035498375428291595 -0.031953830391703686 0 -0.035522488952260782 -0.032585520901740821 0 -0.03483769673448163 -0.032358429816394425 0 -0.034768194173476499 -0.032850958194800307 0 -0.033847317350452107 -0.032451992634443212 0 -0.03483769673448163 -0.032358429816394425 0 -0.034528393025769051 -0.031777604591230565 0 -0.033847317350452107 -0.032451992634443212 0 -0.034528393025769051 -0.031777604591230565 0 -0.033505677215344178 -0.031723989575062075 0 -0.033847317350452107 -0.032451992634443212 0 -0.034014369764994626 -0.030894269386773945 0 -0.034528393025769051 -0.031777604591230565 0 -0.033505677215344178 -0.031723989575062075 0 -0.034783518340728452 -0.033338405312174232 0 -0.033957534221308448 -0.033085079224432802 0 -0.033432313899877587 -0.03373847739800883 0 -0.034783518340728452 -0.033338405312174232 0 -0.034768194173476499 -0.032850958194800307 0 -0.033957534221308448 -0.033085079224432802 0 -0.034768194173476499 -0.032850958194800307 0 -0.033957534221308448 -0.033085079224432802 0 -0.033847317350452107 -0.032451992634443212 0 -0.035522488952260782 -0.032585520901740821 0 -0.034768194173476499 -0.032850958194800307 0 -0.03540143048453967 -0.032996760031405337 0 -0.034783518340728452 -0.033338405312174232 0 -0.03540143048453967 -0.032996760031405337 0 -0.035163802852100148 -0.03315842783675195 0 -0.034783518340728452 -0.033338405312174232 0 -0.034768194173476499 -0.032850958194800307 0 -0.03540143048453967 -0.032996760031405337 0 -0.03540143048453967 -0.032996760031405337 0 -0.035538888344441993 -0.032985511958179066 0 -0.035163802852100148 -0.03315842783675195 0 -0.03540143048453967 -0.032996760031405337 0 -0.035538888344441993 -0.032985511958179066 0 -0.035764913382213534 -0.032887883292068681 0 -0.03540143048453967 -0.032996760031405337 0 -0.03577761863097613 -0.032775707719917314 0 -0.035764913382213534 -0.032887883292068681 0 -0.035522488952260782 -0.032585520901740821 0 -0.03540143048453967 -0.032996760031405337 0 -0.03577761863097613 -0.032775707719917314 0 -0.036104171164012336 -0.03270614322149961 0 -0.036071734108674251 -0.032517283408569561 0 -0.03577761863097613 -0.032775707719917314 0 -0.036886113670635601 -0.032510454557495252 0 -0.036759367241084868 -0.033116277858818398 0 -0.036104171164012336 -0.03270614322149961 0 -0.035764913382213534 -0.032887883292068681 0 -0.035663262567829236 -0.03292655120652252 0 -0.037729277922950756 -0.032638550006422712 0 -0.037880577011218899 -0.032647375150294491 0 -0.038022351348116365 -0.0326426293690317 0 -0.036104171164012336 -0.03270614322149961 0 -0.03577761863097613 -0.032775707719917314 0 -0.035764913382213534 -0.032887883292068681 0 -0.035764913382213534 -0.032887883292068681 0 -0.035643910623588244 -0.032920007717371635 0 -0.035663262567829236 -0.03292655120652252 0 -0.035538888344441993 -0.032985511958179066 0 -0.035764913382213534 -0.032887883292068681 0 -0.035643910623588244 -0.032920007717371635 0 -0.035538888344441993 -0.032985511958179066 0 -0.035643910623588244 -0.032920007717371635 0 -0.035547060368617066 -0.032892264399930732 0 -0.035643910623588244 -0.032920007717371635 0 -0.035547060368617066 -0.032892264399930732 0 -0.035663262567829236 -0.03292655120652252 0 -0.035538888344441993 -0.032985511958179066 0 -0.035547060368617066 -0.032892264399930732 0 -0.035493026784645811 -0.032863057704148969 0 -0.035547060368617066 -0.032892264399930732 0 -0.035493026784645811 -0.032863057704148969 0 -0.035413177422870284 -0.032795947823842098 0 -0.035493026784645811 -0.032863057704148969 0 -0.035499829552543542 -0.032583779140885678 0 -0.035413177422870284 -0.032795947823842098 0 -0.02624037627622073 0.0052225214703572297 0 -0.027367657193248792 0.0051009896035956155 0 -0.026807549128071449 0.0060859999729869956 0 -0.029726601685373534 -0.01404927613306909 0 -0.031632141544965006 -0.013849730714539123 0 -0.035493026784645811 -0.032863057704148969 0 -0.035499829552543542 -0.032583779140885678 0 -0.035254676848718462 -0.033069824507291977 0 -0.035538888344441993 -0.032985511958179066 0 -0.035370984249650246 -0.03302978745374064 0 -0.035163802852100148 -0.03315842783675195 0 -0.035493026784645811 -0.032863057704148969 0 -0.035370984249650246 -0.03302978745374064 0 -0.035254676848718462 -0.033069824507291977 0 -0.035538888344441993 -0.032985511958179066 0 -0.035493026784645811 -0.032863057704148969 0 -0.035370984249650246 -0.03302978745374064 0 -0.035370984249650246 -0.03302978745374064 0 -0.035163802852100148 -0.03315842783675195 0 -0.035254676848718462 -0.033069824507291977 0 -0.035163802852100148 -0.03315842783675195 0 -0.035254676848718462 -0.033069824507291977 0 -0.034928994163511563 -0.033125599102430237 0 -0.031632141544965006 -0.013849730714539123 0 -0.031110104505500974 -0.014977428119381391 0 -0.027367657193248792 0.0051009896035956155 0 -0.028044875251800876 0.0056455579450985071 0 -0.027598861698867876 0.0059145278132478321 0 -0.027367657193248792 0.0051009896035956155 0 -0.028434681174455158 0.00490177561621131 0 -0.028044875251800876 0.0056455579450985071 0 -0.031110104505500974 -0.014977428119381391 0 -0.028334633791773624 0.0083827037728561385 0 -0.028434681174455158 0.00490177561621131 0 -0.028044875251800876 0.0056455579450985071 0 -0.028652910040985979 0.0059654216024417252 0 -0.034041098491132564 -0.04015756053563866 0 -0.031110104505500974 -0.014977428119381391 0 -0.034783518340728452 -0.033338405312174232 0 -0.034225313729454442 -0.034666628777767002 0 -0.033432313899877587 -0.03373847739800883 0 -0.034783518340728452 -0.033338405312174232 0 -0.035163802852100148 -0.03315842783675195 0 -0.034928994163511563 -0.033125599102430237 0 -0.044330259985695786 -0.028645498914199669 0 -0.044890625799932256 -0.027468955391547822 0 -0.041775971661519536 -0.024424641840170579 0 -0.042946997872882739 -0.029629553367811777 0 -0.044764592406817072 -0.021780959001803098 0 -0.046853505644247791 -0.024643011154866015 0 -0.046856460802029459 -0.024812617428533138 0 -0.046781932661589753 -0.024897726833253416 0 -0.046853505644247791 -0.024643011154866015 0 -0.046533114112194407 -0.02463260923801297 0 -0.046781932661589753 -0.024897726833253416 0 -0.042559631170915956 -0.027290160794191307 0 -0.040817667080438311 -0.025561755825330608 0 -0.041583378114645596 -0.025381824374128593 0 -0.041042046448013757 -0.030278326589306799 0 -0.044764592406817072 -0.021780959001803098 0 -0.046856460802029459 -0.024812617428533138 0 -0.047027094255303138 -0.024825083950971188 0 -0.046781932661589753 -0.024897726833253416 0 -0.046853505644247791 -0.024643011154866015 0 -0.046856460802029459 -0.024812617428533138 0 -0.047027094255303138 -0.024825083950971188 0 -0.051172261677694474 -0.016551313428104383 0 -0.044764592406817072 -0.021780959001803098 0 -0.047108960389772046 -0.024332443116241952 0 -0.046853505644247791 -0.024643011154866015 0 -0.047027094255303138 -0.024825083950971188 0 -0.049885048648133375 -0.021797932677183399 0 -0.051172261677694474 -0.016551313428104383 0 -0.053861310210277333 -0.01685792214441165 0 -0.0538842566987515 -0.016218063759584605 0 -0.053525665287501141 -0.016679476404511447 0 -0.046767033435466267 -0.024137460246787965 0 -0.047108960389772046 -0.024332443116241952 0 -0.046853505644247791 -0.024643011154866015 0 -0.043585098333888392 -0.028807212799032065 0 -0.042946997872882739 -0.029629553367811777 0 -0.046767033435466267 -0.024137460246787965 0 -0.046853505644247791 -0.024643011154866015 0 -0.046533114112194407 -0.02463260923801297 0 -0.039127391852911655 -0.032731810128379203 0 -0.039661732656406247 -0.033563381504453996 0 -0.038704342328918721 -0.033104123255460458 0 -0.039660256458142834 -0.033190745347254878 0 -0.042946997872882739 -0.029629553367811777 0 -0.039661732656406247 -0.033563381504453996 0 -0.038704342328918721 -0.033104123255460458 0 -0.039552275929586773 -0.033790879332472774 0 -0.038187195373236386 -0.033173555306765634 0 -0.041042046448013757 -0.030278326589306799 0 -0.038047333433272761 -0.03260672546215649 0 -0.037994419664743921 -0.032674914938816621 0 -0.038234831764762632 -0.032722560712184254 0 -0.037880577011218899 -0.032647375150294491 0 -0.037994419664743921 -0.032674914938816621 0 -0.038022351348116365 -0.0326426293690317 0 -0.037880577011218899 -0.032647375150294491 0 -0.038047333433272761 -0.03260672546215649 0 -0.037994419664743921 -0.032674914938816621 0 -0.035547060368617066 -0.032892264399930732 0 -0.035663262567829236 -0.03292655120652252 0 -0.035406421936500843 -0.032819629456443913 0 -0.038022351348116365 -0.0326426293690317 0 -0.037941991855671632 -0.032421830863910935 0 -0.037996891672724319 -0.032297126591124471 0 -0.037775975334708306 -0.03317120737004163 0 -0.039771227893896019 -0.029952364445985636 0 -0.037994419664743921 -0.032674914938816621 0 -0.037948656129631546 -0.032588285772078868 0 -0.037814717550073713 -0.032520839652523156 0 -0.036759367241084868 -0.033116277858818398 0 -0.038902573050653318 -0.029951946126928815 0 -0.037994419664743921 -0.032674914938816621 0 -0.038022351348116365 -0.0326426293690317 0 -0.037948656129631546 -0.032588285772078868 0 -0.038022351348116365 -0.0326426293690317 0 -0.037948656129631546 -0.032588285772078868 0 -0.037942011576295342 -0.032528707265189138 0 -0.038022351348116365 -0.0326426293690317 0 -0.037942011576295342 -0.032528707265189138 0 -0.037941991855671632 -0.032421830863910935 0 -0.037994419664743921 -0.032674914938816621 0 -0.038234831764762632 -0.032722560712184254 0 -0.038208722891666075 -0.032776769479480279 0 -0.041042046448013757 -0.030278326589306799 0 -0.039771227893896019 -0.029952364445985636 0 -0.042946997872882739 -0.029629553367811777 0 -0.041042046448013757 -0.030278326589306799 0 -0.037948656129631546 -0.032588285772078868 0 -0.037942011576295342 -0.032528707265189138 0 -0.037814717550073713 -0.032520839652523156 0 -0.037942011576295342 -0.032528707265189138 0 -0.037814717550073713 -0.032520839652523156 0 -0.037941991855671632 -0.032421830863910935 0 -0.039771227893896019 -0.029952364445985636 0 -0.041595558848482914 -0.022561719198448436 0 -0.042559631170915956 -0.027290160794191307 0 -0.04291045524759738 -0.026548737663761382 0 -0.041583378114645596 -0.025381824374128593 0 -0.042258179418689881 -0.018938652035855642 0 -0.04186414395499561 -0.018401248006917829 0 -0.040970298108606161 -0.019212561769618469 0 -0.040550941127471929 -0.024796908547861009 0 -0.041595558848482914 -0.022561719198448436 0 -0.040654874560582782 -0.025914047392051633 0 -0.040960396366062281 -0.025259006568284399 0 -0.040137804779614532 -0.02545473998749188 0 -0.039771227893896019 -0.029952364445985636 0 -0.040550941127471929 -0.024796908547861009 0 -0.037814717550073713 -0.032520839652523156 0 -0.037881489985591474 -0.032322957185788301 0 -0.037941991855671632 -0.032421830863910935 0 -0.042258179418689881 -0.018938652035855642 0 -0.04186414395499561 -0.018401248006917829 0 -0.042528078637338658 -0.018438021416113715 0 -0.040550941127471929 -0.024796908547861009 0 -0.042724364745149367 -0.019259698523346167 0 -0.04186414395499561 -0.018401248006917829 0 -0.041301162010948939 -0.018051294469573546 0 -0.040970298108606161 -0.019212561769618469 0 -0.035042099680961378 -0.032796934121212658 0 -0.035413177422870284 -0.032795947823842098 0 -0.034771585699640589 -0.03200142858922278 0 -0.035547060368617066 -0.032892264399930732 0 -0.035406421936500843 -0.032819629456443913 0 -0.035413177422870284 -0.032795947823842098 0 -0.040550941127471929 -0.024796908547861009 0 -0.038902573050653318 -0.029951946126928815 0 -0.037881489985591474 -0.032322957185788301 0 -0.037941991855671632 -0.032421830863910935 0 -0.037996891672724319 -0.032297126591124471 0 -0.042182303914837807 -0.01914167551891811 0 -0.042928507309125799 -0.01892281475510085 0 -0.042528078637338658 -0.018438021416113715 0 -0.038902573050653318 -0.029951946126928815 0 -0.034748981528303809 -0.032202918358559054 0 -0.029726601685373534 -0.01404927613306909 0 -0.03508410390121313 -0.0095185769165680775 0 -0.042928507309125799 -0.01892281475510085 0 -0.042528078637338658 -0.018438021416113715 0 -0.042260265645787227 -0.017300758197176913 0 -0.02624037627622073 0.0052225214703572297 0 -0.025047287506341422 0.0053330076285432295 0 -0.025540575437805049 0.0058342607161809383 0 -0.035499829552543542 -0.032583779140885678 0 -0.035413177422870284 -0.032795947823842098 0 -0.034771585699640589 -0.03200142858922278 0 -0.038902573050653318 -0.029951946126928815 0 -0.03508410390121313 -0.0095185769165680775 0 -0.03508410390121313 -0.0095185769165680775 0 -0.044230109864348194 -0.0081664987992683923 0 -0.041301162010948939 -0.018051294469573546 0 -0.042260265645787227 -0.017300758197176913 0 -0.040702933457689584 -0.017043384013895192 0 -0.04186414395499561 -0.018401248006917829 0 -0.041301162010948939 -0.018051294469573546 0 -0.042260265645787227 -0.017300758197176913 0 -0.04186414395499561 -0.018401248006917829 0 -0.042528078637338658 -0.018438021416113715 0 -0.042260265645787227 -0.017300758197176913 0 -0.040702933457689584 -0.017043384013895192 0 -0.04025654044547957 -0.017605498136674974 0 -0.039714290777213092 -0.01723784036741232 0 -0.040702933457689584 -0.017043384013895192 0 -0.040636585234814795 -0.018038487384460858 0 -0.04025654044547957 -0.017605498136674974 0 -0.040636585234814795 -0.018038487384460858 0 -0.04025654044547957 -0.017605498136674974 0 -0.039943178311680504 -0.018271414411048209 0 -0.041301162010948939 -0.018051294469573546 0 -0.040702933457689584 -0.017043384013895192 0 -0.040636585234814795 -0.018038487384460858 0 -0.041301162010948939 -0.018051294469573546 0 -0.040636585234814795 -0.018038487384460858 0 -0.040970298108606161 -0.019212561769618469 0 -0.041595558848482914 -0.022561719198448436 0 -0.043011770937263286 -0.016237860485234797 0 -0.040636585234814795 -0.018038487384460858 0 -0.040970298108606161 -0.019212561769618469 0 -0.039943178311680504 -0.018271414411048209 0 -0.044764592406817072 -0.021780959001803098 0 -0.043011770937263286 -0.016237860485234797 0 -0.043334103781047385 -0.021115025526203052 0 -0.044641297798565627 -0.020800260214269069 0 -0.04179784079821381 -0.018350774930146113 0 -0.044764592406817072 -0.021780959001803098 0 -0.041595558848482914 -0.022561719198448436 0 -0.053473159735784703 -0.007058184017353638 0 -0.053463623547237535 -0.0071425025165678842 0 -0.053571370994679318 -0.0070827065257682165 0 -0.044764592406817072 -0.021780959001803098 0 -0.047540164478876899 -0.012045157078064096 0 -0.047382013138446401 -0.017193005686627814 0 -0.048404911797251697 -0.016955921335542495 0 -0.047474438722288251 -0.016026257400376217 0 -0.051172261677694474 -0.016551313428104383 0 -0.047540164478876899 -0.012045157078064096 0 -0.04681379410267205 -0.019324649136461276 0 -0.044587455366309939 -0.015324734218633162 0 -0.043177819634039424 -0.015803623711025973 0 -0.047540164478876899 -0.012045157078064096 0 -0.044970501324297932 -0.01352045471301766 0 -0.044587455366309939 -0.015324734218633162 0 -0.043177819634039424 -0.015803623711025973 0 -0.043315498256422086 -0.014242081315901427 0 -0.053463623547237535 -0.0071425025165678842 0 -0.053598004315212347 -0.0071129282490812627 0 -0.053571370994679318 -0.0070827065257682165 0 -0.047587310417478761 -0.011036854897655969 0 -0.047623255899202993 -0.010612759089970485 0 -0.046651842917832365 -0.010111838815807253 0 -0.044230109864348194 -0.0081664987992683923 0 -0.043272359889976492 -0.0072170613799463551 0 -0.040702933457689584 -0.017043384013895192 0 -0.039714290777213092 -0.01723784036741232 0 -0.039170130702939537 -0.01676484289343155 0 -0.047475551554420264 -0.010550242701489959 0 -0.04749933614384403 -0.010322648744715932 0 -0.046454920093238247 -0.0095921907063561684 0 -0.047540164478876899 -0.012045157078064096 0 -0.050347645476304291 -0.0089367700250327278 0 -0.047623255899202993 -0.010612759089970485 0 -0.046454920093238247 -0.0095921907063561684 0 -0.046651842917832365 -0.010111838815807253 0 -0.053463623547237535 -0.0071425025165678842 0 -0.053550220534635477 -0.0071738209623886905 0 -0.053598004315212347 -0.0071129282490812627 0 -0.044970501324297932 -0.01352045471301766 0 -0.04669968565564956 -0.0095717038126735925 0 -0.04025654044547957 -0.017605498136674974 0 -0.039943178311680504 -0.018271414411048209 0 -0.039650023742568555 -0.017733572885060393 0 -0.043011770937263286 -0.016237860485234797 0 -0.043356647520187835 -0.015181714688714711 0 -0.043011770937263286 -0.016237860485234797 0 -0.044970501324297932 -0.01352045471301766 0 -0.043511556593181365 -0.015791832154444133 0 -0.042802657534864723 -0.015192250181194321 0 -0.042846512950945721 -0.014682428945297218 0 -0.044970501324297932 -0.01352045471301766 0 -0.043356647520187835 -0.015181714688714711 0 -0.043356647520187835 -0.015181714688714711 0 -0.042241046252650703 -0.016900129203303162 0 -0.04025654044547957 -0.017605498136674974 0 -0.039650023742568555 -0.017733572885060393 0 -0.039714290777213092 -0.01723784036741232 0 -0.039686638440639507 -0.017669828932847041 0 -0.039714290777213092 -0.01723784036741232 0 -0.039170130702939537 -0.01676484289343155 0 -0.043356647520187835 -0.015181714688714711 0 -0.043272359889976492 -0.0072170613799463551 0 -0.04749933614384403 -0.010322648744715932 0 -0.046454920093238247 -0.0095921907063561684 0 -0.047012377531838997 -0.0094207467371601183 0 -0.050347645476304291 -0.0089367700250327278 0 -0.050049023213338636 -0.0044702240181080473 0 -0.046454920093238247 -0.0095921907063561684 0 -0.046651842917832365 -0.010111838815807253 0 -0.045788122337380215 -0.0091995557219694997 0 -0.053661583506061317 -0.007150764822238918 0 -0.053668346463324093 -0.0072951658717935498 0 -0.053650617381411178 -0.007276977988516611 0 -0.053661583506061317 -0.007150764822238918 0 -0.053550220534635477 -0.0071738209623886905 0 -0.053650617381411178 -0.007276977988516611 0 -0.053661583506061317 -0.007150764822238918 0 -0.053669792497427593 -0.0070914622047165551 0 -0.053598004315212347 -0.0071129282490812627 0 -0.053661583506061317 -0.007150764822238918 0 -0.053550220534635477 -0.0071738209623886905 0 -0.053598004315212347 -0.0071129282490812627 0 -0.053856956537753908 -0.0069878113558232658 0 -0.053781539615082689 -0.006998591595361669 0 -0.053794702661759682 -0.0069964332713347939 0 -0.053661583506061317 -0.007150764822238918 0 -0.053781539615082689 -0.006998591595361669 0 -0.053668346463324093 -0.0072951658717935498 0 -0.05374498418540568 -0.0085714352302760522 0 -0.052679583123786122 -0.0029648392868928558 0 -0.053661583506061317 -0.007150764822238918 0 -0.053669792497427593 -0.0070914622047165551 0 -0.053781539615082689 -0.006998591595361669 0 -0.053856956537753908 -0.0069878113558232658 0 -0.053781539615082689 -0.006998591595361669 0 -0.053908333855220612 -0.0069256281031252927 0 -0.053710093070827483 -0.0070538670856439166 0 -0.053789642784347023 -0.0070454531136383723 0 -0.053911895695870543 -0.007119144890340357 0 -0.053781539615082689 -0.006998591595361669 0 -0.053710093070827483 -0.0070538670856439166 0 -0.053956527704940686 -0.0068083752440611777 0 -0.053972730069371908 -0.0069954517246452741 0 -0.053364465060853308 -0.0070712265757999111 0 -0.053669792497427593 -0.0070914622047165551 0 -0.053781539615082689 -0.006998591595361669 0 -0.053710093070827483 -0.0070538670856439166 0 -0.053710093070827483 -0.0070538670856439166 0 -0.053789642784347023 -0.0070454531136383723 0 -0.053654237856975581 -0.0070425959990925253 0 -0.053473159735784703 -0.007058184017353638 0 -0.053654237856975581 -0.0070425959990925253 0 -0.053571370994679318 -0.0070827065257682165 0 -0.053598004315212347 -0.0071129282490812627 0 -0.053640377309981398 -0.0070709309416159636 0 -0.053571370994679318 -0.0070827065257682165 0 -0.053710093070827483 -0.0070538670856439166 0 -0.053640377309981398 -0.0070709309416159636 0 -0.053654237856975581 -0.0070425959990925253 0 -0.053669792497427593 -0.0070914622047165551 0 -0.053598004315212347 -0.0071129282490812627 0 -0.053640377309981398 -0.0070709309416159636 0 -0.053669792497427593 -0.0070914622047165551 0 -0.053710093070827483 -0.0070538670856439166 0 -0.053640377309981398 -0.0070709309416159636 0 -0.053640377309981398 -0.0070709309416159636 0 -0.053654237856975581 -0.0070425959990925253 0 -0.053571370994679318 -0.0070827065257682165 0 -0.0538842566987515 -0.016218063759584605 0 -0.053393424432149464 -0.016319525671778995 0 -0.053525665287501141 -0.016679476404511447 0 -0.051172261677694474 -0.016551313428104383 0 -0.053955870160177159 -0.011021257393835204 0 -0.053473159735784703 -0.007058184017353638 0 -0.053654237856975581 -0.0070425959990925253 0 -0.053704002309188058 -0.0069666795375510852 0 -0.053955870160177159 -0.011021257393835204 0 -0.054490055126363485 -0.011737763669973443 0 -0.053789642784347023 -0.0070454531136383723 0 -0.053704002309188058 -0.0069666795375510852 0 -0.053961813034597683 -0.0069106087504633802 0 -0.053789642784347023 -0.0070454531136383723 0 -0.053654237856975581 -0.0070425959990925253 0 -0.053704002309188058 -0.0069666795375510852 0 -0.053393424432149464 -0.016319525671778995 0 -0.053186309943391664 -0.016770738519059161 0 -0.053525665287501141 -0.016679476404511447 0 -0.053393424432149464 -0.016319525671778995 0 -0.053186309943391664 -0.016770738519059161 0 -0.052892316371186326 -0.016405098252616875 0 -0.056725427002126759 -0.010371755196608077 0 -0.056667684827450021 -0.011015060030265915 0 -0.05717579476775491 -0.010386142608917596 0 -0.056667684827450021 -0.011015060030265915 0 -0.057157379551106127 -0.011213690204346401 0 -0.05717579476775491 -0.010386142608917596 0 -0.056725427002126759 -0.010371755196608077 0 -0.056667684827450021 -0.011015060030265915 0 -0.056345931359787764 -0.010267706657789 0 -0.056725427002126759 -0.010371755196608077 0 -0.056699508910719155 -0.009790615881797568 0 -0.056345931359787764 -0.010267706657789 0 -0.056667684827450021 -0.011015060030265915 0 -0.056312211071740982 -0.011393301634417263 0 -0.056732093584053782 -0.012225588641393314 0 -0.056667684827450021 -0.011015060030265915 0 -0.056345931359787764 -0.010267706657789 0 -0.056312211071740982 -0.011393301634417263 0 -0.056667684827450021 -0.011015060030265915 0 -0.057157379551106127 -0.011213690204346401 0 -0.056732093584053782 -0.012225588641393314 0 -0.057870317025586378 -0.012056752493695573 0 -0.057157379551106127 -0.011213690204346401 0 -0.057375813255946047 -0.01041308474993235 0 -0.057870317025586378 -0.012056752493695573 0 -0.057157379551106127 -0.011213690204346401 0 -0.056732093584053782 -0.012225588641393314 0 -0.055675779487002426 -0.014663385384628384 0 -0.054490055126363485 -0.011737763669973443 0 -0.057157379551106127 -0.011213690204346401 0 -0.05717579476775491 -0.010386142608917596 0 -0.057375813255946047 -0.01041308474993235 0 -0.055844282312922496 -0.011300719081917654 0 -0.054490055126363485 -0.011737763669973443 0 -0.053961813034597683 -0.0069106087504633802 0 -0.054186705753914606 -0.0070950327679931997 0 -0.053911895695870543 -0.007119144890340357 0 -0.053789642784347023 -0.0070454531136383723 0 -0.053961813034597683 -0.0069106087504633802 0 -0.053911895695870543 -0.007119144890340357 0 -0.054490055126363485 -0.011737763669973443 0 -0.056889939420090387 -0.006390848298404481 0 -0.05717579476775491 -0.010386142608917596 0 -0.057388041707283552 -0.01034626805909963 0 -0.056720534555481567 -0.0089525223111479747 0 -0.05717579476775491 -0.010386142608917596 0 -0.056699508910719155 -0.009790615881797568 0 -0.056720534555481567 -0.0089525223111479747 0 -0.056725427002126759 -0.010371755196608077 0 -0.05717579476775491 -0.010386142608917596 0 -0.056699508910719155 -0.009790615881797568 0 -0.056889939420090387 -0.006390848298404481 0 -0.053364465060853308 -0.0070712265757999111 0 -0.054197208503358039 -0.0067235023478344957 0 -0.053956527704940686 -0.0068083752440611777 0 -0.054061950697542577 -0.0069127194691845544 0 -0.053781539615082689 -0.006998591595361669 0 -0.053956527704940686 -0.0068083752440611777 0 -0.053908333855220612 -0.0069256281031252927 0 -0.053856956537753908 -0.0069878113558232658 0 -0.053908333855220612 -0.0069256281031252927 0 -0.054061950697542577 -0.0069127194691845544 0 -0.053856956537753908 -0.0069878113558232658 0 -0.054061950697542577 -0.0069127194691845544 0 -0.053959655744505383 -0.0070451419081442252 0 -0.053956527704940686 -0.0068083752440611777 0 -0.053908333855220612 -0.0069256281031252927 0 -0.054061950697542577 -0.0069127194691845544 0 -0.054197208503358039 -0.0067235023478344957 0 -0.054061950697542577 -0.0069127194691845544 0 -0.054373940795426103 -0.0068495176773188419 0 -0.054061950697542577 -0.0069127194691845544 0 -0.054373940795426103 -0.0068495176773188419 0 -0.054240332393038479 -0.0070277115416371343 0 -0.057849062793125912 -0.0046420151743886903 0 -0.056742996754178612 -0.0015488665065734558 0 -0.060699891203714787 -0.0018906062353494482 0 -0.058426156283903713 -0.0038933255507741554 0 -0.05782544614162699 -0.0018316696780972894 0 -0.060699891203714787 -0.0018906062353494482 0 -0.05782544614162699 -0.0018316696780972894 0 -0.057968241230878868 0.00073665285215003171 0 -0.060699891203714787 -0.0018906062353494482 0 -0.060545466048768662 -0.0057273448555721787 0 -0.058426156283903713 -0.0038933255507741554 0 -0.060545466048768662 -0.0057273448555721787 0 -0.058426156283903713 -0.0038933255507741554 0 -0.056462639523129451 -0.0067926365523886178 0 -0.063828441667089411 -0.0051410845870361261 0 -0.060699891203714787 -0.0018906062353494482 0 -0.060545466048768662 -0.0057273448555721787 0 -0.056889939420090387 -0.006390848298404481 0 -0.058904119606659679 -0.0070337681423141727 0 -0.056889939420090387 -0.006390848298404481 0 -0.057849062793125912 -0.0046420151743886903 0 -0.055001144460499002 -0.00012717146614868083 0 -0.056431631733826954 -0.00083163135936648795 0 -0.054994856338626587 -0.0021278281214099416 0 -0.056431631733826954 -0.00083163135936648795 0 -0.055995144920253835 -0.0034111818260387666 0 -0.054994856338626587 -0.0021278281214099416 0 -0.05782544614162699 -0.0018316696780972894 0 -0.056431631733826954 -0.00083163135936648795 0 -0.057968241230878868 0.00073665285215003171 0 -0.05782544614162699 -0.0018316696780972894 0 -0.056431631733826954 -0.00083163135936648795 0 -0.055995144920253835 -0.0034111818260387666 0 -0.058426156283903713 -0.0038933255507741554 0 -0.05782544614162699 -0.0018316696780972894 0 -0.055995144920253835 -0.0034111818260387666 0 -0.058426156283903713 -0.0038933255507741554 0 -0.055995144920253835 -0.0034111818260387666 0 -0.056462639523129451 -0.0067926365523886178 0 -0.055995144920253835 -0.0034111818260387666 0 -0.054994856338626587 -0.0021278281214099416 0 -0.054212076875590182 -0.0079868618133776999 0 -0.054999972873886978 -0.0021248728923301441 0 -0.055309054513346903 -0.0065168453455196349 0 -0.054999994925860836 -0.0021234299821946876 0 -0.056193267490944415 -0.004894734553180239 0 -0.054999995229213894 -0.0049563659007353577 0 -0.055995144920253835 -0.0034111818260387666 0 -0.054212076875590182 -0.0079868618133776999 0 -0.056462639523129451 -0.0067926365523886178 0 -0.054212076875590182 -0.0079868618133776999 0 -0.056462639523129451 -0.0067926365523886178 0 -0.056108969352664163 -0.0090565733982593058 0 -0.055309054513346903 -0.0065168453455196349 0 -0.055777301410632439 -0.0095306324948097668 0 -0.054212076875590182 -0.0079868618133776999 0 -0.056108969352664163 -0.0090565733982593058 0 -0.054163430123251428 -0.011331175933646236 0 -0.056193267490944415 -0.004894734553180239 0 -0.0549999363341808 -0.0077893282269107912 0 -0.057350499164701044 -0.0076822429124283487 0 -0.056193267490944415 -0.004894734553180239 0 -0.054999995229213894 -0.0049563659007353577 0 -0.0549999363341808 -0.0077893282269107912 0 -0.056391884055445679 -0.0093237112517217061 0 -0.056108969352664163 -0.0090565733982593058 0 -0.056345931359787764 -0.010267706657789 0 -0.056720534555481567 -0.0089525223111479747 0 -0.05630685949654176 -0.0085961648309495695 0 -0.056391884055445679 -0.0093237112517217061 0 -0.056699508910719155 -0.009790615881797568 0 -0.056391884055445679 -0.0093237112517217061 0 -0.056345931359787764 -0.010267706657789 0 -0.056699508910719155 -0.009790615881797568 0 -0.056720534555481567 -0.0089525223111479747 0 -0.056391884055445679 -0.0093237112517217061 0 -0.05630685949654176 -0.0085961648309495695 0 -0.056391884055445679 -0.0093237112517217061 0 -0.056108969352664163 -0.0090565733982593058 0 -0.05630685949654176 -0.0085961648309495695 0 -0.056462639523129451 -0.0067926365523886178 0 -0.056108969352664163 -0.0090565733982593058 0 -0.058904119606659679 -0.0070337681423141727 0 -0.056312876390206788 -0.0070295491210969748 0 -0.056108969352664163 -0.0090565733982593058 0 -0.055869646653736664 -0.011022896362075452 0 -0.054163430123251428 -0.011331175933646236 0 -0.056108969352664163 -0.0090565733982593058 0 -0.056345931359787764 -0.010267706657789 0 -0.055869646653736664 -0.011022896362075452 0 -0.056345931359787764 -0.010267706657789 0 -0.056312211071740982 -0.011393301634417263 0 -0.055869646653736664 -0.011022896362075452 0 -0.056005298351080889 -0.012447223805152939 0 -0.055869646653736664 -0.011022896362075452 0 -0.055195850875983166 -0.012561188809385004 0 -0.056312211071740982 -0.011393301634417263 0 -0.056005298351080889 -0.012447223805152939 0 -0.055869646653736664 -0.011022896362075452 0 -0.055869646653736664 -0.011022896362075452 0 -0.055195850875983166 -0.012561188809385004 0 -0.054163430123251428 -0.011331175933646236 0 -0.055195850875983166 -0.012561188809385004 0 -0.054163430123251428 -0.011331175933646236 0 -0.054330305854239952 -0.013793367903727658 0 -0.055195850875983166 -0.012561188809385004 0 -0.055521737246979501 -0.014084332512087232 0 -0.054330305854239952 -0.013793367903727658 0 -0.056005298351080889 -0.012447223805152939 0 -0.055195850875983166 -0.012561188809385004 0 -0.055521737246979501 -0.014084332512087232 0 -0.0549999363341808 -0.0077893282269107912 0 -0.057350499164701044 -0.0076822429124283487 0 -0.056341390962392421 -0.0094261870601949124 0 -0.057350499164701044 -0.0076822429124283487 0 -0.056341390962392421 -0.0094261870601949124 0 -0.058420778642990216 -0.01051544846923998 0 -0.055777301410632439 -0.0095306324948097668 0 -0.056391782518812023 -0.012161789177095933 0 -0.0549999363341808 -0.0077893282269107912 0 -0.056341390962392421 -0.0094261870601949124 0 -0.054999914202070455 -0.010622298394254655 0 -0.056341390962392421 -0.0094261870601949124 0 -0.054999914202070455 -0.010622298394254655 0 -0.056833715633820427 -0.012056137053486848 0 -0.054999914202070455 -0.010622298394254655 0 -0.056833715633820427 -0.012056137053486848 0 -0.054999865342990208 -0.013455217399925369 0 -0.056341390962392421 -0.0094261870601949124 0 -0.056833715633820427 -0.012056137053486848 0 -0.058420778642990216 -0.01051544846923998 0 -0.056943059566307248 -0.015036738530768159 0 -0.056833715633820427 -0.012056137053486848 0 -0.059347776323085293 -0.013351047011137783 0 -0.056943059566307248 -0.015036738530768159 0 -0.056833715633820427 -0.012056137053486848 0 -0.054999865342990208 -0.013455217399925369 0 -0.056391782518812023 -0.012161789177095933 0 -0.056995615526321576 -0.014443492233971813 0 -0.056833715633820427 -0.012056137053486848 0 -0.058420778642990216 -0.01051544846923998 0 -0.059347776323085293 -0.013351047011137783 0 -0.055521737246979501 -0.014084332512087232 0 -0.054330305854239952 -0.013793367903727658 0 -0.054657192137271715 -0.015544656236834565 0 -0.055521737246979501 -0.014084332512087232 0 -0.054657192137271715 -0.015544656236834565 0 -0.055629747491305559 -0.015218397230895664 0 -0.055629747491305559 -0.015218397230895664 0 -0.056255123056000549 -0.015794984045303311 0 -0.056008578441834343 -0.015058148679919506 0 -0.055655360869723045 -0.016850627393440717 0 -0.055915879684492992 -0.015267425380203554 0 -0.055521737246979501 -0.014084332512087232 0 -0.056008578441834343 -0.015058148679919506 0 -0.056297321382377231 -0.013617127301313918 0 -0.055521737246979501 -0.014084332512087232 0 -0.055629747491305559 -0.015218397230895664 0 -0.056008578441834343 -0.015058148679919506 0 -0.056008578441834343 -0.015058148679919506 0 -0.056779079405125998 -0.014874154591175423 0 -0.056481480055870739 -0.016380584847208546 0 -0.054998950646345898 -0.017864968678643806 0 -0.056481480055870739 -0.016380584847208546 0 -0.056930804612713243 -0.017854541448370391 0 -0.054998950646345898 -0.017864968678643806 0 -0.056008578441834343 -0.015058148679919506 0 -0.056481480055870739 -0.016380584847208546 0 -0.056930804612713243 -0.017854541448370391 0 -0.058066092943635059 -0.017151289302881699 0 -0.05734121555978592 -0.015974901101102119 0 -0.056481480055870739 -0.016380584847208546 0 -0.056930804612713243 -0.017854541448370391 0 -0.05734121555978592 -0.015974901101102119 0 -0.058853633296721927 -0.017146289089127527 0 -0.058072170421611446 -0.018408820570902297 0 -0.058066092943635059 -0.017151289302881699 0 -0.056930804612713243 -0.017854541448370391 0 -0.058072170421611446 -0.018408820570902297 0 -0.058066092943635059 -0.017151289302881699 0 -0.058066092943635059 -0.017151289302881699 0 -0.05734121555978592 -0.015974901101102119 0 -0.058162958419222754 -0.015751491450514406 0 -0.058699348705440677 -0.016663797795202918 0 -0.058917130374090958 -0.015965025356260328 0 -0.058162958419222754 -0.015751491450514406 0 -0.058699348705440677 -0.016663797795202918 0 -0.058066092943635059 -0.017151289302881699 0 -0.058162958419222754 -0.015751491450514406 0 -0.056779079405125998 -0.014874154591175423 0 -0.056481480055870739 -0.016380584847208546 0 -0.05734121555978592 -0.015974901101102119 0 -0.05734121555978592 -0.015974901101102119 0 -0.057553952052800228 -0.014823750459299513 0 -0.058162958419222754 -0.015751491450514406 0 -0.056779079405125998 -0.014874154591175423 0 -0.05734121555978592 -0.015974901101102119 0 -0.057553952052800228 -0.014823750459299513 0 -0.057553952052800228 -0.014823750459299513 0 -0.058381945645201556 -0.013857907181413548 0 -0.057232216650109274 -0.013562115194179337 0 -0.056779079405125998 -0.014874154591175423 0 -0.057553952052800228 -0.014823750459299513 0 -0.057232216650109274 -0.013562115194179337 0 -0.058917130374090958 -0.015965025356260328 0 -0.058162958419222754 -0.015751491450514406 0 -0.058381945645201556 -0.013857907181413548 0 -0.057553952052800228 -0.014823750459299513 0 -0.058162958419222754 -0.015751491450514406 0 -0.058381945645201556 -0.013857907181413548 0 -0.053859315018161685 -0.01916860508552988 0 -0.056015112848510885 -0.015259079741951139 0 -0.053861310210277333 -0.01685792214441165 0 -0.053525665287501141 -0.016679476404511447 0 -0.053492452233174038 -0.017152862605571591 0 -0.053861310210277333 -0.01685792214441165 0 -0.053828238317776014 -0.017535491149990447 0 -0.053492452233174038 -0.017152862605571591 0 -0.053186309943391664 -0.016770738519059161 0 -0.053525665287501141 -0.016679476404511447 0 -0.053492452233174038 -0.017152862605571591 0 -0.057870317025586378 -0.012056752493695573 0 -0.058381945645201556 -0.013857907181413548 0 -0.057232216650109274 -0.013562115194179337 0 -0.055675779487002426 -0.014663385384628384 0 -0.056015112848510885 -0.015259079741951139 0 -0.056732093584053782 -0.012225588641393314 0 -0.056297321382377231 -0.013617127301313918 0 -0.057232216650109274 -0.013562115194179337 0 -0.057870317025586378 -0.012056752493695573 0 -0.056732093584053782 -0.012225588641393314 0 -0.057232216650109274 -0.013562115194179337 0 -0.056005298351080889 -0.012447223805152939 0 -0.056732093584053782 -0.012225588641393314 0 -0.056297321382377231 -0.013617127301313918 0 -0.056312211071740982 -0.011393301634417263 0 -0.056005298351080889 -0.012447223805152939 0 -0.056732093584053782 -0.012225588641393314 0 -0.056005298351080889 -0.012447223805152939 0 -0.055521737246979501 -0.014084332512087232 0 -0.056297321382377231 -0.013617127301313918 0 -0.056779079405125998 -0.014874154591175423 0 -0.056297321382377231 -0.013617127301313918 0 -0.057232216650109274 -0.013562115194179337 0 -0.056008578441834343 -0.015058148679919506 0 -0.056779079405125998 -0.014874154591175423 0 -0.056297321382377231 -0.013617127301313918 0 0.0068680204220629435 -0.013051401864959775 0 0.0056674607997878905 -0.012551729137638759 0 0.0066831673555487435 -0.01194634874418634 0 0.0068680204220629435 -0.013051401864959775 0 0.0060125823461035224 -0.013891400556634946 0 0.0056674607997878905 -0.012551729137638759 0 0.0068680204220629435 -0.013051401864959775 0 0.0075154395456654898 -0.012239752329437652 0 0.0083940963595032867 -0.013151595880174812 0 0.0068680204220629435 -0.013051401864959775 0 0.0066831673555487435 -0.01194634874418634 0 0.0075154395456654898 -0.012239752329437652 0 0.0068680204220629435 -0.013051401864959775 0 0.0083940963595032867 -0.013151595880174812 0 0.0077907007174029975 -0.014297911776071353 0 0.0068680204220629435 -0.013051401864959775 0 0.006680213175653647 -0.014340202958329631 0 0.0077907007174029975 -0.014297911776071353 0 0.0060125823461035224 -0.013891400556634946 0 0.0049357392783167453 -0.014443759171826009 0 0.0056674607997878905 -0.012551729137638759 0 0.0068680204220629435 -0.013051401864959775 0 0.006680213175653647 -0.014340202958329631 0 0.0060125823461035224 -0.013891400556634946 0 -0.014195918357662372 -0.025306959111649589 0 -0.0073598799009483235 -0.022048254358428856 0 -0.022271273406353851 -0.033984142736292813 0 -0.02385588473920814 -0.033057632741713527 0 -0.021982620943037177 -0.032191736855984428 0 -0.026760554316798236 -0.032430989148637422 0 -0.027547829147435973 -0.032419940467517845 0 -0.027571786277392558 -0.031676233059373511 0 -0.02202265096271034 -0.029978718025017965 0 -0.023351474835932026 -0.028265180196953121 0 -0.016592341386127703 -0.026328665860406195 0 -0.018387007896533039 -0.025296141585134269 0 -0.017616028372490964 -0.026601072171632306 0 -0.014195918357662372 -0.025306959111649589 0 -0.021675225256590849 -0.029676933801808653 0 -0.018387007896533039 -0.025296141585134269 0 -0.017616028372490964 -0.026601072171632306 0 -0.018901077968469873 -0.025434698861593254 0 -0.02385588473920814 -0.033057632741713527 0 -0.021982620943037177 -0.032191736855984428 0 -0.023496904583549839 -0.031313300573127721 0 -0.021982620943037177 -0.032191736855984428 0 -0.023496904583549839 -0.031313300573127721 0 -0.021758389620180164 -0.030371727390250142 0 -0.023496904583549839 -0.031313300573127721 0 -0.025115903123577008 -0.030474061593151202 0 -0.023114017709320006 -0.030042735739731683 0 -0.023496904583549839 -0.031313300573127721 0 -0.021758389620180164 -0.030371727390250142 0 -0.023114017709320006 -0.030042735739731683 0 0.0065874184843189177 -0.011705564739762895 0 0.0066831673555487435 -0.01194634874418634 0 0.0068684460777323755 -0.011714817205848627 0 -0.0073598799009483235 -0.022048254358428856 0 -0.0077971048190645341 -0.021299168056614484 0 0.0056674607997878905 -0.012551729137638759 0 0.0065874184843189177 -0.011705564739762895 0 0.0066831673555487435 -0.01194634874418634 0 0.0066831673555487435 -0.01194634874418634 0 0.0075154395456654898 -0.012239752329437652 0 0.007258171038368867 -0.011504991525943377 0 0.007258171038368867 -0.011504991525943377 0 0.0068684460777323755 -0.011714817205848627 0 0.0069848052088763756 -0.011990261527219397 0 0.0066831673555487435 -0.01194634874418634 0 0.007258171038368867 -0.011504991525943377 0 0.0068684460777323755 -0.011714817205848627 0 0.007258171038368867 -0.011504991525943377 0 0.0071090433547980657 -0.011938374016875126 0 0.0069848052088763756 -0.011990261527219397 0 0.0074964096963751753 -0.011437183624978078 0 0.0081337694860426062 -0.010735028634608621 0 0.0097379225170208857 -0.0098310956715454562 0 0.0087718961329113932 -0.011825753131735851 0 0.010607573935247461 -0.011955908242111197 0 0.007258171038368867 -0.011504991525943377 0 0.0097379225170208857 -0.0098310956715454562 0 0.0087718961329113932 -0.011825753131735851 0 0.0075154395456654898 -0.012239752329437652 0 0.007258171038368867 -0.011504991525943377 0 0.0087718961329113932 -0.011825753131735851 0 0.011715343173058912 -0.010590439130082296 0 0.012050742238368498 -0.0089346661384841694 0 0.013461434535566915 -0.010870793079406709 0 0.014371110498689207 -0.010562295969501687 0 0.014964559987494665 -0.010371683412036177 0 0.014889624198666815 -0.011387147567999701 0 0.011190665014820784 -0.012288843814040603 0 0.014428750964482918 -0.01071608166409764 0 0.0081337694860426062 -0.010735028634608621 0 0.011190665014820784 -0.012288843814040603 0 0.0097379225170208857 -0.0098310956715454562 0 0.011715343173058912 -0.010590439130082296 0 0.012050742238368498 -0.0089346661384841694 0 0.0097379225170208857 -0.0098310956715454562 0 0.011715343173058912 -0.010590439130082296 0 0.010607573935247461 -0.011955908242111197 0 0.011715343173058912 -0.010590439130082296 0 0.012118231826450125 -0.011763613777577862 0 0.010607573935247461 -0.011955908242111197 0 0.011715343173058912 -0.010590439130082296 0 0.012118231826450125 -0.011763613777577862 0 0.013461434535566915 -0.010870793079406709 0 0.013310625865556933 -0.012520903241937546 0 0.012118231826450125 -0.011763613777577862 0 0.013461434535566915 -0.010870793079406709 0 0.013310625865556933 -0.012520903241937546 0 0.012118231826450125 -0.011763613777577862 0 0.01159268005616022 -0.013008842001807646 0 0.010607573935247461 -0.011955908242111197 0 0.01159268005616022 -0.013008842001807646 0 0.0098025958287129462 -0.01303088377088641 0 0.012118231826450125 -0.011763613777577862 0 0.010607573935247461 -0.011955908242111197 0 0.01159268005616022 -0.013008842001807646 0 0.01159268005616022 -0.013008842001807646 0 0.010343205607745751 -0.014083178644420673 0 0.011841655291718729 -0.014510613166780446 0 0.01159268005616022 -0.013008842001807646 0 0.0098025958287129462 -0.01303088377088641 0 0.010343205607745751 -0.014083178644420673 0 0.013310625865556933 -0.012520903241937546 0 0.01159268005616022 -0.013008842001807646 0 0.01305998733983812 -0.01364244973897903 0 0.01159268005616022 -0.013008842001807646 0 0.01305998733983812 -0.01364244973897903 0 0.011841655291718729 -0.014510613166780446 0 0.013310625865556933 -0.012520903241937546 0 0.01305998733983812 -0.01364244973897903 0 0.014424361125532277 -0.013426167711602282 0 0.0075154395456654898 -0.012239752329437652 0 0.0087718961329113932 -0.011825753131735851 0 0.0083940963595032867 -0.013151595880174812 0 0.0087718961329113932 -0.011825753131735851 0 0.0083940963595032867 -0.013151595880174812 0 0.0098025958287129462 -0.01303088377088641 0 0.0087718961329113932 -0.011825753131735851 0 0.010607573935247461 -0.011955908242111197 0 0.0098025958287129462 -0.01303088377088641 0 0.0083940963595032867 -0.013151595880174812 0 0.0098025958287129462 -0.01303088377088641 0 0.0091194882053967311 -0.013842845983036462 0 0.0098025958287129462 -0.01303088377088641 0 0.010343205607745751 -0.014083178644420673 0 0.0091194882053967311 -0.013842845983036462 0 0.010343205607745751 -0.014083178644420673 0 0.0091194882053967311 -0.013842845983036462 0 0.0092826220790998837 -0.014772527726086414 0 0.0091194882053967311 -0.013842845983036462 0 0.0079780420332514999 -0.014219206786355871 0 0.0092826220790998837 -0.014772527726086414 0 0.0083940963595032867 -0.013151595880174812 0 0.0091194882053967311 -0.013842845983036462 0 0.0079780420332514999 -0.014219206786355871 0 0.0083294860291958008 -0.013270999795921903 0 0.0078218811033153139 -0.014233876790979072 0 0.0085468864891866097 -0.015143288251877397 0 0.0092826220790998837 -0.014772527726086414 0 0.0095449499925437942 -0.016173173395709749 0 0.0079780420332514999 -0.014219206786355871 0 0.0085468864891866097 -0.015143288251877397 0 0.0073983939961491853 -0.015442188476124693 0 0.0085468864891866097 -0.015143288251877397 0 0.0095449499925437942 -0.016173173395709749 0 0.0073983939961491853 -0.015442188476124693 0 0.0079780420332514999 -0.014219206786355871 0 0.0085468864891866097 -0.015143288251877397 0 0.0092826220790998837 -0.014772527726086414 0 0.0092826220790998837 -0.014772527726086414 0 0.010556361952561238 -0.015080988799571841 0 0.0095449499925437942 -0.016173173395709749 0 0.010343205607745751 -0.014083178644420673 0 0.0092826220790998837 -0.014772527726086414 0 0.010556361952561238 -0.015080988799571841 0 0.003362202472487559 0.0013145482076001183 0 0.006425319304051577 -0.0018999374997643729 0 0.003470475818913563 -0.0017144136130586461 0 0.003362202472487559 0.0013145482076001183 0 0.0014522385504370319 -0.00015039403846446781 0 0.003470475818913563 -0.0017144136130586461 0 0.003362202472487559 0.0013145482076001183 0 0.0014522385504370319 -0.00015039403846446781 0 -0.00057876210606974589 0.00078546452314541624 0 0.0072571049580386531 -0.0099546832728627625 0 0.0029248328901314881 -0.010524489806558613 0 0.00011757734223312387 -0.007649077169314962 0 0.0014522385504370319 -0.00015039403846446781 0 -0.00047590907537382984 -0.00092739791670588953 0 0.003470475818913563 -0.0017144136130586461 0 0.0079509100334298408 -0.0083819776632975719 0 0.0048360437825383743 -0.014081518427403307 0 0.0014522385504370319 -0.00015039403846446781 0 -0.00047590907537382984 -0.00092739791670588953 0 -0.00057876210606974589 0.00078546452314541624 0 0.0079509100334298408 -0.0083819776632975719 0 0.0017024325320453752 -0.0050688160820604507 0 0.01305998733983812 -0.01364244973897903 0 0.011841655291718729 -0.014510613166780446 0 0.014511420468052465 -0.015230130771454546 0 0.011841655291718729 -0.014510613166780446 0 0.011931803348848613 -0.015874723303130757 0 0.014511420468052465 -0.015230130771454546 0 0.010556361952561238 -0.015080988799571841 0 0.011841655291718729 -0.014510613166780446 0 0.011931803348848613 -0.015874723303130757 0 0.010343205607745751 -0.014083178644420673 0 0.010556361952561238 -0.015080988799571841 0 0.011841655291718729 -0.014510613166780446 0 0.0079509100334298408 -0.0083819776632975719 0 0.01337232543281773 -0.004966458080378041 0 0.010556361952561238 -0.015080988799571841 0 0.0095449499925437942 -0.016173173395709749 0 0.011931803348848613 -0.015874723303130757 0 0.012506121629499278 -0.0087022838917546787 0 0.016128972266892173 -0.0083721642232176298 0 0.016589098251870427 -0.0096760377773901229 0 0.0079509100334298408 -0.0083819776632975719 0 0.014595935500550555 -0.012533743934741434 0 0.003362202472487559 0.0013145482076001183 0 0.010618147950578423 -0.0017123291053383332 0 0.006425319304051577 -0.0018999374997643729 0 0.016128972266892173 -0.0083721642232176298 0 0.016589098251870427 -0.0096760377773901229 0 0.018391295261410121 -0.0088450387093408286 0 0.014595935500550555 -0.012533743934741434 0 0.016237769762775592 -0.012007573061729542 0 0.010618147950578423 -0.0017123291053383332 0 0.012817777813002884 -0.0056441262580129332 0 0.01564852084843869 -0.0048388248712381296 0 0.010618147950578423 -0.0017123291053383332 0 0.009045981492279297 -0.0042258491939892433 0 0.012817777813002884 -0.0056441262580129332 0 0.01337232543281773 -0.004966458080378041 0 0.017071462995155672 -0.0072563479231321729 0 0.009045981492279297 -0.0042258491939892433 0 0.0088849038524937089 -0.0080554811368300297 0 0.0052619508560241392 -0.0030474911339200589 0 0.010618147950578423 -0.0017123291053383332 0 0.009045981492279297 -0.0042258491939892433 0 0.006425319304051577 -0.0018999374997643729 0 0.009045981492279297 -0.0042258491939892433 0 0.006425319304051577 -0.0018999374997643729 0 0.0052619508560241392 -0.0030474911339200589 0 0.0088849038524937089 -0.0080554811368300297 0 0.012817777813002884 -0.0056441262580129332 0 0.01442173760020642 -0.0090504617450491674 0 0.009045981492279297 -0.0042258491939892433 0 0.0088849038524937089 -0.0080554811368300297 0 0.012817777813002884 -0.0056441262580129332 0 -0.002490629476563761 3.7109872241411944e-05 0 -0.00011343235543677774 -0.0034088759711761022 0 0.003470475818913563 -0.0017144136130586461 0 -0.001384062207753558 -0.00065830240445855696 0 0.0027781749371384745 -0.001507068505544453 0 -0.00011343235543677774 -0.0034088759711761022 0 0.00036399071666322281 -0.0066157787555463218 0 -0.0037489541888215496 -0.0056120272643762105 0 -0.00011343235543677774 -0.0034088759711761022 0 -0.0036165197158546801 -0.0027494121496919109 0 -0.0037489541888215496 -0.0056120272643762105 0 -0.002490629476563761 3.7109872241411944e-05 0 -0.0036165197158546801 -0.0027494121496919109 0 -0.0052696153393641341 -0.0014775988564704129 0 -0.002490629476563761 3.7109872241411944e-05 0 -0.00011343235543677774 -0.0034088759711761022 0 -0.0036165197158546801 -0.0027494121496919109 0 -0.00011343235543677774 -0.0034088759711761022 0 0.003470475818913563 -0.0017144136130586461 0 0.0052619508560241392 -0.0030474911339200589 0 0.006425319304051577 -0.0018999374997643729 0 0.003470475818913563 -0.0017144136130586461 0 0.0052619508560241392 -0.0030474911339200589 0 -0.00011343235543677774 -0.0034088759711761022 0 0.0052619508560241392 -0.0030474911339200589 0 0.00036399071666322281 -0.0066157787555463218 0 0.0044654161966811391 -0.0036645400522675921 0 0.0012384620160271369 -0.0039666272642436707 0 0.0088849038524937089 -0.0080554811368300297 0 0.0052619508560241392 -0.0030474911339200589 0 0.0021222976976641586 -0.0058725409233752772 0 0.0036589806075891912 0.00095644083489440656 0 0.00066000070363999945 0.0019982326739007902 0 0.0011063097792188927 -0.00016544471263217904 0 0.0062250945815447069 -0.0032213507506956458 0 0.0012384620160271369 -0.0039666272642436707 0 0.00066000070363999945 0.0019982326739007902 0 -0.00090523040657106862 0.00059271021762853573 0 0.0011063097792188927 -0.00016544471263217904 0 0.00036399071666322281 -0.0066157787555463218 0 -0.0037489541888215496 -0.0056120272643762105 0 -0.0046138424352331646 -0.0102049587798999 0 0.0012384620160271369 -0.0039666272642436707 0 -0.0021728559163613106 -0.0043537995940489795 0 -0.0046138424352331646 -0.0102049587798999 0 -0.0087033752774927486 -0.0084480934974357717 0 -0.0072463422536394456 -0.0061440421386854942 0 -0.0046138424352331646 -0.0102049587798999 0 -0.0087033752774927486 -0.0084480934974357717 0 -0.0092696662257198033 -0.010531784270151199 0 -0.0087033752774927486 -0.0084480934974357717 0 -0.010735936687898573 -0.0091957522101867931 0 -0.0092696662257198033 -0.010531784270151199 0 -0.0087033752774927486 -0.0084480934974357717 0 -0.0072463422536394456 -0.0061440421386854942 0 -0.010559434075084646 -0.0049286576132833914 0 -0.0037489541888215496 -0.0056120272643762105 0 -0.0046138424352331646 -0.0102049587798999 0 -0.0072463422536394456 -0.0061440421386854942 0 -0.01494708309558054 -0.0014162471376930217 0 -0.016860897969571707 -0.0070689161586081064 0 -0.02093613116525294 -0.0015546101769710566 0 -0.019610675101885376 -0.0003890847460697465 0 -0.021014874726646319 -0.0032684797939460941 0 -0.010735936687898573 -0.0091957522101867931 0 -0.010559434075084646 -0.0049286576132833914 0 -0.012664814631079761 -0.010529460432508622 0 -0.021599593094108433 -0.002208042312566578 0 -0.022288443704503887 -0.0025652142329418235 0 -0.021014874726646319 -0.0032684797939460941 0 -0.021599593094108433 -0.002208042312566578 0 -0.02093613116525294 -0.0015546101769710566 0 -0.021014874726646319 -0.0032684797939460941 0 -0.0087033752774927486 -0.0084480934974357717 0 -0.010735936687898573 -0.0091957522101867931 0 -0.010559434075084646 -0.0049286576132833914 0 -0.02093613116525294 -0.0015546101769710566 0 -0.021507822471121044 -9.8071068311670871e-05 0 -0.022168284701207675 -0.001428663886760775 0 -0.02093613116525294 -0.0015546101769710566 0 -0.021507822471121044 -9.8071068311670871e-05 0 -0.019610675101885376 -0.0003890847460697465 0 -0.021599593094108433 -0.002208042312566578 0 -0.02093613116525294 -0.0015546101769710566 0 -0.022168284701207675 -0.001428663886760775 0 -0.019610675101885376 -0.0003890847460697465 0 -0.020450352579910666 0.0013259829022196406 0 -0.018067489610665243 0.002485823184454609 0 -0.021507822471121044 -9.8071068311670871e-05 0 -0.019610675101885376 -0.0003890847460697465 0 -0.020450352579910666 0.0013259829022196406 0 -0.021507822471121044 -9.8071068311670871e-05 0 -0.020450352579910666 0.0013259829022196406 0 -0.022580949648061205 0.0011299974724785994 0 -0.020450352579910666 0.0013259829022196406 0 -0.021401093097219298 0.0024767218472115772 0 -0.022580949648061205 0.0011299974724785994 0 -0.01494708309558054 -0.0014162471376930217 0 -0.0082354803508021008 -0.0067600585963166846 0 -0.010559434075084646 -0.0049286576132833914 0 -0.0079680115109348401 -0.0031354570247743062 0 -0.0079231289716697167 0.0011407407780029864 0 -0.0036165197158546801 -0.0027494121496919109 0 -0.0037489541888215496 -0.0056120272643762105 0 -0.0060515115587378883 -0.0034551000091675899 0 -0.0037489541888215496 -0.0056120272643762105 0 -0.0072463422536394456 -0.0061440421386854942 0 -0.0060515115587378883 -0.0034551000091675899 0 -0.0072463422536394456 -0.0061440421386854942 0 -0.0060515115587378883 -0.0034551000091675899 0 -0.0079680115109348401 -0.0031354570247743062 0 -0.0072463422536394456 -0.0061440421386854942 0 -0.010559434075084646 -0.0049286576132833914 0 -0.0079680115109348401 -0.0031354570247743062 0 -0.0079680115109348401 -0.0031354570247743062 0 -0.0068772731126557091 -0.001440707998819113 0 -0.0079231289716697167 0.0011407407780029864 0 -0.0068772731126557091 -0.001440707998819113 0 -0.0052696153393641341 -0.0014775988564704129 0 -0.0056450730890121089 -0.00043879160912431529 0 -0.002490629476563761 3.7109872241411944e-05 0 -0.0052696153393641341 -0.0014775988564704129 0 -0.0056450730890121089 -0.00043879160912431529 0 -0.0060515115587378883 -0.0034551000091675899 0 -0.0079680115109348401 -0.0031354570247743062 0 -0.0068772731126557091 -0.001440707998819113 0 -0.0060515115587378883 -0.0034551000091675899 0 -0.0068772731126557091 -0.001440707998819113 0 -0.0052696153393641341 -0.0014775988564704129 0 -0.0036165197158546801 -0.0027494121496919109 0 -0.0060515115587378883 -0.0034551000091675899 0 -0.0052696153393641341 -0.0014775988564704129 0 -0.0068772731126557091 -0.001440707998819113 0 -0.0056450730890121089 -0.00043879160912431529 0 -0.0079231289716697167 0.0011407407780029864 0 0.0029248328901314881 -0.010524489806558613 0 -0.0009333883245045175 -0.010004467735427963 0 -0.0015788477270345573 -0.011414706465689352 0 -0.002490629476563761 3.7109872241411944e-05 0 -0.0056450730890121089 -0.00043879160912431529 0 -0.0079231289716697167 0.0011407407780029864 0 0.0017024325320453752 -0.0050688160820604507 0 -0.0082354803508021008 -0.0067600585963166846 0 -0.001384062207753558 -0.00065830240445855696 0 -0.0082354803508021008 -0.0067600585963166846 0 -0.00047590907537382984 -0.00092739791670588953 0 -0.00057876210606974589 0.00078546452314541624 0 -0.0047353949279175123 -0.00010947237462424655 0 0.0029248328901314881 -0.010524489806558613 0 -0.0009333883245045175 -0.010004467735427963 0 0.00011757734223312387 -0.007649077169314962 0 -0.0015973007927395937 -0.015895581967356933 0 0.0048360437825383743 -0.014081518427403307 0 -0.014560223014393397 -0.027604519440786287 0 -0.014931557869275589 -0.02786904507955076 0 -0.01548773311505598 -0.027028556046636242 0 -0.014128655380113141 -0.011978523277215342 0 -0.0082354803508021008 -0.0067600585963166846 0 -0.014560223014393397 -0.027604519440786287 0 -0.014931557869275589 -0.02786904507955076 0 -0.014762096423872353 -0.027866725583415283 0 -0.0015973007927395937 -0.015895581967356933 0 -0.0082354803508021008 -0.0067600585963166846 0 -0.014128655380113141 -0.011978523277215342 0 -0.023054736912652446 -0.013253784142649834 0 -0.020450352579910666 0.0013259829022196406 0 -0.018607259825952589 0.0026170748138483273 0 -0.018067489610665243 0.002485823184454609 0 -0.016674008258889039 -0.018246159142715032 0 -0.019903389180626913 -0.018741283104642441 0 -0.021070250887925579 -0.017420146271177626 0 -0.014931557869275589 -0.02786904507955076 0 -0.01548773311505598 -0.027028556046636242 0 -0.016381726084944002 -0.027744536933423419 0 -0.020450352579910666 0.0013259829022196406 0 -0.018607259825952589 0.0026170748138483273 0 -0.021338638567899051 0.0023132580247811861 0 -0.014128655380113141 -0.011978523277215342 0 -0.021127038855971898 -0.02790992337763654 0 -0.025144063299866643 -0.0021869926575818228 0 -0.023054736912652446 -0.013253784142649834 0 -0.0015973007927395937 -0.015895581967356933 0 -0.0039892542244711294 -0.021619526210908627 0 0.0060125823461035224 -0.013891400556634946 0 0.0049357392783167453 -0.014443759171826009 0 0.0059431050693023735 -0.015150549376323957 0 0.006680213175653647 -0.014340202958329631 0 0.0060125823461035224 -0.013891400556634946 0 0.0059431050693023735 -0.015150549376323957 0 -0.014195918357662372 -0.025306959111649589 0 -0.0039892542244711294 -0.021619526210908627 0 0.006680213175653647 -0.014340202958329631 0 0.0059431050693023735 -0.015150549376323957 0 0.0066190849089190215 -0.015014710432655972 0 0.006680213175653647 -0.014340202958329631 0 0.0070687814182718699 -0.014852163710423217 0 0.0066190849089190215 -0.015014710432655972 0 0.0078218811033153139 -0.014233876790979072 0 0.0048360437825383743 -0.014081518427403307 0 0.0077907007174029975 -0.014297911776071353 0 0.0070687814182718699 -0.014852163710423217 0 0.0071949271528327068 -0.015321061281962187 0 0.006680213175653647 -0.014340202958329631 0 0.0077907007174029975 -0.014297911776071353 0 0.0070687814182718699 -0.014852163710423217 0 0.0070687814182718699 -0.014852163710423217 0 0.007062541565297514 -0.015276740832195263 0 0.0071949271528327068 -0.015321061281962187 0 0.0068711703992458085 -0.015834346726121652 0 0.007062541565297514 -0.015276740832195263 0 0.0071685726224509838 -0.015312861284770102 0 0.0051360946652563039 -0.014196368602034222 0 0.0048360437825383743 -0.014081518427403307 0 0.0068711703992458085 -0.015834346726121652 0 0.007062541565297514 -0.015276740832195263 0 0.0066190849089190215 -0.015014710432655972 0 0.0068711703992458085 -0.015834346726121652 0 0.0059431050693023735 -0.015150549376323957 0 0.0066190849089190215 -0.015014710432655972 0 0.0070687814182718699 -0.014852163710423217 0 0.007062541565297514 -0.015276740832195263 0 0.0066190849089190215 -0.015014710432655972 0 -0.026760554316798236 -0.032430989148637422 0 -0.025888911589098118 -0.033300373760163336 0 -0.027028141695188797 -0.03311556840582211 0 -0.026760554316798236 -0.032430989148637422 0 -0.027028141695188797 -0.03311556840582211 0 -0.027547829147435973 -0.032419940467517845 0 -0.017616028372490964 -0.026601072171632306 0 -0.016628526915692502 -0.026565043037415234 0 -0.016381726084944002 -0.027744536933423419 0 -0.01548773311505598 -0.027028556046636242 0 -0.016628526915692502 -0.026565043037415234 0 -0.016381726084944002 -0.027744536933423419 0 -0.02202265096271034 -0.029978718025017965 0 -0.021127038855971898 -0.02790992337763654 0 -0.016592341386127703 -0.026328665860406195 0 -0.017616028372490964 -0.026601072171632306 0 -0.016628526915692502 -0.026565043037415234 0 -0.016575944823767029 -0.026320492380046055 0 -0.01548773311505598 -0.027028556046636242 0 -0.016628526915692502 -0.026565043037415234 0 -0.014195918357662372 -0.025306959111649589 0 -0.014545520673915187 -0.02584598145372272 0 -0.023054736912652446 -0.013253784142649834 0 -0.026758184460272616 -0.015827678804365041 0 -0.025695103970407595 -0.032740794781191469 0 -0.026480934090910787 -0.032701640002032309 0 -0.027120826120407469 -0.033142832066789411 0 -0.026001832828701697 -0.032466371217832066 0 -0.026480934090910787 -0.032701640002032309 0 -0.027101672597559912 -0.03246191439787257 0 -0.021127038855971898 -0.02790992337763654 0 -0.027836532524582836 -0.033000720292256827 0 -0.025695103970407595 -0.032740794781191469 0 -0.026001832828701697 -0.032466371217832066 0 -0.026480934090910787 -0.032701640002032309 0 -0.023054736912652446 -0.013253784142649834 0 -0.021127038855971898 -0.02790992337763654 0 -0.026480934090910787 -0.032701640002032309 0 -0.027101672597559912 -0.03246191439787257 0 -0.027120826120407469 -0.033142832066789411 0 -0.027101672597559912 -0.03246191439787257 0 -0.027120826120407469 -0.033142832066789411 0 -0.027829812928810448 -0.032927476224044017 0 -0.025386833277712524 9.2190164603979044e-05 0 -0.027545517614125905 -0.0019424528461022474 0 -0.026803051230786596 0.00066672619980512457 0 -0.026112435606367397 0.0019628292996672321 0 -0.025386833277712524 9.2190164603979044e-05 0 -0.026803051230786596 0.00066672619980512457 0 -0.026112435606367397 0.0019628292996672321 0 -0.025386833277712524 9.2190164603979044e-05 0 -0.023451196092247332 -2.2427106206154884e-05 0 -0.021401093097219298 0.0024767218472115772 0 -0.026112435606367397 0.0019628292996672321 0 -0.022580949648061205 0.0011299974724785994 0 -0.026112435606367397 0.0019628292996672321 0 -0.022580949648061205 0.0011299974724785994 0 -0.023451196092247332 -2.2427106206154884e-05 0 -0.021507822471121044 -9.8071068311670871e-05 0 -0.022580949648061205 0.0011299974724785994 0 -0.023451196092247332 -2.2427106206154884e-05 0 -0.021507822471121044 -9.8071068311670871e-05 0 -0.023451196092247332 -2.2427106206154884e-05 0 -0.022168284701207675 -0.001428663886760775 0 -0.023451196092247332 -2.2427106206154884e-05 0 -0.022168284701207675 -0.001428663886760775 0 -0.0234885317416502 -0.0019198074391638985 0 -0.023451196092247332 -2.2427106206154884e-05 0 -0.0234885317416502 -0.0019198074391638985 0 -0.024996355420999969 -0.0019648339531170133 0 -0.0234885317416502 -0.0019198074391638985 0 -0.022288443704503887 -0.0025652142329418235 0 -0.024099128723104987 -0.0039139201902738084 0 -0.0234885317416502 -0.0019198074391638985 0 -0.024996355420999969 -0.0019648339531170133 0 -0.024099128723104987 -0.0039139201902738084 0 -0.022168284701207675 -0.001428663886760775 0 -0.0234885317416502 -0.0019198074391638985 0 -0.022288443704503887 -0.0025652142329418235 0 -0.021599593094108433 -0.002208042312566578 0 -0.022168284701207675 -0.001428663886760775 0 -0.022288443704503887 -0.0025652142329418235 0 -0.025386833277712524 9.2190164603979044e-05 0 -0.024996355420999969 -0.0019648339531170133 0 -0.027545517614125905 -0.0019424528461022474 0 -0.025386833277712524 9.2190164603979044e-05 0 -0.023451196092247332 -2.2427106206154884e-05 0 -0.024996355420999969 -0.0019648339531170133 0 -0.028561869244758488 0.0010509755444734843 0 -0.028991773147506963 0.0012615501782916984 0 -0.02921231443592107 0.00067561741339230866 0 -0.028561869244758488 0.0010509755444734843 0 -0.02813169275773721 0.0015768693867513773 0 -0.028991773147506963 0.0012615501782916984 0 -0.027545517614125905 -0.0019424528461022474 0 -0.026803051230786596 0.00066672619980512457 0 -0.02813169275773721 0.0015768693867513773 0 -0.026112435606367397 0.0019628292996672321 0 -0.02813169275773721 0.0015768693867513773 0 -0.029363541284609398 0.0017937897555517894 0 -0.026758184460272616 -0.015827678804365041 0 -0.028838292249159077 -0.015831851387907832 0 -0.027915692235534376 -0.00099842471314948926 0 -0.028256119223455761 0.0016345311629210317 0 -0.026112435606367397 0.0019628292996672321 0 -0.026803051230786596 0.00066672619980512457 0 -0.02813169275773721 0.0015768693867513773 0 -0.02813169275773721 0.0015768693867513773 0 -0.029363541284609398 0.0017937897555517894 0 -0.028991773147506963 0.0012615501782916984 0 -0.029363541284609398 0.0017937897555517894 0 -0.029563971410167002 0.0015612545891329896 0 -0.028991773147506963 0.0012615501782916984 0 -0.028991773147506963 0.0012615501782916984 0 -0.029614747273538383 0.0013346457352295617 0 -0.02921231443592107 0.00067561741339230866 0 -0.029563971410167002 0.0015612545891329896 0 -0.028991773147506963 0.0012615501782916984 0 -0.029614747273538383 0.0013346457352295617 0 -0.030013025951571223 0.0015064307672053342 0 -0.029614747273538383 0.0013346457352295617 0 -0.030058937697707164 0.0011587890348310952 0 -0.030013025951571223 0.0015064307672053342 0 -0.029614747273538383 0.0013346457352295617 0 -0.03009754790559116 0.001753940539150833 0 -0.030261520435276738 0.0016825569426016701 0 -0.030402949566948525 0.0020186107580046999 0 -0.030058937697707164 0.0011587890348310952 0 -0.030013025951571223 0.0015064307672053342 0 -0.030261520435276738 0.0016825569426016701 0 -0.030058937697707164 0.0011587890348310952 0 -0.030013025951571223 0.0015064307672053342 0 -0.030261520435276738 0.0016825569426016701 0 -0.03009754790559116 0.001753940539150833 0 -0.029874323743096946 -0.016070039414033743 0 -0.030746221714850572 -0.016191704243223883 0 -0.030261520435276738 0.0016825569426016701 0 -0.03009754790559116 0.001753940539150833 0 -0.030441203198048949 0.0018118077520737561 0 -0.028404577433517306 -0.033505403782108735 0 -0.029610387087007681 -0.033886762241409296 0 -0.029019789232333951 -0.033180928593039172 0 -0.029363541284609398 0.0017937897555517894 0 -0.029563971410167002 0.0015612545891329896 0 -0.03009754790559116 0.001753940539150833 0 -0.029563971410167002 0.0015612545891329896 0 -0.029614747273538383 0.0013346457352295617 0 -0.03009754790559116 0.001753940539150833 0 -0.028838292249159077 -0.015831851387907832 0 -0.029874323743096946 -0.016070039414033743 0 -0.029610387087007681 -0.033886762241409296 0 -0.029019789232333951 -0.033180928593039172 0 -0.029639366593613849 -0.033015899638962856 0 -0.029019789232333951 -0.033180928593039172 0 -0.029639366593613849 -0.033015899638962856 0 -0.029003621231339177 -0.032611291295534806 0 -0.029610387087007681 -0.033886762241409296 0 -0.029639366593613849 -0.033015899638962856 0 -0.030695643350816756 -0.033165264444603437 0 -0.029639366593613849 -0.033015899638962856 0 -0.029003621231339177 -0.032611291295534806 0 -0.029944577003072993 -0.032299327198295216 0 -0.029639366593613849 -0.033015899638962856 0 -0.030695643350816756 -0.033165264444603437 0 -0.029944577003072993 -0.032299327198295216 0 -0.029003621231339177 -0.032611291295534806 0 -0.028047376246319328 -0.03288445890196847 0 -0.028277573654061937 -0.032058520591536757 0 -0.028961009327676472 -0.032594489537158787 0 -0.02792086967745059 -0.032708644203066836 0 -0.029003621231339177 -0.032611291295534806 0 -0.028112825143777387 -0.032511583165994763 0 -0.028486979746877986 -0.032933914579879334 0 -0.027547829147435973 -0.032419940467517845 0 -0.028047376246319328 -0.03288445890196847 0 -0.028277573654061937 -0.032058520591536757 0 -0.027028141695188797 -0.03311556840582211 0 -0.027547829147435973 -0.032419940467517845 0 -0.028047376246319328 -0.03288445890196847 0 -0.027836532524582836 -0.033000720292256827 0 -0.02792086967745059 -0.032708644203066836 0 -0.028112825143777387 -0.032511583165994763 0 -0.027829812928810448 -0.032927476224044017 0 -0.028486979746877986 -0.032933914579879334 0 -0.027120826120407469 -0.033142832066789411 0 -0.028404577433517306 -0.033505403782108735 0 -0.027829812928810448 -0.032927476224044017 0 -0.027101672597559912 -0.03246191439787257 0 -0.028112825143777387 -0.032511583165994763 0 -0.027829812928810448 -0.032927476224044017 0 -0.028404577433517306 -0.033505403782108735 0 -0.027829812928810448 -0.032927476224044017 0 -0.028486979746877986 -0.032933914579879334 0 -0.029019789232333951 -0.033180928593039172 0 -0.029003621231339177 -0.032611291295534806 0 -0.028486979746877986 -0.032933914579879334 0 -0.028404577433517306 -0.033505403782108735 0 -0.029019789232333951 -0.033180928593039172 0 -0.028486979746877986 -0.032933914579879334 0 -0.031110104505500974 -0.014977428119381391 0 -0.030635021405227471 -0.016392687314716069 0 -0.034225313729454442 -0.034666628777767002 0 -0.032546873150585805 -0.034504025409800028 0 -0.033432313899877587 -0.03373847739800883 0 -0.026389449796600406 0.0021571771347109474 0 -0.02826055184709144 0.0033109532075405387 0 -0.02698463145584051 0.004338325217572804 0 -0.026389449796600406 0.0021571771347109474 0 -0.02826055184709144 0.0033109532075405387 0 -0.02908656493499738 0.0020328860615990737 0 -0.02826055184709144 0.0033109532075405387 0 -0.029708740813162958 0.0030627455470700533 0 -0.02908656493499738 0.0020328860615990737 0 -0.032546873150585805 -0.034504025409800028 0 -0.031881824646925558 -0.033610270437612298 0 -0.032667241818712639 -0.033753926083228608 0 -0.032546873150585805 -0.034504025409800028 0 -0.032667241818712639 -0.033753926083228608 0 -0.033432313899877587 -0.03373847739800883 0 -0.030635021405227471 -0.016392687314716069 0 -0.030746221714850572 -0.016191704243223883 0 -0.032546873150585805 -0.034504025409800028 0 -0.030997379678211364 -0.034237729250245673 0 -0.031881824646925558 -0.033610270437612298 0 -0.029708740813162958 0.0030627455470700533 0 -0.030402949566948525 0.0020186107580046999 0 -0.030441203198048949 0.0018118077520737561 0 -0.029670362093362837 0.0030650369249734877 0 -0.030859547103389843 0.0033880168608124658 0 -0.029708740813162958 0.0030627455470700533 0 -0.02908656493499738 0.0020328860615990737 0 -0.030441203198048949 0.0018118077520737561 0 -0.030261520435276738 0.0016825569426016701 0 -0.030402949566948525 0.0020186107580046999 0 -0.030441203198048949 0.0018118077520737561 0 -0.029610387087007681 -0.033886762241409296 0 -0.030997379678211364 -0.034237729250245673 0 -0.030695643350816756 -0.033165264444603437 0 -0.030695643350816756 -0.033165264444603437 0 -0.031093286363037497 -0.032376907723900596 0 -0.029944577003072993 -0.032299327198295216 0 -0.030695643350816756 -0.033165264444603437 0 -0.031818963476012305 -0.032892755458488958 0 -0.031093286363037497 -0.032376907723900596 0 -0.030695643350816756 -0.033165264444603437 0 -0.031818963476012305 -0.032892755458488958 0 -0.031881824646925558 -0.033610270437612298 0 -0.030997379678211364 -0.034237729250245673 0 -0.030695643350816756 -0.033165264444603437 0 -0.031881824646925558 -0.033610270437612298 0 -0.031881824646925558 -0.033610270437612298 0 -0.032667241818712639 -0.033753926083228608 0 -0.032872331741969879 -0.033107463017921057 0 -0.031818963476012305 -0.032892755458488958 0 -0.031881824646925558 -0.033610270437612298 0 -0.032872331741969879 -0.033107463017921057 0 -0.032667241818712639 -0.033753926083228608 0 -0.032872331741969879 -0.033107463017921057 0 -0.033432313899877587 -0.03373847739800883 0 -0.031818963476012305 -0.032892755458488958 0 -0.032872331741969879 -0.033107463017921057 0 -0.032419078173403067 -0.032182392235532112 0 -0.032872331741969879 -0.033107463017921057 0 -0.033847317350452107 -0.032451992634443212 0 -0.032419078173403067 -0.032182392235532112 0 -0.032872331741969879 -0.033107463017921057 0 -0.033957534221308448 -0.033085079224432802 0 -0.033847317350452107 -0.032451992634443212 0 -0.032872331741969879 -0.033107463017921057 0 -0.033957534221308448 -0.033085079224432802 0 -0.033432313899877587 -0.03373847739800883 0 -0.033505677215344178 -0.031723989575062075 0 -0.033847317350452107 -0.032451992634443212 0 -0.032419078173403067 -0.032182392235532112 0 -0.032419078173403067 -0.032182392235532112 0 -0.031486911390908201 -0.03141407645391666 0 -0.032574610062169877 -0.031181734418648452 0 -0.033505677215344178 -0.031723989575062075 0 -0.032419078173403067 -0.032182392235532112 0 -0.032574610062169877 -0.031181734418648452 0 -0.031486911390908201 -0.03141407645391666 0 -0.031093286363037497 -0.032376907723900596 0 -0.030472468952005866 -0.031649454185064707 0 -0.031818963476012305 -0.032892755458488958 0 -0.032419078173403067 -0.032182392235532112 0 -0.031093286363037497 -0.032376907723900596 0 -0.032419078173403067 -0.032182392235532112 0 -0.031486911390908201 -0.03141407645391666 0 -0.031093286363037497 -0.032376907723900596 0 -0.031093286363037497 -0.032376907723900596 0 -0.030472468952005866 -0.031649454185064707 0 -0.029944577003072993 -0.032299327198295216 0 -0.031486911390908201 -0.03141407645391666 0 -0.030472468952005866 -0.031649454185064707 0 -0.03051949909017674 -0.031012368468013085 0 -0.03051949909017674 -0.031012368468013085 0 -0.029815312257843663 -0.031099957420299935 0 -0.029893999737998764 -0.030637795644436947 0 -0.030472468952005866 -0.031649454185064707 0 -0.03051949909017674 -0.031012368468013085 0 -0.029815312257843663 -0.031099957420299935 0 -0.030052741497688551 -0.030614009128087719 0 -0.028399547279411942 -0.030439616923637603 0 -0.03024161719089459 -0.030597686195119253 0 -0.027407215890509679 -0.031024616373371762 0 -0.028682873031668596 -0.030236503418960298 0 -0.03024161719089459 -0.030597686195119253 0 -0.029893999737998764 -0.030637795644436947 0 -0.029480399826791154 -0.029921231963883885 0 -0.03051949909017674 -0.031012368468013085 0 -0.03024161719089459 -0.030597686195119253 0 -0.029893999737998764 -0.030637795644436947 0 -0.03051949909017674 -0.031012368468013085 0 -0.03024161719089459 -0.030597686195119253 0 -0.031436307789912021 -0.030743361752218343 0 -0.03024161719089459 -0.030597686195119253 0 -0.031436307789912021 -0.030743361752218343 0 -0.031292443897401878 -0.029835158988312738 0 -0.031486911390908201 -0.03141407645391666 0 -0.03051949909017674 -0.031012368468013085 0 -0.031436307789912021 -0.030743361752218343 0 -0.031436307789912021 -0.030743361752218343 0 -0.032574610062169877 -0.031181734418648452 0 -0.032748553950079876 -0.030278562890757685 0 -0.031486911390908201 -0.03141407645391666 0 -0.031436307789912021 -0.030743361752218343 0 -0.032574610062169877 -0.031181734418648452 0 -0.031436307789912021 -0.030743361752218343 0 -0.032748553950079876 -0.030278562890757685 0 -0.031292443897401878 -0.029835158988312738 0 -0.034014369764994626 -0.030894269386773945 0 -0.034063890743376658 -0.029817073808212913 0 -0.032748553950079876 -0.030278562890757685 0 -0.034014369764994626 -0.030894269386773945 0 -0.032574610062169877 -0.031181734418648452 0 -0.032748553950079876 -0.030278562890757685 0 -0.034014369764994626 -0.030894269386773945 0 -0.033505677215344178 -0.031723989575062075 0 -0.032574610062169877 -0.031181734418648452 0 -0.028277573654061937 -0.032058520591536757 0 -0.029037778295092791 -0.031718292514813548 0 -0.028241900451939424 -0.031037477787887232 0 -0.021675225256590849 -0.029676933801808653 0 -0.024241023847638224 -0.028941688987512405 0 -0.027571786277392558 -0.031676233059373511 0 -0.028277573654061937 -0.032058520591536757 0 -0.028241900451939424 -0.031037477787887232 0 -0.023351474835932026 -0.028265180196953121 0 -0.024241023847638224 -0.028941688987512405 0 -0.018387007896533039 -0.025296141585134269 0 -0.018901077968469873 -0.025434698861593254 0 -0.020205746489995687 -0.024306266489223606 0 -0.027547829147435973 -0.032419940467517845 0 -0.027571786277392558 -0.031676233059373511 0 -0.028277573654061937 -0.032058520591536757 0 -0.029003621231339177 -0.032611291295534806 0 -0.028277573654061937 -0.032058520591536757 0 -0.029037778295092791 -0.031718292514813548 0 -0.029003621231339177 -0.032611291295534806 0 -0.029944577003072993 -0.032299327198295216 0 -0.029037778295092791 -0.031718292514813548 0 -0.029944577003072993 -0.032299327198295216 0 -0.029727008479728614 -0.031704948426844196 0 -0.029037778295092791 -0.031718292514813548 0 -0.030472468952005866 -0.031649454185064707 0 -0.029944577003072993 -0.032299327198295216 0 -0.029727008479728614 -0.031704948426844196 0 -0.029727008479728614 -0.031704948426844196 0 -0.029004013838988252 -0.031096417059726766 0 -0.029815312257843663 -0.031099957420299935 0 -0.030472468952005866 -0.031649454185064707 0 -0.029727008479728614 -0.031704948426844196 0 -0.029815312257843663 -0.031099957420299935 0 -0.029727008479728614 -0.031704948426844196 0 -0.029037778295092791 -0.031718292514813548 0 -0.029004013838988252 -0.031096417059726766 0 -0.029037778295092791 -0.031718292514813548 0 -0.029004013838988252 -0.031096417059726766 0 -0.028241900451939424 -0.031037477787887232 0 -0.029004013838988252 -0.031096417059726766 0 -0.029232145570368653 -0.030587543190120949 0 -0.028624254315612514 -0.030570922268551685 0 -0.029004013838988252 -0.031096417059726766 0 -0.029815312257843663 -0.031099957420299935 0 -0.029232145570368653 -0.030587543190120949 0 -0.029815312257843663 -0.031099957420299935 0 -0.029893999737998764 -0.030637795644436947 0 -0.029232145570368653 -0.030587543190120949 0 -0.029893999737998764 -0.030637795644436947 0 -0.029232145570368653 -0.030587543190120949 0 -0.029480399826791154 -0.029921231963883885 0 -0.029232145570368653 -0.030587543190120949 0 -0.028660007577828342 -0.029858997935649081 0 -0.029480399826791154 -0.029921231963883885 0 -0.029232145570368653 -0.030587543190120949 0 -0.028624254315612514 -0.030570922268551685 0 -0.028660007577828342 -0.029858997935649081 0 -0.026935866984727105 -0.031183668831663649 0 -0.026958605231354484 -0.030179667148166466 0 -0.028660007577828342 -0.029858997935649081 0 -0.027866011237936604 -0.030915143720338236 0 -0.028616216486964899 -0.029895307599527427 0 -0.026935866984727105 -0.031183668831663649 0 -0.026958605231354484 -0.030179667148166466 0 -0.025115903123577008 -0.030474061593151202 0 -0.026958605231354484 -0.030179667148166466 0 -0.025115903123577008 -0.030474061593151202 0 -0.026417942452185782 -0.029267523658834164 0 -0.026935866984727105 -0.031183668831663649 0 -0.025655232073821449 -0.032147340662103681 0 -0.025115903123577008 -0.030474061593151202 0 -0.027866011237936604 -0.030915143720338236 0 -0.024241023847638224 -0.028941688987512405 0 -0.029004013838988252 -0.031096417059726766 0 -0.028624254315612514 -0.030570922268551685 0 -0.028241900451939424 -0.031037477787887232 0 -0.023496904583549839 -0.031313300573127721 0 -0.025655232073821449 -0.032147340662103681 0 -0.025115903123577008 -0.030474061593151202 0 -0.02385588473920814 -0.033057632741713527 0 -0.023496904583549839 -0.031313300573127721 0 -0.025655232073821449 -0.032147340662103681 0 -0.023869834884921611 -0.029628631252460919 0 -0.0258553401618596 -0.029989332812805799 0 -0.025115903123577008 -0.030474061593151202 0 -0.024087268826514411 -0.029145065796430034 0 -0.026417942452185782 -0.029267523658834164 0 -0.023581928631584693 -0.030103941276435876 0 -0.024962539648002678 -0.02960144098333644 0 -0.023434440359184905 -0.029125899214388726 0 -0.023581928631584693 -0.030103941276435876 0 -0.024962539648002678 -0.02960144098333644 0 -0.025219232249797725 -0.030690164145307619 0 -0.024962539648002678 -0.02960144098333644 0 -0.025219232249797725 -0.030690164145307619 0 -0.026268446638656809 -0.030150722988648137 0 -0.0258553401618596 -0.029989332812805799 0 -0.028399547279411942 -0.030439616923637603 0 -0.026958605231354484 -0.030179667148166466 0 -0.026417942452185782 -0.029267523658834164 0 -0.028660007577828342 -0.029858997935649081 0 -0.026417942452185782 -0.029267523658834164 0 -0.028660007577828342 -0.029858997935649081 0 -0.029480399826791154 -0.029921231963883885 0 -0.025219232249797725 -0.030690164145307619 0 -0.026268446638656809 -0.030150722988648137 0 -0.027407215890509679 -0.031024616373371762 0 -0.027407215890509679 -0.031024616373371762 0 -0.027514327077902578 -0.029940193016599923 0 -0.028682873031668596 -0.030236503418960298 0 -0.026268446638656809 -0.030150722988648137 0 -0.027407215890509679 -0.031024616373371762 0 -0.027514327077902578 -0.029940193016599923 0 -0.027514327077902578 -0.029940193016599923 0 -0.027682503919857021 -0.028944957137091835 0 -0.02645111114414914 -0.029530675651128963 0 -0.027514327077902578 -0.029940193016599923 0 -0.027682503919857021 -0.028944957137091835 0 -0.029286657675270708 -0.029453029521561428 0 -0.024962539648002678 -0.02960144098333644 0 -0.026268446638656809 -0.030150722988648137 0 -0.02645111114414914 -0.029530675651128963 0 -0.024962539648002678 -0.02960144098333644 0 -0.02645111114414914 -0.029530675651128963 0 -0.025861244201522759 -0.028900332290894424 0 -0.027682503919857021 -0.028944957137091835 0 -0.02645111114414914 -0.029530675651128963 0 -0.025861244201522759 -0.028900332290894424 0 -0.026268446638656809 -0.030150722988648137 0 -0.027514327077902578 -0.029940193016599923 0 -0.02645111114414914 -0.029530675651128963 0 -0.025861244201522759 -0.028900332290894424 0 -0.026801904412643636 -0.028429043820602708 0 -0.025338249510309274 -0.028134190036033454 0 -0.027682503919857021 -0.028944957137091835 0 -0.025861244201522759 -0.028900332290894424 0 -0.026801904412643636 -0.028429043820602708 0 -0.027682503919857021 -0.028944957137091835 0 -0.026801904412643636 -0.028429043820602708 0 -0.028782139101083896 -0.02816680159646686 0 -0.026801904412643636 -0.028429043820602708 0 -0.027859368341573116 -0.027403530516572086 0 -0.026589813775693825 -0.027618967437594757 0 -0.026801904412643636 -0.028429043820602708 0 -0.028782139101083896 -0.02816680159646686 0 -0.027859368341573116 -0.027403530516572086 0 -0.026801904412643636 -0.028429043820602708 0 -0.025338249510309274 -0.028134190036033454 0 -0.026589813775693825 -0.027618967437594757 0 -0.025338249510309274 -0.028134190036033454 0 -0.023894588812074541 -0.028260330371938511 0 -0.024354057406619143 -0.028676964044578507 0 -0.023894588812074541 -0.028260330371938511 0 -0.024354057406619143 -0.028676964044578507 0 -0.023117102878728084 -0.028309568887372554 0 -0.024354057406619143 -0.028676964044578507 0 -0.023117102878728084 -0.028309568887372554 0 -0.023434440359184905 -0.029125899214388726 0 -0.024962539648002678 -0.02960144098333644 0 -0.024354057406619143 -0.028676964044578507 0 -0.023434440359184905 -0.029125899214388726 0 -0.025861244201522759 -0.028900332290894424 0 -0.025338249510309274 -0.028134190036033454 0 -0.024354057406619143 -0.028676964044578507 0 -0.024962539648002678 -0.02960144098333644 0 -0.025861244201522759 -0.028900332290894424 0 -0.024354057406619143 -0.028676964044578507 0 -0.034755248020052518 -0.026977517360909073 0 -0.033245685837970815 -0.027664385810122271 0 -0.033518861590747087 -0.028888472202534161 0 -0.034063890743376658 -0.029817073808212913 0 -0.032748553950079876 -0.030278562890757685 0 -0.033518861590747087 -0.028888472202534161 0 -0.033518861590747087 -0.028888472202534161 0 -0.030894929079496501 -0.028536165836131874 0 -0.031292443897401878 -0.029835158988312738 0 -0.032748553950079876 -0.030278562890757685 0 -0.033518861590747087 -0.028888472202534161 0 -0.031292443897401878 -0.029835158988312738 0 -0.033245685837970815 -0.027664385810122271 0 -0.033518861590747087 -0.028888472202534161 0 -0.030894929079496501 -0.028536165836131874 0 -0.030894929079496501 -0.028536165836131874 0 -0.029286657675270708 -0.029453029521561428 0 -0.028782139101083896 -0.02816680159646686 0 -0.03024161719089459 -0.030597686195119253 0 -0.031292443897401878 -0.029835158988312738 0 -0.029286657675270708 -0.029453029521561428 0 -0.030894929079496501 -0.028536165836131874 0 -0.031292443897401878 -0.029835158988312738 0 -0.029286657675270708 -0.029453029521561428 0 -0.03024161719089459 -0.030597686195119253 0 -0.028682873031668596 -0.030236503418960298 0 -0.029286657675270708 -0.029453029521561428 0 -0.027514327077902578 -0.029940193016599923 0 -0.028682873031668596 -0.030236503418960298 0 -0.029286657675270708 -0.029453029521561428 0 -0.027682503919857021 -0.028944957137091835 0 -0.029286657675270708 -0.029453029521561428 0 -0.028782139101083896 -0.02816680159646686 0 -0.028782139101083896 -0.02816680159646686 0 -0.028896208128925665 -0.027268874191311066 0 -0.027859368341573116 -0.027403530516572086 0 -0.028782139101083896 -0.02816680159646686 0 -0.029642241252328793 -0.02777307846176166 0 -0.028896208128925665 -0.027268874191311066 0 -0.030894929079496501 -0.028536165836131874 0 -0.028782139101083896 -0.02816680159646686 0 -0.029642241252328793 -0.02777307846176166 0 -0.03088339422850327 -0.028616318167291863 0 -0.030484217086051747 -0.02673791943533687 0 -0.030894929079496501 -0.028536165836131874 0 -0.031605281293303353 -0.025866070909778119 0 -0.033390621657157185 -0.026230223920977916 0 -0.033245685837970815 -0.027664385810122271 0 -0.030894929079496501 -0.028536165836131874 0 -0.033390621657157185 -0.026230223920977916 0 -0.031605281293303353 -0.025866070909778119 0 -0.033390621657157185 -0.026230223920977916 0 -0.03384214649488352 -0.024759599240612565 0 -0.035405835010337949 -0.025597250226016645 0 -0.033390621657157185 -0.026230223920977916 0 -0.03384214649488352 -0.024759599240612565 0 -0.034755248020052518 -0.026977517360909073 0 -0.033245685837970815 -0.027664385810122271 0 -0.033390621657157185 -0.026230223920977916 0 -0.034755248020052518 -0.026977517360909073 0 -0.035405835010337949 -0.025597250226016645 0 -0.033390621657157185 -0.026230223920977916 0 -0.035146060025993596 -0.024569930084084087 0 -0.034138710941578124 -0.024346094527049559 0 -0.03384214649488352 -0.024759599240612565 0 -0.03383444515336978 -0.024367898823460198 0 -0.031793356074577797 -0.025652931304817817 0 -0.031605281293303353 -0.025866070909778119 0 -0.03384214649488352 -0.024759599240612565 0 -0.031790899249711305 -0.023370831255333437 0 -0.034138710941578124 -0.024346094527049559 0 -0.03384214649488352 -0.024759599240612565 0 -0.033279014422280727 -0.024702896661122881 0 -0.031793356074577797 -0.025652931304817817 0 -0.029316152666456607 -0.026654919073929577 0 -0.029344745825182213 -0.02663145600023259 0 -0.028896208128925665 -0.027268874191311066 0 -0.028362224939147539 -0.026127671259707216 0 -0.030484217086051747 -0.02673791943533687 0 -0.031793356074577797 -0.025652931304817817 0 -0.029642241252328793 -0.02777307846176166 0 -0.029344745825182213 -0.02663145600023259 0 -0.028896208128925665 -0.027268874191311066 0 -0.028896208128925665 -0.027268874191311066 0 -0.027859368341573116 -0.027403530516572086 0 -0.028362224939147539 -0.026127671259707216 0 -0.028362224939147539 -0.026127671259707216 0 -0.027200391264018391 -0.026662853291592698 0 -0.027175892810709219 -0.025549559430267849 0 -0.027859368341573116 -0.027403530516572086 0 -0.028362224939147539 -0.026127671259707216 0 -0.027200391264018391 -0.026662853291592698 0 -0.030242917548594844 -0.026884330984148171 0 -0.030051778586639575 -0.023912387208563767 0 -0.028137773387021999 -0.025769880637150151 0 -0.029316152666456607 -0.026654919073929577 0 -0.027590802275584827 -0.02563583135877406 0 -0.030051778586639575 -0.023912387208563767 0 -0.028137773387021999 -0.025769880637150151 0 -0.027555979053411166 -0.023305090711202025 0 -0.030051778586639575 -0.023912387208563767 0 -0.03262289227908733 -0.024067923994519375 0 -0.031983588086186149 -0.021965236465965401 0 -0.032656174657334516 -0.028463310729304851 0 -0.030242917548594844 -0.026884330984148171 0 -0.03262289227908733 -0.024067923994519375 0 -0.031793356074577797 -0.025652931304817817 0 -0.033006354974625354 -0.024541813670408402 0 -0.030242917548594844 -0.026884330984148171 0 -0.030051778586639575 -0.023912387208563767 0 -0.03262289227908733 -0.024067923994519375 0 -0.034138710941578124 -0.024346094527049559 0 -0.033279014422280727 -0.024702896661122881 0 -0.03262289227908733 -0.024067923994519375 0 -0.034138710941578124 -0.024346094527049559 0 -0.03262289227908733 -0.024067923994519375 0 -0.034067743298866145 -0.022931133813286809 0 -0.03262289227908733 -0.024067923994519375 0 -0.034067743298866145 -0.022931133813286809 0 -0.031983588086186149 -0.021965236465965401 0 -0.035680888502826046 -0.021813883891813809 0 -0.035240807870165154 -0.023342475649391708 0 -0.034067743298866145 -0.022931133813286809 0 -0.035240807870165154 -0.023342475649391708 0 -0.034138710941578124 -0.024346094527049559 0 -0.034067743298866145 -0.022931133813286809 0 -0.02444804201852336 -0.027563451120279567 0 -0.023023580837785496 -0.02822178857333631 0 -0.023871836125007397 -0.02646438689115058 0 -0.02444804201852336 -0.027563451120279567 0 -0.025764934344551422 -0.026391004056397511 0 -0.023871836125007397 -0.02646438689115058 0 -0.023023580837785496 -0.02822178857333631 0 -0.023871836125007397 -0.02646438689115058 0 -0.02128146231472753 -0.027154061255199424 0 -0.023894588812074541 -0.028260330371938511 0 -0.023023580837785496 -0.02822178857333631 0 -0.023117102878728084 -0.028309568887372554 0 -0.023894588812074541 -0.028260330371938511 0 -0.02444804201852336 -0.027563451120279567 0 -0.023023580837785496 -0.02822178857333631 0 -0.025338249510309274 -0.028134190036033454 0 -0.023894588812074541 -0.028260330371938511 0 -0.02444804201852336 -0.027563451120279567 0 -0.025338249510309274 -0.028134190036033454 0 -0.025775373396007936 -0.027326941947507604 0 -0.026589813775693825 -0.027618967437594757 0 -0.025338249510309274 -0.028134190036033454 0 -0.02444804201852336 -0.027563451120279567 0 -0.025775373396007936 -0.027326941947507604 0 -0.027859368341573116 -0.027403530516572086 0 -0.026589813775693825 -0.027618967437594757 0 -0.027200391264018391 -0.026662853291592698 0 -0.025775373396007936 -0.027326941947507604 0 -0.026589813775693825 -0.027618967437594757 0 -0.027200391264018391 -0.026662853291592698 0 -0.025775373396007936 -0.027326941947507604 0 -0.027200391264018391 -0.026662853291592698 0 -0.025764934344551422 -0.026391004056397511 0 -0.02444804201852336 -0.027563451120279567 0 -0.025775373396007936 -0.027326941947507604 0 -0.025764934344551422 -0.026391004056397511 0 -0.025764934344551422 -0.026391004056397511 0 -0.025863853999961373 -0.02487590412574589 0 -0.023871836125007397 -0.02646438689115058 0 -0.027200391264018391 -0.026662853291592698 0 -0.025764934344551422 -0.026391004056397511 0 -0.027175892810709219 -0.025549559430267849 0 -0.027590802275584827 -0.02563583135877406 0 -0.026046285440289325 -0.024885494407119697 0 -0.025764934344551422 -0.026391004056397511 0 -0.027175892810709219 -0.025549559430267849 0 -0.025863853999961373 -0.02487590412574589 0 -0.028137773387021999 -0.025769880637150151 0 -0.025863853999961373 -0.02487590412574589 0 -0.027555979053411166 -0.023305090711202025 0 -0.025863853999961373 -0.02487590412574589 0 -0.023867467462416404 -0.024711604748829798 0 -0.025306428504115554 -0.022951776220718336 0 -0.023867467462416404 -0.024711604748829798 0 -0.023871836125007397 -0.02646438689115058 0 -0.021606099343999291 -0.025405809050615406 0 -0.025863853999961373 -0.02487590412574589 0 -0.023867467462416404 -0.024711604748829798 0 -0.023871836125007397 -0.02646438689115058 0 -0.023871836125007397 -0.02646438689115058 0 -0.021606099343999291 -0.025405809050615406 0 -0.02128146231472753 -0.027154061255199424 0 -0.023867467462416404 -0.024711604748829798 0 -0.021606099343999291 -0.025405809050615406 0 -0.022774977242004481 -0.023620608639666557 0 -0.021606099343999291 -0.025405809050615406 0 -0.019345414311426674 -0.025299689105385825 0 -0.01939956135903044 -0.026487195244478498 0 -0.019345414311426674 -0.025299689105385825 0 -0.017606165195079199 -0.026017007961992404 0 -0.01939956135903044 -0.026487195244478498 0 -0.017606165195079199 -0.026017007961992404 0 -0.01939956135903044 -0.026487195244478498 0 -0.017849300706408777 -0.027190680027880658 0 -0.01939956135903044 -0.026487195244478498 0 -0.017849300706408777 -0.027190680027880658 0 -0.018806712474462341 -0.02805657593544297 0 -0.017849300706408777 -0.027190680027880658 0 -0.017394755846091618 -0.028345770099287231 0 -0.018806712474462341 -0.02805657593544297 0 -0.01939956135903044 -0.026487195244478498 0 -0.02128146231472753 -0.027154061255199424 0 -0.018806712474462341 -0.02805657593544297 0 -0.021606099343999291 -0.025405809050615406 0 -0.01939956135903044 -0.026487195244478498 0 -0.02128146231472753 -0.027154061255199424 0 -0.014830199942591018 -0.026395579962404381 0 -0.015313271917842259 -0.026736401291502138 0 -0.016104071051299022 -0.026618695388532957 0 -0.014869158474226943 -0.026750574112453344 0 -0.015313271917842259 -0.026736401291502138 0 -0.015691838042934246 -0.02719335006498648 0 -0.014869158474226943 -0.026750574112453344 0 -0.014830199942591018 -0.026395579962404381 0 -0.015313271917842259 -0.026736401291502138 0 -0.014830199942591018 -0.026395579962404381 0 -0.016104071051299022 -0.026618695388532957 0 -0.015410309880122503 -0.025767097183482541 0 -0.017606165195079199 -0.026017007961992404 0 -0.016104071051299022 -0.026618695388532957 0 -0.015410309880122503 -0.025767097183482541 0 -0.017606165195079199 -0.026017007961992404 0 -0.017849300706408777 -0.027190680027880658 0 -0.016104071051299022 -0.026618695388532957 0 -0.015313271917842259 -0.026736401291502138 0 -0.016104071051299022 -0.026618695388532957 0 -0.015691838042934246 -0.02719335006498648 0 -0.017849300706408777 -0.027190680027880658 0 -0.016104071051299022 -0.026618695388532957 0 -0.016495109866898637 -0.027638070056478756 0 -0.017849300706408777 -0.027190680027880658 0 -0.016495109866898637 -0.027638070056478756 0 -0.017394755846091618 -0.028345770099287231 0 -0.016495109866898637 -0.027638070056478756 0 -0.015717781267883969 -0.027923214864247897 0 -0.016171370701129888 -0.029094906010242238 0 -0.016495109866898637 -0.027638070056478756 0 -0.015691838042934246 -0.02719335006498648 0 -0.015717781267883969 -0.027923214864247897 0 -0.016104071051299022 -0.026618695388532957 0 -0.016495109866898637 -0.027638070056478756 0 -0.015691838042934246 -0.02719335006498648 0 -0.014869158474226943 -0.026750574112453344 0 -0.015717781267883969 -0.027923214864247897 0 -0.01543027100890419 -0.0290516920243666 0 -0.014436602330294646 -0.030507777201907102 0 -0.013237479867722763 -0.034125280579076912 0 -0.011654723768954409 -0.034605417266350504 0 -0.013237479867722763 -0.034125280579076912 0 -0.013729272219266736 -0.034151647027404169 0 -0.012855871550299165 -0.035481526422902677 0 -0.014613890172208851 -0.040212031299583097 0 -0.010237027943492712 -0.03305551590040804 0 -0.010591852859868293 -0.033159922573301151 0 -0.0098895788020523581 -0.032978993996778318 0 -0.014869158474226943 -0.026750574112453344 0 -0.015691838042934246 -0.02719335006498648 0 -0.015717781267883969 -0.027923214864247897 0 -0.010237027943492712 -0.03305551590040804 0 -0.0098895788020523581 -0.032978993996778318 0 -0.010352130296804183 -0.032882706220042128 0 -0.015717781267883969 -0.027923214864247897 0 -0.01543027100890419 -0.0290516920243666 0 -0.016171370701129888 -0.029094906010242238 0 -0.01543027100890419 -0.0290516920243666 0 -0.016171370701129888 -0.029094906010242238 0 -0.015945993657767998 -0.030436106095874025 0 -0.016494856181113769 -0.027761914430954999 0 -0.016264867811084625 -0.028921171042062304 0 -0.016495109866898637 -0.027638070056478756 0 -0.016584963710405312 -0.028682829681454289 0 -0.017394755846091618 -0.028345770099287231 0 -0.016584963710405312 -0.028682829681454289 0 -0.017394755846091618 -0.028345770099287231 0 -0.017143134268151082 -0.029296482577179973 0 -0.017394755846091618 -0.028345770099287231 0 -0.017143134268151082 -0.029296482577179973 0 -0.017940519398239027 -0.029277549714463887 0 -0.017444940604343422 -0.030111972173714231 0 -0.019445073512373852 -0.030370065446296623 0 -0.016711751441108601 -0.03129155085478242 0 -0.017143134268151082 -0.029296482577179973 0 -0.017444940604343422 -0.030111972173714231 0 -0.017940519398239027 -0.029277549714463887 0 -0.012957032406332362 -0.029125509083968871 0 -0.012084067453555319 -0.026936824311730889 0 -0.013260169633464694 -0.027014969594817972 0 -0.017444940604343422 -0.030111972173714231 0 -0.016303857038024384 -0.030186058872543494 0 -0.016711751441108601 -0.03129155085478242 0 -0.014218386148720247 -0.029538521844538951 0 -0.018066125831667654 -0.027846368222542016 0 -0.016264867811084625 -0.028921171042062304 0 -0.014218386148720247 -0.029538521844538951 0 -0.017143134268151082 -0.029296482577179973 0 -0.017444940604343422 -0.030111972173714231 0 -0.016303857038024384 -0.030186058872543494 0 -0.016584963710405312 -0.028682829681454289 0 -0.017143134268151082 -0.029296482577179973 0 -0.016303857038024384 -0.030186058872543494 0 -0.0027681693042085377 -0.024707295700754466 0 -0.004907051315375042 -0.029729664151886579 0 -0.013237479867722763 -0.034125280579076912 0 -0.0098703549366136543 -0.028218515082216941 0 -0.0095488759270463026 -0.031796842523995415 0 -0.0096783460246874474 -0.031625378673497156 0 -0.010352130296804183 -0.032882706220042128 0 0.00023057482996088836 -0.026688238679535299 0 0.0014947208135358129 -0.026243649243018311 0 0.0014077488210501592 -0.025343481656380087 0 -0.012931107492163587 -0.033842403752419765 0 -0.011510471690477083 -0.030322095235953757 0 -0.011833563889377952 -0.028077782767773549 0 -0.0098895788020523581 -0.032978993996778318 0 -0.0095488759270463026 -0.031796842523995415 0 -0.010352130296804183 -0.032882706220042128 0 -0.013237479867722763 -0.034125280579076912 0 -0.014218386148720247 -0.029538521844538951 0 -0.014218386148720247 -0.029538521844538951 0 -0.0098703549366136543 -0.028218515082216941 0 -0.023023580837785496 -0.02822178857333631 0 -0.02128146231472753 -0.027154061255199424 0 -0.020664881752992463 -0.028382447802142951 0 -0.02128146231472753 -0.027154061255199424 0 -0.020664881752992463 -0.028382447802142951 0 -0.018806712474462341 -0.02805657593544297 0 -0.018806712474462341 -0.02805657593544297 0 -0.017940519398239027 -0.029277549714463887 0 -0.019445073512373852 -0.030370065446296623 0 -0.020664881752992463 -0.028382447802142951 0 -0.018806712474462341 -0.02805657593544297 0 -0.019445073512373852 -0.030370065446296623 0 -0.017394755846091618 -0.028345770099287231 0 -0.018806712474462341 -0.02805657593544297 0 -0.017940519398239027 -0.029277549714463887 0 -0.021297080426717456 -0.029325660316995905 0 -0.018066125831667654 -0.027846368222542016 0 -0.017444940604343422 -0.030111972173714231 0 -0.017940519398239027 -0.029277549714463887 0 -0.019445073512373852 -0.030370065446296623 0 -0.023023580837785496 -0.02822178857333631 0 -0.020664881752992463 -0.028382447802142951 0 -0.019445073512373852 -0.030370065446296623 0 -0.023023580837785496 -0.02822178857333631 0 -0.022760478287943309 -0.027994120520629478 0 -0.023117102878728084 -0.028309568887372554 0 -0.0227878581173446 -0.028311221446553882 0 -0.021297080426717456 -0.029325660316995905 0 -0.023117102878728084 -0.028309568887372554 0 -0.022659526087441061 -0.028820018858941445 0 -0.023434440359184905 -0.029125899214388726 0 -0.023117102878728084 -0.028309568887372554 0 -0.022659526087441061 -0.028820018858941445 0 -0.022446303054415924 -0.028453882887653829 0 -0.022219666733902896 -0.028658393802297899 0 -0.022659526087441061 -0.028820018858941445 0 -0.022183144846166004 -0.028979241521607291 0 -0.022219666733902896 -0.028658393802297899 0 -0.022446303054415924 -0.028453882887653829 0 -0.021993836056112923 -0.028424624258513553 0 -0.022219666733902896 -0.028658393802297899 0 -0.022659526087441061 -0.028820018858941445 0 -0.022446303054415924 -0.028453882887653829 0 -0.022760478287943309 -0.027994120520629478 0 -0.022393075953273053 -0.028183977944394565 0 -0.021924334608206583 -0.028044325337792733 0 -0.022760478287943309 -0.027994120520629478 0 -0.023117102878728084 -0.028309568887372554 0 -0.022393075953273053 -0.028183977944394565 0 -0.022446303054415924 -0.028453882887653829 0 -0.022393075953273053 -0.028183977944394565 0 -0.021993836056112923 -0.028424624258513553 0 -0.023117102878728084 -0.028309568887372554 0 -0.022446303054415924 -0.028453882887653829 0 -0.022393075953273053 -0.028183977944394565 0 -0.018066125831667654 -0.027846368222542016 0 -0.022176675465073938 -0.028722056132490067 0 -0.021499665272056923 -0.02735433764306593 0 -0.021488695976501056 -0.027822797655274248 0 -0.021993836056112923 -0.028424624258513553 0 -0.022393075953273053 -0.028183977944394565 0 -0.021924334608206583 -0.028044325337792733 0 -0.021993836056112923 -0.028424624258513553 0 -0.012084067453555319 -0.026936824311730889 0 -0.013260169633464694 -0.027014969594817972 0 -0.013332152288964786 -0.026498268026263344 0 -0.018066125831667654 -0.027846368222542016 0 -0.008199037124632623 -0.025054988060773442 0 -0.021499665272056923 -0.02735433764306593 0 -0.021488695976501056 -0.027822797655274248 0 -0.021085525099932421 -0.027478389773716454 0 -0.021488695976501056 -0.027822797655274248 0 -0.021297781153180335 -0.028035252213366876 0 -0.021085525099932421 -0.027478389773716454 0 -0.010622079144920178 -0.023022662984635064 0 -0.008199037124632623 -0.025054988060773442 0 -0.021488695976501056 -0.027822797655274248 0 -0.021297781153180335 -0.028035252213366876 0 -0.021993836056112923 -0.028424624258513553 0 -0.0098703549366136543 -0.028218515082216941 0 -0.008199037124632623 -0.025054988060773442 0 -0.0095488759270463026 -0.031796842523995415 0 -0.0095586951772058445 -0.031667763750270674 0 -0.0096783460246874474 -0.031625378673497156 0 -0.008199037124632623 -0.025054988060773442 0 -0.0027681693042085377 -0.024707295700754466 0 -0.0047545635133017447 -0.025872002880174726 0 -0.0063944406430111976 -0.025304251049775631 0 -0.0051240979040984708 -0.023355316454164714 0 -0.0027681693042085377 -0.024707295700754466 0 -0.0028100927167932954 -0.019241363858290478 0 -0.008199037124632623 -0.025054988060773442 0 -0.0028100927167932954 -0.019241363858290478 0 0.0064617738948103097 -0.011519734833316213 0 0.0064494019970572341 -0.011541489512267161 0 0.0066786485118520153 -0.011554263290166287 0 -0.0084661067864684348 -0.021904720672838822 0 -0.0084860259205338778 -0.022129529074703534 0 -0.0085154983810668428 -0.022024611825061706 0 -0.010622079144920178 -0.023022662984635064 0 -0.0028100927167932954 -0.019241363858290478 0 -0.0028100927167932954 -0.019241363858290478 0 0.0065404897786457339 -0.01146749185507898 0 0.0066394473006759127 -0.013991471886309731 0 0.0064013737491493304 -0.014317491397267915 0 0.0063624885319789933 -0.013012362133231007 0 0.0064494019970572341 -0.011541489512267161 0 0.0066786485118520153 -0.011554263290166287 0 0.0065596182795162475 -0.011737238466838804 0 0.0066786485118520153 -0.011554263290166287 0 0.0065596182795162475 -0.011737238466838804 0 0.0067665096977535802 -0.011752104961951688 0 0.0065596182795162475 -0.011737238466838804 0 0.0068149294744502724 -0.011916633784409401 0 0.0067665096977535802 -0.011752104961951688 0 -0.021388879520962047 -0.028116054358819375 0 -0.021873607227664217 -0.028691828115455939 0 -0.021707039886507382 -0.029226771258418192 0 0.0066394473006759127 -0.013991471886309731 0 0.0063624885319789933 -0.013012362133231007 0 0.0069758379623785999 -0.012119200778427736 0 -0.010622079144920178 -0.023022662984635064 0 -0.0068780513571287038 -0.020175714640901898 0 -0.022219666733902896 -0.028658393802297899 0 -0.021993836056112923 -0.028424624258513553 0 -0.021873607227664217 -0.028691828115455939 0 -0.010622079144920178 -0.023022662984635064 0 -0.023095681427253593 -0.031402547760987644 0 -0.021297781153180335 -0.028035252213366876 0 -0.021993836056112923 -0.028424624258513553 0 -0.021873607227664217 -0.028691828115455939 0 -0.022219666733902896 -0.028658393802297899 0 -0.021873607227664217 -0.028691828115455939 0 -0.022183144846166004 -0.028979241521607291 0 -0.021707039886507382 -0.029226771258418192 0 -0.022396701963363293 -0.029342053098885108 0 -0.022183144846166004 -0.028979241521607291 0 -0.021873607227664217 -0.028691828115455939 0 -0.021707039886507382 -0.029226771258418192 0 -0.022183144846166004 -0.028979241521607291 0 0.0065404897786457339 -0.01146749185507898 0 0.0066550460900048659 -0.01238358464896782 0 0.0065596182795162475 -0.011737238466838804 0 0.0066941626466157523 -0.011994483568401109 0 0.0068149294744502724 -0.011916633784409401 0 0.0063624885319789933 -0.013012362133231007 0 0.0069758379623785999 -0.012119200778427736 0 0.0066941626466157523 -0.011994483568401109 0 0.0066941626466157523 -0.011994483568401109 0 0.0069848052088763756 -0.011990261527219397 0 0.0068149294744502724 -0.011916633784409401 0 0.0069758379623785999 -0.012119200778427736 0 0.0066941626466157523 -0.011994483568401109 0 0.0068684460777323755 -0.011714817205848627 0 0.0066941626466157523 -0.011994483568401109 0 0.0068684460777323755 -0.011714817205848627 0 0.0069848052088763756 -0.011990261527219397 0 -0.021758389620180164 -0.030371727390250142 0 -0.021707039886507382 -0.029226771258418192 0 -0.022396701963363293 -0.029342053098885108 0 0.0065874184843189177 -0.011705564739762895 0 0.0069758379623785999 -0.012119200778427736 0 0.0068684460777323755 -0.011714817205848627 0 -0.0077971048190645341 -0.021299168056614484 0 -0.0068780513571287038 -0.020175714640901898 0 -0.021758389620180164 -0.030371727390250142 0 -0.023114017709320006 -0.030042735739731683 0 -0.022396701963363293 -0.029342053098885108 0 -0.023869834884921611 -0.029628631252460919 0 -0.022530120881566452 -0.029363111402371349 0 -0.025115903123577008 -0.030474061593151202 0 -0.024087268826514411 -0.029145065796430034 0 -0.023114017709320006 -0.030042735739731683 0 -0.024087268826514411 -0.029145065796430034 0 -0.023114017709320006 -0.030042735739731683 0 -0.022396701963363293 -0.029342053098885108 0 -0.022659526087441061 -0.028820018858941445 0 -0.023434440359184905 -0.029125899214388726 0 -0.022396701963363293 -0.029342053098885108 0 -0.023581928631584693 -0.030103941276435876 0 -0.023434440359184905 -0.029125899214388726 0 -0.022396701963363293 -0.029342053098885108 0 -0.022659526087441061 -0.028820018858941445 0 -0.022396701963363293 -0.029342053098885108 0 -0.022183144846166004 -0.028979241521607291 0 0.0074017998827094703 -0.012491315972593399 0 0.0090624677732049318 -0.012065593391937574 0 0.010957164763527016 -0.013046167754453284 0 0.0074017998827094703 -0.012491315972593399 0 0.010957164763527016 -0.013046167754453284 0 0.012153717384931382 -0.015845626802890339 0 0.0074017998827094703 -0.012491315972593399 0 0.0090624677732049318 -0.012065593391937574 0 0.0080414868526520709 -0.01164092763220618 0 0.0074017998827094703 -0.012491315972593399 0 0.0074884271538957371 -0.011806405637467597 0 0.0080414868526520709 -0.01164092763220618 0 0.010957164763527016 -0.013046167754453284 0 0.013151490039395501 -0.013913274532218562 0 0.014672802206452144 -0.011840704224989665 0 0.013151490039395501 -0.013913274532218562 0 0.012153717384931382 -0.015845626802890339 0 0.014864228261783539 -0.014876750446920623 0 0.010957164763527016 -0.013046167754453284 0 0.013151490039395501 -0.013913274532218562 0 0.012153717384931382 -0.015845626802890339 0 0.010696342631008847 -0.018869468274708895 0 0.012153717384931382 -0.015845626802890339 0 0.014563719503590757 -0.017700412581003591 0 0.011190665014820784 -0.012288843814040603 0 0.014812969028137755 -0.014008695193161266 0 0.012153717384931382 -0.015845626802890339 0 0.014563719503590757 -0.017700412581003591 0 0.014864228261783539 -0.014876750446920623 0 0.0069211104249041122 -0.013724670369694634 0 0.011190665014820784 -0.012288843814040603 0 0.0071090433547980657 -0.011938374016875126 0 0.0069458686773914754 -0.012044895883520921 0 0.0071600126131037539 -0.012144603340017279 0 0.0074017998827094703 -0.012491315972593399 0 0.010696342631008847 -0.018869468274708895 0 0.012153717384931382 -0.015845626802890339 0 0.0074017998827094703 -0.012491315972593399 0 0.0069458686773914754 -0.012044895883520921 0 0.0071600126131037539 -0.012144603340017279 0 0.0071090433547980657 -0.011938374016875126 0 0.0071600126131037539 -0.012144603340017279 0 0.0071554108699000089 -0.012175096627034724 0 0.0071090433547980657 -0.011938374016875126 0 0.0071554108699000089 -0.012175096627034724 0 0.0069848052088763756 -0.011990261527219397 0 0.0071554108699000089 -0.012175096627034724 0 0.0069848052088763756 -0.011990261527219397 0 0.0069537380725944401 -0.011942514342873035 0 0.0069848052088763756 -0.011990261527219397 0 0.0069537380725944401 -0.011942514342873035 0 0.0068149294744502724 -0.011916633784409401 0 0.0069537380725944401 -0.011942514342873035 0 0.0068149294744502724 -0.011916633784409401 0 0.0067665096977535802 -0.011752104961951688 0 0.0071554108699000089 -0.012175096627034724 0 0.0069537380725944401 -0.011942514342873035 0 0.007151273857546268 -0.011831226291831498 0 0.0074017998827094703 -0.012491315972593399 0 0.0071600126131037539 -0.012144603340017279 0 0.0071554108699000089 -0.012175096627034724 0 0.0074017998827094703 -0.012491315972593399 0 0.0071554108699000089 -0.012175096627034724 0 0.007151273857546268 -0.011831226291831498 0 0.0074017998827094703 -0.012491315972593399 0 0.0074884271538957371 -0.011806405637467597 0 0.007151273857546268 -0.011831226291831498 0 0.0019552488789912259 -0.027516759870832762 0 0.0044234985288063465 -0.027782615305476092 0 0.0050504956094532339 -0.028992319575614933 0 0.0053311115289406451 -0.019191171970194099 0 0.0083373270722273459 -0.01738810897225224 0 0.0069394732670677479 -0.011425801258176691 0 0.0080337289402992191 -0.011054143244124834 0 0.007758213298906017 -0.011192724123362915 0 0.007151273857546268 -0.011831226291831498 0 0.0069394732670677479 -0.011425801258176691 0 0.007758213298906017 -0.011192724123362915 0 0.0074884271538957371 -0.011806405637467597 0 0.007151273857546268 -0.011831226291831498 0 0.007758213298906017 -0.011192724123362915 0 0.007151273857546268 -0.011831226291831498 0 0.0069089036976914976 -0.011700205954938956 0 0.0069394732670677479 -0.011425801258176691 0 0.0069537380725944401 -0.011942514342873035 0 0.007151273857546268 -0.011831226291831498 0 0.0069089036976914976 -0.011700205954938956 0 0.0069537380725944401 -0.011942514342873035 0 0.0067665096977535802 -0.011752104961951688 0 0.0069089036976914976 -0.011700205954938956 0 0.0066786485118520153 -0.011554263290166287 0 0.0069089036976914976 -0.011700205954938956 0 0.0069394732670677479 -0.011425801258176691 0 0.0066786485118520153 -0.011554263290166287 0 0.0067665096977535802 -0.011752104961951688 0 0.0069089036976914976 -0.011700205954938956 0 0.0019552488789912259 -0.027516759870832762 0 0.0014947208135358129 -0.026243649243018311 0 0.0025115504167346745 -0.02607605002586209 0 0.00023057482996088836 -0.026688238679535299 0 0.0019552488789912259 -0.027516759870832762 0 0.0014947208135358129 -0.026243649243018311 0 -0.0027681693042085377 -0.024707295700754466 0 0.0053311115289406451 -0.019191171970194099 0 0.0064617738948103097 -0.011519734833316213 0 0.0066786485118520153 -0.011554263290166287 0 0.0069394732670677479 -0.011425801258176691 0 0.0019552488789912259 -0.027516759870832762 0 0.0034025367809725768 -0.027131113387967438 0 0.0044234985288063465 -0.027782615305476092 0 0.0019552488789912259 -0.027516759870832762 0 0.0034025367809725768 -0.027131113387967438 0 0.0025115504167346745 -0.02607605002586209 0 0.0034025367809725768 -0.027131113387967438 0 0.0045562673162124947 -0.026620049363822087 0 0.0025115504167346745 -0.02607605002586209 0 0.0045562673162124947 -0.026620049363822087 0 0.0061335033639481782 -0.025812801529952193 0 0.004952248035760172 -0.025098681334994679 0 0.0045562673162124947 -0.026620049363822087 0 0.0058499298721643956 -0.027102967287871337 0 0.0061335033639481782 -0.025812801529952193 0 0.0058499298721643956 -0.027102967287871337 0 0.0044234985288063465 -0.027782615305476092 0 0.005750442393438652 -0.028125523303323512 0 0.0045562673162124947 -0.026620049363822087 0 0.0058499298721643956 -0.027102967287871337 0 0.0044234985288063465 -0.027782615305476092 0 0.0034025367809725768 -0.027131113387967438 0 0.0045562673162124947 -0.026620049363822087 0 0.0044234985288063465 -0.027782615305476092 0 0.005750442393438652 -0.028125523303323512 0 0.0050504956094532339 -0.028992319575614933 0 0.0068840038160468946 -0.028545767308350709 0 0.0044234985288063465 -0.027782615305476092 0 0.005750442393438652 -0.028125523303323512 0 0.0050504956094532339 -0.028992319575614933 0 0.0090624677732049318 -0.012065593391937574 0 0.010957164763527016 -0.013046167754453284 0 0.0089426211352898535 -0.010466510301468019 0 0.0090624677732049318 -0.012065593391937574 0 0.0089426211352898535 -0.010466510301468019 0 0.0080414868526520709 -0.01164092763220618 0 0.0074884271538957371 -0.011806405637467597 0 0.0080414868526520709 -0.01164092763220618 0 0.007758213298906017 -0.011192724123362915 0 0.0083373270722273459 -0.01738810897225224 0 0.0082092227201003547 -0.015071208608163236 0 0.0089426211352898535 -0.010466510301468019 0 0.0080414868526520709 -0.01164092763220618 0 0.007758213298906017 -0.011192724123362915 0 0.0083373270722273459 -0.01738810897225224 0 0.013019896528957825 -0.023581521802977217 0 0.011770359635561336 -0.016718121217280654 0 0.01633775329542745 -0.018212674942723214 0 0.016818171394880416 -0.016640973110761556 0 0.0050504956094532339 -0.028992319575614933 0 0.0068840038160468946 -0.028545767308350709 0 0.0091897111547270555 -0.029211077304432988 0 0.010957164763527016 -0.013046167754453284 0 0.0089426211352898535 -0.010466510301468019 0 0.014672802206452144 -0.011840704224989665 0 0.0083373270722273459 -0.01738810897225224 0 0.015797719715381221 -0.014675879374837946 0 0.005750442393438652 -0.028125523303323512 0 0.0068840038160468946 -0.028545767308350709 0 0.007062129465415041 -0.027594983778421345 0 0.0068840038160468946 -0.028545767308350709 0 0.0080447815034046348 -0.028065653152160665 0 0.007062129465415041 -0.027594983778421345 0 0.0068840038160468946 -0.028545767308350709 0 0.0080447815034046348 -0.028065653152160665 0 0.0091897111547270555 -0.029211077304432988 0 0.0080447815034046348 -0.028065653152160665 0 0.0081100528167760959 -0.027327974889316032 0 0.0090389840063999603 -0.027655042945474623 0 0.0080447815034046348 -0.028065653152160665 0 0.0081100528167760959 -0.027327974889316032 0 0.007062129465415041 -0.027594983778421345 0 0.0081100528167760959 -0.027327974889316032 0 0.007062129465415041 -0.027594983778421345 0 0.0069231303988774237 -0.026582243482267422 0 0.0058499298721643956 -0.027102967287871337 0 0.005750442393438652 -0.028125523303323512 0 0.007062129465415041 -0.027594983778421345 0 0.0058499298721643956 -0.027102967287871337 0 0.007062129465415041 -0.027594983778421345 0 0.0069231303988774237 -0.026582243482267422 0 0.0058499298721643956 -0.027102967287871337 0 0.0061335033639481782 -0.025812801529952193 0 0.0069231303988774237 -0.026582243482267422 0 0.0061335033639481782 -0.025812801529952193 0 0.0069231303988774237 -0.026582243482267422 0 0.0073419729538849732 -0.02550035084988447 0 0.0081171287085177631 -0.026230220502504342 0 0.0073419729538849732 -0.02550035084988447 0 0.009189738642016972 -0.025399383859538105 0 0.0081100528167760959 -0.027327974889316032 0 0.0081171287085177631 -0.026230220502504342 0 0.0089140040301993583 -0.026729282627055571 0 0.0081100528167760959 -0.027327974889316032 0 0.0069231303988774237 -0.026582243482267422 0 0.0081171287085177631 -0.026230220502504342 0 0.0069231303988774237 -0.026582243482267422 0 0.0081171287085177631 -0.026230220502504342 0 0.0073419729538849732 -0.02550035084988447 0 0.0073419729538849732 -0.02550035084988447 0 0.0075395001213194911 -0.02441070603673718 0 0.0088974742396087086 -0.025632683987652602 0 0.0042259633113351097 -0.030413943539801137 0 0.0044389883899520434 -0.025338456687361881 0 0.0077755445377954389 -0.026081504541573285 0 0.0085134748039857426 -0.02749681010484684 0 0.0061335033639481782 -0.025812801529952193 0 0.0075395001213194911 -0.02441070603673718 0 0.004952248035760172 -0.025098681334994679 0 0.0061335033639481782 -0.025812801529952193 0 0.0073419729538849732 -0.02550035084988447 0 0.0075395001213194911 -0.02441070603673718 0 0.0045562673162124947 -0.026620049363822087 0 0.004952248035760172 -0.025098681334994679 0 0.0025115504167346745 -0.02607605002586209 0 0.0037293559587789002 -0.025849428829510152 0 0.0030394410955376645 -0.025940109713039991 0 0.0031612016398262347 -0.025653231443049249 0 0.0030394410955376645 -0.025940109713039991 0 0.0027997028387498082 -0.025580745368638497 0 0.0031612016398262347 -0.025653231443049249 0 0.0030854997265844092 -0.025239557268428334 0 0.0026310976401474197 -0.025185328631090329 0 0.0023583254010973442 -0.024610921482386732 0 0.0027997028387498082 -0.025580745368638497 0 0.0030854997265844092 -0.025239557268428334 0 0.0026310976401474197 -0.025185328631090329 0 0.0027997028387498082 -0.025580745368638497 0 0.0031612016398262347 -0.025653231443049249 0 0.0030854997265844092 -0.025239557268428334 0 -0.0035584213486877458 -0.038071288306976245 0 -0.0034215893274079099 -0.036464751309705383 0 -0.004459903852105495 -0.03610378887039091 0 -0.0035584213486877458 -0.038071288306976245 0 -0.0023183725782048785 -0.036518307735439091 0 -0.0034215893274079099 -0.036464751309705383 0 0.00012723219120568563 -0.04140452277809737 0 -0.0035584213486877458 -0.038071288306976245 0 -0.00028218499434180577 -0.038055775702843041 0 0.0037293559587789002 -0.025849428829510152 0 0.0031612016398262347 -0.025653231443049249 0 0.0030854997265844092 -0.025239557268428334 0 -0.00028218499434180577 -0.038055775702843041 0 -0.0023183725782048785 -0.036518307735439091 0 0.0019204419975466791 -0.03530681174883335 0 -0.0035584213486877458 -0.038071288306976245 0 -0.00028218499434180577 -0.038055775702843041 0 -0.0023183725782048785 -0.036518307735439091 0 0.0042259633113351097 -0.030413943539801137 0 -0.00034538775381008559 -0.031939062264052041 0 0.00012723219120568563 -0.04140452277809737 0 -0.00028218499434180577 -0.038055775702843041 0 0.0027403366075762618 -0.038426943095315504 0 0.0019365458786366426 -0.025774978410921894 0 0.0022989422460651912 -0.025491502052140895 0 0.0014077488210501592 -0.025343481656380087 0 0.0014947208135358129 -0.026243649243018311 0 0.0019365458786366426 -0.025774978410921894 0 0.0014077488210501592 -0.025343481656380087 0 0.0014947208135358129 -0.026243649243018311 0 0.0019365458786366426 -0.025774978410921894 0 0.0025115504167346745 -0.02607605002586209 0 0.0030394410955376645 -0.025940109713039991 0 0.0027997028387498082 -0.025580745368638497 0 0.0025115504167346745 -0.02607605002586209 0 0.0044389883899520434 -0.025338456687361881 0 0.0025213194923305194 -0.026008237940436399 0 0.0019365458786366426 -0.025774978410921894 0 0.0025115504167346745 -0.02607605002586209 0 0.0022989422460651912 -0.025491502052140895 0 0.0027997028387498082 -0.025580745368638497 0 0.0025115504167346745 -0.02607605002586209 0 0.0022989422460651912 -0.025491502052140895 0 0.0027997028387498082 -0.025580745368638497 0 0.0026310976401474197 -0.025185328631090329 0 0.0022989422460651912 -0.025491502052140895 0 0.0026310976401474197 -0.025185328631090329 0 0.0022310532120011009 -0.025003786583538169 0 0.0023583254010973442 -0.024610921482386732 0 0.0026310976401474197 -0.025185328631090329 0 0.0022310532120011009 -0.025003786583538169 0 0.0022989422460651912 -0.025491502052140895 0 0.0022310532120011009 -0.025003786583538169 0 0.0022989422460651912 -0.025491502052140895 0 0.0014077488210501592 -0.025343481656380087 0 -0.004907051315375042 -0.029729664151886579 0 -0.0035536653148917166 -0.03033254378066785 0 0.0022310532120011009 -0.025003786583538169 0 0.0014077488210501592 -0.025343481656380087 0 0.0021932961329874955 -0.024473555330529841 0 -0.010237027943492712 -0.03305551590040804 0 -0.010352130296804183 -0.032882706220042128 0 -0.01017199135789249 -0.033035154598824799 0 -0.010352130296804183 -0.032882706220042128 0 -0.01017199135789249 -0.033035154598824799 0 -0.0097865327234623149 -0.033055460108837149 0 -0.01030781787561833 -0.033073644690073338 0 -0.01017199135789249 -0.033035154598824799 0 -0.010080102082343246 -0.032944291266510758 0 -0.010591852859868293 -0.033159922573301151 0 -0.010263898047405901 -0.032911576753218659 0 -0.01030781787561833 -0.033073644690073338 0 -0.010263898047405901 -0.032911576753218659 0 -0.01030781787561833 -0.033073644690073338 0 -0.010080102082343246 -0.032944291266510758 0 -0.010237027943492712 -0.03305551590040804 0 -0.010591852859868293 -0.033159922573301151 0 -0.01030781787561833 -0.033073644690073338 0 -0.010237027943492712 -0.03305551590040804 0 -0.01030781787561833 -0.033073644690073338 0 -0.01017199135789249 -0.033035154598824799 0 -0.01017199135789249 -0.033035154598824799 0 -0.010080102082343246 -0.032944291266510758 0 -0.0097865327234623149 -0.033055460108837149 0 -0.010080102082343246 -0.032944291266510758 0 -0.0097865327234623149 -0.033055460108837149 0 -0.0099884934862706862 -0.032071777908872091 0 -0.0066498883540284173 -0.035428349409313317 0 -0.0061351167179041445 -0.033787058458845581 0 -0.0076263851519186247 -0.032936666927390473 0 -0.0075381982547001996 -0.03470930058578487 0 -0.0066498883540284173 -0.035428349409313317 0 -0.0076263851519186247 -0.032936666927390473 0 -0.0035536653148917166 -0.03033254378066785 0 -0.0024787034051446527 -0.030302081570663015 0 0.0022310532120011009 -0.025003786583538169 0 0.0021932961329874955 -0.024473555330529841 0 0.0023583254010973442 -0.024610921482386732 0 -0.0066498883540284173 -0.035428349409313317 0 -0.004459903852105495 -0.03610378887039091 0 -0.0050471292398004209 -0.034902198506189808 0 -0.0066498883540284173 -0.035428349409313317 0 -0.0061351167179041445 -0.033787058458845581 0 -0.0050471292398004209 -0.034902198506189808 0 -0.0061351167179041445 -0.033787058458845581 0 -0.006420879571452473 -0.032091210890823701 0 -0.0045558292993698752 -0.033592243620228633 0 -0.0061351167179041445 -0.033787058458845581 0 -0.006420879571452473 -0.032091210890823701 0 -0.0076263851519186247 -0.032936666927390473 0 -0.006420879571452473 -0.032091210890823701 0 -0.0076263851519186247 -0.032936666927390473 0 -0.0086141908351191395 -0.031221731755029729 0 -0.011654723768954409 -0.034605417266350504 0 -0.010311949293588531 -0.029867547168762668 0 -0.013729272219266736 -0.034151647027404169 0 -0.012855871550299165 -0.035481526422902677 0 -0.01031771382098709 -0.029759264333728552 0 -0.010591852859868293 -0.033159922573301151 0 -0.0099884934862706862 -0.032071777908872091 0 -0.01031771382098709 -0.029759264333728552 0 -0.0075381982547001996 -0.03470930058578487 0 -0.0076263851519186247 -0.032936666927390473 0 -0.0099884934862706862 -0.032071777908872091 0 -0.0035536653148917166 -0.03033254378066785 0 -0.010223060166068018 -0.031958950985964518 0 -0.0076263851519186247 -0.032936666927390473 0 -0.0086141908351191395 -0.031221731755029729 0 -0.0099884934862706862 -0.032071777908872091 0 -0.0086141908351191395 -0.031221731755029729 0 -0.0099884934862706862 -0.032071777908872091 0 -0.01031771382098709 -0.029759264333728552 0 -0.010263898047405901 -0.032911576753218659 0 -0.010080102082343246 -0.032944291266510758 0 -0.0099884934862706862 -0.032071777908872091 0 -0.010591852859868293 -0.033159922573301151 0 -0.010263898047405901 -0.032911576753218659 0 -0.0099884934862706862 -0.032071777908872091 0 -0.0013831155489525933 -0.034915367415607745 0 0.00057622846135336125 -0.03585272117992501 0 7.2884721024020981e-05 -0.032952602809566696 0 -0.0017949566125026861 -0.03636695279466913 0 0.00076987882726090137 -0.035653107026570444 0 -0.0013831155489525933 -0.034915367415607745 0 -0.0023183725782048785 -0.036518307735439091 0 0.00057622846135336125 -0.03585272117992501 0 -0.0013831155489525933 -0.034915367415607745 0 -0.0033655001336766722 -0.035251708600275593 0 -0.0024424901102984499 -0.03358328746860436 0 -0.0013831155489525933 -0.034915367415607745 0 -0.0023183725782048785 -0.036518307735439091 0 -0.0033655001336766722 -0.035251708600275593 0 -0.00034538775381008559 -0.031939062264052041 0 -0.0024787034051446527 -0.030302081570663015 0 -0.0023183725782048785 -0.036518307735439091 0 -0.0034215893274079099 -0.036464751309705383 0 -0.0033655001336766722 -0.035251708600275593 0 -0.0035584213486877458 -0.038071288306976245 0 -0.0066498883540284173 -0.035428349409313317 0 -0.004459903852105495 -0.03610378887039091 0 -0.0034215893274079099 -0.036464751309705383 0 -0.004459903852105495 -0.03610378887039091 0 -0.0033655001336766722 -0.035251708600275593 0 -0.004459903852105495 -0.03610378887039091 0 -0.0050471292398004209 -0.034902198506189808 0 -0.0033655001336766722 -0.035251708600275593 0 -0.0061351167179041445 -0.033787058458845581 0 -0.0050471292398004209 -0.034902198506189808 0 -0.0045558292993698752 -0.033592243620228633 0 -0.0050471292398004209 -0.034902198506189808 0 -0.0033655001336766722 -0.035251708600275593 0 -0.0045558292993698752 -0.033592243620228633 0 -0.0033655001336766722 -0.035251708600275593 0 -0.0045558292993698752 -0.033592243620228633 0 -0.0024424901102984499 -0.03358328746860436 0 -0.0045558292993698752 -0.033592243620228633 0 -0.0024424901102984499 -0.03358328746860436 0 -0.0032586717533255108 -0.031001976720368408 0 -0.006420879571452473 -0.032091210890823701 0 -0.0045558292993698752 -0.033592243620228633 0 -0.0032586717533255108 -0.031001976720368408 0 -0.0028566642221153201 -0.031274036990666713 0 0.0013143801166630548 -0.034238716775492138 0 -0.0024424901102984499 -0.03358328746860436 0 -0.0032586717533255108 -0.031001976720368408 0 7.2884721024020981e-05 -0.032952602809566696 0 -0.0013831155489525933 -0.034915367415607745 0 -0.0024424901102984499 -0.03358328746860436 0 7.2884721024020981e-05 -0.032952602809566696 0 -0.0032586717533255108 -0.031001976720368408 0 0.0022104467050041107 -0.028158524454647463 0 0.0031152570954379611 -0.035643572682282208 0 -0.0032586717533255108 -0.031001976720368408 0 -0.0036798845688224779 -0.027166207407132902 0 0.0022104467050041107 -0.028158524454647463 0 -0.0032586717533255108 -0.031001976720368408 0 -0.0036798845688224779 -0.027166207407132902 0 -0.0074438128384431042 -0.029201174065050177 0 -0.0036798845688224779 -0.027166207407132902 0 0.0022104467050041107 -0.028158524454647463 0 -0.003395826093708846 -0.023450370472451625 0 0.0022104467050041107 -0.028158524454647463 0 0.0017141528678520734 -0.022035657012466167 0 -0.003395826093708846 -0.023450370472451625 0 0.0017141528678520734 -0.022035657012466167 0 -0.003395826093708846 -0.023450370472451625 0 -0.0010612050449256007 -0.019739245472564174 0 -0.0036798845688224779 -0.027166207407132902 0 -0.003395826093708846 -0.023450370472451625 0 -0.0070080217256414954 -0.023747458171344913 0 -0.003395826093708846 -0.023450370472451625 0 -0.0069855700633552134 -0.022081820205584794 0 -0.0070080217256414954 -0.023747458171344913 0 -0.0045534033860607044 -0.021444646566252609 0 -0.0018754295704601852 -0.022770207205471536 0 -0.003395826093708846 -0.023450370472451625 0 -0.0010612050449256007 -0.019739245472564174 0 -0.0045859774248631887 -0.01653647793162372 0 -0.003395826093708846 -0.023450370472451625 0 -0.0069855700633552134 -0.022081820205584794 0 -0.0060984035625202418 -0.020375328756252451 0 -0.0010612050449256007 -0.019739245472564174 0 0.002081542145246822 -0.017065888966912798 0 -0.0045859774248631887 -0.01653647793162372 0 0.0061228550198516004 -0.023755138961989136 0 -0.0018754295704601852 -0.022770207205471536 0 0.0017141528678520734 -0.022035657012466167 0 -0.0010612050449256007 -0.019739245472564174 0 0.002081542145246822 -0.017065888966912798 0 -0.010076237652207592 -0.021293684671249483 0 -0.0091654282417706172 -0.022500049835132117 0 -0.012350550298997691 -0.022117636086798533 0 -0.010076237652207592 -0.021293684671249483 0 -0.0091654282417706172 -0.022500049835132117 0 -0.0084385246175473164 -0.020987495249434628 0 -0.0069855700633552134 -0.022081820205584794 0 -0.0091654282417706172 -0.022500049835132117 0 -0.0084385246175473164 -0.020987495249434628 0 -0.0069855700633552134 -0.022081820205584794 0 -0.0060984035625202418 -0.020375328756252451 0 -0.0084385246175473164 -0.020987495249434628 0 -0.0069855700633552134 -0.022081820205584794 0 -0.0070080217256414954 -0.023747458171344913 0 -0.0091654282417706172 -0.022500049835132117 0 -0.0070080217256414954 -0.023747458171344913 0 -0.0091654282417706172 -0.022500049835132117 0 -0.0098825057889028421 -0.024464582428292487 0 -0.0091654282417706172 -0.022500049835132117 0 -0.0098825057889028421 -0.024464582428292487 0 -0.012350550298997691 -0.022117636086798533 0 -0.0098825057889028421 -0.024464582428292487 0 -0.012449116193639498 -0.02611695169506284 0 -0.012350550298997691 -0.022117636086798533 0 -0.0098825057889028421 -0.024464582428292487 0 -0.0094111862224133067 -0.027039049126015929 0 -0.012449116193639498 -0.02611695169506284 0 -0.0098825057889028421 -0.024464582428292487 0 -0.0094111862224133067 -0.027039049126015929 0 -0.0073104296403573967 -0.026187179727778054 0 -0.0036798845688224779 -0.027166207407132902 0 -0.0070080217256414954 -0.023747458171344913 0 -0.0073104296403573967 -0.026187179727778054 0 -0.0036798845688224779 -0.027166207407132902 0 -0.0073104296403573967 -0.026187179727778054 0 -0.0074438128384431042 -0.029201174065050177 0 -0.0070080217256414954 -0.023747458171344913 0 -0.0098825057889028421 -0.024464582428292487 0 -0.0073104296403573967 -0.026187179727778054 0 -0.0094111862224133067 -0.027039049126015929 0 -0.0073104296403573967 -0.026187179727778054 0 -0.0074438128384431042 -0.029201174065050177 0 -0.006420879571452473 -0.032091210890823701 0 -0.0032586717533255108 -0.031001976720368408 0 -0.0074438128384431042 -0.029201174065050177 0 -0.006420879571452473 -0.032091210890823701 0 -0.0086141908351191395 -0.031221731755029729 0 -0.0074438128384431042 -0.029201174065050177 0 -0.013729272219266736 -0.034151647027404169 0 -0.012449116193639498 -0.02611695169506284 0 -0.01031771382098709 -0.029759264333728552 0 -0.0094111862224133067 -0.027039049126015929 0 -0.012449116193639498 -0.02611695169506284 0 -0.01031771382098709 -0.029759264333728552 0 -0.0094111862224133067 -0.027039049126015929 0 -0.0074438128384431042 -0.029201174065050177 0 -0.01031771382098709 -0.029759264333728552 0 -0.0086141908351191395 -0.031221731755029729 0 -0.0074438128384431042 -0.029201174065050177 0 -0.01031771382098709 -0.029759264333728552 0 -0.014869158474226943 -0.026750574112453344 0 -0.014830199942591018 -0.026395579962404381 0 -0.012449116193639498 -0.02611695169506284 0 -0.014830199942591018 -0.026395579962404381 0 -0.012449116193639498 -0.02611695169506284 0 -0.015410309880122503 -0.025767097183482541 0 -0.014436602330294646 -0.030507777201907102 0 -0.012573321260201819 -0.026104468963569508 0 -0.012449116193639498 -0.02611695169506284 0 -0.015410309880122503 -0.025767097183482541 0 -0.015064192201330958 -0.024247722593099465 0 -0.017606165195079199 -0.026017007961992404 0 -0.015410309880122503 -0.025767097183482541 0 -0.017650143315035113 -0.024891143776266417 0 -0.015410309880122503 -0.025767097183482541 0 -0.016301238873236916 -0.024656563298180452 0 -0.015064192201330958 -0.024247722593099465 0 -0.015410309880122503 -0.025767097183482541 0 -0.016301238873236916 -0.024656563298180452 0 -0.017650143315035113 -0.024891143776266417 0 -0.016301238873236916 -0.024656563298180452 0 -0.015064192201330958 -0.024247722593099465 0 -0.017124443517335615 -0.023616192692914203 0 -0.015064192201330958 -0.024247722593099465 0 -0.017124443517335615 -0.023616192692914203 0 -0.016899002381346565 -0.021809728141280571 0 -0.012449116193639498 -0.02611695169506284 0 -0.015064192201330958 -0.024247722593099465 0 -0.012350550298997691 -0.022117636086798533 0 -0.021606099343999291 -0.025405809050615406 0 -0.019345414311426674 -0.025299689105385825 0 -0.02049648215751813 -0.023955172046214626 0 -0.019345414311426674 -0.025299689105385825 0 -0.02049648215751813 -0.023955172046214626 0 -0.017650143315035113 -0.024891143776266417 0 -0.019345414311426674 -0.025299689105385825 0 -0.017606165195079199 -0.026017007961992404 0 -0.017650143315035113 -0.024891143776266417 0 -0.017124443517335615 -0.023616192692914203 0 -0.019492752507070547 -0.022442698146628446 0 -0.016899002381346565 -0.021809728141280571 0 -0.017650143315035113 -0.024891143776266417 0 -0.017124443517335615 -0.023616192692914203 0 -0.019492752507070547 -0.022442698146628446 0 -0.016301238873236916 -0.024656563298180452 0 -0.017650143315035113 -0.024891143776266417 0 -0.017124443517335615 -0.023616192692914203 0 -0.02049648215751813 -0.023955172046214626 0 -0.017650143315035113 -0.024891143776266417 0 -0.019492752507070547 -0.022442698146628446 0 -0.02049648215751813 -0.023955172046214626 0 -0.019492752507070547 -0.022442698146628446 0 -0.021866002744105568 -0.022027886866764376 0 -0.019492752507070547 -0.022442698146628446 0 -0.018866664077825165 -0.019931556244661256 0 -0.020896932260468293 -0.019768124049969443 0 -0.019492752507070547 -0.022442698146628446 0 -0.021866002744105568 -0.022027886866764376 0 -0.020896932260468293 -0.019768124049969443 0 -0.019492752507070547 -0.022442698146628446 0 -0.016899002381346565 -0.021809728141280571 0 -0.018866664077825165 -0.019931556244661256 0 -0.016899002381346565 -0.021809728141280571 0 -0.018866664077825165 -0.019931556244661256 0 -0.015702156110267072 -0.017887233654431057 0 -0.018866664077825165 -0.019931556244661256 0 -0.015702156110267072 -0.017887233654431057 0 -0.018732814784599761 -0.01744452340933678 0 -0.018866664077825165 -0.019931556244661256 0 -0.020649801693961786 -0.017926613366757264 0 -0.020896932260468293 -0.019768124049969443 0 -0.010076237652207592 -0.021293684671249483 0 -0.012350550298997691 -0.022117636086798533 0 -0.012285200240839922 -0.020926888685771965 0 -0.015064192201330958 -0.024247722593099465 0 -0.016899002381346565 -0.021809728141280571 0 -0.012350550298997691 -0.022117636086798533 0 -0.016899002381346565 -0.021809728141280571 0 -0.012350550298997691 -0.022117636086798533 0 -0.015702156110267072 -0.017887233654431057 0 -0.012400740802649213 -0.021948798324457775 0 -0.013929123256488499 -0.019625215944974659 0 -0.010192541069877084 -0.020566584630658209 0 -0.012285200240839922 -0.020926888685771965 0 -0.011810406895008516 -0.020066284518183219 0 -0.010076237652207592 -0.021293684671249483 0 -0.010192541069877084 -0.020566584630658209 0 -0.012285200240839922 -0.020926888685771965 0 -0.012285200240839922 -0.020926888685771965 0 -0.011810406895008516 -0.020066284518183219 0 -0.012342159939558761 -0.019358285545873297 0 -0.012285200240839922 -0.020926888685771965 0 -0.012342159939558761 -0.019358285545873297 0 -0.013333570284098525 -0.019250396430718821 0 -0.011810406895008516 -0.020066284518183219 0 -0.012342159939558761 -0.019358285545873297 0 -0.011830833562699782 -0.019151917894305894 0 -0.012342159939558761 -0.019358285545873297 0 -0.011830833562699782 -0.019151917894305894 0 -0.012292436691863324 -0.019178967912796004 0 -0.010192541069877084 -0.020566584630658209 0 -0.011810406895008516 -0.020066284518183219 0 -0.011830833562699782 -0.019151917894305894 0 -0.010124074458474012 -0.020530263642231407 0 -0.010065621646761126 -0.020443425263206312 0 -0.010192541069877084 -0.020566584630658209 0 -0.0083137877314857604 -0.021410883209105478 0 -0.0098033928045002453 -0.021207402594880843 0 -0.018866664077825165 -0.019931556244661256 0 -0.020649801693961786 -0.017926613366757264 0 -0.018732814784599761 -0.01744452340933678 0 -0.020649801693961786 -0.017926613366757264 0 -0.018732814784599761 -0.01744452340933678 0 -0.019970881945830184 -0.01609147483381116 0 -0.013929123256488499 -0.019625215944974659 0 -0.015843012449536571 -0.016516987403240275 0 -0.015702156110267072 -0.017887233654431057 0 -0.018732814784599761 -0.01744452340933678 0 -0.01815266133751824 -0.015066620670480632 0 -0.012342159939558761 -0.019358285545873297 0 -0.013333570284098525 -0.019250396430718821 0 -0.013458628430885302 -0.01831566999081527 0 -0.018732814784599761 -0.01744452340933678 0 -0.01815266133751824 -0.015066620670480632 0 -0.019970881945830184 -0.01609147483381116 0 -0.01815266133751824 -0.015066620670480632 0 -0.019970881945830184 -0.01609147483381116 0 -0.019904132990738847 -0.014556324929598656 0 -0.019970881945830184 -0.01609147483381116 0 -0.019904132990738847 -0.014556324929598656 0 -0.021279668247972287 -0.014717660988830972 0 -0.013333570284098525 -0.019250396430718821 0 -0.013458628430885302 -0.01831566999081527 0 -0.014736880269289035 -0.017433028427535406 0 -0.01815266133751824 -0.015066620670480632 0 -0.019904132990738847 -0.014556324929598656 0 -0.020212880958015118 -0.012396852249549411 0 -0.019904132990738847 -0.014556324929598656 0 -0.020212880958015118 -0.012396852249549411 0 -0.021279668247972287 -0.014717660988830972 0 -0.015843012449536571 -0.016516987403240275 0 -0.01768403342999653 -0.018162524695569171 0 -0.012377295020525049 -0.01910555265817512 0 -0.012305185720944906 -0.019204474597525324 0 -0.012145895177880377 -0.019247984779349196 0 -0.012705428528075652 -0.018766810554873763 0 -0.015759614213140153 -0.019632190846219449 0 -0.012377295020525049 -0.01910555265817512 0 -0.012422527460608497 -0.019115282947807299 0 -0.012305185720944906 -0.019204474597525324 0 -0.012342159939558761 -0.019358285545873297 0 -0.012377295020525049 -0.01910555265817512 0 -0.012292436691863324 -0.019178967912796004 0 -0.012430611427521292 -0.019256158136560647 0 -0.012705428528075652 -0.018766810554873763 0 -0.012377295020525049 -0.01910555265817512 0 -0.012422527460608497 -0.019115282947807299 0 -0.012292436691863324 -0.019178967912796004 0 -0.0091825695050091072 -0.020930421883191979 0 -0.010884455719002028 -0.025919071307741768 0 -0.012422527460608497 -0.019115282947807299 0 -0.012274541209369138 -0.019300375253563831 0 -0.012240300257423764 -0.01953279164172252 0 -0.0063669855630034888 -0.023607735027655098 0 -0.0059859017804939213 -0.025199166334663993 0 -0.0047049006565070316 -0.025740294522626068 0 -0.0063669855630034888 -0.023607735027655098 0 -0.0065983284709132169 -0.025154738234285989 0 -0.0059859017804939213 -0.025199166334663993 0 -0.012422527460608497 -0.019115282947807299 0 -0.012305185720944906 -0.019204474597525324 0 -0.012274541209369138 -0.019300375253563831 0 -0.013458628430885302 -0.01831566999081527 0 -0.01467064526310736 -0.017278230365967564 0 -0.014736880269289035 -0.017433028427535406 0 -0.012305185720944906 -0.019204474597525324 0 -0.012274541209369138 -0.019300375253563831 0 -0.012145895177880377 -0.019247984779349196 0 -0.015759614213140153 -0.019632190846219449 0 -0.010884455719002028 -0.025919071307741768 0 -0.012274541209369138 -0.019300375253563831 0 -0.012145895177880377 -0.019247984779349196 0 -0.012240300257423764 -0.01953279164172252 0 -0.013807651780893392 -0.024906605679050762 0 -0.014211529613404859 -0.022554208896410903 0 -0.012623029577982564 -0.024019813266529452 0 -0.013807651780893392 -0.024906605679050762 0 -0.014211529613404859 -0.022554208896410903 0 -0.015659401450440313 -0.025988263577045225 0 -0.015759614213140153 -0.019632190846219449 0 -0.017289233752679892 -0.024030406152036606 0 -0.01768403342999653 -0.018162524695569171 0 -0.017289233752679892 -0.024030406152036606 0 -0.018379985518334713 -0.020754619335900053 0 -0.018112439898563766 -0.020130829714431107 0 -0.016281679786676915 -0.022703626808642751 0 -0.015759614213140153 -0.019632190846219449 0 -0.01768403342999653 -0.018162524695569171 0 -0.0083137877314857604 -0.021410883209105478 0 -0.0089911395607562422 -0.02247938630392653 0 -0.0098033928045002453 -0.021207402594880843 0 -0.0089911395607562422 -0.02247938630392653 0 -0.010126278972409072 -0.023208531677734106 0 -0.0098033928045002453 -0.021207402594880843 0 -0.0089911395607562422 -0.02247938630392653 0 -0.0080189491421229411 -0.023181039114284291 0 -0.0088446445950741935 -0.02384685383993871 0 -0.0089911395607562422 -0.02247938630392653 0 -0.0088446445950741935 -0.02384685383993871 0 -0.010126278972409072 -0.023208531677734106 0 -0.0083137877314857604 -0.021410883209105478 0 -0.0089911395607562422 -0.02247938630392653 0 -0.0080189491421229411 -0.023181039114284291 0 -0.010065621646761126 -0.020443425263206312 0 -0.0091825695050091072 -0.020930421883191979 0 -0.0083137877314857604 -0.021410883209105478 0 -0.0063669855630034888 -0.023607735027655098 0 -0.0080189491421229411 -0.023181039114284291 0 -0.011830833562699782 -0.019151917894305894 0 -0.012422527460608497 -0.019115282947807299 0 -0.012292436691863324 -0.019178967912796004 0 -0.0080189491421229411 -0.023181039114284291 0 -0.0076485897335342966 -0.024680952094981248 0 -0.0088446445950741935 -0.02384685383993871 0 -0.0063669855630034888 -0.023607735027655098 0 -0.0080189491421229411 -0.023181039114284291 0 -0.0076485897335342966 -0.024680952094981248 0 -0.0063669855630034888 -0.023607735027655098 0 -0.0065983284709132169 -0.025154738234285989 0 -0.0076485897335342966 -0.024680952094981248 0 -0.0065983284709132169 -0.025154738234285989 0 -0.0076485897335342966 -0.024680952094981248 0 -0.0071245388616713902 -0.025796044349904013 0 -0.0076485897335342966 -0.024680952094981248 0 -0.0088446445950741935 -0.02384685383993871 0 -0.0088391971162277393 -0.025406096620188716 0 -0.0088446445950741935 -0.02384685383993871 0 -0.0097433168568603953 -0.024591771905411473 0 -0.010126278972409072 -0.023208531677734106 0 -0.0088446445950741935 -0.02384685383993871 0 -0.0097433168568603953 -0.024591771905411473 0 -0.0088391971162277393 -0.025406096620188716 0 -0.0097433168568603953 -0.024591771905411473 0 -0.010985177088075782 -0.024663369067258686 0 -0.0099483298879785974 -0.025830668227470346 0 -0.010985177088075782 -0.024663369067258686 0 -0.011206689164709037 -0.023509909708558763 0 -0.012488886534515787 -0.02368272571430451 0 -0.010985177088075782 -0.024663369067258686 0 -0.011206689164709037 -0.023509909708558763 0 -0.010126278972409072 -0.023208531677734106 0 -0.0097433168568603953 -0.024591771905411473 0 -0.010985177088075782 -0.024663369067258686 0 -0.010126278972409072 -0.023208531677734106 0 -0.010126278972409072 -0.023208531677734106 0 -0.011229418338039301 -0.022483051973876764 0 -0.0098033928045002453 -0.021207402594880843 0 -0.011206689164709037 -0.023509909708558763 0 -0.010126278972409072 -0.023208531677734106 0 -0.011229418338039301 -0.022483051973876764 0 -0.010487977487463973 -0.021975039678657965 0 -0.0098064265476411061 -0.021200531342300787 0 -0.0095278792552398271 -0.020828797062080892 0 -0.0098033928045002453 -0.021207402594880843 0 -0.0095495272475590379 -0.020989620223800746 0 -0.0095278792552398271 -0.020828797062080892 0 -0.0093414284664057011 -0.020771652855957463 0 -0.0095495272475590379 -0.020989620223800746 0 -0.0046301051469630379 -0.022387643012394813 0 -0.00079874467412959849 -0.024879350933309227 0 0.0050902396075739416 -0.024748218283153781 0 0.0063044294125330861 -0.025446465127339207 0 0.0058987325280473839 -0.027376100011566283 0 -0.011206689164709037 -0.023509909708558763 0 -0.011229418338039301 -0.022483051973876764 0 -0.012488886534515787 -0.02368272571430451 0 -0.0095278792552398271 -0.020828797062080892 0 -0.0093414284664057011 -0.020771652855957463 0 -0.0093519635641309863 -0.020716937170685533 0 -0.010487977487463973 -0.021975039678657965 0 -0.0066110290828722794 -0.024054336842037817 0 0.0050902396075739416 -0.024748218283153781 0 0.0055466033503783815 -0.023574012372159114 0 0.0063044294125330861 -0.025446465127339207 0 -0.0046301051469630379 -0.022387643012394813 0 -0.0066110290828722794 -0.024054336842037817 0 -0.010985177088075782 -0.024663369067258686 0 -0.012488886534515787 -0.02368272571430451 0 -0.011994802047568873 -0.025565412318082407 0 -0.0046301051469630379 -0.022387643012394813 0 0.00067859934273004421 -0.025115233890773376 0 -0.0026174281916118841 -0.024125041654524278 0 -0.0025873353363542835 -0.024220034269935391 0 -0.0026647553258114694 -0.024310546527727399 0 -0.0066110290828722794 -0.024054336842037817 0 -0.0082923052179206293 -0.026282421804640878 0 -0.0051720510234088742 -0.024614116162877127 0 -0.0059698396788690593 -0.025682575853013603 0 -0.0044599930827230096 -0.027544152294317784 0 -0.0051720510234088742 -0.024614116162877127 0 -0.006064151304614086 -0.025420292799690842 0 -0.0059698396788690593 -0.025682575853013603 0 -0.0066110290828722794 -0.024054336842037817 0 0.00067859934273004421 -0.025115233890773376 0 0.00067859934273004421 -0.025115233890773376 0 -0.0003746278190558772 -0.026022530075210965 0 0.0064947432434902547 -0.025905966245786262 0 0.0077545956789135942 -0.026009711199551169 0 0.0076596299805645803 -0.02480347203815118 0 0.0022368276000290154 -0.027930531116145109 0 0.0022792758690835732 -0.028047255570128733 0 0.0011217008530434824 -0.028971177731339344 0 0.0064947432434902547 -0.025905966245786262 0 0.0077545956789135942 -0.026009711199551169 0 0.007205734204747071 -0.026444405719349789 0 0.00067859934273004421 -0.025115233890773376 0 0.0056341311098565289 -0.029040119067935351 0 0.0077545956789135942 -0.026009711199551169 0 0.007205734204747071 -0.026444405719349789 0 0.0076855052814603026 -0.026783973320960448 0 0.010944221400877533 -0.026318558741280629 0 0.0056341311098565289 -0.029040119067935351 0 0.0077545956789135942 -0.026009711199551169 0 0.0092877920471946488 -0.02559874582690096 0 0.0086572474221082805 -0.026533669712633653 0 0.0077545956789135942 -0.026009711199551169 0 0.0092877920471946488 -0.02559874582690096 0 0.0076596299805645803 -0.02480347203815118 0 0.0092877920471946488 -0.02559874582690096 0 0.0086572474221082805 -0.026533669712633653 0 0.0097489423330138388 -0.027157907507173843 0 0.0086572474221082805 -0.026533669712633653 0 0.0085229704382565 -0.027299081443764694 0 0.0097489423330138388 -0.027157907507173843 0 0.0086572474221082805 -0.026533669712633653 0 0.0085229704382565 -0.027299081443764694 0 0.0076855052814603026 -0.026783973320960448 0 0.0077545956789135942 -0.026009711199551169 0 0.0086572474221082805 -0.026533669712633653 0 0.0076855052814603026 -0.026783973320960448 0 0.0085229704382565 -0.027299081443764694 0 0.0076855052814603026 -0.026783973320960448 0 0.0076151311021191818 -0.027290317422227959 0 0.0085229704382565 -0.027299081443764694 0 0.009623726594615049 -0.028296463359059998 0 0.0097489423330138388 -0.027157907507173843 0 0.0064947432434902547 -0.025905966245786262 0 0.007205734204747071 -0.026444405719349789 0 0.0070296849843700469 -0.027022687301736372 0 0.00067859934273004421 -0.025115233890773376 0 0.0066205825071423254 -0.026529568331490855 0 0.007205734204747071 -0.026444405719349789 0 0.0076855052814603026 -0.026783973320960448 0 0.0070296849843700469 -0.027022687301736372 0 0.0076151311021191818 -0.027290317422227959 0 0.0070296849843700469 -0.027022687301736372 0 0.0070978764729659992 -0.027579527634791105 0 0.0076855052814603026 -0.026783973320960448 0 0.0076151311021191818 -0.027290317422227959 0 0.0070296849843700469 -0.027022687301736372 0 0.0066205825071423254 -0.026529568331490855 0 0.0070275339649376635 -0.027345436323605476 0 0.0063044294125330861 -0.025446465127339207 0 0.0070978764729659992 -0.027579527634791105 0 0.0058987325280473839 -0.027376100011566283 0 0.0076151311021191818 -0.027290317422227959 0 0.0070978764729659992 -0.027579527634791105 0 0.0080944729232237129 -0.027900492581292107 0 0.0070978764729659992 -0.027579527634791105 0 0.0080944729232237129 -0.027900492581292107 0 0.0074602243791285824 -0.028635073765364238 0 0.0070978764729659992 -0.027579527634791105 0 0.0074602243791285824 -0.028635073765364238 0 0.0058987325280473839 -0.027376100011566283 0 0.0085229704382565 -0.027299081443764694 0 0.0080944729232237129 -0.027900492581292107 0 0.009623726594615049 -0.028296463359059998 0 0.0085229704382565 -0.027299081443764694 0 0.0076151311021191818 -0.027290317422227959 0 0.0080944729232237129 -0.027900492581292107 0 0.0080944729232237129 -0.027900492581292107 0 0.0087210679922943065 -0.02870512295701683 0 0.0074602243791285824 -0.028635073765364238 0 0.0080944729232237129 -0.027900492581292107 0 0.0087210679922943065 -0.02870512295701683 0 0.009623726594615049 -0.028296463359059998 0 0.0089480555793340338 -0.030363769734409275 0 0.0087210679922943065 -0.02870512295701683 0 0.009980395778252946 -0.02948294401676204 0 0.0089480555793340338 -0.030363769734409275 0 0.0074602243791285824 -0.028635073765364238 0 0.0062964313819554316 -0.029308020048702057 0 0.0089480555793340338 -0.030363769734409275 0 0.0087210679922943065 -0.02870512295701683 0 0.0074602243791285824 -0.028635073765364238 0 -0.0018754295704601852 -0.022770207205471536 0 -0.00079874467412959849 -0.024879350933309227 0 0.0074602243791285824 -0.028635073765364238 0 0.0062964313819554316 -0.029308020048702057 0 0.0058987325280473839 -0.027376100011566283 0 -0.0079813456420807418 -0.022164846959753483 0 -0.0086361436368554891 -0.021272525597847772 0 -0.0083156636914835484 -0.021075402730458128 0 -0.0079813456420807418 -0.022164846959753483 0 -0.0086361436368554891 -0.021272525597847772 0 -0.0084385246175473164 -0.020987495249434628 0 -0.0018754295704601852 -0.022770207205471536 0 -0.0093774961124469397 -0.021127138311621368 0 -0.0086361436368554891 -0.021272525597847772 0 -0.009490060172624647 -0.020869230673970326 0 -0.0092408235182367404 -0.021014995923138404 0 -0.0086361436368554891 -0.021272525597847772 0 -0.0084385246175473164 -0.020987495249434628 0 -0.009490060172624647 -0.020869230673970326 0 -0.010192541069877084 -0.020566584630658209 0 -0.009490060172624647 -0.020869230673970326 0 -0.0092408235182367404 -0.021014995923138404 0 -0.010076237652207592 -0.021293684671249483 0 -0.0084385246175473164 -0.020987495249434628 0 -0.009490060172624647 -0.020869230673970326 0 -0.010076237652207592 -0.021293684671249483 0 -0.010192541069877084 -0.020566584630658209 0 -0.009490060172624647 -0.020869230673970326 0 -0.010192541069877084 -0.020566584630658209 0 -0.0098033928045002453 -0.021207402594880843 0 -0.0095495272475590379 -0.020989620223800746 0 -0.010192541069877084 -0.020566584630658209 0 -0.0095495272475590379 -0.020989620223800746 0 -0.0092408235182367404 -0.021014995923138404 0 -0.0093414284664057011 -0.020771652855957463 0 -0.0095495272475590379 -0.020989620223800746 0 -0.0092408235182367404 -0.021014995923138404 0 -0.0085646524172702364 -0.019908167720556733 0 -0.0083156636914835484 -0.021075402730458128 0 -0.0092408235182367404 -0.021014995923138404 0 -0.0046301051469630379 -0.022387643012394813 0 -0.010260227754878917 -0.020389560301947666 0 -0.0086361436368554891 -0.021272525597847772 0 -0.0083156636914835484 -0.021075402730458128 0 -0.0092408235182367404 -0.021014995923138404 0 -0.036819074254047672 -0.017820473740929654 0 -0.03459082756820523 -0.018269615030818365 0 -0.033770273903112012 -0.017406777047399211 0 -0.038499199365861297 -0.016561696662823807 0 -0.031976061274347933 -0.021841698913670181 0 -0.036819074254047672 -0.017820473740929654 0 -0.03805782162370893 -0.017633595240398859 0 -0.03769513341227302 -0.018045698597692929 0 -0.03459082756820523 -0.018269615030818365 0 -0.033770273903112012 -0.017406777047399211 0 -0.033777981631497832 -0.017553972604690306 0 -0.03459082756820523 -0.018269615030818365 0 -0.033777981631497832 -0.017553972604690306 0 -0.033804862617400795 -0.0182993203809046 0 -0.031976061274347933 -0.021841698913670181 0 -0.027426362060055547 -0.022882487421369065 0 -0.033772363472296459 -0.017400337655537775 0 -0.033043909987644261 -0.018227315451604682 0 -0.030707634572072429 -0.017244135655248814 0 -0.033772363472296459 -0.017400337655537775 0 -0.033777981631497832 -0.017553972604690306 0 -0.033043909987644261 -0.018227315451604682 0 -0.031976061274347933 -0.021841698913670181 0 -0.032001803209015238 -0.021502921992994205 0 -0.033777981631497832 -0.017553972604690306 0 -0.033804862617400795 -0.0182993203809046 0 -0.033043909987644261 -0.018227315451604682 0 -0.033804862617400795 -0.0182993203809046 0 -0.033043909987644261 -0.018227315451604682 0 -0.033801935267815997 -0.019123830807724958 0 -0.033043909987644261 -0.018227315451604682 0 -0.03228187714082198 -0.019623344586539315 0 -0.033801935267815997 -0.019123830807724958 0 -0.035455303472010029 -0.019295761560074783 0 -0.03459082756820523 -0.018269615030818365 0 -0.033801935267815997 -0.019123830807724958 0 -0.035455303472010029 -0.019295761560074783 0 -0.033801935267815997 -0.019123830807724958 0 -0.034279016675819701 -0.020741856320167854 0 -0.03459082756820523 -0.018269615030818365 0 -0.033804862617400795 -0.0182993203809046 0 -0.033801935267815997 -0.019123830807724958 0 -0.035978972170903491 -0.02041541629293251 0 -0.035455303472010029 -0.019295761560074783 0 -0.034279016675819701 -0.020741856320167854 0 -0.035680888502826046 -0.021813883891813809 0 -0.034067743298866145 -0.022931133813286809 0 -0.034279016675819701 -0.020741856320167854 0 -0.034067743298866145 -0.022931133813286809 0 -0.034279016675819701 -0.020741856320167854 0 -0.031983588086186149 -0.021965236465965401 0 -0.03228187714082198 -0.019623344586539315 0 -0.034279016675819701 -0.020741856320167854 0 -0.031983588086186149 -0.021965236465965401 0 -0.03228187714082198 -0.019623344586539315 0 -0.033801935267815997 -0.019123830807724958 0 -0.034279016675819701 -0.020741856320167854 0 -0.03228187714082198 -0.019623344586539315 0 -0.031983588086186149 -0.021965236465965401 0 -0.029950252301747922 -0.019819066074796145 0 -0.030051778586639575 -0.023912387208563767 0 -0.029566677544634875 -0.022090162469331209 0 -0.027555979053411166 -0.023305090711202025 0 -0.030051778586639575 -0.023912387208563767 0 -0.031983588086186149 -0.021965236465965401 0 -0.029566677544634875 -0.022090162469331209 0 -0.029566677544634875 -0.022090162469331209 0 -0.029950252301747922 -0.019819066074796145 0 -0.027572867847873727 -0.020436930618537946 0 -0.031983588086186149 -0.021965236465965401 0 -0.029566677544634875 -0.022090162469331209 0 -0.029950252301747922 -0.019819066074796145 0 -0.029950252301747922 -0.019819066074796145 0 -0.030707634572072429 -0.017244135655248814 0 -0.027287562697635468 -0.017205175968937891 0 -0.03228187714082198 -0.019623344586539315 0 -0.029950252301747922 -0.019819066074796145 0 -0.030707634572072429 -0.017244135655248814 0 -0.033043909987644261 -0.018227315451604682 0 -0.03228187714082198 -0.019623344586539315 0 -0.030707634572072429 -0.017244135655248814 0 -0.025248365214235846 -0.028298878182823315 0 -0.024831287756835317 -0.027951282478698387 0 -0.02544355755202771 -0.028149452520959482 0 -0.025525992889291325 -0.028140909157225252 0 -0.025248365214235846 -0.028298878182823315 0 -0.02544355755202771 -0.028149452520959482 0 -0.025248365214235846 -0.028298878182823315 0 -0.024121827012091954 -0.028382398364432543 0 -0.024831287756835317 -0.027951282478698387 0 -0.027426362060055547 -0.022882487421369065 0 -0.025767641489886594 -0.022937900455083496 0 -0.024121827012091954 -0.028382398364432543 0 -0.022844852307397478 -0.028405130677956525 0 -0.02351054618086721 -0.027636303517629451 0 -0.027287562697635468 -0.017205175968937891 0 -0.025935361311325275 -0.018777631609429416 0 -0.023712752353124523 -0.017294309311280395 0 -0.025767641489886594 -0.022937900455083496 0 -0.023478267066377078 -0.021652082107926077 0 -0.025935361311325275 -0.018777631609429416 0 -0.024534780451356295 -0.019975679711428072 0 -0.023712752353124523 -0.017294309311280395 0 -0.025935361311325275 -0.018777631609429416 0 -0.027572867847873727 -0.020436930618537946 0 -0.024534780451356295 -0.019975679711428072 0 -0.027287562697635468 -0.017205175968937891 0 -0.025935361311325275 -0.018777631609429416 0 -0.027572867847873727 -0.020436930618537946 0 -0.029950252301747922 -0.019819066074796145 0 -0.027287562697635468 -0.017205175968937891 0 -0.027572867847873727 -0.020436930618537946 0 -0.029566677544634875 -0.022090162469331209 0 -0.027572867847873727 -0.020436930618537946 0 -0.027555979053411166 -0.023305090711202025 0 -0.027572867847873727 -0.020436930618537946 0 -0.027555979053411166 -0.023305090711202025 0 -0.025306428504115554 -0.022951776220718336 0 -0.025863853999961373 -0.02487590412574589 0 -0.027555979053411166 -0.023305090711202025 0 -0.025306428504115554 -0.022951776220718336 0 -0.025280812241346359 -0.023111712317542304 0 -0.024307555671512174 -0.020247657683501584 0 -0.027572867847873727 -0.020436930618537946 0 -0.025306428504115554 -0.022951776220718336 0 -0.024534780451356295 -0.019975679711428072 0 -0.025306428504115554 -0.022951776220718336 0 -0.024203263665436129 -0.021710411246305163 0 -0.023418494433999903 -0.022428050321502857 0 -0.024203263665436129 -0.021710411246305163 0 -0.023418494433999903 -0.022428050321502857 0 -0.023116260897729238 -0.021437876769072307 0 -0.023418494433999903 -0.022428050321502857 0 -0.021866002744105568 -0.022027886866764376 0 -0.023116260897729238 -0.021437876769072307 0 -0.023867467462416404 -0.024711604748829798 0 -0.025306428504115554 -0.022951776220718336 0 -0.022774977242004481 -0.023620608639666557 0 -0.025306428504115554 -0.022951776220718336 0 -0.023418494433999903 -0.022428050321502857 0 -0.022774977242004481 -0.023620608639666557 0 -0.021606099343999291 -0.025405809050615406 0 -0.02049648215751813 -0.023955172046214626 0 -0.022774977242004481 -0.023620608639666557 0 -0.02049648215751813 -0.023955172046214626 0 -0.022774977242004481 -0.023620608639666557 0 -0.021866002744105568 -0.022027886866764376 0 -0.023418494433999903 -0.022428050321502857 0 -0.022774977242004481 -0.023620608639666557 0 -0.021866002744105568 -0.022027886866764376 0 -0.021866002744105568 -0.022027886866764376 0 -0.02237772409578636 -0.020588855280159555 0 -0.020896932260468293 -0.019768124049969443 0 -0.021866002744105568 -0.022027886866764376 0 -0.02237772409578636 -0.020588855280159555 0 -0.023116260897729238 -0.021437876769072307 0 -0.024203263665436129 -0.021710411246305163 0 -0.023608323060418705 -0.020335516201871885 0 -0.023544123057822865 -0.019727179788007112 0 -0.024307555671512174 -0.020247657683501584 0 -0.023478267066377078 -0.021652082107926077 0 -0.024203263665436129 -0.021710411246305163 0 -0.023116260897729238 -0.021437876769072307 0 -0.023608323060418705 -0.020335516201871885 0 -0.02237772409578636 -0.020588855280159555 0 -0.023116260897729238 -0.021437876769072307 0 -0.023608323060418705 -0.020335516201871885 0 -0.021352240242485984 -0.022601221551374159 0 -0.021418067671722447 -0.022599036244267904 0 -0.021122906335768028 -0.021960336343484002 0 -0.023130856481880895 -0.02074398134031023 0 -0.021669135997705632 -0.019676590873549938 0 -0.02237772409578636 -0.020588855280159555 0 -0.023608323060418705 -0.020335516201871885 0 -0.023321207998110317 -0.019621241395272736 0 -0.023608323060418705 -0.020335516201871885 0 -0.023345920044963643 -0.019734728663676482 0 -0.023544123057822865 -0.019727179788007112 0 -0.023195842629080542 -0.020312354666814286 0 -0.023130856481880895 -0.02074398134031023 0 -0.023130856481880895 -0.02074398134031023 0 -0.023478267066377078 -0.021652082107926077 0 -0.023506727905220633 -0.019676752792594811 0 -0.022015718465243462 -0.018719153447724814 0 -0.022438703701236226 -0.017200591519645991 0 -0.023130856481880895 -0.02074398134031023 0 -0.021207459350772628 -0.01960133193088566 0 -0.02237772409578636 -0.020588855280159555 0 -0.023321207998110317 -0.019621241395272736 0 -0.020896932260468293 -0.019768124049969443 0 -0.023506727905220633 -0.019676752792594811 0 -0.022015718465243462 -0.018719153447724814 0 -0.020896932260468293 -0.019768124049969443 0 -0.020649801693961786 -0.017926613366757264 0 -0.022015718465243462 -0.018719153447724814 0 -0.020896932260468293 -0.019768124049969443 0 -0.020649801693961786 -0.017926613366757264 0 -0.019970881945830184 -0.01609147483381116 0 -0.022438703701236226 -0.017200591519645991 0 -0.020649801693961786 -0.017926613366757264 0 -0.022015718465243462 -0.018719153447724814 0 -0.022438703701236226 -0.017200591519645991 0 -0.023478267066377078 -0.021652082107926077 0 -0.021746539765273652 -0.025434561052914535 0 -0.022844852307397478 -0.028405130677956525 0 -0.022467925476476774 -0.027435701462996669 0 -0.02351054618086721 -0.027636303517629451 0 -0.021352240242485984 -0.022601221551374159 0 -0.021022679935915771 -0.022039320880296906 0 -0.021122906335768028 -0.021960336343484002 0 -0.022467925476476774 -0.027435701462996669 0 -0.022715573456341641 -0.026274968153531676 0 -0.023175495689584085 -0.026865918911099296 0 -0.022467925476476774 -0.027435701462996669 0 -0.023175495689584085 -0.026865918911099296 0 -0.02351054618086721 -0.027636303517629451 0 -0.022467925476476774 -0.027435701462996669 0 -0.022044444775848403 -0.02638178040856648 0 -0.022715573456341641 -0.026274968153531676 0 -0.021669135997705632 -0.019676590873549938 0 -0.0211362634424563 -0.017895094001258115 0 -0.021122906335768028 -0.021960336343484002 0 -0.02064914191016164 -0.021404406866261046 0 -0.020786392225456148 -0.021240435796646296 0 -0.019970881945830184 -0.01609147483381116 0 -0.022438703701236226 -0.017200591519645991 0 -0.021279668247972287 -0.014717660988830972 0 -0.021022679935915771 -0.022039320880296906 0 -0.021122906335768028 -0.021960336343484002 0 -0.02064914191016164 -0.021404406866261046 0 -0.021746539765273652 -0.025434561052914535 0 -0.021758978672773727 -0.023574353112707433 0 -0.01768403342999653 -0.018162524695569171 0 -0.0211362634424563 -0.017895094001258115 0 -0.020318636392806434 -0.020786719714374177 0 -0.02064914191016164 -0.021404406866261046 0 -0.020786392225456148 -0.021240435796646296 0 -0.022044444775848403 -0.02638178040856648 0 -0.022210451519129655 -0.025653729229273999 0 -0.022715573456341641 -0.026274968153531676 0 -0.022044444775848403 -0.02638178040856648 0 -0.022210451519129655 -0.025653729229273999 0 -0.021609327364686348 -0.02527135632579413 0 -0.021758978672773727 -0.023574353112707433 0 -0.017289233752679892 -0.024030406152036606 0 -0.020318636392806434 -0.020786719714374177 0 -0.020786392225456148 -0.021240435796646296 0 -0.02048365797448639 -0.020551746427928383 0 -0.022210451519129655 -0.025653729229273999 0 -0.022674810372941605 -0.025410548641209472 0 -0.022004539569123991 -0.024916852518348589 0 -0.022210451519129655 -0.025653729229273999 0 -0.021609327364686348 -0.02527135632579413 0 -0.022004539569123991 -0.024916852518348589 0 -0.017289233752679892 -0.024030406152036606 0 -0.017317109989682881 -0.02849140616179352 0 -0.022210451519129655 -0.025653729229273999 0 -0.022674810372941605 -0.025410548641209472 0 -0.022715573456341641 -0.026274968153531676 0 -0.024155497708585626 -0.028748011257330168 0 -0.024187680442510073 -0.028691410759980517 0 -0.024028704959904324 -0.029562670458710322 0 -0.020999481630776511 -0.028599376204192568 0 -0.020770166166609583 -0.028807431613251853 0 -0.019905313801433427 -0.027415537872005621 0 -0.021805388530340492 -0.027261277480343318 0 -0.017317109989682881 -0.02849140616179352 0 -0.022816258036093894 -0.029120388314553176 0 -0.02331322793243152 -0.027569910781026632 0 -0.024155497708585626 -0.028748011257330168 0 -0.024187680442510073 -0.028691410759980517 0 -0.024518553919510303 -0.028800523384141574 0 -0.020999481630776511 -0.028599376204192568 0 -0.020770166166609583 -0.028807431613251853 0 -0.022081023683099089 -0.029719199128183774 0 -0.021805388530340492 -0.027261277480343318 0 -0.02331322793243152 -0.027569910781026632 0 -0.022715573456341641 -0.026274968153531676 0 -0.02317935792755383 -0.026426483522664523 0 -0.023322533279524153 -0.025908637880229152 0 -0.022674810372941605 -0.025410548641209472 0 -0.022715573456341641 -0.026274968153531676 0 -0.023322533279524153 -0.025908637880229152 0 -0.022715573456341641 -0.026274968153531676 0 -0.02317935792755383 -0.026426483522664523 0 -0.023175495689584085 -0.026865918911099296 0 -0.024518553919510303 -0.028800523384141574 0 -0.024867950574527349 -0.028705194630889209 0 -0.025290044642217385 -0.028851813977724752 0 -0.02317935792755383 -0.026426483522664523 0 -0.023322533279524153 -0.025908637880229152 0 -0.023505652377429107 -0.026641885054911905 0 -0.023322533279524153 -0.025908637880229152 0 -0.02411753231134196 -0.026901239246867492 0 -0.023505652377429107 -0.026641885054911905 0 -0.02331322793243152 -0.027569910781026632 0 -0.023972206841148494 -0.026361322608525625 0 -0.02331322793243152 -0.027569910781026632 0 -0.024817979261708204 -0.027802199999008508 0 -0.024187680442510073 -0.028691410759980517 0 -0.024518553919510303 -0.028800523384141574 0 -0.024542680628202404 -0.028654335720675057 0 -0.024518553919510303 -0.028800523384141574 0 -0.024542680628202404 -0.028654335720675057 0 -0.024867950574527349 -0.028705194630889209 0 -0.024867950574527349 -0.028705194630889209 0 -0.024701967745063669 -0.028521873440545929 0 -0.025230981584240437 -0.028721760276837698 0 -0.024542680628202404 -0.028654335720675057 0 -0.024867950574527349 -0.028705194630889209 0 -0.024701967745063669 -0.028521873440545929 0 -0.024187680442510073 -0.028691410759980517 0 -0.024542680628202404 -0.028654335720675057 0 -0.024468363878021083 -0.028564543907551459 0 -0.024701967745063669 -0.028521873440545929 0 -0.024468363878021083 -0.028564543907551459 0 -0.024487114225063646 -0.028393643164475207 0 -0.024187680442510073 -0.028691410759980517 0 -0.024468363878021083 -0.028564543907551459 0 -0.024487114225063646 -0.028393643164475207 0 -0.024542680628202404 -0.028654335720675057 0 -0.024701967745063669 -0.028521873440545929 0 -0.024468363878021083 -0.028564543907551459 0 -0.024701967745063669 -0.028521873440545929 0 -0.025230981584240437 -0.028721760276837698 0 -0.02479036691013959 -0.028233770452832502 0 -0.025230981584240437 -0.028721760276837698 0 -0.025363771746838567 -0.028693299235163998 0 -0.02541618807777794 -0.028716322141483119 0 -0.025363771746838567 -0.028693299235163998 0 -0.02539493797057539 -0.028713843212878273 0 -0.02541618807777794 -0.028716322141483119 0 -0.025186687520196854 -0.028867057558431667 0 -0.025350640957486622 -0.028130803530022008 0 -0.025230981584240437 -0.028721760276837698 0 -0.025390137261712794 -0.028734985339401088 0 -0.025363771746838567 -0.028693299235163998 0 -0.024867950574527349 -0.028705194630889209 0 -0.025230981584240437 -0.028721760276837698 0 -0.025290044642217385 -0.028851813977724752 0 -0.023530853384258685 -0.026250408507793265 0 -0.024174770062745477 -0.026711936993608715 0 -0.02411753231134196 -0.026901239246867492 0 -0.025230981584240437 -0.028721760276837698 0 -0.025290044642217385 -0.028851813977724752 0 -0.025390137261712794 -0.028734985339401088 0 -0.02411753231134196 -0.026901239246867492 0 -0.024208809107286854 -0.027568990526974386 0 -0.02493168881223148 -0.027385402483110628 0 -0.024174770062745477 -0.026711936993608715 0 -0.02411753231134196 -0.026901239246867492 0 -0.02493168881223148 -0.027385402483110628 0 -0.02411753231134196 -0.026901239246867492 0 -0.023696533822868779 -0.027126408817747225 0 -0.024208809107286854 -0.027568990526974386 0 -0.023175495689584085 -0.026865918911099296 0 -0.023696533822868779 -0.027126408817747225 0 -0.02351054618086721 -0.027636303517629451 0 -0.02411753231134196 -0.026901239246867492 0 -0.023505652377429107 -0.026641885054911905 0 -0.023696533822868779 -0.027126408817747225 0 -0.023505652377429107 -0.026641885054911905 0 -0.023175495689584085 -0.026865918911099296 0 -0.023696533822868779 -0.027126408817747225 0 -0.02317935792755383 -0.026426483522664523 0 -0.023505652377429107 -0.026641885054911905 0 -0.023175495689584085 -0.026865918911099296 0 -0.023696533822868779 -0.027126408817747225 0 -0.02351054618086721 -0.027636303517629451 0 -0.024208809107286854 -0.027568990526974386 0 -0.024121827012091954 -0.028382398364432543 0 -0.024208809107286854 -0.027568990526974386 0 -0.024831287756835317 -0.027951282478698387 0 -0.024121827012091954 -0.028382398364432543 0 -0.02351054618086721 -0.027636303517629451 0 -0.024208809107286854 -0.027568990526974386 0 -0.024831287756835317 -0.027951282478698387 0 -0.02544355755202771 -0.028149452520959482 0 -0.02493168881223148 -0.027385402483110628 0 -0.024208809107286854 -0.027568990526974386 0 -0.024831287756835317 -0.027951282478698387 0 -0.02493168881223148 -0.027385402483110628 0 -0.02541692802760602 -0.028120640509336374 0 -0.025167235837024144 -0.027947987888912645 0 -0.02544355755202771 -0.028149452520959482 0 -0.025437559850377985 -0.028503305744676175 0 -0.025512886358771494 -0.028540548871405294 0 -0.025437559850377985 -0.028503305744676175 0 -0.025512886358771494 -0.028540548871405294 0 -0.025445563309001853 -0.02866923980897346 0 -0.025290044642217385 -0.028851813977724752 0 -0.025512886358771494 -0.028540548871405294 0 -0.025390137261712794 -0.028734985339401088 0 -0.024817979261708204 -0.027802199999008508 0 -0.025167235837024144 -0.027947987888912645 0 -0.025512886358771494 -0.028540548871405294 0 -0.025390137261712794 -0.028734985339401088 0 -0.025445563309001853 -0.02866923980897346 0 -0.025445563309001853 -0.02866923980897346 0 -0.025363771746838567 -0.028693299235163998 0 -0.025419375184934097 -0.028692283283866523 0 -0.025390137261712794 -0.028734985339401088 0 -0.025445563309001853 -0.02866923980897346 0 -0.025363771746838567 -0.028693299235163998 0 -0.025419375184934097 -0.028692283283866523 0 -0.025427501383989123 -0.028735256156287803 0 -0.02539493797057539 -0.028713843212878273 0 -0.025363771746838567 -0.028693299235163998 0 -0.025419375184934097 -0.028692283283866523 0 -0.02539493797057539 -0.028713843212878273 0 -0.025419375184934097 -0.028692283283866523 0 -0.025434854931720041 -0.028666608506544972 0 -0.025427501383989123 -0.028735256156287803 0 -0.025437559850377985 -0.028503305744676175 0 -0.025445563309001853 -0.02866923980897346 0 -0.025434854931720041 -0.028666608506544972 0 -0.025445563309001853 -0.02866923980897346 0 -0.025419375184934097 -0.028692283283866523 0 -0.025434854931720041 -0.028666608506544972 0 -0.025434854931720041 -0.028666608506544972 0 -0.025366810247208455 -0.028550856935082598 0 -0.025433342734597894 -0.028697483908461392 0 -0.025437559850377985 -0.028503305744676175 0 -0.025434854931720041 -0.028666608506544972 0 -0.025366810247208455 -0.028550856935082598 0 -0.031584567190981301 -0.022841800268436362 0 -0.037088389283558489 -0.030028769004608508 0 -0.037088389283558489 -0.030028769004608508 0 -0.027664067031589568 -0.031695169740246484 0 -0.025434854931720041 -0.028666608506544972 0 -0.025433342734597894 -0.028697483908461392 0 -0.025427501383989123 -0.028735256156287803 0 -0.051232591386846806 -0.034000959384028431 0 -0.05141368816521534 -0.034020484741838893 0 -0.051292494332496878 -0.033717920178069405 0 -0.051182347806830439 -0.034309211076690958 0 -0.051232591386846806 -0.034000959384028431 0 -0.05141368816521534 -0.034020484741838893 0 -0.038406530732016296 -0.019342624452182364 0 -0.037573433650473262 -0.019614017433376523 0 -0.037824362320397313 -0.018901707637507051 0 -0.037088389283558489 -0.030028769004608508 0 -0.045267716261520152 -0.026609654787077254 0 -0.038406530732016296 -0.019342624452182364 0 -0.038505652853687136 -0.020628624779944822 0 -0.037573433650473262 -0.019614017433376523 0 -0.038406530732016296 -0.019342624452182364 0 -0.037824362320397313 -0.018901707637507051 0 -0.038167926146605809 -0.018408604131285315 0 -0.037431244227275492 -0.018760069241589933 0 -0.037573433650473262 -0.019614017433376523 0 -0.037824362320397313 -0.018901707637507051 0 -0.037431244227275492 -0.018760069241589933 0 -0.037824362320397313 -0.018901707637507051 0 -0.037576826664833848 -0.018440905313534154 0 -0.037824362320397313 -0.018901707637507051 0 -0.038167926146605809 -0.018408604131285315 0 -0.037576826664833848 -0.018440905313534154 0 -0.025437559850377985 -0.028503305744676175 0 -0.025366810247208455 -0.028550856935082598 0 -0.025359406576239096 -0.028274880519961427 0 -0.031584567190981301 -0.022841800268436362 0 -0.031803469424542243 -0.023769810209842208 0 -0.025525992889291325 -0.028140909157225252 0 -0.02544355755202771 -0.028149452520959482 0 -0.025359406576239096 -0.028274880519961427 0 -0.031976061274347933 -0.021841698913670181 0 -0.031803469424542243 -0.023769810209842208 0 -0.02544355755202771 -0.028149452520959482 0 -0.025437559850377985 -0.028503305744676175 0 -0.025359406576239096 -0.028274880519961427 0 -0.03805782162370893 -0.017633595240398859 0 -0.038167926146605809 -0.018408604131285315 0 -0.03769513341227302 -0.018045698597692929 0 -0.037249208037669138 -0.018141457415250108 0 -0.03769513341227302 -0.018045698597692929 0 -0.037576826664833848 -0.018440905313534154 0 -0.038167926146605809 -0.018408604131285315 0 -0.03769513341227302 -0.018045698597692929 0 -0.037576826664833848 -0.018440905313534154 0 -0.05102209392769113 -0.034955852121458568 0 -0.051139437548781592 -0.034974296709787599 0 -0.051127631287543253 -0.034885064466005811 0 -0.043023682528808165 -0.036144666068549922 0 -0.043217370966841501 -0.0368791723392193 0 -0.04117818381732688 -0.036482607171965102 0 -0.048365611585748453 -0.036036152225303854 0 -0.040369834351602053 -0.035877992206109023 0 -0.040369834351602053 -0.035877992206109023 0 -0.04218680187333812 -0.033869099890417927 0 -0.051139437548781592 -0.034974296709787599 0 -0.051252468562520206 -0.034790042679936739 0 -0.051127631287543253 -0.034885064466005811 0 -0.032934039503059745 -0.033368333350523201 0 -0.032951036557774205 -0.034057784587537707 0 -0.032281871732120271 -0.033806660907645628 0 -0.051252468562520206 -0.034790042679936739 0 -0.051093502813014134 -0.034799005732096662 0 -0.051187000341933929 -0.034583438862277369 0 -0.051252468562520206 -0.034790042679936739 0 -0.051127631287543253 -0.034885064466005811 0 -0.051093502813014134 -0.034799005732096662 0 -0.05102209392769113 -0.034955852121458568 0 -0.051127631287543253 -0.034885064466005811 0 -0.051093502813014134 -0.034799005732096662 0 -0.051182347806830439 -0.034309211076690958 0 -0.05141368816521534 -0.034020484741838893 0 -0.051371628138669446 -0.034453876476915696 0 -0.051182347806830439 -0.034309211076690958 0 -0.051187000341933929 -0.034583438862277369 0 -0.051371628138669446 -0.034453876476915696 0 -0.03302013456754066 -0.035296471434431223 0 -0.032969911059250394 -0.034708979002910048 0 -0.032401977650093651 -0.034900501258101332 0 -0.037088389283558489 -0.030028769004608508 0 -0.042603434483527762 -0.0356292774923287 0 -0.04218680187333812 -0.033869099890417927 0 -0.042603434483527762 -0.0356292774923287 0 -0.051252468562520206 -0.034790042679936739 0 -0.051187000341933929 -0.034583438862277369 0 -0.051371628138669446 -0.034453876476915696 0 -0.032951036557774205 -0.034057784587537707 0 -0.032969911059250394 -0.034708979002910048 0 -0.03244486661129823 -0.034375922535362174 0 -0.03244486661129823 -0.034375922535362174 0 -0.031745309331808115 -0.034459775926116827 0 -0.032281871732120271 -0.033806660907645628 0 -0.03244486661129823 -0.034375922535362174 0 -0.032401977650093651 -0.034900501258101332 0 -0.031745309331808115 -0.034459775926116827 0 -0.032969911059250394 -0.034708979002910048 0 -0.03244486661129823 -0.034375922535362174 0 -0.032401977650093651 -0.034900501258101332 0 -0.02539493797057539 -0.028713843212878273 0 -0.025397226723847959 -0.028796972803593647 0 -0.025407215778938636 -0.028754595163365114 0 -0.027664067031589568 -0.031695169740246484 0 -0.029027832790714095 -0.031492554138109544 0 -0.025427501383989123 -0.028735256156287803 0 -0.02539493797057539 -0.028713843212878273 0 -0.025397226723847959 -0.028796972803593647 0 -0.031745309331808115 -0.034459775926116827 0 -0.032281871732120271 -0.033806660907645628 0 -0.031584361417365925 -0.033560110003283974 0 -0.032951036557774205 -0.034057784587537707 0 -0.03244486661129823 -0.034375922535362174 0 -0.032281871732120271 -0.033806660907645628 0 -0.032934039503059745 -0.033368333350523201 0 -0.032281871732120271 -0.033806660907645628 0 -0.03207575359114001 -0.033163804514129674 0 -0.040369834351602053 -0.035877992206109023 0 -0.028096186468399325 -0.041280060223913478 0 -0.025061603490244444 -0.038906488648906487 0 -0.025596270328724045 -0.039238662241991025 0 -0.024313703367095749 -0.039642351803790769 0 -0.028802960543188809 -0.035783558314646885 0 -0.028096186468399325 -0.041280060223913478 0 -0.032281871732120271 -0.033806660907645628 0 -0.031584361417365925 -0.033560110003283974 0 -0.03207575359114001 -0.033163804514129674 0 -0.025720763691073529 -0.038832745776857261 0 -0.02592494255594004 -0.039450274224570904 0 -0.026198515757981822 -0.038442515435702804 0 -0.025061603490244444 -0.038906488648906487 0 -0.025720763691073529 -0.038832745776857261 0 -0.025834697363847588 -0.038123756406672253 0 -0.025061603490244444 -0.038906488648906487 0 -0.025720763691073529 -0.038832745776857261 0 -0.025596270328724045 -0.039238662241991025 0 -0.025720763691073529 -0.038832745776857261 0 -0.025596270328724045 -0.039238662241991025 0 -0.02592494255594004 -0.039450274224570904 0 -0.024578478022133161 -0.040496519868544578 0 -0.022418058668028082 -0.040282231321303159 0 -0.018569843210167254 -0.038610564137478896 0 -0.019355601198259232 -0.038024940789267693 0 -0.018853515000198284 -0.037577166478277878 0 -0.022418058668028082 -0.040282231321303159 0 -0.021861756271525958 -0.036081421438101439 0 -0.016089293117158055 -0.034842431117667653 0 -0.021861756271525958 -0.036081421438101439 0 -0.019720826165810123 -0.034645106591363536 0 -0.01907780033617287 -0.03407441555412357 0 -0.019341244002290404 -0.033165483708961503 0 -0.014166310554658426 -0.030454844865112893 0 -0.014554903201478248 -0.031767108360620168 0 -0.013577101296272555 -0.031019445984305654 0 -0.016089293117158055 -0.034842431117667653 0 -0.021190841579429631 -0.031259376430244387 0 -0.021861756271525958 -0.036081421438101439 0 -0.026040900280479912 -0.033721536928970772 0 -0.014554903201478248 -0.031767108360620168 0 -0.014491462800811117 -0.031978749374664175 0 -0.013733319520423224 -0.03171274143893444 0 -0.023001191242665666 -0.034138867250933888 0 -0.023427032765671395 -0.032566758565616902 0 -0.022162654808591888 -0.033415686550767723 0 -0.021861756271525958 -0.036081421438101439 0 -0.021190841579429631 -0.031259376430244387 0 -0.023427032765671395 -0.032566758565616902 0 -0.022162654808591888 -0.033415686550767723 0 -0.023353540277719256 -0.032309229811989817 0 -0.026040900280479912 -0.033721536928970772 0 -0.022547174678100461 -0.030287603933093588 0 -0.021190841579429631 -0.031259376430244387 0 -0.022547174678100461 -0.030287603933093588 0 -0.025448100809598834 -0.028931077978349668 0 -0.025436214404613546 -0.028848843442751383 0 -0.025499251733697163 -0.028869334304571982 0 -0.031745309331808115 -0.034459775926116827 0 -0.031584361417365925 -0.033560110003283974 0 -0.031078839415195129 -0.033968219615360888 0 -0.025720763691073529 -0.038832745776857261 0 -0.026198515757981822 -0.038442515435702804 0 -0.025834697363847588 -0.038123756406672253 0 -0.028802960543188809 -0.035783558314646885 0 -0.026040900280479912 -0.033721536928970772 0 -0.029027832790714095 -0.031492554138109544 0 -0.026040900280479912 -0.033721536928970772 0 -0.025397226723847959 -0.028796972803593647 0 -0.025436214404613546 -0.028848843442751383 0 -0.025426491379956714 -0.028795443510644978 0 -0.025397226723847959 -0.028796972803593647 0 -0.025448100809598834 -0.028931077978349668 0 -0.025436214404613546 -0.028848843442751383 0 -0.025436214404613546 -0.028848843442751383 0 -0.025426491379956714 -0.028795443510644978 0 -0.025499251733697163 -0.028869334304571982 0 -0.025397226723847959 -0.028796972803593647 0 -0.025426491379956714 -0.028795443510644978 0 -0.025407215778938636 -0.028754595163365114 0 -0.02539493797057539 -0.028713843212878273 0 -0.025407215778938636 -0.028754595163365114 0 -0.02541618807777794 -0.028716322141483119 0 -0.025426491379956714 -0.028795443510644978 0 -0.025407215778938636 -0.028754595163365114 0 -0.02541618807777794 -0.028716322141483119 0 -0.024187680442510073 -0.028691410759980517 0 -0.024487114225063646 -0.028393643164475207 0 -0.0244528035253734 -0.028091896046121619 0 -0.02479036691013959 -0.028233770452832502 0 -0.024487114225063646 -0.028393643164475207 0 -0.0244528035253734 -0.028091896046121619 0 -0.024701967745063669 -0.028521873440545929 0 -0.02479036691013959 -0.028233770452832502 0 -0.024487114225063646 -0.028393643164475207 0 -0.023271668703872109 -0.030094130476875165 0 -0.022809323595388922 -0.031635919914730685 0 -0.023861733480658034 -0.030690307310222299 0 -0.025350640957486622 -0.028130803530022008 0 -0.022547174678100461 -0.030287603933093588 0 -0.025426491379956714 -0.028795443510644978 0 -0.02541618807777794 -0.028716322141483119 0 -0.025499251733697163 -0.028869334304571982 0 -0.02479036691013959 -0.028233770452832502 0 -0.0244528035253734 -0.028091896046121619 0 -0.024540246542000526 -0.027735855904727463 0 -0.02479036691013959 -0.028233770452832502 0 -0.024570643715194754 -0.027707799733026939 0 -0.024540246542000526 -0.027735855904727463 0 -0.023999737035144957 -0.028830669907665085 0 -0.021569875009869038 -0.030825652372814687 0 -0.022547174678100461 -0.030287603933093588 0 -0.021569875009869038 -0.030825652372814687 0 -0.021226406603695402 -0.03076415165041833 0 -0.021109237306036761 -0.030357474073016453 0 -0.021412617095346028 -0.030079430937069492 0 -0.021569875009869038 -0.030825652372814687 0 -0.018553854129066637 -0.031875387160964982 0 -0.021190841579429631 -0.031259376430244387 0 -0.021569875009869038 -0.030825652372814687 0 -0.014491462800811117 -0.031978749374664175 0 -0.013712698665131338 -0.032659947880833991 0 -0.013733319520423224 -0.03171274143893444 0 -0.013166646709451309 -0.032021313046171736 0 -0.013712698665131338 -0.032659947880833991 0 -0.013733319520423224 -0.03171274143893444 0 -0.013712698665131338 -0.032659947880833991 0 -0.01295394161762759 -0.033379706433064454 0 -0.012845130103484334 -0.032440522780379517 0 -0.013166646709451309 -0.032021313046171736 0 -0.013712698665131338 -0.032659947880833991 0 -0.012845130103484334 -0.032440522780379517 0 -0.024187680442510073 -0.028691410759980517 0 -0.023271668703872109 -0.030094130476875165 0 -0.024028704959904324 -0.029562670458710322 0 -0.024069643273710813 -0.028870967206813449 0 -0.023999737035144957 -0.028830669907665085 0 -0.023271668703872109 -0.030094130476875165 0 -0.023861733480658034 -0.030690307310222299 0 -0.024028704959904324 -0.029562670458710322 0 -0.018553854129066637 -0.031875387160964982 0 -0.017039975574203288 -0.030920736456170734 0 -0.023861733480658034 -0.030690307310222299 0 -0.024028704959904324 -0.029562670458710322 0 -0.024798511058813231 -0.02978545269442176 0 -0.022816258036093894 -0.029120388314553176 0 -0.017039975574203288 -0.030920736456170734 0 -0.024155497708585626 -0.028748011257330168 0 -0.024028704959904324 -0.029562670458710322 0 -0.024798511058813231 -0.02978545269442176 0 -0.014863347360857733 -0.026958435268283766 0 -0.014003349120665131 -0.028161640797773564 0 -0.01557780954054103 -0.029255597358910517 0 -0.017847947522787618 -0.024955460225370305 0 -0.015486215051541232 -0.028280577964297136 0 -0.014799222465238768 -0.027747600771602151 0 -0.017289233752679892 -0.024030406152036606 0 -0.015225483595903061 -0.029325512816267371 0 -0.020770166166609583 -0.028807431613251853 0 -0.019440557241895494 -0.027835391278355309 0 -0.019905313801433427 -0.027415537872005621 0 -0.015225483595903061 -0.029325512816267371 0 -0.017317109989682881 -0.02849140616179352 0 -0.017317109989682881 -0.02849140616179352 0 -0.017039975574203288 -0.030920736456170734 0 -0.012451893134427095 -0.033698229916273005 0 -0.012755720185202827 -0.033445535558820301 0 -0.012464524561201402 -0.033433438124370836 0 -0.012346173903945039 -0.033611926835789722 0 -0.012451893134427095 -0.033698229916273005 0 -0.012464524561201402 -0.033433438124370836 0 -0.015225483595903061 -0.029325512816267371 0 -0.014018263492955622 -0.031041519597369567 0 -0.012755720185202827 -0.033445535558820301 0 -0.012464524561201402 -0.033433438124370836 0 -0.011870643932504877 -0.032913175500847748 0 -0.012311919576289788 -0.033645840599100849 0 -0.012464524561201402 -0.033433438124370836 0 -0.011432814875864075 -0.033056296135850052 0 -0.015225483595903061 -0.029325512816267371 0 -0.012627403733797905 -0.031332155733016599 0 -0.012464524561201402 -0.033433438124370836 0 -0.011870643932504877 -0.032913175500847748 0 -0.011432814875864075 -0.033056296135850052 0 -0.01295394161762759 -0.033379706433064454 0 -0.012845130103484334 -0.032440522780379517 0 -0.012260403680866243 -0.032318767168704014 0 -0.01295394161762759 -0.033379706433064454 0 -0.012260403680866243 -0.032318767168704014 0 -0.011519133480525733 -0.032225100854861355 0 -0.012755720185202827 -0.033445535558820301 0 -0.011870643932504877 -0.032913175500847748 0 -0.011519133480525733 -0.032225100854861355 0 -0.017039975574203288 -0.030920736456170734 0 -0.010570789325386626 -0.032676029876696315 0 -0.012845130103484334 -0.032440522780379517 0 -0.012260403680866243 -0.032318767168704014 0 -0.012357940534673434 -0.031811791762365385 0 -0.013166646709451309 -0.032021313046171736 0 -0.012845130103484334 -0.032440522780379517 0 -0.012357940534673434 -0.031811791762365385 0 -0.012260403680866243 -0.032318767168704014 0 -0.011519133480525733 -0.032225100854861355 0 -0.011639882597977 -0.031697814867964046 0 -0.012260403680866243 -0.032318767168704014 0 -0.012357940534673434 -0.031811791762365385 0 -0.011639882597977 -0.031697814867964046 0 -0.011790853755233359 -0.031066965555203295 0 -0.012357940534673434 -0.031811791762365385 0 -0.011639882597977 -0.031697814867964046 0 -0.011790853755233359 -0.031066965555203295 0 -0.012834064742962325 -0.031309949164758946 0 -0.012759478727019468 -0.030508392403862276 0 -0.011790853755233359 -0.031066965555203295 0 -0.012834064742962325 -0.031309949164758946 0 -0.012357940534673434 -0.031811791762365385 0 -0.013166646709451309 -0.032021313046171736 0 -0.012834064742962325 -0.031309949164758946 0 -0.012357940534673434 -0.031811791762365385 0 -0.013166646709451309 -0.032021313046171736 0 -0.012834064742962325 -0.031309949164758946 0 -0.013733319520423224 -0.03171274143893444 0 -0.014554903201478248 -0.031767108360620168 0 -0.013733319520423224 -0.03171274143893444 0 -0.013577101296272555 -0.031019445984305654 0 -0.012834064742962325 -0.031309949164758946 0 -0.013733319520423224 -0.03171274143893444 0 -0.013577101296272555 -0.031019445984305654 0 -0.012834064742962325 -0.031309949164758946 0 -0.013577101296272555 -0.031019445984305654 0 -0.012759478727019468 -0.030508392403862276 0 -0.016089293117158055 -0.034842431117667653 0 -0.012841794177642266 -0.032381941669181 0 -0.014166310554658426 -0.030454844865112893 0 -0.013577101296272555 -0.031019445984305654 0 -0.012759478727019468 -0.030508392403862276 0 -0.014166310554658426 -0.030454844865112893 0 -0.012759478727019468 -0.030508392403862276 0 -0.012583394666687625 -0.029156301535076104 0 -0.011679184383723814 -0.030175721826526353 0 -0.012759478727019468 -0.030508392403862276 0 -0.012583394666687625 -0.029156301535076104 0 -0.011790853755233359 -0.031066965555203295 0 -0.011679184383723814 -0.030175721826526353 0 -0.012759478727019468 -0.030508392403862276 0 -0.011679184383723814 -0.030175721826526353 0 -0.012583394666687625 -0.029156301535076104 0 -0.010671646786144233 -0.029397400845757149 0 -0.016089293117158055 -0.034842431117667653 0 -0.016659075674333123 -0.042065715854612815 0 -0.013540090099318348 -0.038005572310479643 0 -0.013961458028778901 -0.038480446702986025 0 -0.013654536927184975 -0.03857899226214815 0 -0.016659075674333123 -0.042065715854612815 0 -0.017222483969344747 -0.048635132619784943 0 -0.013961458028778901 -0.038480446702986025 0 -0.013654536927184975 -0.03857899226214815 0 -0.013911772126907019 -0.038758516837660649 0 -0.017222483969344747 -0.048635132619784943 0 -0.014152306664588226 -0.045926917101797388 0 -0.016913214414413767 -0.045944271711327665 0 -0.016722565366744567 -0.045305001538689528 0 -0.01521600082505861 -0.044925288323618452 0 -0.017328930508335606 -0.054359068266813734 0 -0.014803180700830537 -0.049962580999656912 0 -0.018200219931602105 -0.049948699751600066 0 -0.01466356674720184 -0.049684436636842799 0 -0.013745600911441311 -0.04911557617008009 0 -0.016659075674333123 -0.042065715854612815 0 -0.014152306664588226 -0.045926917101797388 0 -0.018409935415645794 -0.050673113490212848 0 -0.018200219931602105 -0.049948699751600066 0 -0.01466356674720184 -0.049684436636842799 0 -0.017222483969344747 -0.048635132619784943 0 -0.017328930508335606 -0.054359068266813734 0 -0.016202937922226573 -0.058408634715317126 0 -0.015234489772274446 -0.058239005379438713 0 -0.014958683664970534 -0.05729138357473447 0 -0.013961458028778901 -0.038480446702986025 0 -0.013911772126907019 -0.038758516837660649 0 -0.014162147021936749 -0.03885959496704728 0 -0.013961458028778901 -0.038480446702986025 0 -0.01429452841754 -0.038926729957181334 0 -0.014162147021936749 -0.03885959496704728 0 -0.015234489772274446 -0.058239005379438713 0 -0.014958683664970534 -0.05729138357473447 0 -0.013877147549973684 -0.057471685949006077 0 -0.012769253424435091 -0.050150528418820624 0 -0.012518969988887983 -0.050135792372411468 0 -0.01242007009310931 -0.050025871698132912 0 -0.012841794177642266 -0.032381941669181 0 -0.010948587302936718 -0.040853128470001852 0 -0.014803180700830537 -0.049962580999656912 0 -0.013318975752858984 -0.053989875027674772 0 -0.014975170867925932 -0.046451982840717207 0 -0.014641309527004962 -0.046243496506507525 0 -0.013099352819524308 -0.045947875074376469 0 -0.014152306664588226 -0.045926917101797388 0 -0.014803180700830537 -0.049962580999656912 0 -0.014152306664588226 -0.045926917101797388 0 -0.013273193132855059 -0.044578205971500577 0 -0.014803180700830537 -0.049962580999656912 0 -0.013273193132855059 -0.044578205971500577 0 -0.014958683664970534 -0.05729138357473447 0 -0.014849602202905524 -0.056559377201087835 0 -0.013877147549973684 -0.057471685949006077 0 -0.014958683664970534 -0.05729138357473447 0 -0.014849602202905524 -0.056559377201087835 0 -0.015738043291059947 -0.056583405317979722 0 -0.014458718952709847 -0.055000025629726113 0 -0.015669082539168103 -0.055266551350487442 0 -0.013398123121207008 -0.056140806097954216 0 -0.014849602202905524 -0.056559377201087835 0 -0.015669082539168103 -0.055266551350487442 0 -0.014065218555138122 -0.056011502890324964 0 -0.015544193295641275 -0.055309662574013242 0 -0.013752645811257935 -0.056197145461134558 0 -0.014849602202905524 -0.056559377201087835 0 -0.015669082539168103 -0.055266551350487442 0 -0.015738043291059947 -0.056583405317979722 0 -0.014458718952709847 -0.055000025629726113 0 -0.015669082539168103 -0.055266551350487442 0 -0.017662862221855612 -0.05499986084947045 0 -0.015669082539168103 -0.055266551350487442 0 -0.017141553605884631 -0.0561274100807133 0 -0.017662862221855612 -0.05499986084947045 0 -0.015669082539168103 -0.055266551350487442 0 -0.017141553605884631 -0.0561274100807133 0 -0.015738043291059947 -0.056583405317979722 0 -0.016202937922226573 -0.058408634715317126 0 -0.014958683664970534 -0.05729138357473447 0 -0.015738043291059947 -0.056583405317979722 0 -0.017328930508335606 -0.054359068266813734 0 -0.01573367264986697 -0.058528172863953461 0 -0.016596680976724013 -0.059383146780996009 0 -0.015738043291059947 -0.056583405317979722 0 -0.017818562095580484 -0.057570320419731681 0 -0.017141553605884631 -0.0561274100807133 0 -0.015738043291059947 -0.056583405317979722 0 -0.017818562095580484 -0.057570320419731681 0 -0.017141553605884631 -0.0561274100807133 0 -0.017818562095580484 -0.057570320419731681 0 -0.018857368423184494 -0.056242995853893939 0 -0.017141553605884631 -0.0561274100807133 0 -0.017662862221855612 -0.05499986084947045 0 -0.018857368423184494 -0.056242995853893939 0 -0.018857368423184494 -0.056242995853893939 0 -0.0200329644698291 -0.057456497694145646 0 -0.020866705198239192 -0.054999955504666867 0 -0.017662862221855612 -0.05499986084947045 0 -0.018857368423184494 -0.056242995853893939 0 -0.020866705198239192 -0.054999955504666867 0 -0.02009031162012399 -0.058165671593715142 0 -0.020867224470003311 -0.054999176502121869 0 -0.017818562095580484 -0.057570320419731681 0 -0.018857368423184494 -0.056242995853893939 0 -0.0200329644698291 -0.057456497694145646 0 -0.020928202427846099 -0.058395615620546022 0 -0.02008839737442045 -0.059078036990431175 0 -0.021364983280662511 -0.059349748183351286 0 -0.017818562095580484 -0.057570320419731681 0 -0.0200329644698291 -0.057456497694145646 0 -0.019335700982654531 -0.059883666999618355 0 -0.020541906351532645 -0.05723051283094422 0 -0.020928202427846099 -0.058395615620546022 0 -0.02008839737442045 -0.059078036990431175 0 -0.02009031162012399 -0.058165671593715142 0 -0.020518611866230871 -0.055358983080555986 0 -0.016745956971398582 -0.051158659108806896 0 -0.01660992703118979 -0.0506916384054499 0 -0.022211614135098586 -0.051732150729694892 0 -0.016596680976724013 -0.059383146780996009 0 -0.017818562095580484 -0.057570320419731681 0 -0.019335700982654531 -0.059883666999618355 0 -0.017328930508335606 -0.054359068266813734 0 -0.020518611866230871 -0.055358983080555986 0 -0.018672831867112834 -0.044090259276470013 0 -0.018531954761026634 -0.043622072248977385 0 -0.020932322053717877 -0.044231927665966071 0 -0.017222483969344747 -0.048635132619784943 0 -0.022184522041102436 -0.046879098660702348 0 -0.022418058668028082 -0.040282231321303159 0 -0.016659075674333123 -0.042065715854612815 0 -0.020643384100732493 -0.045268511976717829 0 -0.018672831867112834 -0.044090259276470013 0 -0.020932322053717877 -0.044231927665966071 0 -0.018569843210167254 -0.038610564137478896 0 -0.019355601198259232 -0.038024940789267693 0 -0.019704448196668726 -0.039365687390666593 0 -0.016745956971398582 -0.051158659108806896 0 -0.022211614135098586 -0.051732150729694892 0 -0.021990118896756124 -0.05253354995529555 0 -0.021233344736782213 -0.048463213089939394 0 -0.02103224239666478 -0.049192547268675425 0 -0.024375296915136735 -0.04904418439505466 0 -0.025596270328724045 -0.039238662241991025 0 -0.025908685570319945 -0.039453984466515282 0 -0.025743925928356642 -0.040059857599267626 0 -0.025596270328724045 -0.039238662241991025 0 -0.025743925928356642 -0.040059857599267626 0 -0.024313703367095749 -0.039642351803790769 0 -0.022418058668028082 -0.040282231321303159 0 -0.022184522041102436 -0.046879098660702348 0 -0.020518611866230871 -0.055358983080555986 0 -0.022568310558058718 -0.054118637176916375 0 -0.020518611866230871 -0.055358983080555986 0 -0.022184522041102436 -0.046879098660702348 0 -0.022184522041102436 -0.046879098660702348 0 -0.028096186468399325 -0.041280060223913478 0 -0.02103224239666478 -0.049192547268675425 0 -0.024375296915136735 -0.04904418439505466 0 -0.02643390363170665 -0.050605605235397852 0 -0.024375296915136735 -0.04904418439505466 0 -0.02643390363170665 -0.050605605235397852 0 -0.027513813662707103 -0.049634533366473783 0 -0.022568310558058718 -0.054118637176916375 0 -0.027419197820430046 -0.052406065205219156 0 -0.021364983280662511 -0.059349748183351286 0 -0.022726601296146738 -0.059612260353068242 0 -0.022680242059521759 -0.058548832719475696 0 -0.027419197820430046 -0.052406065205219156 0 -0.037577848441579118 -0.044988962596975754 0 -0.037156015094565398 -0.044535010898086355 0 -0.028810994074344121 -0.042356412390037498 0 -0.030706045402971179 -0.040638978562726136 0 -0.028096186468399325 -0.041280060223913478 0 -0.027419197820430046 -0.052406065205219156 0 -0.027419197820430046 -0.052406065205219156 0 -0.027615156412054958 -0.058635223011741192 0 -0.022680242059521759 -0.058548832719475696 0 -0.021737897687082314 -0.057927480644071487 0 -0.023188947507220517 -0.057059198655682264 0 -0.022680242059521759 -0.058548832719475696 0 -0.023188947507220517 -0.057059198655682264 0 -0.023858646940799012 -0.05863276842399235 0 -0.022726601296146738 -0.059612260353068242 0 -0.022680242059521759 -0.058548832719475696 0 -0.023858646940799012 -0.05863276842399235 0 -0.021364983280662511 -0.059349748183351286 0 -0.022680242059521759 -0.058548832719475696 0 -0.021737897687082314 -0.057927480644071487 0 -0.020928202427846099 -0.058395615620546022 0 -0.021364983280662511 -0.059349748183351286 0 -0.021737897687082314 -0.057927480644071487 0 -0.020541906351532645 -0.05723051283094422 0 -0.020928202427846099 -0.058395615620546022 0 -0.021737897687082314 -0.057927480644071487 0 -0.020541906351532645 -0.05723051283094422 0 -0.021737897687082314 -0.057927480644071487 0 -0.02137524967256926 -0.056588143925090005 0 -0.021737897687082314 -0.057927480644071487 0 -0.02137524967256926 -0.056588143925090005 0 -0.023188947507220517 -0.057059198655682264 0 -0.02137524967256926 -0.056588143925090005 0 -0.02086744734857866 -0.055000071809968187 0 -0.022719548208400598 -0.056225119764385732 0 -0.02086744734857866 -0.055000071809968187 0 -0.022719548208400598 -0.056225119764385732 0 -0.023372455035271522 -0.054999844524361644 0 -0.020541906351532645 -0.05723051283094422 0 -0.02137524967256926 -0.056588143925090005 0 -0.02086744734857866 -0.055000071809968187 0 -0.022719548208400598 -0.056225119764385732 0 -0.023372455035271522 -0.054999844524361644 0 -0.024804403592378881 -0.056744632719091997 0 -0.021716416756764424 -0.056687220324720927 0 -0.022926066826446902 -0.057150523817145554 0 -0.022719548208400598 -0.056225119764385732 0 -0.023612875663536894 -0.057404304313124273 0 -0.024804403592378881 -0.056744632719091997 0 -0.02137524967256926 -0.056588143925090005 0 -0.022719548208400598 -0.056225119764385732 0 -0.023612875663536894 -0.057404304313124273 0 -0.022926066826446902 -0.057150523817145554 0 -0.027828402136098163 -0.057536034375298764 0 -0.023612875663536894 -0.057404304313124273 0 -0.024804403592378881 -0.056744632719091997 0 -0.026004743676546878 -0.058066278922211098 0 -0.024804403592378881 -0.056744632719091997 0 -0.025984453154925154 -0.056919090763766444 0 -0.026004743676546878 -0.058066278922211098 0 -0.023372455035271522 -0.054999844524361644 0 -0.024804403592378881 -0.056744632719091997 0 -0.02557474196011806 -0.05600722372342197 0 -0.023372455035271522 -0.054999844524361644 0 -0.02557474196011806 -0.05600722372342197 0 -0.025878261694330523 -0.054999869289391358 0 -0.024804403592378881 -0.056744632719091997 0 -0.02557474196011806 -0.05600722372342197 0 -0.025984453154925154 -0.056919090763766444 0 -0.028383645936999713 -0.054999972686183209 0 -0.025878261694330523 -0.054999869289391358 0 -0.026603579960690536 -0.056596041283346464 0 -0.02557474196011806 -0.05600722372342197 0 -0.025878261694330523 -0.054999869289391358 0 -0.026603579960690536 -0.056596041283346464 0 -0.02557474196011806 -0.05600722372342197 0 -0.025984453154925154 -0.056919090763766444 0 -0.026603579960690536 -0.056596041283346464 0 -0.027713696258985621 -0.057487194862068672 0 -0.026603579960690536 -0.056596041283346464 0 -0.026805321439557127 -0.057261754471132964 0 -0.025984453154925154 -0.056919090763766444 0 -0.026603579960690536 -0.056596041283346464 0 -0.026805321439557127 -0.057261754471132964 0 -0.025984453154925154 -0.056919090763766444 0 -0.026004743676546878 -0.058066278922211098 0 -0.026805321439557127 -0.057261754471132964 0 -0.027828402136098163 -0.057536034375298764 0 -0.026811116380914792 -0.057824367104640652 0 -0.027713696258985621 -0.057487194862068672 0 -0.026161906613408868 -0.057878758265011356 0 -0.026805321439557127 -0.057261754471132964 0 -0.029088922625182648 -0.058208641587005082 0 -0.027713696258985621 -0.057487194862068672 0 -0.026161906613408868 -0.057878758265011356 0 -0.031869773544653382 -0.057835707671842547 0 -0.032088371232287957 -0.057806655300960505 0 -0.031993853222672591 -0.057702104248586739 0 -0.032088371232287957 -0.057806655300960505 0 -0.031993853222672591 -0.057702104248586739 0 -0.032112640912013976 -0.057621964282461947 0 -0.030745877010729474 -0.058072663065656956 0 -0.027828402136098163 -0.057536034375298764 0 -0.032088371232287957 -0.057806655300960505 0 -0.032203452084561754 -0.05766527307618128 0 -0.032112640912013976 -0.057621964282461947 0 -0.023188947507220517 -0.057059198655682264 0 -0.025027008033533204 -0.057597817617834959 0 -0.023858646940799012 -0.05863276842399235 0 -0.027828402136098163 -0.057536034375298764 0 -0.027615156412054958 -0.058635223011741192 0 -0.032203452084561754 -0.05766527307618128 0 -0.032190603448788199 -0.057511340625761687 0 -0.032112640912013976 -0.057621964282461947 0 -0.032282016270604091 -0.057506225502395959 0 -0.032203452084561754 -0.05766527307618128 0 -0.032190603448788199 -0.057511340625761687 0 -0.037156015094565398 -0.044535010898086355 0 -0.030706045402971179 -0.040638978562726136 0 -0.037021743630696186 -0.041806015761662353 0 -0.040369834351602053 -0.035877992206109023 0 -0.037577848441579118 -0.044988962596975754 0 -0.043023682528808165 -0.036144666068549922 0 -0.04117818381732688 -0.036482607171965102 0 -0.041137012046775369 -0.035898325209287159 0 -0.03746001459823016 -0.047014953709628375 0 -0.037577848441579118 -0.044988962596975754 0 -0.032010829343528079 -0.057503421243800132 0 -0.032190603448788199 -0.057511340625761687 0 -0.032112640912013976 -0.057621964282461947 0 -0.032010829343528079 -0.057503421243800132 0 -0.031993853222672591 -0.057702104248586739 0 -0.032112640912013976 -0.057621964282461947 0 -0.0019672383209774734 -0.032886345526134064 0 -0.0033056180531550895 -0.032029007736732173 0 -0.00129313767983061 -0.031892051859116075 0 -0.0019672383209774734 -0.032886345526134064 0 -0.00129313767983061 -0.031892051859116075 0 -0.00094204557192459782 -0.03310180321592078 0 -0.0019672383209774734 -0.032886345526134064 0 -0.00094204557192459782 -0.03310180321592078 0 -0.0015497139782405837 -0.033927316069979625 0 -0.0019672383209774734 -0.032886345526134064 0 -0.002763920459525789 -0.033542200495693064 0 -0.0015497139782405837 -0.033927316069979625 0 -0.0094572558113238513 -0.029372931539464124 0 -0.010224064245367204 -0.03031274490388252 0 -0.0082876414366665849 -0.030192495105194048 0 -0.0094572558113238513 -0.029372931539464124 0 -0.010224064245367204 -0.03031274490388252 0 -0.010977365312112084 -0.027523539832438482 0 -0.0019672383209774734 -0.032886345526134064 0 -0.002763920459525789 -0.033542200495693064 0 -0.0033056180531550895 -0.032029007736732173 0 -0.0065842594728374691 -0.030979100829895842 0 -0.0071475644678597851 -0.030091343380701394 0 -0.002763920459525789 -0.033542200495693064 0 -0.0033056180531550895 -0.032029007736732173 0 -0.0026102411220010903 -0.034715249168003087 0 -0.0064659241577012588 -0.031199925625996661 0 -0.0060917219224009989 -0.030551137973756068 0 -0.0053559728316900021 -0.030748841839411983 0 -0.0065006543133515919 -0.031047000888468367 0 -0.006571096721172274 -0.030766725316291568 0 -0.0082876414366665849 -0.030192495105194048 0 -0.0064659241577012588 -0.031199925625996661 0 -0.006571096721172274 -0.030766725316291568 0 -0.0060917219224009989 -0.030551137973756068 0 -0.006571096721172274 -0.030766725316291568 0 -0.0064333200484287933 -0.030398948381586365 0 -0.0060917219224009989 -0.030551137973756068 0 -0.0065842594728374691 -0.030979100829895842 0 -0.0065845577346337085 -0.030954773700476425 0 -0.006571096721172274 -0.030766725316291568 0 -0.0067906543327670684 -0.030126347960478143 0 -0.0075604660714439602 -0.030065400172957196 0 -0.006571096721172274 -0.030766725316291568 0 -0.0067906543327670684 -0.030126347960478143 0 -0.0064333200484287933 -0.030398948381586365 0 -0.0067906543327670684 -0.030126347960478143 0 -0.0064333200484287933 -0.030398948381586365 0 -0.00623034720005043 -0.030025400603225411 0 -0.0066529203284216333 -0.029840499808991752 0 -0.00623034720005043 -0.030025400603225411 0 -0.0064837630781854 -0.029513039626299194 0 -0.0067906543327670684 -0.030126347960478143 0 -0.0066529203284216333 -0.029840499808991752 0 -0.00623034720005043 -0.030025400603225411 0 -0.0067906543327670684 -0.030126347960478143 0 -0.0075604660714439602 -0.030065400172957196 0 -0.0070819539871740562 -0.029696550373307533 0 -0.0067906543327670684 -0.030126347960478143 0 -0.0066529203284216333 -0.029840499808991752 0 -0.0070819539871740562 -0.029696550373307533 0 -0.0060917219224009989 -0.030551137973756068 0 -0.0056855303816633071 -0.030197506316149692 0 -0.0053559728316900021 -0.030748841839411983 0 -0.0064333200484287933 -0.030398948381586365 0 -0.0060917219224009989 -0.030551137973756068 0 -0.00623034720005043 -0.030025400603225411 0 -0.0060917219224009989 -0.030551137973756068 0 -0.00623034720005043 -0.030025400603225411 0 -0.0056855303816633071 -0.030197506316149692 0 -0.00623034720005043 -0.030025400603225411 0 -0.0056855303816633071 -0.030197506316149692 0 -0.0060163177574830929 -0.02962698801883256 0 -0.0056855303816633071 -0.030197506316149692 0 -0.005454568336439496 -0.029752787725295351 0 -0.0060163177574830929 -0.02962698801883256 0 -0.0047066478171560212 -0.03015808283615834 0 -0.0053559728316900021 -0.030748841839411983 0 -0.003888865664814163 -0.031611030765807901 0 -0.0056855303816633071 -0.030197506316149692 0 -0.0047066478171560212 -0.03015808283615834 0 -0.0053559728316900021 -0.030748841839411983 0 -0.0056855303816633071 -0.030197506316149692 0 -0.0047066478171560212 -0.03015808283615834 0 -0.005454568336439496 -0.029752787725295351 0 -0.0065842594728374691 -0.030979100829895842 0 -0.0022204253911037434 -0.031769722323883608 0 -0.0064659241577012588 -0.031199925625996661 0 -0.0053559728316900021 -0.030748841839411983 0 -0.003888865664814163 -0.031611030765807901 0 -0.0047066478171560212 -0.03015808283615834 0 -0.003888865664814163 -0.031611030765807901 0 -0.0031147948917216979 -0.029782987985709775 0 -0.003888865664814163 -0.031611030765807901 0 -0.0020075622776880215 -0.030731259298298928 0 -0.0031147948917216979 -0.029782987985709775 0 -0.003888865664814163 -0.031611030765807901 0 -0.0020075622776880215 -0.030731259298298928 0 -0.00075071243691236778 -0.03187804903105361 0 -0.0022204253911037434 -0.031769722323883608 0 5.5789845096211974e-05 -0.031810604119465284 0 -0.00129313767983061 -0.031892051859116075 0 0.00086436302322904319 -0.031821415900206033 0 0.00028105317784519058 -0.032677272670534149 0 -0.0020075622776880215 -0.030731259298298928 0 -0.00065328525085970983 -0.030580136918731762 0 -0.00075071243691236778 -0.03187804903105361 0 -0.0020075622776880215 -0.030731259298298928 0 -0.00065328525085970983 -0.030580136918731762 0 -0.0015495821130105851 -0.029733861265129845 0 0.0010794651369485429 -0.030745265521850699 0 7.8647546360135175e-05 -0.029825492165729644 0 0.0028965617547124095 -0.029844952759881027 0 5.5789845096211974e-05 -0.031810604119465284 0 0.0026970284601076722 -0.031678296516142519 0 0.00086436302322904319 -0.031821415900206033 0 0.0019038128688312797 -0.032429370214486317 0 0.0029250614064297124 -0.031654451141511213 0 0.0010794651369485429 -0.030745265521850699 0 -0.00075071243691236778 -0.03187804903105361 0 0.0029250614064297124 -0.031654451141511213 0 0.0010794651369485429 -0.030745265521850699 0 -0.00065328525085970983 -0.030580136918731762 0 7.8647546360135175e-05 -0.029825492165729644 0 0.0010794651369485429 -0.030745265521850699 0 -0.00065328525085970983 -0.030580136918731762 0 -0.00075071243691236778 -0.03187804903105361 0 0.0019038128688312797 -0.032429370214486317 0 0.0018509235033247458 -0.033237123174766597 0 0.0027249219388813233 -0.032740416786163948 0 0.0019038128688312797 -0.032429370214486317 0 0.0011867508078242375 -0.03271884581502027 0 0.0018509235033247458 -0.033237123174766597 0 0.00086436302322904319 -0.031821415900206033 0 0.0019038128688312797 -0.032429370214486317 0 0.0011867508078242375 -0.03271884581502027 0 0.0011867508078242375 -0.03271884581502027 0 0.0011062117408819595 -0.033468310155014926 0 0.00028105317784519058 -0.032677272670534149 0 0.00086436302322904319 -0.031821415900206033 0 0.0011867508078242375 -0.03271884581502027 0 0.00028105317784519058 -0.032677272670534149 0 0.0011062117408819595 -0.033468310155014926 0 0.00028105317784519058 -0.032677272670534149 0 0.00063559711217101684 -0.033957664744135287 0 0.0011062117408819595 -0.033468310155014926 0 0.00063559711217101684 -0.033957664744135287 0 0.0011615980978377351 -0.034258183084417484 0 0.0011062117408819595 -0.033468310155014926 0 0.0015091541541048257 -0.033769970123763392 0 0.0011615980978377351 -0.034258183084417484 0 0.0011867508078242375 -0.03271884581502027 0 0.0011062117408819595 -0.033468310155014926 0 0.0018509235033247458 -0.033237123174766597 0 0.0018509235033247458 -0.033237123174766597 0 0.0015091541541048257 -0.033769970123763392 0 0.0019230478656395216 -0.03411082900167902 0 0.0018509235033247458 -0.033237123174766597 0 0.0019230478656395216 -0.03411082900167902 0 0.0025321504871712421 -0.033523312150154215 0 0.0011062117408819595 -0.033468310155014926 0 0.0018509235033247458 -0.033237123174766597 0 0.0015091541541048257 -0.033769970123763392 0 0.00028105317784519058 -0.032677272670534149 0 -8.5634076440143725e-05 -0.034440013047355 0 0.00063559711217101684 -0.033957664744135287 0 0.00028105317784519058 -0.032677272670534149 0 -0.00094204557192459782 -0.03310180321592078 0 -0.00030250993596273539 -0.034205977942071315 0 0.00029412732291889354 -0.032664944888558436 0 -0.0003522429326196613 -0.034839318683530622 0 -0.00129313767983061 -0.031892051859116075 0 0.00028105317784519058 -0.032677272670534149 0 -0.00094204557192459782 -0.03310180321592078 0 -0.00030250993596273539 -0.034205977942071315 0 -0.00079600817017765654 -0.035753958503502437 0 -0.0012137006643034233 -0.034772390611856781 0 -0.00030250993596273539 -0.034205977942071315 0 -0.0012137006643034233 -0.034772390611856781 0 -0.0015497139782405837 -0.033927316069979625 0 -8.5634076440143725e-05 -0.034440013047355 0 -0.00048750259938003764 -0.035994674692421867 0 0.00026196792732264857 -0.035600153392287254 0 -0.0003522429326196613 -0.034839318683530622 0 6.8479241984827107e-05 -0.032570830333879107 0 -0.00094204557192459782 -0.03310180321592078 0 -0.00030250993596273539 -0.034205977942071315 0 -0.0015497139782405837 -0.033927316069979625 0 -8.5634076440143725e-05 -0.034440013047355 0 0.00063559711217101684 -0.033957664744135287 0 0.00069197154865859403 -0.034869474847807273 0 -8.5634076440143725e-05 -0.034440013047355 0 0.00069197154865859403 -0.034869474847807273 0 0.00026196792732264857 -0.035600153392287254 0 0.00069197154865859403 -0.034869474847807273 0 0.00083695530782894225 -0.035591056224466212 0 0.00026196792732264857 -0.035600153392287254 0 0.0019230478656395216 -0.03411082900167902 0 0.0014595935205337807 -0.034852926066605977 0 0.0029829228012340529 -0.034479588456046338 0 0.0015091541541048257 -0.033769970123763392 0 0.0019230478656395216 -0.03411082900167902 0 0.0011615980978377351 -0.034258183084417484 0 0.0019230478656395216 -0.03411082900167902 0 0.0011615980978377351 -0.034258183084417484 0 0.0014595935205337807 -0.034852926066605977 0 0.00063559711217101684 -0.033957664744135287 0 0.00069197154865859403 -0.034869474847807273 0 0.0011615980978377351 -0.034258183084417484 0 0.00069197154865859403 -0.034869474847807273 0 0.0011615980978377351 -0.034258183084417484 0 0.0014595935205337807 -0.034852926066605977 0 0.0014595935205337807 -0.034852926066605977 0 0.0014253529452627534 -0.035725382438784821 0 0.00083695530782894225 -0.035591056224466212 0 0.00069197154865859403 -0.034869474847807273 0 0.0014595935205337807 -0.034852926066605977 0 0.00083695530782894225 -0.035591056224466212 0 0.0094812106074694327 -0.036684248187081672 0 0.010600393082482331 -0.039101189549881503 0 0.0014595935205337807 -0.034852926066605977 0 0.0014253529452627534 -0.035725382438784821 0 0.0029829228012340529 -0.034479588456046338 0 0.011588750532350048 -0.027002158272008834 0 0.011698789273111633 -0.027142973293343788 0 0.011708249931360298 -0.027096689647966361 0 0.0014442981316338914 -0.035705672401607762 0 0.00083695530782894225 -0.035591056224466212 0 0.00047706689418894858 -0.036515905458892953 0 0.0094812106074694327 -0.036684248187081672 0 0.0056341311098565289 -0.029040119067935351 0 0.0094812106074694327 -0.036684248187081672 0 0.0031576196713236442 -0.035627523262943966 0 0.0022792758690835732 -0.028047255570128733 0 0.0018839240328778803 -0.029402444074987478 0 0.0011217008530434824 -0.028971177731339344 0 0.00083695530782894225 -0.035591056224466212 0 0.00026196792732264857 -0.035600153392287254 0 0.00047706689418894858 -0.036515905458892953 0 -0.00048750259938003764 -0.035994674692421867 0 0.00026196792732264857 -0.035600153392287254 0 0.00047706689418894858 -0.036515905458892953 0 6.8479241984827107e-05 -0.032570830333879107 0 0.0056341311098565289 -0.029040119067935351 0 -0.0003746278190558772 -0.026022530075210965 0 -0.0029914706950654709 -0.032155351560957487 0 -0.0082923052179206293 -0.026282421804640878 0 -0.0071475644678597851 -0.030091343380701394 0 -0.0059698396788690593 -0.025682575853013603 0 -0.0044599930827230096 -0.027544152294317784 0 -0.0044056773850473041 -0.030115105458620717 0 -0.0003746278190558772 -0.026022530075210965 0 6.8479241984827107e-05 -0.032570830333879107 0 -0.0014295231249780436 -0.028122485638034721 0 -0.0021580554407279583 -0.030494235182912405 0 -0.00019875541067760393 -0.031584716101904602 0 -0.0044599930827230096 -0.027544152294317784 0 -0.0044056773850473041 -0.030115105458620717 0 -0.0037564706967654058 -0.030478852586305869 0 6.8479241984827107e-05 -0.032570830333879107 0 -0.0029914706950654709 -0.032155351560957487 0 -0.00079600817017765654 -0.035753958503502437 0 -0.0012137006643034233 -0.034772390611856781 0 -0.0022052152056008176 -0.035009196828744087 0 -0.0012137006643034233 -0.034772390611856781 0 -0.0022052152056008176 -0.035009196828744087 0 -0.0015497139782405837 -0.033927316069979625 0 -0.0029914706950654709 -0.032155351560957487 0 -0.0071475644678597851 -0.030091343380701394 0 -0.002763920459525789 -0.033542200495693064 0 -0.0022612080989458032 -0.034901748777245147 0 -0.0026102411220010903 -0.034715249168003087 0 -0.002763920459525789 -0.033542200495693064 0 -0.0022052152056008176 -0.035009196828744087 0 -0.0015497139782405837 -0.033927316069979625 0 -0.0023753425744677589 -0.034542592161147925 0 -0.0029914706950654709 -0.032155351560957487 0 -0.0094572558113238513 -0.029372931539464124 0 -0.0096802985837062712 -0.028287101855144735 0 -0.010977365312112084 -0.027523539832438482 0 -0.011236969900419752 -0.027464689873106057 0 -0.0071475644678597851 -0.030091343380701394 0 -0.0096802985837062712 -0.028287101855144735 0 -0.011472317334328993 -0.027461569597747575 0 -0.01018283217377201 -0.027003946153177905 0 -0.011994802047568873 -0.025565412318082407 0 -0.011472317334328993 -0.027461569597747575 0 -0.010911705329999908 -0.026099151799970809 0 -0.01018283217377201 -0.027003946153177905 0 -0.010911705329999908 -0.026099151799970809 0 -0.0099483298879785974 -0.025830668227470346 0 -0.011472317334328993 -0.027461569597747575 0 -0.01018283217377201 -0.027003946153177905 0 -0.010911705329999908 -0.026099151799970809 0 -0.010985177088075782 -0.024663369067258686 0 -0.011994802047568873 -0.025565412318082407 0 -0.010911705329999908 -0.026099151799970809 0 -0.010985177088075782 -0.024663369067258686 0 -0.010911705329999908 -0.026099151799970809 0 -0.0099483298879785974 -0.025830668227470346 0 -0.0097433168568603953 -0.024591771905411473 0 -0.0099483298879785974 -0.025830668227470346 0 -0.0088391971162277393 -0.025406096620188716 0 -0.01018283217377201 -0.027003946153177905 0 -0.0099483298879785974 -0.025830668227470346 0 -0.0088633294688653143 -0.027107928044501406 0 -0.0099483298879785974 -0.025830668227470346 0 -0.0088391971162277393 -0.025406096620188716 0 -0.0088633294688653143 -0.027107928044501406 0 -0.0088391971162277393 -0.025406096620188716 0 -0.0079385632610799832 -0.026227748027349174 0 -0.0088633294688653143 -0.027107928044501406 0 -0.0076485897335342966 -0.024680952094981248 0 -0.0088391971162277393 -0.025406096620188716 0 -0.0079385632610799832 -0.026227748027349174 0 -0.0079385632610799832 -0.026227748027349174 0 -0.0072692904335663827 -0.027631005176040273 0 -0.0088633294688653143 -0.027107928044501406 0 -0.0076485897335342966 -0.024680952094981248 0 -0.0071245388616713902 -0.025796044349904013 0 -0.0079385632610799832 -0.026227748027349174 0 -0.0071245388616713902 -0.025796044349904013 0 -0.0071667464950154938 -0.026599892361081057 0 -0.0079385632610799832 -0.026227748027349174 0 -0.0071245388616713902 -0.025796044349904013 0 -0.0071667464950154938 -0.026599892361081057 0 -0.0062718315833272999 -0.026284011321973246 0 -0.0071667464950154938 -0.026599892361081057 0 -0.0079385632610799832 -0.026227748027349174 0 -0.0072692904335663827 -0.027631005176040273 0 -0.0071667464950154938 -0.026599892361081057 0 -0.0072692904335663827 -0.027631005176040273 0 -0.0062718315833272999 -0.026284011321973246 0 -0.0072692904335663827 -0.027631005176040273 0 -0.0088633294688653143 -0.027107928044501406 0 -0.0082523368115935483 -0.028771567298280037 0 -0.0096802985837062712 -0.028287101855144735 0 -0.0088633294688653143 -0.027107928044501406 0 -0.0082523368115935483 -0.028771567298280037 0 -0.0096802985837062712 -0.028287101855144735 0 -0.01018283217377201 -0.027003946153177905 0 -0.0088633294688653143 -0.027107928044501406 0 -0.010884455719002028 -0.025919071307741768 0 -0.0079280157123410057 -0.030532043814232922 0 -0.017289233752679892 -0.024030406152036606 0 -0.012709694261974694 -0.03036103257191761 0 -0.01068346377358614 -0.03292619575273837 0 -0.010671948627549426 -0.032743507812263706 0 -0.010323370942503581 -0.032486912989854039 0 -0.013807651780893392 -0.024906605679050762 0 -0.012623029577982564 -0.024019813266529452 0 -0.013887419803240833 -0.02798281666557665 0 -0.014003349120665131 -0.028161640797773564 0 -0.01557780954054103 -0.029255597358910517 0 -0.015641287074697467 -0.029458082746333991 0 -0.012709694261974694 -0.03036103257191761 0 -0.010884455719002028 -0.025919071307741768 0 -0.01084309726126274 -0.032728555820961472 0 -0.010831477382293309 -0.032694093881122738 0 -0.010671948627549426 -0.032743507812263706 0 -0.012709694261974694 -0.03036103257191761 0 -0.012627403733797905 -0.031332155733016599 0 -0.013807651780893392 -0.024906605679050762 0 -0.013887419803240833 -0.02798281666557665 0 -0.015659401450440313 -0.025988263577045225 0 -0.01084309726126274 -0.032728555820961472 0 -0.01068346377358614 -0.03292619575273837 0 -0.010671948627549426 -0.032743507812263706 0 -0.0047049006565070316 -0.025740294522626068 0 -0.0062718315833272999 -0.026284011321973246 0 -0.0057126501993776434 -0.027780608034815846 0 -0.0059859017804939213 -0.025199166334663993 0 -0.0047049006565070316 -0.025740294522626068 0 -0.0062718315833272999 -0.026284011321973246 0 -0.0065983284709132169 -0.025154738234285989 0 -0.0071245388616713902 -0.025796044349904013 0 -0.0062718315833272999 -0.026284011321973246 0 -0.0065983284709132169 -0.025154738234285989 0 -0.0059859017804939213 -0.025199166334663993 0 -0.0062718315833272999 -0.026284011321973246 0 -0.0072692904335663827 -0.027631005176040273 0 -0.0062718315833272999 -0.026284011321973246 0 -0.0057126501993776434 -0.027780608034815846 0 -0.0072692904335663827 -0.027631005176040273 0 -0.0057126501993776434 -0.027780608034815846 0 -0.006990193471854738 -0.029611484929375181 0 -0.010323370942503581 -0.032486912989854039 0 -0.010736572903771894 -0.032206855458585572 0 -0.010540078016426223 -0.031694598211241994 0 -0.010831477382293309 -0.032694093881122738 0 -0.010671948627549426 -0.032743507812263706 0 -0.010544714834813429 -0.032519320649830319 0 -0.012627403733797905 -0.031332155733016599 0 -0.010877448805725809 -0.032230011171181877 0 -0.010671948627549426 -0.032743507812263706 0 -0.010323370942503581 -0.032486912989854039 0 -0.010544714834813429 -0.032519320649830319 0 -0.011411741648848997 -0.033203303921558236 0 -0.010544714834813429 -0.032519320649830319 0 -0.011137392502989146 -0.032398722961086993 0 -0.010736572903771894 -0.032206855458585572 0 -0.011106351561865896 -0.031931994444371628 0 -0.010540078016426223 -0.031694598211241994 0 -0.010323370942503581 -0.032486912989854039 0 -0.010544714834813429 -0.032519320649830319 0 -0.010736572903771894 -0.032206855458585572 0 -0.010736572903771894 -0.032206855458585572 0 -0.011137392502989146 -0.032398722961086993 0 -0.011106351561865896 -0.031931994444371628 0 -0.010544714834813429 -0.032519320649830319 0 -0.010736572903771894 -0.032206855458585572 0 -0.011137392502989146 -0.032398722961086993 0 -0.011137392502989146 -0.032398722961086993 0 -0.011106351561865896 -0.031931994444371628 0 -0.011519133480525733 -0.032225100854861355 0 -0.011106351561865896 -0.031931994444371628 0 -0.011519133480525733 -0.032225100854861355 0 -0.011639882597977 -0.031697814867964046 0 -0.011870643932504877 -0.032913175500847748 0 -0.011432814875864075 -0.033056296135850052 0 -0.011137392502989146 -0.032398722961086993 0 -0.012627403733797905 -0.031332155733016599 0 -0.01184204184806484 -0.032544789786769862 0 -0.011870643932504877 -0.032913175500847748 0 -0.011137392502989146 -0.032398722961086993 0 -0.011519133480525733 -0.032225100854861355 0 -0.011790853755233359 -0.031066965555203295 0 -0.011126286944711268 -0.031428086267090913 0 -0.010551736305807028 -0.030732513193229085 0 -0.011790853755233359 -0.031066965555203295 0 -0.011639882597977 -0.031697814867964046 0 -0.011126286944711268 -0.031428086267090913 0 -0.011106351561865896 -0.031931994444371628 0 -0.011639882597977 -0.031697814867964046 0 -0.011126286944711268 -0.031428086267090913 0 -0.011106351561865896 -0.031931994444371628 0 -0.011126286944711268 -0.031428086267090913 0 -0.010540078016426223 -0.031694598211241994 0 -0.011126286944711268 -0.031428086267090913 0 -0.010540078016426223 -0.031694598211241994 0 -0.010551736305807028 -0.030732513193229085 0 -0.0079280157123410057 -0.030532043814232922 0 -0.0082231906834975728 -0.030221876452648015 0 -0.010323370942503581 -0.032486912989854039 0 -0.010540078016426223 -0.031694598211241994 0 -0.00946332642306889 -0.03123397632064432 0 -0.010540078016426223 -0.031694598211241994 0 -0.00946332642306889 -0.03123397632064432 0 -0.010551736305807028 -0.030732513193229085 0 -0.010551736305807028 -0.030732513193229085 0 -0.0085204939276317063 -0.029837727842387946 0 -0.010671646786144233 -0.029397400845757149 0 -0.00946332642306889 -0.03123397632064432 0 -0.010551736305807028 -0.030732513193229085 0 -0.0085204939276317063 -0.029837727842387946 0 -0.011679184383723814 -0.030175721826526353 0 -0.010551736305807028 -0.030732513193229085 0 -0.010671646786144233 -0.029397400845757149 0 -0.011790853755233359 -0.031066965555203295 0 -0.011679184383723814 -0.030175721826526353 0 -0.010551736305807028 -0.030732513193229085 0 -0.0094572558113238513 -0.029372931539464124 0 -0.0096802985837062712 -0.028287101855144735 0 -0.0082523368115935483 -0.028771567298280037 0 -0.0082523368115935483 -0.028771567298280037 0 -0.0079980487444760214 -0.029881943864578878 0 -0.0082876414366665849 -0.030192495105194048 0 -0.0094572558113238513 -0.029372931539464124 0 -0.0082523368115935483 -0.028771567298280037 0 -0.0082876414366665849 -0.030192495105194048 0 -0.006990193471854738 -0.029611484929375181 0 -0.0082523368115935483 -0.028771567298280037 0 -0.0079980487444760214 -0.029881943864578878 0 -0.0072692904335663827 -0.027631005176040273 0 -0.006990193471854738 -0.029611484929375181 0 -0.0082523368115935483 -0.028771567298280037 0 -0.006990193471854738 -0.029611484929375181 0 -0.0079980487444760214 -0.029881943864578878 0 -0.0085204939276317063 -0.029837727842387946 0 -0.0082231906834975728 -0.030221876452648015 0 -0.0083824443817410547 -0.029863659474639273 0 -0.0079980487444760214 -0.029881943864578878 0 -0.0085204939276317063 -0.029837727842387946 0 -0.0079976108810036889 -0.029838758990447922 0 -0.0065842594728374691 -0.030979100829895842 0 -0.0087466356405809832 -0.030409284184279597 0 -0.0079980487444760214 -0.029881943864578878 0 -0.0079976108810036889 -0.029838758990447922 0 -0.0082876414366665849 -0.030192495105194048 0 -0.006571096721172274 -0.030766725316291568 0 -0.0082876414366665849 -0.030192495105194048 0 -0.0075604660714439602 -0.030065400172957196 0 -0.0079976108810036889 -0.029838758990447922 0 -0.0075604660714439602 -0.030065400172957196 0 -0.0070819539871740562 -0.029696550373307533 0 -0.0079976108810036889 -0.029838758990447922 0 -0.0082876414366665849 -0.030192495105194048 0 -0.0075604660714439602 -0.030065400172957196 0 -0.0079976108810036889 -0.029838758990447922 0 -0.0073690746287755722 -0.028953659042683027 0 -0.0070819539871740562 -0.029696550373307533 0 -0.0079976108810036889 -0.029838758990447922 0 -0.0073690746287755722 -0.028953659042683027 0 -0.0082648366753267175 -0.028643390344810334 0 -0.0073690746287755722 -0.028953659042683027 0 -0.0070819539871740562 -0.029696550373307533 0 -0.0067077243059256598 -0.029090313140092885 0 -0.0073690746287755722 -0.028953659042683027 0 -0.0082648366753267175 -0.028643390344810334 0 -0.0071134149142643918 -0.028193183656701377 0 -0.0073690746287755722 -0.028953659042683027 0 -0.0071134149142643918 -0.028193183656701377 0 -0.0065901672341622782 -0.028522518043895578 0 -0.0085204939276317063 -0.029837727842387946 0 -0.0082648366753267175 -0.028643390344810334 0 -0.0094984230414341467 -0.02863502127289036 0 -0.0085204939276317063 -0.029837727842387946 0 -0.0079976108810036889 -0.029838758990447922 0 -0.0082648366753267175 -0.028643390344810334 0 -0.0082648366753267175 -0.028643390344810334 0 -0.0094984230414341467 -0.02863502127289036 0 -0.009267702920846884 -0.027605922865192197 0 -0.0082648366753267175 -0.028643390344810334 0 -0.009267702920846884 -0.027605922865192197 0 -0.0078451617889462866 -0.027328256466126358 0 -0.0082648366753267175 -0.028643390344810334 0 -0.0071134149142643918 -0.028193183656701377 0 -0.0078451617889462866 -0.027328256466126358 0 -0.012583394666687625 -0.029156301535076104 0 -0.010671646786144233 -0.029397400845757149 0 -0.010801732955774924 -0.027782152080365007 0 -0.010671646786144233 -0.029397400845757149 0 -0.0094984230414341467 -0.02863502127289036 0 -0.010801732955774924 -0.027782152080365007 0 -0.0085204939276317063 -0.029837727842387946 0 -0.010671646786144233 -0.029397400845757149 0 -0.0094984230414341467 -0.02863502127289036 0 -0.0095236406182507664 -0.042184804723093841 0 -0.0096902309434398759 -0.042065919975207026 0 -0.0095401290839740461 -0.042165498453555585 0 -0.0087497151176462364 -0.033725262853695169 0 -0.010948587302936718 -0.040853128470001852 0 -0.0094984230414341467 -0.02863502127289036 0 -0.009267702920846884 -0.027605922865192197 0 -0.010801732955774924 -0.027782152080365007 0 -0.010948587302936718 -0.040853128470001852 0 -0.0096537085276182152 -0.044585999530242539 0 -0.012373339868083137 -0.050086571434204551 0 -0.012518969988887983 -0.050135792372411468 0 -0.01242007009310931 -0.050025871698132912 0 -0.010948587302936718 -0.040853128470001852 0 -0.013273193132855059 -0.044578205971500577 0 -0.012373339868083137 -0.050086571434204551 0 -0.01242007009310931 -0.050025871698132912 0 -0.012215991999193349 -0.0499872714201718 0 -0.014849602202905524 -0.056559377201087835 0 -0.013877147549973684 -0.057471685949006077 0 -0.014065218555138122 -0.056011502890324964 0 -0.013318975752858984 -0.053989875027674772 0 -0.01144338970528426 -0.05505253428516408 0 -0.013877147549973684 -0.057471685949006077 0 -0.012483218351195185 -0.056604392150769012 0 -0.014065218555138122 -0.056011502890324964 0 -0.010948587302936718 -0.040853128470001852 0 -0.010877542779984331 -0.053791447942239404 0 -0.0091030077799178159 -0.046804632287243568 0 -0.010089156311534996 -0.047138692618314999 0 -0.010148654915841517 -0.047798008207305932 0 -0.012373339868083137 -0.050086571434204551 0 -0.012170333879471893 -0.050006802910115174 0 -0.012215991999193349 -0.0499872714201718 0 -0.010877542779984331 -0.053791447942239404 0 -0.01144338970528426 -0.05505253428516408 0 -0.011150408280739346 -0.057005593627037228 0 -0.011254429560754522 -0.05499998259660463 0 -0.013398123121207008 -0.056140806097954216 0 -0.014458718952709847 -0.055000025629726113 0 -0.011254429560754522 -0.05499998259660463 0 -0.013398123121207008 -0.056140806097954216 0 -0.01144338970528426 -0.05505253428516408 0 -0.013752645811257935 -0.056197145461134558 0 -0.0072942815326400533 -0.057238177226936075 0 -0.0082033594536635151 -0.057929145082752972 0 -0.0054955451329323918 -0.057551574908075567 0 -0.0083350766531050963 -0.057137320658002227 0 -0.007881574891611242 -0.056822759851181806 0 -0.0079846824989348222 -0.057490225834143628 0 -0.007881574891611242 -0.056822759851181806 0 -0.0072942815326400533 -0.057238177226936075 0 -0.0079846824989348222 -0.057490225834143628 0 -0.0083350766531050963 -0.057137320658002227 0 -0.007881574891611242 -0.056822759851181806 0 -0.0086881398514392326 -0.056552756233400558 0 -0.007881574891611242 -0.056822759851181806 0 -0.0072942815326400533 -0.057238177226936075 0 -0.0068968079812020263 -0.056403124259188496 0 -0.0072942815326400533 -0.057238177226936075 0 -0.0079846824989348222 -0.057490225834143628 0 -0.0082033594536635151 -0.057929145082752972 0 -0.0092471223087628434 -0.053714268748274605 0 -0.0092861757723082805 -0.050325426711128517 0 -0.0083350766531050963 -0.057137320658002227 0 -0.0079846824989348222 -0.057490225834143628 0 -0.0087840640274481786 -0.057680346830408763 0 -0.0079846824989348222 -0.057490225834143628 0 -0.0082033594536635151 -0.057929145082752972 0 -0.0088228224287817524 -0.057660715973778351 0 -0.0092566271589102061 -0.046547413011558333 0 -0.0092861757723082805 -0.050325426711128517 0 -0.0096537085276182152 -0.044585999530242539 0 -0.0092861757723082805 -0.050325426711128517 0 -0.010089156311534996 -0.047138692618314999 0 -0.010148654915841517 -0.047798008207305932 0 -0.01106497175200309 -0.047452836746345629 0 -0.010436161189076306 -0.057023474180616394 0 -0.0087840640274481786 -0.057680346830408763 0 -0.0086881398514392326 -0.056552756233400558 0 -0.0087497151176462364 -0.033725262853695169 0 -0.0092566271589102061 -0.046547413011558333 0 -0.0095236406182507664 -0.042184804723093841 0 -0.0094210287348992974 -0.042309560327860658 0 -0.0094484395222035854 -0.042271554330536268 0 -0.0095236406182507664 -0.042184804723093841 0 -0.0095401290839740461 -0.042165498453555585 0 -0.0094484395222035854 -0.042271554330536268 0 -0.010877542779984331 -0.053791447942239404 0 -0.0092861757723082805 -0.050325426711128517 0 -0.0083350766531050963 -0.057137320658002227 0 -0.0087840640274481786 -0.057680346830408763 0 -0.0086881398514392326 -0.056552756233400558 0 -0.010877542779984331 -0.053791447942239404 0 -0.0088062639885324329 -0.055433487237811288 0 -0.01144338970528426 -0.05505253428516408 0 -0.0088062639885324329 -0.055433487237811288 0 -0.010483639520006837 -0.055358147072719174 0 -0.010708972741271205 -0.055269468473635758 0 -0.0094474851676480502 -0.05452601837491533 0 -0.011254429560754522 -0.05499998259660463 0 -0.0084107504590270523 -0.055304143654481185 0 -0.0080503128358710447 -0.054999999138810644 0 -0.011150408280739346 -0.057005593627037228 0 -0.011254429560754522 -0.05499998259660463 0 -0.0084107504590270523 -0.055304143654481185 0 -0.010436161189076306 -0.057023474180616394 0 -0.0086881398514392326 -0.056552756233400558 0 -0.0083759443145690789 -0.055288301346431257 0 -0.0083759443145690789 -0.055288301346431257 0 -0.0078177010830570767 -0.056133256615263888 0 -0.0072237465339485881 -0.055594770404964078 0 -0.0083759443145690789 -0.055288301346431257 0 -0.0080501260234428582 -0.054999934138569406 0 -0.0072237465339485881 -0.055594770404964078 0 -0.0088062639885324329 -0.055433487237811288 0 -0.0080511767732139219 -0.055000305036619408 0 -0.0086881398514392326 -0.056552756233400558 0 -0.0083759443145690789 -0.055288301346431257 0 -0.0078177010830570767 -0.056133256615263888 0 -0.007881574891611242 -0.056822759851181806 0 -0.0086881398514392326 -0.056552756233400558 0 -0.0078177010830570767 -0.056133256615263888 0 -0.007881574891611242 -0.056822759851181806 0 -0.0078177010830570767 -0.056133256615263888 0 -0.0068968079812020263 -0.056403124259188496 0 -0.0078177010830570767 -0.056133256615263888 0 -0.0068968079812020263 -0.056403124259188496 0 -0.0072237465339485881 -0.055594770404964078 0 -0.0080501260234428582 -0.054999934138569406 0 -0.0072237465339485881 -0.055594770404964078 0 -0.0047777347443193731 -0.054999941568317522 0 -0.0068968079812020263 -0.056403124259188496 0 -0.0072237465339485881 -0.055594770404964078 0 -0.0047777347443193731 -0.054999941568317522 0 -0.0068968079812020263 -0.056403124259188496 0 -0.0047777347443193731 -0.054999941568317522 0 -0.0054955451329323918 -0.057551574908075567 0 -0.0047777347443193731 -0.054999941568317522 0 -0.0054955451329323918 -0.057551574908075567 0 -0.0027260146964208816 -0.057077179389972393 0 -0.0070378480030113769 -0.055816234477918718 0 -0.0057612722555894745 -0.056928378461829854 0 -0.0032655752758983954 -0.05536860101695816 0 -0.0057612722555894745 -0.056928378461829854 0 -0.0039815609360457404 -0.057109057979443892 0 -0.0032655752758983954 -0.05536860101695816 0 -0.006504682842543537 -0.057899097328179626 0 -0.0029393576745340992 -0.056090405424912587 0 -0.010561091836339928 -0.056318149223670309 0 -0.0070378480030113769 -0.055816234477918718 0 -0.0075421237005358034 -0.056770149309938227 0 -0.0072942815326400533 -0.057238177226936075 0 -0.0068968079812020263 -0.056403124259188496 0 -0.0054955451329323918 -0.057551574908075567 0 -0.0092566271589102061 -0.046547413011558333 0 -0.006504682842543537 -0.057899097328179626 0 -0.0070378480030113769 -0.055816234477918718 0 -0.0075421237005358034 -0.056770149309938227 0 -0.0057612722555894745 -0.056928378461829854 0 -0.0071134149142643918 -0.028193183656701377 0 -0.0078451617889462866 -0.027328256466126358 0 -0.0055701706543842587 -0.02774237115372866 0 -0.010561091836339928 -0.056318149223670309 0 -0.0075421237005358034 -0.056770149309938227 0 -0.0067275280175889554 -0.058018928648460748 0 -0.0092566271589102061 -0.046547413011558333 0 -0.006263348434134613 -0.041715470584043998 0 -0.0071134149142643918 -0.028193183656701377 0 -0.006158682437045304 -0.028224777341227966 0 -0.0055701706543842587 -0.02774237115372866 0 -0.0071134149142643918 -0.028193183656701377 0 -0.006158682437045304 -0.028224777341227966 0 -0.0065901672341622782 -0.028522518043895578 0 -0.006158682437045304 -0.028224777341227966 0 -0.0065901672341622782 -0.028522518043895578 0 -0.0061821906139829987 -0.028507728589385592 0 -0.006158682437045304 -0.028224777341227966 0 -0.0054774442638443194 -0.028188133570455617 0 -0.0057284309088699737 -0.028506282618552894 0 -0.006158682437045304 -0.028224777341227966 0 -0.0061821906139829987 -0.028507728589385592 0 -0.0057284309088699737 -0.028506282618552894 0 -0.006158682437045304 -0.028224777341227966 0 -0.0055701706543842587 -0.02774237115372866 0 -0.0054774442638443194 -0.028188133570455617 0 -0.0075421237005358034 -0.056770149309938227 0 -0.0067275280175889554 -0.058018928648460748 0 -0.0057612722555894745 -0.056928378461829854 0 -0.0056771956902591817 -0.041923227576164547 0 -0.0020937509910333822 -0.051571733828798788 0 -0.0050928941553170844 -0.027758950850821064 0 -0.0048421717948599662 -0.028103121895198872 0 -0.0019202524902374363 -0.028239416658841165 0 -0.0067275280175889554 -0.058018928648460748 0 -0.0057612722555894745 -0.056928378461829854 0 -0.0061351888028270719 -0.058287999316930905 0 -0.0043025487683490873 -0.057844869732556384 0 -0.0061351888028270719 -0.058287999316930905 0 -0.0025237433901591851 -0.058957925469620018 0 -0.0056771956902591817 -0.041923227576164547 0 -0.001764671547655001 -0.035189882615729515 0 -0.0057612722555894745 -0.056928378461829854 0 -0.0043025487683490873 -0.057844869732556384 0 -0.0039815609360457404 -0.057109057979443892 0 -0.0057612722555894745 -0.056928378461829854 0 -0.0043025487683490873 -0.057844869732556384 0 -0.0061351888028270719 -0.058287999316930905 0 -0.006263348434134613 -0.041715470584043998 0 -0.0056771956902591817 -0.041923227576164547 0 -0.0055701706543842587 -0.02774237115372866 0 -0.0050928941553170844 -0.027758950850821064 0 -0.0048421717948599662 -0.028103121895198872 0 -0.0055701706543842587 -0.02774237115372866 0 -0.0048421717948599662 -0.028103121895198872 0 -0.0054774442638443194 -0.028188133570455617 0 -0.0048421717948599662 -0.028103121895198872 0 -0.0054774442638443194 -0.028188133570455617 0 -0.0051874703123254576 -0.028528674713440113 0 -0.0048421717948599662 -0.028103121895198872 0 -0.0037428366238275671 -0.028543711207412645 0 -0.0019202524902374363 -0.028239416658841165 0 -0.0051874703123254576 -0.028528674713440113 0 -0.0054728046121269632 -0.028829296921474103 0 -0.0057284309088699737 -0.028506282618552894 0 -0.0054774442638443194 -0.028188133570455617 0 -0.0051874703123254576 -0.028528674713440113 0 -0.0057284309088699737 -0.028506282618552894 0 -0.0048421717948599662 -0.028103121895198872 0 -0.0051874703123254576 -0.028528674713440113 0 -0.00463979087854406 -0.028667881835239117 0 -0.0051874703123254576 -0.028528674713440113 0 -0.00463979087854406 -0.028667881835239117 0 -0.0050193971368959547 -0.029007348789365783 0 -0.00463979087854406 -0.028667881835239117 0 -0.0050193971368959547 -0.029007348789365783 0 -0.0043265280063708019 -0.029335720415745004 0 -0.0051874703123254576 -0.028528674713440113 0 -0.0050193971368959547 -0.029007348789365783 0 -0.0054728046121269632 -0.028829296921474103 0 -0.0050193971368959547 -0.029007348789365783 0 -0.0054728046121269632 -0.028829296921474103 0 -0.0054938236589857636 -0.029247746121077115 0 -0.0048421717948599662 -0.028103121895198872 0 -0.00463979087854406 -0.028667881835239117 0 -0.0037428366238275671 -0.028543711207412645 0 -0.00463979087854406 -0.028667881835239117 0 -0.0040207264963539758 -0.028801550865000337 0 -0.0043265280063708019 -0.029335720415745004 0 -0.00463979087854406 -0.028667881835239117 0 -0.0037428366238275671 -0.028543711207412645 0 -0.0040207264963539758 -0.028801550865000337 0 -0.0040207264963539758 -0.028801550865000337 0 -0.0036740152603437545 -0.029124884627767279 0 -0.0032486971218993323 -0.02886753558611985 0 -0.0037428366238275671 -0.028543711207412645 0 -0.0040207264963539758 -0.028801550865000337 0 -0.0032486971218993323 -0.02886753558611985 0 -0.0047066478171560212 -0.03015808283615834 0 -0.0043265280063708019 -0.029335720415745004 0 -0.0031147948917216979 -0.029782987985709775 0 -0.0036740152603437545 -0.029124884627767279 0 -0.0043265280063708019 -0.029335720415745004 0 -0.0031147948917216979 -0.029782987985709775 0 -0.0040207264963539758 -0.028801550865000337 0 -0.0036740152603437545 -0.029124884627767279 0 -0.0043265280063708019 -0.029335720415745004 0 -0.0050193971368959547 -0.029007348789365783 0 -0.0049664071003543541 -0.029509870414845651 0 -0.0054938236589857636 -0.029247746121077115 0 -0.0050193971368959547 -0.029007348789365783 0 -0.0043265280063708019 -0.029335720415745004 0 -0.0049664071003543541 -0.029509870414845651 0 -0.0047066478171560212 -0.03015808283615834 0 -0.0043265280063708019 -0.029335720415745004 0 -0.0049664071003543541 -0.029509870414845651 0 -0.0047066478171560212 -0.03015808283615834 0 -0.0049664071003543541 -0.029509870414845651 0 -0.005454568336439496 -0.029752787725295351 0 -0.0049664071003543541 -0.029509870414845651 0 -0.005454568336439496 -0.029752787725295351 0 -0.0054938236589857636 -0.029247746121077115 0 -0.005454568336439496 -0.029752787725295351 0 -0.0057017005164234158 -0.029497918499134301 0 -0.0054938236589857636 -0.029247746121077115 0 -0.0057017005164234158 -0.029497918499134301 0 -0.0059125158562574479 -0.029259411886670021 0 -0.0060163177574830929 -0.02962698801883256 0 -0.005454568336439496 -0.029752787725295351 0 -0.0057017005164234158 -0.029497918499134301 0 -0.0060163177574830929 -0.02962698801883256 0 -0.0057017005164234158 -0.029497918499134301 0 -0.0059125158562574479 -0.029259411886670021 0 -0.0054938236589857636 -0.029247746121077115 0 -0.0059125158562574479 -0.029259411886670021 0 -0.0054938236589857636 -0.029247746121077115 0 -0.005880449279806254 -0.028928209827490111 0 -0.0059125158562574479 -0.029259411886670021 0 -0.0063098033721881754 -0.029173964753817748 0 -0.0060163177574830929 -0.02962698801883256 0 -0.0063098033721881754 -0.029173964753817748 0 -0.0060163177574830929 -0.02962698801883256 0 -0.0064837630781854 -0.029513039626299194 0 -0.0059125158562574479 -0.029259411886670021 0 -0.0063098033721881754 -0.029173964753817748 0 -0.005880449279806254 -0.028928209827490111 0 -0.00623034720005043 -0.030025400603225411 0 -0.0060163177574830929 -0.02962698801883256 0 -0.0064837630781854 -0.029513039626299194 0 -0.0066529203284216333 -0.029840499808991752 0 -0.0064837630781854 -0.029513039626299194 0 -0.0070819539871740562 -0.029696550373307533 0 -0.0064837630781854 -0.029513039626299194 0 -0.0070819539871740562 -0.029696550373307533 0 -0.0067077243059256598 -0.029090313140092885 0 -0.0063098033721881754 -0.029173964753817748 0 -0.0064837630781854 -0.029513039626299194 0 -0.0067077243059256598 -0.029090313140092885 0 -0.0063098033721881754 -0.029173964753817748 0 -0.0067077243059256598 -0.029090313140092885 0 -0.0062242956086453246 -0.028778767442376028 0 -0.0073690746287755722 -0.028953659042683027 0 -0.0067077243059256598 -0.029090313140092885 0 -0.0065901672341622782 -0.028522518043895578 0 -0.0067077243059256598 -0.029090313140092885 0 -0.0065901672341622782 -0.028522518043895578 0 -0.0062242956086453246 -0.028778767442376028 0 -0.0065901672341622782 -0.028522518043895578 0 -0.0061821906139829987 -0.028507728589385592 0 -0.0062242956086453246 -0.028778767442376028 0 -0.0061821906139829987 -0.028507728589385592 0 -0.0057284309088699737 -0.028506282618552894 0 -0.0062242956086453246 -0.028778767442376028 0 -0.0057284309088699737 -0.028506282618552894 0 -0.005880449279806254 -0.028928209827490111 0 -0.0062242956086453246 -0.028778767442376028 0 -0.0054728046121269632 -0.028829296921474103 0 -0.0057284309088699737 -0.028506282618552894 0 -0.005880449279806254 -0.028928209827490111 0 -0.0054728046121269632 -0.028829296921474103 0 -0.0054938236589857636 -0.029247746121077115 0 -0.005880449279806254 -0.028928209827490111 0 -0.0063098033721881754 -0.029173964753817748 0 -0.005880449279806254 -0.028928209827490111 0 -0.0062242956086453246 -0.028778767442376028 0 -0.0017626775338601907 -0.043548988129164898 0 -0.0017295007793505398 -0.042588902375243438 0 0.0024934540140618112 -0.043239943860538615 0 -0.001764671547655001 -0.035189882615729515 0 0.0020532175692555411 -0.037522459359531878 0 -0.0017626775338601907 -0.043548988129164898 0 0.0024934540140618112 -0.043239943860538615 0 0.003163560718001327 -0.045456909816448253 0 7.8647546360135175e-05 -0.029825492165729644 0 -0.0019202524902374363 -0.028239416658841165 0 0.0028965617547124095 -0.029844952759881027 0 7.8647546360135175e-05 -0.029825492165729644 0 -0.0015495821130105851 -0.029733861265129845 0 -0.0019202524902374363 -0.028239416658841165 0 -0.00065328525085970983 -0.030580136918731762 0 7.8647546360135175e-05 -0.029825492165729644 0 -0.0015495821130105851 -0.029733861265129845 0 -0.0020075622776880215 -0.030731259298298928 0 -0.0015495821130105851 -0.029733861265129845 0 -0.0031147948917216979 -0.029782987985709775 0 -0.0015495821130105851 -0.029733861265129845 0 -0.0023803366451095849 -0.029139002049801885 0 -0.0019202524902374363 -0.028239416658841165 0 -0.0015495821130105851 -0.029733861265129845 0 -0.0023803366451095849 -0.029139002049801885 0 -0.0031147948917216979 -0.029782987985709775 0 -0.0023803366451095849 -0.029139002049801885 0 -0.0031147948917216979 -0.029782987985709775 0 -0.0032486971218993323 -0.02886753558611985 0 -0.0036740152603437545 -0.029124884627767279 0 -0.0031147948917216979 -0.029782987985709775 0 -0.0032486971218993323 -0.02886753558611985 0 -0.0037428366238275671 -0.028543711207412645 0 -0.0032486971218993323 -0.02886753558611985 0 -0.0019202524902374363 -0.028239416658841165 0 -0.0023803366451095849 -0.029139002049801885 0 -0.0032486971218993323 -0.02886753558611985 0 -0.0019202524902374363 -0.028239416658841165 0 -0.0058342551316683594 -0.041980880834805299 0 -0.0017626775338601907 -0.043548988129164898 0 -0.0017295007793505398 -0.042588902375243438 0 -0.0025237433901591851 -0.058957925469620018 0 -0.0030062964615408258 -0.057892057179272191 0 -0.0012410579003827953 -0.058040160863081253 0 -0.0043025487683490873 -0.057844869732556384 0 -0.0025237433901591851 -0.058957925469620018 0 -0.0030062964615408258 -0.057892057179272191 0 -0.0039815609360457404 -0.057109057979443892 0 -0.0025608463645650894 -0.057116917104686915 0 -0.0030062964615408258 -0.057892057179272191 0 -0.0043025487683490873 -0.057844869732556384 0 -0.0039815609360457404 -0.057109057979443892 0 -0.0030062964615408258 -0.057892057179272191 0 -0.0025608463645650894 -0.057116917104686915 0 -0.0030062964615408258 -0.057892057179272191 0 -0.0012410579003827953 -0.058040160863081253 0 -0.0025237433901591851 -0.058957925469620018 0 -0.0012410579003827953 -0.058040160863081253 0 0.00068897100449442222 -0.059368814972736918 0 -0.0012410579003827953 -0.058040160863081253 0 0.00087228177095034407 -0.057745501713876185 0 0.00068897100449442222 -0.059368814972736918 0 -0.0025608463645650894 -0.057116917104686915 0 -0.0012410579003827953 -0.058040160863081253 0 -0.0011171509373761679 -0.056816202289512674 0 -0.0020937509910333822 -0.051571733828798788 0 0.0017625795292352761 -0.051223445230676123 0 -0.0012410579003827953 -0.058040160863081253 0 -0.0011171509373761679 -0.056816202289512674 0 0.00087228177095034407 -0.057745501713876185 0 -0.0029393576745340992 -0.056090405424912587 0 9.9265789311638367e-05 -0.055892919946954916 0 -0.0011171509373761679 -0.056816202289512674 0 -0.0032655752758983954 -0.05536860101695816 0 0.00025234302398210854 -0.055171816632426623 0 -0.0011171509373761679 -0.056816202289512674 0 0.00025234302398210854 -0.055171816632426623 0 0.00087228177095034407 -0.057745501713876185 0 -0.0039815609360457404 -0.057109057979443892 0 -0.0025608463645650894 -0.057116917104686915 0 -0.0032655752758983954 -0.05536860101695816 0 -0.0025608463645650894 -0.057116917104686915 0 -0.0011171509373761679 -0.056816202289512674 0 -0.0032655752758983954 -0.05536860101695816 0 -0.0047777347443193731 -0.054999941568317522 0 -0.0027260146964208816 -0.057077179389972393 0 -0.0015049873694843027 -0.054999989945824036 0 -0.0027260146964208816 -0.057077179389972393 0 -0.0015049873694843027 -0.054999989945824036 0 4.1576501486279108e-05 -0.056568923000920569 0 4.1576501486279108e-05 -0.056568923000920569 0 0.0028004030241965054 -0.056048288160063055 0 0.0017676542527590637 -0.05499999105696942 0 9.9265789311638367e-05 -0.055892919946954916 0 0.0030333329080039842 -0.055561771932430185 0 -0.0015049873694843027 -0.054999989945824036 0 4.1576501486279108e-05 -0.056568923000920569 0 0.0017676542527590637 -0.05499999105696942 0 0.0028004030241965054 -0.056048288160063055 0 0.0017676542527590637 -0.05499999105696942 0 0.0050403068493590714 -0.054999995201927915 0 0.00330597784763579 -0.055073439960183337 0 0.0027206020634241959 -0.05708783446972495 0 0.0052772763797890873 -0.057428772448689346 0 0.00025234302398210854 -0.055171816632426623 0 0.0027206020634241959 -0.05708783446972495 0 0.00087228177095034407 -0.057745501713876185 0 0.00025234302398210854 -0.055171816632426623 0 0.00330597784763579 -0.055073439960183337 0 0.0027206020634241959 -0.05708783446972495 0 0.0055566472586151133 -0.055524712552123733 0 0.0050403068493590714 -0.054999995201927915 0 0.008312949696218137 -0.054999996717629111 0 0.00330597784763579 -0.055073439960183337 0 0.0059941888159234114 -0.055015463439451344 0 0.0052772763797890873 -0.057428772448689346 0 0.0030333329080039842 -0.055561771932430185 0 0.005744950451602236 -0.055274763893876817 0 0.0028004030241965054 -0.056048288160063055 0 0.0055566472586151133 -0.055524712552123733 0 0.0050403068493590714 -0.054999995201927915 0 0.0052772763797890873 -0.057428772448689346 0 0.0077217974763321949 -0.058436542646175857 0 0.0076914902116187794 -0.056460860286083422 0 0.0059941888159234114 -0.055015463439451344 0 0.0052772763797890873 -0.057428772448689346 0 0.0076914902116187794 -0.056460860286083422 0 0.0052772763797890873 -0.057428772448689346 0 0.0061101298534181276 -0.060030443950829286 0 0.0077217974763321949 -0.058436542646175857 0 0.0052772763797890873 -0.057428772448689346 0 0.0061101298534181276 -0.060030443950829286 0 0.0035658984515691706 -0.059724099483837001 0 0.011131906533599712 -0.044608095174070196 0 0.0067997868467544326 -0.043904900902323421 0 0.0082059185147791251 -0.047405469134828487 0 0.013698838714155248 -0.049456651023561789 0 0.0041653805775492452 -0.052009857901625184 0 0.01894297000690924 -0.045867628735770508 0 0.018605437264384423 -0.045161935973984456 0 0.017987530196000391 -0.046554931876809501 0 0.013698838714155248 -0.049456651023561789 0 0.013426101732879015 -0.055023599719553631 0 0.00087228177095034407 -0.057745501713876185 0 0.0035658984515691706 -0.059724099483837001 0 0.00068897100449442222 -0.059368814972736918 0 0.0027206020634241959 -0.05708783446972495 0 0.0052772763797890873 -0.057428772448689346 0 0.0035658984515691706 -0.059724099483837001 0 0.0027206020634241959 -0.05708783446972495 0 0.00087228177095034407 -0.057745501713876185 0 0.0035658984515691706 -0.059724099483837001 0 0.0041653805775492452 -0.052009857901625184 0 0.0017625795292352761 -0.051223445230676123 0 0.0067997868467544326 -0.043904900902323421 0 0.003163560718001327 -0.045456909816448253 0 0.0082059185147791251 -0.047405469134828487 0 0.0067997868467544326 -0.043904900902323421 0 0.0024934540140618112 -0.043239943860538615 0 0.003163560718001327 -0.045456909816448253 0 0.0010794651369485429 -0.030745265521850699 0 0.0028965617547124095 -0.029844952759881027 0 0.0029250614064297124 -0.031654451141511213 0 0.0028965617547124095 -0.029844952759881027 0 0.0029250614064297124 -0.031654451141511213 0 0.0042899066188269858 -0.031783930080802637 0 0.0029250614064297124 -0.031654451141511213 0 0.0038374387663235865 -0.032538893366264122 0 0.0042899066188269858 -0.031783930080802637 0 0.0029250614064297124 -0.031654451141511213 0 0.0027249219388813233 -0.032740416786163948 0 0.0038374387663235865 -0.032538893366264122 0 0.0019038128688312797 -0.032429370214486317 0 0.0029250614064297124 -0.031654451141511213 0 0.0027249219388813233 -0.032740416786163948 0 0.0018509235033247458 -0.033237123174766597 0 0.0027249219388813233 -0.032740416786163948 0 0.0025321504871712421 -0.033523312150154215 0 0.0027249219388813233 -0.032740416786163948 0 0.0034275853846067426 -0.033250507968720887 0 0.0025321504871712421 -0.033523312150154215 0 0.0038374387663235865 -0.032538893366264122 0 0.0034275853846067426 -0.033250507968720887 0 0.0049145168432208524 -0.033151484803212485 0 0.0027249219388813233 -0.032740416786163948 0 0.0038374387663235865 -0.032538893366264122 0 0.0034275853846067426 -0.033250507968720887 0 0.0034275853846067426 -0.033250507968720887 0 0.0049145168432208524 -0.033151484803212485 0 0.0029829228012340529 -0.034479588456046338 0 0.014469992556278316 -0.039762594113216906 0 0.010600393082482331 -0.039101189549881503 0 0.019219742992528016 -0.043320044406894721 0 0.018884490851363598 -0.043140029942541021 0 0.01899800997078948 -0.043205634696320182 0 0.0034275853846067426 -0.033250507968720887 0 0.0025321504871712421 -0.033523312150154215 0 0.0029829228012340529 -0.034479588456046338 0 0.019145407214995535 -0.043563496876200189 0 0.019244404317193802 -0.04365013523242945 0 0.01911740960637498 -0.04336421618309854 0 0.019145407214995535 -0.043563496876200189 0 0.019244404317193802 -0.04365013523242945 0 0.019122491854844235 -0.043880441713370043 0 0.014469992556278316 -0.039762594113216906 0 0.018698719434362073 -0.04265616649769647 0 0.019244404317193802 -0.04365013523242945 0 0.01899800997078948 -0.043205634696320182 0 0.01911740960637498 -0.04336421618309854 0 0.0038374387663235865 -0.032538893366264122 0 0.0049145168432208524 -0.033151484803212485 0 0.0042899066188269858 -0.031783930080802637 0 0.019244404317193802 -0.04365013523242945 0 0.019179065879200069 -0.044311666720755261 0 0.019122491854844235 -0.043880441713370043 0 0.014469992556278316 -0.039762594113216906 0 0.012085518647113911 -0.040287412701994985 0 0.0020532175692555411 -0.037522459359531878 0 0.012085518647113911 -0.040287412701994985 0 0.0049145168432208524 -0.033151484803212485 0 0.0042899066188269858 -0.031783930080802637 0 0.0068641851676689751 -0.031543021970051072 0 0.0028965617547124095 -0.029844952759881027 0 0.0042899066188269858 -0.031783930080802637 0 0.0068641851676689751 -0.031543021970051072 0 0.01894297000690924 -0.045867628735770508 0 0.019133997732180764 -0.04447985764119828 0 0.019647796416098491 -0.044682553975159696 0 0.013698838714155248 -0.049456651023561789 0 0.012085518647113911 -0.040287412701994985 0 0.019704879627212367 -0.044015861520555574 0 0.012085518647113911 -0.040287412701994985 0 0.019133997732180764 -0.04447985764119828 0 0.019179065879200069 -0.044311666720755261 0 0.019122491854844235 -0.043880441713370043 0 0.019133997732180764 -0.04447985764119828 0 0.018605437264384423 -0.045161935973984456 0 0.018759001012831556 -0.044305062905957357 0 0.01894297000690924 -0.045867628735770508 0 0.019133997732180764 -0.04447985764119828 0 0.018605437264384423 -0.045161935973984456 0 0.018605437264384423 -0.045161935973984456 0 0.018759001012831556 -0.044305062905957357 0 0.018030815234258965 -0.044076050064468339 0 0.018759001012831556 -0.044305062905957357 0 0.018641337969477957 -0.043705650173825834 0 0.018030815234258965 -0.044076050064468339 0 0.018759001012831556 -0.044305062905957357 0 0.018641337969477957 -0.043705650173825834 0 0.018961233763839645 -0.043959953726175859 0 0.019133997732180764 -0.04447985764119828 0 0.018759001012831556 -0.044305062905957357 0 0.018961233763839645 -0.043959953726175859 0 0.018641337969477957 -0.043705650173825834 0 0.018187091845258779 -0.043302437525628235 0 0.018030815234258965 -0.044076050064468339 0 0.019133997732180764 -0.04447985764119828 0 0.019122491854844235 -0.043880441713370043 0 0.018961233763839645 -0.043959953726175859 0 0.018641337969477957 -0.043705650173825834 0 0.018961233763839645 -0.043959953726175859 0 0.018953966067508932 -0.043441382959679586 0 0.019122491854844235 -0.043880441713370043 0 0.018961233763839645 -0.043959953726175859 0 0.018953966067508932 -0.043441382959679586 0 0.019145407214995535 -0.043563496876200189 0 0.019122491854844235 -0.043880441713370043 0 0.018953966067508932 -0.043441382959679586 0 0.018953966067508932 -0.043441382959679586 0 0.018998791157828061 -0.043104062699744455 0 0.018672928451231009 -0.042922866068563853 0 0.018953966067508932 -0.043441382959679586 0 0.018998791157828061 -0.043104062699744455 0 0.019079882898793182 -0.043322815708226922 0 0.019145407214995535 -0.043563496876200189 0 0.018953966067508932 -0.043441382959679586 0 0.019079882898793182 -0.043322815708226922 0 0.018641337969477957 -0.043705650173825834 0 0.018569918356437978 -0.043217058229939355 0 0.018187091845258779 -0.043302437525628235 0 0.018641337969477957 -0.043705650173825834 0 0.018953966067508932 -0.043441382959679586 0 0.018569918356437978 -0.043217058229939355 0 0.018953966067508932 -0.043441382959679586 0 0.018569918356437978 -0.043217058229939355 0 0.018672928451231009 -0.042922866068563853 0 0.018569918356437978 -0.043217058229939355 0 0.018240552159344031 -0.042721125517342147 0 0.018187091845258779 -0.043302437525628235 0 0.018569918356437978 -0.043217058229939355 0 0.018672928451231009 -0.042922866068563853 0 0.018240552159344031 -0.042721125517342147 0 0.015163333399689029 -0.034908624268045717 0 0.015992523742483188 -0.03338961482975656 0 0.018672928451231009 -0.042922866068563853 0 0.01886100460921019 -0.042757742261364903 0 0.018252961359815363 -0.042379619589139259 0 0.018672928451231009 -0.042922866068563853 0 0.018240552159344031 -0.042721125517342147 0 0.018252961359815363 -0.042379619589139259 0 0.018998791157828061 -0.043104062699744455 0 0.018672928451231009 -0.042922866068563853 0 0.01886100460921019 -0.042757742261364903 0 0.018998791157828061 -0.043104062699744455 0 0.01886100460921019 -0.042757742261364903 0 0.018951041788364337 -0.043193187341484564 0 0.015163333399689029 -0.034908624268045717 0 0.016438864490171654 -0.03500671703323973 0 0.012130235711289664 -0.026806299018756762 0 0.011611096559125667 -0.026967562695553785 0 0.01171261585751762 -0.026938827268779133 0 0.018998791157828061 -0.043104062699744455 0 0.018951041788364337 -0.043193187341484564 0 0.019014691653589599 -0.043188993958092649 0 0.011588750532350048 -0.027002158272008834 0 0.011698789273111633 -0.027142973293343788 0 0.011611096559125667 -0.026967562695553785 0 0.0094812106074694327 -0.036684248187081672 0 0.016438864490171654 -0.03500671703323973 0 0.018413995831031087 -0.043173706209605714 0 0.018951041788364337 -0.043193187341484564 0 0.019014691653589599 -0.043188993958092649 0 0.018413995831031087 -0.043173706209605714 0 0.019014691653589599 -0.043188993958092649 0 0.018884490851363598 -0.043140029942541021 0 0.0019230478656395216 -0.03411082900167902 0 0.0025321504871712421 -0.033523312150154215 0 0.0029829228012340529 -0.034479588456046338 0 0.019014691653589599 -0.043188993958092649 0 0.018884490851363598 -0.043140029942541021 0 0.01899800997078948 -0.043205634696320182 0 0.019014691653589599 -0.043188993958092649 0 0.01911740960637498 -0.04336421618309854 0 0.019079882898793182 -0.043322815708226922 0 0.019014691653589599 -0.043188993958092649 0 0.01899800997078948 -0.043205634696320182 0 0.01911740960637498 -0.04336421618309854 0 0.018998791157828061 -0.043104062699744455 0 0.019014691653589599 -0.043188993958092649 0 0.019079882898793182 -0.043322815708226922 0 0.019145407214995535 -0.043563496876200189 0 0.01911740960637498 -0.04336421618309854 0 0.019079882898793182 -0.043322815708226922 0 0.015204153650176834 -0.042438676545691785 0 0.016338769112271934 -0.042152535033489313 0 0.015688823722787348 -0.04310495497733307 0 0.015338966853796467 -0.041149938757616814 0 0.014593662847286899 -0.040669891224482183 0 0.016349884189857909 -0.040552498036463089 0 0.01570915290037982 -0.039112023822684715 0 0.017325314236451086 -0.040875744290732284 0 0.015038716199425685 -0.041854802276887475 0 0.017325314236451086 -0.040875744290732284 0 0.015204153650176834 -0.042438676545691785 0 0.015688823722787348 -0.04310495497733307 0 0.014939196370371943 -0.042687299320649574 0 0.015204153650176834 -0.042438676545691785 0 0.014308504323663221 -0.041705664184695582 0 0.014939196370371943 -0.042687299320649574 0 0.015338966853796467 -0.041149938757616814 0 0.014593662847286899 -0.040669891224482183 0 0.014308504323663221 -0.041705664184695582 0 0.014593662847286899 -0.040669891224482183 0 0.014308504323663221 -0.041705664184695582 0 0.014040942047162098 -0.041294429745486069 0 0.015038716199425685 -0.041854802276887475 0 0.01446444574157466 -0.04184264102060186 0 0.016759252293197711 -0.037985203675224836 0 0.016797266000182342 -0.036608211415036458 0 0.016070812324527062 -0.036500076514492635 0 0.016759252293197711 -0.037985203675224836 0 0.016797266000182342 -0.036608211415036458 0 0.018005130922591518 -0.036454163015554861 0 0.016759252293197711 -0.037985203675224836 0 0.018005130922591518 -0.036454163015554861 0 0.018785757680867127 -0.037683526864261477 0 0.018005130922591518 -0.036454163015554861 0 0.019076246796754886 -0.036660381929413052 0 0.018785757680867127 -0.037683526864261477 0 0.018005130922591518 -0.036454163015554861 0 0.019076246796754886 -0.036660381929413052 0 0.019372472716811719 -0.035644970345460276 0 0.019076246796754886 -0.036660381929413052 0 0.020105619819581956 -0.036839324262642144 0 0.019372472716811719 -0.035644970345460276 0 0.019185089923067618 -0.03952711555151104 0 0.017325314236451086 -0.040875744290732284 0 0.019076246796754886 -0.036660381929413052 0 0.020105619819581956 -0.036839324262642144 0 0.018785757680867127 -0.037683526864261477 0 0.020105619819581956 -0.036839324262642144 0 0.021266134877063629 -0.036101298969181218 0 0.019372472716811719 -0.035644970345460276 0 0.017994769078036894 -0.043090731065691897 0 0.017325314236451086 -0.040875744290732284 0 0.017961705501233834 -0.042549423899674137 0 0.018240552159344031 -0.042721125517342147 0 0.017680042082061288 -0.042683635354522638 0 0.017961705501233834 -0.042549423899674137 0 0.018240552159344031 -0.042721125517342147 0 0.018252961359815363 -0.042379619589139259 0 0.019185089923067618 -0.03952711555151104 0 0.015992523742483188 -0.03338961482975656 0 0.018240552159344031 -0.042721125517342147 0 0.017503962790805155 -0.043108218709312009 0 0.016338769112271934 -0.042152535033489313 0 0.018240552159344031 -0.042721125517342147 0 0.017503962790805155 -0.043108218709312009 0 0.018187091845258779 -0.043302437525628235 0 0.016338769112271934 -0.042152535033489313 0 0.016735797921011684 -0.043482210358976918 0 0.015688823722787348 -0.04310495497733307 0 0.017503962790805155 -0.043108218709312009 0 0.016338769112271934 -0.042152535033489313 0 0.016735797921011684 -0.043482210358976918 0 0.016735797921011684 -0.043482210358976918 0 0.018030815234258965 -0.044076050064468339 0 0.017090014035370686 -0.045068588312874559 0 0.016735797921011684 -0.043482210358976918 0 0.017090014035370686 -0.045068588312874559 0 0.015755029547214014 -0.044114991131250336 0 0.017503962790805155 -0.043108218709312009 0 0.016735797921011684 -0.043482210358976918 0 0.018030815234258965 -0.044076050064468339 0 0.017503962790805155 -0.043108218709312009 0 0.018187091845258779 -0.043302437525628235 0 0.018030815234258965 -0.044076050064468339 0 0.018605437264384423 -0.045161935973984456 0 0.018030815234258965 -0.044076050064468339 0 0.017090014035370686 -0.045068588312874559 0 0.018605437264384423 -0.045161935973984456 0 0.017090014035370686 -0.045068588312874559 0 0.017987530196000391 -0.046554931876809501 0 0.017090014035370686 -0.045068588312874559 0 0.015373100117603559 -0.045747083280597907 0 0.016267522536367752 -0.047124513623714899 0 0.017090014035370686 -0.045068588312874559 0 0.017987530196000391 -0.046554931876809501 0 0.016267522536367752 -0.047124513623714899 0 0.017090014035370686 -0.045068588312874559 0 0.015373100117603559 -0.045747083280597907 0 0.015755029547214014 -0.044114991131250336 0 0.015373100117603559 -0.045747083280597907 0 0.014502817726721217 -0.044608529353572089 0 0.01383999468373873 -0.046733070138076101 0 0.015373100117603559 -0.045747083280597907 0 0.015755029547214014 -0.044114991131250336 0 0.014502817726721217 -0.044608529353572089 0 0.015755029547214014 -0.044114991131250336 0 0.015043810498989561 -0.043373871258938768 0 0.014502817726721217 -0.044608529353572089 0 0.015755029547214014 -0.044114991131250336 0 0.015043810498989561 -0.043373871258938768 0 0.015688823722787348 -0.04310495497733307 0 0.015043810498989561 -0.043373871258938768 0 0.015688823722787348 -0.04310495497733307 0 0.014939196370371943 -0.042687299320649574 0 0.016735797921011684 -0.043482210358976918 0 0.015755029547214014 -0.044114991131250336 0 0.015688823722787348 -0.04310495497733307 0 0.014064104282010112 -0.04245741424027924 0 0.014308504323663221 -0.041705664184695582 0 0.014452939180992056 -0.043046504012958522 0 0.014064104282010112 -0.04245741424027924 0 0.014308504323663221 -0.041705664184695582 0 0.014040942047162098 -0.041294429745486069 0 0.014308504323663221 -0.041705664184695582 0 0.014939196370371943 -0.042687299320649574 0 0.014452939180992056 -0.043046504012958522 0 0.015043810498989561 -0.043373871258938768 0 0.014939196370371943 -0.042687299320649574 0 0.014452939180992056 -0.043046504012958522 0 0.014452939180992056 -0.043046504012958522 0 0.01343531595453481 -0.044304025530043666 0 0.014502817726721217 -0.044608529353572089 0 0.015043810498989561 -0.043373871258938768 0 0.014452939180992056 -0.043046504012958522 0 0.014502817726721217 -0.044608529353572089 0 0.014064104282010112 -0.04245741424027924 0 0.014452939180992056 -0.043046504012958522 0 0.01343531595453481 -0.044304025530043666 0 0.014064104282010112 -0.04245741424027924 0 0.01343531595453481 -0.044304025530043666 0 0.014040942047162098 -0.041294429745486069 0 0.01343531595453481 -0.044304025530043666 0 0.011948202704030192 -0.045303437306977258 0 0.011538119101950675 -0.047020500825383206 0 0.01343531595453481 -0.044304025530043666 0 0.014502817726721217 -0.044608529353572089 0 0.013280101545065343 -0.045983331733595929 0 0.014502817726721217 -0.044608529353572089 0 0.01383999468373873 -0.046733070138076101 0 0.013280101545065343 -0.045983331733595929 0 0.01383999468373873 -0.046733070138076101 0 0.013280101545065343 -0.045983331733595929 0 0.012749191398622637 -0.047313249735370384 0 0.01343531595453481 -0.044304025530043666 0 0.013280101545065343 -0.045983331733595929 0 0.011538119101950675 -0.047020500825383206 0 0.013280101545065343 -0.045983331733595929 0 0.012749191398622637 -0.047313249735370384 0 0.011538119101950675 -0.047020500825383206 0 0.012513438864163029 -0.049083730576387347 0 0.011151158743126579 -0.051537630915645685 0 0.011538119101950675 -0.047020500825383206 0 0.012749191398622637 -0.047313249735370384 0 0.012513438864163029 -0.049083730576387347 0 0.011538119101950675 -0.047020500825383206 0 0.012513438864163029 -0.049083730576387347 0 0.014518466242274522 -0.048024393798737061 0 0.01361496496693183 -0.050417502045860429 0 0.01383999468373873 -0.046733070138076101 0 0.012749191398622637 -0.047313249735370384 0 0.012513438864163029 -0.049083730576387347 0 0.01383999468373873 -0.046733070138076101 0 0.012513438864163029 -0.049083730576387347 0 0.014518466242274522 -0.048024393798737061 0 0.015373100117603559 -0.045747083280597907 0 0.01383999468373873 -0.046733070138076101 0 0.014518466242274522 -0.048024393798737061 0 0.015373100117603559 -0.045747083280597907 0 0.014518466242274522 -0.048024393798737061 0 0.016267522536367752 -0.047124513623714899 0 0.014518466242274522 -0.048024393798737061 0 0.015234789656826371 -0.049280692034804376 0 0.016267522536367752 -0.047124513623714899 0 0.014518466242274522 -0.048024393798737061 0 0.015234789656826371 -0.049280692034804376 0 0.01361496496693183 -0.050417502045860429 0 0.015234789656826371 -0.049280692034804376 0 0.01361496496693183 -0.050417502045860429 0 0.014693735245995564 -0.051785669678517929 0 0.01361496496693183 -0.050417502045860429 0 0.014693735245995564 -0.051785669678517929 0 0.013015406837224953 -0.053066067952179219 0 0.012513438864163029 -0.049083730576387347 0 0.01361496496693183 -0.050417502045860429 0 0.011151158743126579 -0.051537630915645685 0 0.01361496496693183 -0.050417502045860429 0 0.013015406837224953 -0.053066067952179219 0 0.011151158743126579 -0.051537630915645685 0 0.02240470874623382 -0.047332090726104496 0 0.017987530196000391 -0.046554931876809501 0 0.019475085259838171 -0.050372286326786579 0 0.017987530196000391 -0.046554931876809501 0 0.016701840934970295 -0.049727056319846176 0 0.019475085259838171 -0.050372286326786579 0 0.013698838714155248 -0.049456651023561789 0 0.020816420819499599 -0.046159572944916391 0 0.017987530196000391 -0.046554931876809501 0 0.016267522536367752 -0.047124513623714899 0 0.016701840934970295 -0.049727056319846176 0 0.015234789656826371 -0.049280692034804376 0 0.016267522536367752 -0.047124513623714899 0 0.016701840934970295 -0.049727056319846176 0 0.014693735245995564 -0.051785669678517929 0 0.016701840934970295 -0.049727056319846176 0 0.016599277943723411 -0.05339945400658308 0 0.016701840934970295 -0.049727056319846176 0 0.019475085259838171 -0.050372286326786579 0 0.016599277943723411 -0.05339945400658308 0 0.015234789656826371 -0.049280692034804376 0 0.014693735245995564 -0.051785669678517929 0 0.016701840934970295 -0.049727056319846176 0 0.013426101732879015 -0.055023599719553631 0 0.013002656466051452 -0.055076551203375124 0 0.0077217974763321949 -0.058436542646175857 0 0.0076914902116187794 -0.056460860286083422 0 0.0093184126920877706 -0.057168865579518856 0 0.0076914902116187794 -0.056460860286083422 0 0.0093184126920877706 -0.057168865579518856 0 0.0096583844469526493 -0.05573104591028246 0 0.013002656466051452 -0.055076551203375124 0 0.012154028512738606 -0.055515489423145048 0 0.0096583844469526493 -0.05573104591028246 0 0.0083124073866316615 -0.054999111884135192 0 0.010988989307565127 -0.054999657730616471 0 0.0093184126920877706 -0.057168865579518856 0 0.0096583844469526493 -0.05573104591028246 0 0.011937898447618743 -0.055536190517529518 0 0.005744950451602236 -0.055274763893876817 0 0.0083123902451463401 -0.055000022952413845 0 0.0059941888159234114 -0.055015463439451344 0 0.0076914902116187794 -0.056460860286083422 0 0.0083124073866316615 -0.054999111884135192 0 0.0076914902116187794 -0.056460860286083422 0 0.0096583844469526493 -0.05573104591028246 0 0.0083124073866316615 -0.054999111884135192 0 0.01286660826344041 -0.054438088229854679 0 0.013015406837224953 -0.053066067952179219 0 0.011151158743126579 -0.051537630915645685 0 0.01286660826344041 -0.054438088229854679 0 0.013293490173934932 -0.055426728861578151 0 0.011151158743126579 -0.051537630915645685 0 0.01286660826344041 -0.054438088229854679 0 0.013015406837224953 -0.053066067952179219 0 0.013014156934527017 -0.054290418603114385 0 0.014693735245995564 -0.051785669678517929 0 0.013015406837224953 -0.053066067952179219 0 0.013014156934527017 -0.054290418603114385 0 0.016599277943723411 -0.05339945400658308 0 0.013014156934527017 -0.054290418603114385 0 0.011937898447618743 -0.055536190517529518 0 0.014693735245995564 -0.051785669678517929 0 0.016599277943723411 -0.05339945400658308 0 0.013014156934527017 -0.054290418603114385 0 0.013014156934527017 -0.054290418603114385 0 0.011937898447618743 -0.055536190517529518 0 0.012587188054346941 -0.055338715987105096 0 0.0096583844469526493 -0.05573104591028246 0 0.011937898447618743 -0.055536190517529518 0 0.010988989307565127 -0.054999657730616471 0 0.011937898447618743 -0.055536190517529518 0 0.010988989307565127 -0.054999657730616471 0 0.012587188054346941 -0.055338715987105096 0 0.010988989307565127 -0.054999657730616471 0 0.012587188054346941 -0.055338715987105096 0 0.013657792015107818 -0.054999072799786393 0 0.01286660826344041 -0.054438088229854679 0 0.013014156934527017 -0.054290418603114385 0 0.012587188054346941 -0.055338715987105096 0 0.01286660826344041 -0.054438088229854679 0 0.012587188054346941 -0.055338715987105096 0 0.013293490173934932 -0.055426728861578151 0 0.012587188054346941 -0.055338715987105096 0 0.013293490173934932 -0.055426728861578151 0 0.013657792015107818 -0.054999072799786393 0 0.013657792015107818 -0.054999072799786393 0 0.014881538448931734 -0.055567740004696685 0 0.01633048750416536 -0.054999565086646267 0 0.013293490173934932 -0.055426728861578151 0 0.013657792015107818 -0.054999072799786393 0 0.014881538448931734 -0.055567740004696685 0 0.013293490173934932 -0.055426728861578151 0 0.014881538448931734 -0.055567740004696685 0 0.01504054939782357 -0.056134155662359193 0 0.013293490173934932 -0.055426728861578151 0 0.01504054939782357 -0.056134155662359193 0 0.015200843743682104 -0.056477368172052997 0 0.013267762116192575 -0.055145149942671494 0 0.013185303025931405 -0.053892764366265472 0 0.014881538448931734 -0.055567740004696685 0 0.01504054939782357 -0.056134155662359193 0 0.015673224300321621 -0.056082739197264461 0 0.01504054939782357 -0.056134155662359193 0 0.015673224300321621 -0.056082739197264461 0 0.015507512569488622 -0.056355431815243613 0 0.017292061695731546 -0.056138133048355195 0 0.018111747211014231 -0.056396851050409251 0 0.017564811006690668 -0.056739176310874516 0 0.014881538448931734 -0.055567740004696685 0 0.015673224300321621 -0.056082739197264461 0 0.01633048750416536 -0.054999565086646267 0 0.017292061695731546 -0.056138133048355195 0 0.016333727043871732 -0.054999599901672989 0 0.018507011073273016 -0.055860681873266205 0 0.016488891347512202 -0.055998400100872384 0 0.016331672364969331 -0.054999987568635104 0 0.016333727043871732 -0.054999599901672989 0 0.018507011073273016 -0.055860681873266205 0 0.019581095816616448 -0.054999143250475578 0 0.018507011073273016 -0.055860681873266205 0 0.019581095816616448 -0.054999143250475578 0 0.020411327987100051 -0.055837052891999479 0 0.018507011073273016 -0.055860681873266205 0 0.020411327987100051 -0.055837052891999479 0 0.019368947680480451 -0.056297800156280373 0 0.020411327987100051 -0.055837052891999479 0 0.019368947680480451 -0.056297800156280373 0 0.020819593930513157 -0.056336055808514904 0 0.017292061695731546 -0.056138133048355195 0 0.018507011073273016 -0.055860681873266205 0 0.018111747211014231 -0.056396851050409251 0 0.018507011073273016 -0.055860681873266205 0 0.019368947680480451 -0.056297800156280373 0 0.018111747211014231 -0.056396851050409251 0 0.018111747211014231 -0.056396851050409251 0 0.018215984790318628 -0.056731722998463262 0 0.017564811006690668 -0.056739176310874516 0 0.019368947680480451 -0.056297800156280373 0 0.018111747211014231 -0.056396851050409251 0 0.018215984790318628 -0.056731722998463262 0 0.018215984790318628 -0.056731722998463262 0 0.017588545851431884 -0.056802100182089303 0 0.017564811006690668 -0.056739176310874516 0 0.018215984790318628 -0.056731722998463262 0 0.020298969962189627 -0.05677395244083553 0 0.019848657153998989 -0.057423448326891474 0 0.019368947680480451 -0.056297800156280373 0 0.018215984790318628 -0.056731722998463262 0 0.020298969962189627 -0.05677395244083553 0 0.019368947680480451 -0.056297800156280373 0 0.020298969962189627 -0.05677395244083553 0 0.020819593930513157 -0.056336055808514904 0 0.022911152479519897 -0.055316767583506919 0 0.018894022961312151 -0.051115774995998085 0 0.019848657153998989 -0.057423448326891474 0 0.020766656445613634 -0.057708983483433798 0 0.01915647407345147 -0.058331863527193821 0 0.020298969962189627 -0.05677395244083553 0 0.019848657153998989 -0.057423448326891474 0 0.020543459149945147 -0.057145467416174545 0 0.019848657153998989 -0.057423448326891474 0 0.020543459149945147 -0.057145467416174545 0 0.020766656445613634 -0.057708983483433798 0 0.018215984790318628 -0.056731722998463262 0 0.019848657153998989 -0.057423448326891474 0 0.01915647407345147 -0.058331863527193821 0 0.018215984790318628 -0.056731722998463262 0 0.017588545851431884 -0.056802100182089303 0 0.017790080301190975 -0.056959465905801858 0 0.018529509850554095 -0.059214637098128721 0 0.018894022961312151 -0.051115774995998085 0 0.017588545851431884 -0.056802100182089303 0 0.016759192699548363 -0.05674614107157696 0 0.017790080301190975 -0.056959465905801858 0 0.017588545851431884 -0.056802100182089303 0 0.017564811006690668 -0.056739176310874516 0 0.016759192699548363 -0.05674614107157696 0 0.016111703039839106 -0.056464328892825037 0 0.015798187161388168 -0.056268278369312391 0 0.016759192699548363 -0.05674614107157696 0 0.016669428243110081 -0.05656666845563757 0 0.016747072030707716 -0.05684731885516886 0 0.015832026101717526 -0.056362925512613113 0 0.016111703039839106 -0.056464328892825037 0 0.015798187161388168 -0.056268278369312391 0 0.015832026101717526 -0.056362925512613113 0 0.016111703039839106 -0.056464328892825037 0 0.01592371784472681 -0.056369144850163054 0 0.016111703039839106 -0.056464328892825037 0 0.01623732832272699 -0.056570362868051796 0 0.016759192699548363 -0.05674614107157696 0 0.016111703039839106 -0.056464328892825037 0 0.01592371784472681 -0.056369144850163054 0 0.01623732832272699 -0.056570362868051796 0 0.015621539811730435 -0.056324914858368762 0 0.015200843743682104 -0.056477368172052997 0 0.015818217092020727 -0.056068917220749852 0 0.01592371784472681 -0.056369144850163054 0 0.015621539811730435 -0.056324914858368762 0 0.015818217092020727 -0.056068917220749852 0 0.013185303025931405 -0.053892764366265472 0 0.014078826379735789 -0.051610260388431702 0 0.015832026101717526 -0.056362925512613113 0 0.015621539811730435 -0.056324914858368762 0 0.015507512569488622 -0.056355431815243613 0 0.015832026101717526 -0.056362925512613113 0 0.01592371784472681 -0.056369144850163054 0 0.015621539811730435 -0.056324914858368762 0 0.01504054939782357 -0.056134155662359193 0 0.015507512569488622 -0.056355431815243613 0 0.015200843743682104 -0.056477368172052997 0 0.015621539811730435 -0.056324914858368762 0 0.015507512569488622 -0.056355431815243613 0 0.015200843743682104 -0.056477368172052997 0 0.016488891347512202 -0.055998400100872384 0 0.016669428243110081 -0.05656666845563757 0 0.015673224300321621 -0.056082739197264461 0 0.015507512569488622 -0.056355431815243613 0 0.015798187161388168 -0.056268278369312391 0 0.015832026101717526 -0.056362925512613113 0 0.015507512569488622 -0.056355431815243613 0 0.015798187161388168 -0.056268278369312391 0 0.026985317436573945 -0.054137833519281559 0 0.026325210732263394 -0.053560747778329448 0 0.026760534932019055 -0.05480358933272575 0 0.026325210732263394 -0.053560747778329448 0 0.026042012693098606 -0.054698276668051722 0 0.026760534932019055 -0.05480358933272575 0 0.027357549043250572 -0.055706998688021085 0 0.02574463992895018 -0.055260113488904153 0 0.027294153885771163 -0.056139725859173609 0 0.026080512888059095 -0.054999968367409821 0 0.028131773507806396 -0.054999947317180824 0 0.027506585215033835 -0.057561669696854278 0 0.027294153885771163 -0.056139725859173609 0 0.025844963029147246 -0.056147428682351161 0 0.027294153885771163 -0.056139725859173609 0 0.026080512888059095 -0.054999968367409821 0 0.025844963029147246 -0.056147428682351161 0 0.026080062499261588 -0.055000759561271331 0 0.02574463992895018 -0.055260113488904153 0 0.024176535335009113 -0.055579571740359261 0 0.024577923770591311 -0.055167154966723315 0 0.023702980530936675 -0.055704171857698645 0 0.026079218078272254 -0.055000019295979516 0 0.024577923770591311 -0.055167154966723315 0 0.022829421408065768 -0.054999441729498867 0 0.026079218078272254 -0.055000019295979516 0 0.025765748710959966 -0.05627456369723962 0 0.024577923770591311 -0.055167154966723315 0 0.02574463992895018 -0.055260113488904153 0 0.02464381358873027 -0.05516072042805497 0 0.023702980530936675 -0.055704171857698645 0 0.023036933311114439 -0.055976415248156296 0 0.023083594733683401 -0.055688287160071494 0 0.024577923770591311 -0.055167154966723315 0 0.023702980530936675 -0.055704171857698645 0 0.023083594733683401 -0.055688287160071494 0 0.02574463992895018 -0.055260113488904153 0 0.023746244997805484 -0.05503488321483363 0 0.023702980530936675 -0.055704171857698645 0 0.023126309573077451 -0.056153163061203999 0 0.023036933311114439 -0.055976415248156296 0 0.024176535335009113 -0.055579571740359261 0 0.023126309573077451 -0.056153163061203999 0 0.022958401365985152 -0.056769085267231324 0 0.024176535335009113 -0.055579571740359261 0 0.023702980530936675 -0.055704171857698645 0 0.023126309573077451 -0.056153163061203999 0 0.023126309573077451 -0.056153163061203999 0 0.022336984095369404 -0.056413819509429544 0 0.022344174041129285 -0.056681843577411468 0 0.023126309573077451 -0.056153163061203999 0 0.022336984095369404 -0.056413819509429544 0 0.023036933311114439 -0.055976415248156296 0 0.022336984095369404 -0.056413819509429544 0 0.021802757416445852 -0.0563627483697784 0 0.022416982105145103 -0.056102918114047065 0 0.022336984095369404 -0.056413819509429544 0 0.021802757416445852 -0.0563627483697784 0 0.021833590472582681 -0.056547527906502956 0 0.022416982105145103 -0.056102918114047065 0 0.023083594733683401 -0.055688287160071494 0 0.021911388886227075 -0.05591646307507165 0 0.021802757416445852 -0.0563627483697784 0 0.022416982105145103 -0.056102918114047065 0 0.021911388886227075 -0.05591646307507165 0 0.022416982105145103 -0.056102918114047065 0 0.023036933311114439 -0.055976415248156296 0 0.023083594733683401 -0.055688287160071494 0 0.022336984095369404 -0.056413819509429544 0 0.022416982105145103 -0.056102918114047065 0 0.023036933311114439 -0.055976415248156296 0 0.024577923770591311 -0.055167154966723315 0 0.023083594733683401 -0.055688287160071494 0 0.022829421408065768 -0.054999441729498867 0 0.023083594733683401 -0.055688287160071494 0 0.022829421408065768 -0.054999441729498867 0 0.021911388886227075 -0.05591646307507165 0 0.019581095816616448 -0.054999143250475578 0 0.020411327987100051 -0.055837052891999479 0 0.022829421408065768 -0.054999441729498867 0 0.020411327987100051 -0.055837052891999479 0 0.022829421408065768 -0.054999441729498867 0 0.021911388886227075 -0.05591646307507165 0 0.020411327987100051 -0.055837052891999479 0 0.021911388886227075 -0.05591646307507165 0 0.020819593930513157 -0.056336055808514904 0 0.021802757416445852 -0.0563627483697784 0 0.021911388886227075 -0.05591646307507165 0 0.020819593930513157 -0.056336055808514904 0 0.020298969962189627 -0.05677395244083553 0 0.020819593930513157 -0.056336055808514904 0 0.021336142213948139 -0.056615985512593121 0 0.021802757416445852 -0.0563627483697784 0 0.020819593930513157 -0.056336055808514904 0 0.021336142213948139 -0.056615985512593121 0 0.021802757416445852 -0.0563627483697784 0 0.021336142213948139 -0.056615985512593121 0 0.021833590472582681 -0.056547527906502956 0 0.021336142213948139 -0.056615985512593121 0 0.021283850061667494 -0.05676882058484975 0 0.021764412548165711 -0.056524814554446322 0 0.020298969962189627 -0.05677395244083553 0 0.020543459149945147 -0.057145467416174545 0 0.021283850061667494 -0.05676882058484975 0 0.020298969962189627 -0.05677395244083553 0 0.021336142213948139 -0.056615985512593121 0 0.021283850061667494 -0.05676882058484975 0 0.022911152479519897 -0.055316767583506919 0 0.021282735699762814 -0.055871736265273836 0 0.020766656445613634 -0.057708983483433798 0 0.021283850061667494 -0.05676882058484975 0 0.021809716843902552 -0.055909357517793572 0 0.020543459149945147 -0.057145467416174545 0 0.020766656445613634 -0.057708983483433798 0 0.021283850061667494 -0.05676882058484975 0 0.023882302975500581 -0.05293159414034837 0 0.021809716843902552 -0.055909357517793572 0 0.022271992464980263 -0.053259045532771734 0 0.019970729795203535 -0.051479872488445405 0 0.022136850859607579 -0.051060033446611842 0 0.021809716843902552 -0.055909357517793572 0 0.021192938720890012 -0.05608862134267855 0 0.022271992464980263 -0.053259045532771734 0 0.021283850061667494 -0.05676882058484975 0 0.021809716843902552 -0.055909357517793572 0 0.021764412548165711 -0.056524814554446322 0 0.021809716843902552 -0.055909357517793572 0 0.021541496246298638 -0.056209238261798029 0 0.021764412548165711 -0.056524814554446322 0 0.021809716843902552 -0.055909357517793572 0 0.021541496246298638 -0.056209238261798029 0 0.021192938720890012 -0.05608862134267855 0 0.018577924434701701 -0.049677686883511062 0 0.019750104002273065 -0.048643015329238808 0 0.018854225490207412 -0.048862164940055616 0 0.021541496246298638 -0.056209238261798029 0 0.021735930360358858 -0.056409967515632396 0 0.021341846940052565 -0.056131395168597074 0 0.021541496246298638 -0.056209238261798029 0 0.021735930360358858 -0.056409967515632396 0 0.021764412548165711 -0.056524814554446322 0 0.021735930360358858 -0.056409967515632396 0 0.02200320951053732 -0.056593996456807634 0 0.021944693375191601 -0.056506227825053316 0 0.021735930360358858 -0.056409967515632396 0 0.02200320951053732 -0.056593996456807634 0 0.021764412548165711 -0.056524814554446322 0 0.02200320951053732 -0.056593996456807634 0 0.022344174041129285 -0.056681843577411468 0 0.021944693375191601 -0.056506227825053316 0 0.02200320951053732 -0.056593996456807634 0 0.021764412548165711 -0.056524814554446322 0 0.021833590472582681 -0.056547527906502956 0 0.021336142213948139 -0.056615985512593121 0 0.021764412548165711 -0.056524814554446322 0 0.021833590472582681 -0.056547527906502956 0 0.022336984095369404 -0.056413819509429544 0 0.02200320951053732 -0.056593996456807634 0 0.021833590472582681 -0.056547527906502956 0 0.022336984095369404 -0.056413819509429544 0 0.02200320951053732 -0.056593996456807634 0 0.022344174041129285 -0.056681843577411468 0 0.021981970091342777 -0.056639771991876087 0 0.021944693375191601 -0.056506227825053316 0 0.021341846940052565 -0.056131395168597074 0 0.023126309573077451 -0.056153163061203999 0 0.022344174041129285 -0.056681843577411468 0 0.022958401365985152 -0.056769085267231324 0 0.022344174041129285 -0.056681843577411468 0 0.021981970091342777 -0.056639771991876087 0 0.021944693375191601 -0.056506227825053316 0 0.022792698363965178 -0.055504891879080309 0 0.023746244997805484 -0.05503488321483363 0 0.02056988143689344 -0.051563971592616983 0 0.023079712235161927 -0.048860211172300778 0 0.022828547209108284 -0.050788237252595639 0 0.02227859118520855 -0.053020460819556081 0 0.024504598507711316 -0.05221241590551929 0 0.019526479607439341 -0.04667492944318493 0 0.019435453392673184 -0.047048682798556556 0 0.022285580875480923 -0.047907427113942969 0 0.023746244997805484 -0.05503488321483363 0 0.02056988143689344 -0.051563971592616983 0 0.021735930360358858 -0.056409967515632396 0 0.021944693375191601 -0.056506227825053316 0 0.021341846940052565 -0.056131395168597074 0 0.019753987434032248 -0.051596453529100438 0 0.020768735491225807 -0.051212812565677113 0 0.020611175754482108 -0.051868279844039092 0 0.019970729795203535 -0.051479872488445405 0 0.02056988143689344 -0.051563971592616983 0 0.021541496246298638 -0.056209238261798029 0 0.021192938720890012 -0.05608862134267855 0 0.021341846940052565 -0.056131395168597074 0 0.02056988143689344 -0.051563971592616983 0 0.019465255621587983 -0.049854120579736434 0 0.018577924434701701 -0.049677686883511062 0 0.017973294740488418 -0.049518118195124659 0 0.018854225490207412 -0.048862164940055616 0 0.019970729795203535 -0.051479872488445405 0 0.019465255621587983 -0.049854120579736434 0 0.019526479607439341 -0.04667492944318493 0 0.021979455805523289 -0.045751482653963019 0 0.022285580875480923 -0.047907427113942969 0 0.021979455805523289 -0.045751482653963019 0 0.022285580875480923 -0.047907427113942969 0 0.023912237406351147 -0.046489675435086406 0 0.022828547209108284 -0.050788237252595639 0 0.024504598507711316 -0.05221241590551929 0 0.024783016421278399 -0.051082502875289447 0 0.024504598507711316 -0.05221241590551929 0 0.024783016421278399 -0.051082502875289447 0 0.026768581296434824 -0.051383852853939371 0 0.023746244997805484 -0.05503488321483363 0 0.025779514883951124 -0.052930580805953718 0 0.014504777604313122 -0.045347915481090427 0 0.017458550946726856 -0.044892866341730467 0 0.016415277353046643 -0.042286131481567762 0 0.014504777604313122 -0.045347915481090427 0 0.016902257845708962 -0.046987105062082271 0 0.017458550946726856 -0.044892866341730467 0 0.014504777604313122 -0.045347915481090427 0 0.014979753083408142 -0.047963617973465149 0 0.016902257845708962 -0.046987105062082271 0 0.018035956438235964 -0.049183636194087589 0 0.014979753083408142 -0.047963617973465149 0 0.016902257845708962 -0.046987105062082271 0 0.019465255621587983 -0.049854120579736434 0 0.017019516458337682 -0.047929697349460378 0 0.018035956438235964 -0.049183636194087589 0 0.016902257845708962 -0.046987105062082271 0 0.018327344041973326 -0.047967609413785819 0 0.019465255621587983 -0.049854120579736434 0 0.018920306972000353 -0.04855026351321623 0 0.017973294740488418 -0.049518118195124659 0 0.018327344041973326 -0.047967609413785819 0 0.018854225490207412 -0.048862164940055616 0 0.016902257845708962 -0.046987105062082271 0 0.018327344041973326 -0.047967609413785819 0 0.018274049040979089 -0.046439640275948685 0 0.016902257845708962 -0.046987105062082271 0 0.018274049040979089 -0.046439640275948685 0 0.017458550946726856 -0.044892866341730467 0 0.018274049040979089 -0.046439640275948685 0 0.017458550946726856 -0.044892866341730467 0 0.020443550339317787 -0.045121006855518599 0 0.017458550946726856 -0.044892866341730467 0 0.020443550339317787 -0.045121006855518599 0 0.018648610594669841 -0.0433130737051102 0 0.018274049040979089 -0.046439640275948685 0 0.020443550339317787 -0.045121006855518599 0 0.0194575817923269 -0.047225859136548316 0 0.018327344041973326 -0.047967609413785819 0 0.018274049040979089 -0.046439640275948685 0 0.0194575817923269 -0.047225859136548316 0 0.018577924434701701 -0.049677686883511062 0 0.019750104002273065 -0.048643015329238808 0 0.021462899380122111 -0.048992979771197695 0 0.018327344041973326 -0.047967609413785819 0 0.019750104002273065 -0.048643015329238808 0 0.018854225490207412 -0.048862164940055616 0 0.018327344041973326 -0.047967609413785819 0 0.0194575817923269 -0.047225859136548316 0 0.019750104002273065 -0.048643015329238808 0 0.019750104002273065 -0.048643015329238808 0 0.020698350533285229 -0.047383172013376475 0 0.021462899380122111 -0.048992979771197695 0 0.0194575817923269 -0.047225859136548316 0 0.019750104002273065 -0.048643015329238808 0 0.020698350533285229 -0.047383172013376475 0 0.020443550339317787 -0.045121006855518599 0 0.0194575817923269 -0.047225859136548316 0 0.020698350533285229 -0.047383172013376475 0 0.020698350533285229 -0.047383172013376475 0 0.022394058098975343 -0.046826875287242407 0 0.021462899380122111 -0.048992979771197695 0 0.022136850859607579 -0.051060033446611842 0 0.025098029693971916 -0.049173796359628687 0 0.022394058098975343 -0.046826875287242407 0 0.021462899380122111 -0.048992979771197695 0 0.025061576158627884 -0.048879654438269964 0 0.023882302975500581 -0.05293159414034837 0 0.022271992464980263 -0.053259045532771734 0 0.025061576158627884 -0.048879654438269964 0 0.022394058098975343 -0.046826875287242407 0 0.022379418653438201 -0.043289537825479646 0 0.025525269950292348 -0.044287579607804752 0 0.020443550339317787 -0.045121006855518599 0 0.022394058098975343 -0.046826875287242407 0 0.022379418653438201 -0.043289537825479646 0 0.020443550339317787 -0.045121006855518599 0 0.020698350533285229 -0.047383172013376475 0 0.022394058098975343 -0.046826875287242407 0 0.022379418653438201 -0.043289537825479646 0 0.020410258697105974 -0.040932671011698958 0 0.022912457426517884 -0.040483126307655576 0 0.020728209770569238 -0.039931332655522025 0 0.020410258697105974 -0.040932671011698958 0 0.022912457426517884 -0.040483126307655576 0 0.020728209770569238 -0.039931332655522025 0 0.020410258697105974 -0.040932671011698958 0 0.020623589156769446 -0.040051998029552602 0 0.020443550339317787 -0.045121006855518599 0 0.022379418653438201 -0.043289537825479646 0 0.020410258697105974 -0.040932671011698958 0 0.020443550339317787 -0.045121006855518599 0 0.020410258697105974 -0.040932671011698958 0 0.018648610594669841 -0.0433130737051102 0 0.020761394830042117 -0.040728465614535483 0 0.018244028657520353 -0.041131269798149732 0 0.017458550946726856 -0.044892866341730467 0 0.018648610594669841 -0.0433130737051102 0 0.016415277353046643 -0.042286131481567762 0 0.020410258697105974 -0.040932671011698958 0 0.018648610594669841 -0.0433130737051102 0 0.016415277353046643 -0.042286131481567762 0 0.020410258697105974 -0.040932671011698958 0 0.021449346998986363 -0.039203289442336774 0 0.020623589156769446 -0.040051998029552602 0 0.021449346998986363 -0.039203289442336774 0 0.020623589156769446 -0.040051998029552602 0 0.021807352856605153 -0.039781676794647003 0 0.020623589156769446 -0.040051998029552602 0 0.021807352856605153 -0.039781676794647003 0 0.02163222994993276 -0.040241318633476679 0 0.021449346998986363 -0.039203289442336774 0 0.021807352856605153 -0.039781676794647003 0 0.022245162723322734 -0.039440970976467288 0 0.021807352856605153 -0.039781676794647003 0 0.022719299474827252 -0.040001955477189086 0 0.02163222994993276 -0.040241318633476679 0 0.021807352856605153 -0.039781676794647003 0 0.022719299474827252 -0.040001955477189086 0 0.022245162723322734 -0.039440970976467288 0 0.014504777604313122 -0.045347915481090427 0 0.016415277353046643 -0.042286131481567762 0 0.013100206570273033 -0.043081324169139436 0 0.021449346998986363 -0.039203289442336774 0 0.022245162723322734 -0.039440970976467288 0 0.023026325396633556 -0.038784185086333738 0 0.018244028657520353 -0.041131269798149732 0 0.021389705347002595 -0.038388037432530955 0 0.014739714705897676 -0.04060367997655439 0 0.014749761442370245 -0.040609517852240096 0 0.014765192978136705 -0.040689481296951449 0 0.014739714705897676 -0.04060367997655439 0 0.014749761442370245 -0.040609517852240096 0 0.014772415618511588 -0.040168304264239701 0 0.014749761442370245 -0.040609517852240096 0 0.014705835813396425 -0.040807161971637147 0 0.014540203954840585 -0.040378142380566584 0 0.014749761442370245 -0.040609517852240096 0 0.014772415618511588 -0.040168304264239701 0 0.014540203954840585 -0.040378142380566584 0 0.014739714705897676 -0.04060367997655439 0 0.014772415618511588 -0.040168304264239701 0 0.014681201238954352 -0.040540348289735406 0 0.013685021724653641 -0.040397733843629664 0 0.015586257839248798 -0.046755046317625788 0 0.014681201238954352 -0.040540348289735406 0 0.014040942047162098 -0.041294429745486069 0 0.014578153989579389 -0.040705545863106894 0 0.014040942047162098 -0.041294429745486069 0 0.014578153989579389 -0.040705545863106894 0 0.0143791847717898 -0.040379204683843352 0 0.01343531595453481 -0.044304025530043666 0 0.014040942047162098 -0.041294429745486069 0 0.011948202704030192 -0.045303437306977258 0 0.014739714705897676 -0.04060367997655439 0 0.014681201238954352 -0.040540348289735406 0 0.014578153989579389 -0.040705545863106894 0 0.014739714705897676 -0.04060367997655439 0 0.014578153989579389 -0.040705545863106894 0 0.014677932600009115 -0.040623338425546225 0 0.015586257839248798 -0.046755046317625788 0 0.015071796484147828 -0.048895886192562139 0 0.014677932600009115 -0.040623338425546225 0 0.0143791847717898 -0.040379204683843352 0 0.014862028312396519 -0.040837873325498451 0 0.014578153989579389 -0.040705545863106894 0 0.014677932600009115 -0.040623338425546225 0 0.0143791847717898 -0.040379204683843352 0 0.015674667994496853 -0.055897312004696199 0 0.015997536187321634 -0.056334674007757088 0 0.016609662638915723 -0.056925270401936137 0 0.015674667994496853 -0.055897312004696199 0 0.015818217092020727 -0.056068917220749852 0 0.015997536187321634 -0.056334674007757088 0 0.015586257839248798 -0.046755046317625788 0 0.014078826379735789 -0.051610260388431702 0 0.01592371784472681 -0.056369144850163054 0 0.015818217092020727 -0.056068917220749852 0 0.015997536187321634 -0.056334674007757088 0 0.01592371784472681 -0.056369144850163054 0 0.015997536187321634 -0.056334674007757088 0 0.01623732832272699 -0.056570362868051796 0 0.015997536187321634 -0.056334674007757088 0 0.01623732832272699 -0.056570362868051796 0 0.016609662638915723 -0.056925270401936137 0 0.01623732832272699 -0.056570362868051796 0 0.016609662638915723 -0.056925270401936137 0 0.016759192699548363 -0.05674614107157696 0 0.014677932600009115 -0.040623338425546225 0 0.014765192978136705 -0.040689481296951449 0 0.014862028312396519 -0.040837873325498451 0 0.014739714705897676 -0.04060367997655439 0 0.014677932600009115 -0.040623338425546225 0 0.014765192978136705 -0.040689481296951449 0 0.014705835813396425 -0.040807161971637147 0 0.014862028312396519 -0.040837873325498451 0 0.014505235855365176 -0.041034866646506879 0 0.014749761442370245 -0.040609517852240096 0 0.014776323502441388 -0.040744976792202757 0 0.014705835813396425 -0.040807161971637147 0 0.014749761442370245 -0.040609517852240096 0 0.014765192978136705 -0.040689481296951449 0 0.014776323502441388 -0.040744976792202757 0 0.014776323502441388 -0.040744976792202757 0 0.014705835813396425 -0.040807161971637147 0 0.014862028312396519 -0.040837873325498451 0 0.014765192978136705 -0.040689481296951449 0 0.014776323502441388 -0.040744976792202757 0 0.014862028312396519 -0.040837873325498451 0 0.01414421074700228 -0.041666496987817866 0 0.014505235855365176 -0.041034866646506879 0 0.013765149458392774 -0.040057253375303081 0 0.015071796484147828 -0.048895886192562139 0 0.018894022961312151 -0.051115774995998085 0 0.016609662638915723 -0.056925270401936137 0 0.016759192699548363 -0.05674614107157696 0 0.017790080301190975 -0.056959465905801858 0 0.014862028312396519 -0.040837873325498451 0 0.01414421074700228 -0.041666496987817866 0 0.014505235855365176 -0.041034866646506879 0 0.014705835813396425 -0.040807161971637147 0 0.014505235855365176 -0.041034866646506879 0 0.014540203954840585 -0.040378142380566584 0 0.023882302975500581 -0.05293159414034837 0 0.028076965719692461 -0.050788798975607972 0 0.025061576158627884 -0.048879654438269964 0 0.028076965719692461 -0.050788798975607972 0 0.025061576158627884 -0.048879654438269964 0 0.025525269950292348 -0.044287579607804752 0 0.018894022961312151 -0.051115774995998085 0 0.019827667750671425 -0.041259782561227157 0 0.022394058098975343 -0.046826875287242407 0 0.025061576158627884 -0.048879654438269964 0 0.025525269950292348 -0.044287579607804752 0 0.013765149458392774 -0.040057253375303081 0 0.014540203954840585 -0.040378142380566584 0 0.014666928700968345 -0.038903680373213227 0 0.014505235855365176 -0.041034866646506879 0 0.013765149458392774 -0.040057253375303081 0 0.014540203954840585 -0.040378142380566584 0 0.014772415618511588 -0.040168304264239701 0 0.014540203954840585 -0.040378142380566584 0 0.014666928700968345 -0.038903680373213227 0 0.013765149458392774 -0.040057253375303081 0 0.014666928700968345 -0.038903680373213227 0 0.013973282357068276 -0.037725061038963899 0 0.022379418653438201 -0.043289537825479646 0 0.025525269950292348 -0.044287579607804752 0 0.022912457426517884 -0.040483126307655576 0 0.019827667750671425 -0.041259782561227157 0 0.018544987878424377 -0.039451730957343938 0 0.014666928700968345 -0.038903680373213227 0 0.013973282357068276 -0.037725061038963899 0 0.015091501686614609 -0.036929937225055234 0 0.014666928700968345 -0.038903680373213227 0 0.015240096668293769 -0.037423826824804156 0 0.015091501686614609 -0.036929937225055234 0 0.014666928700968345 -0.038903680373213227 0 0.015240096668293769 -0.037423826824804156 0 0.015031027746653962 -0.039237168297642316 0 0.014772415618511588 -0.040168304264239701 0 0.014666928700968345 -0.038903680373213227 0 0.015031027746653962 -0.039237168297642316 0 0.014772415618511588 -0.040168304264239701 0 0.014681201238954352 -0.040540348289735406 0 0.015031027746653962 -0.039237168297642316 0 0.014681201238954352 -0.040540348289735406 0 0.014040942047162098 -0.041294429745486069 0 0.015031027746653962 -0.039237168297642316 0 0.01570915290037982 -0.039112023822684715 0 0.014872586303047001 -0.039316524569698974 0 0.014593662847286899 -0.040669891224482183 0 0.014040942047162098 -0.041294429745486069 0 0.015031027746653962 -0.039237168297642316 0 0.015240096668293769 -0.037423826824804156 0 0.015031027746653962 -0.039237168297642316 0 0.016070812324527062 -0.036500076514492635 0 0.016759252293197711 -0.037985203675224836 0 0.015031027746653962 -0.039237168297642316 0 0.016070812324527062 -0.036500076514492635 0 0.015240096668293769 -0.037423826824804156 0 0.016070812324527062 -0.036500076514492635 0 0.015616979862876378 -0.036212913234716648 0 0.016070812324527062 -0.036500076514492635 0 0.016179911105544564 -0.035013609304810719 0 0.015616979862876378 -0.036212913234716648 0 0.016179911105544564 -0.035013609304810719 0 0.015738877892239867 -0.035618317859032488 0 0.015616979862876378 -0.036212913234716648 0 0.015240096668293769 -0.037423826824804156 0 0.015616979862876378 -0.036212913234716648 0 0.015091501686614609 -0.036929937225055234 0 0.015738877892239867 -0.035618317859032488 0 0.015616979862876378 -0.036212913234716648 0 0.015091501686614609 -0.036929937225055234 0 0.015738877892239867 -0.035618317859032488 0 0.015091501686614609 -0.036929937225055234 0 0.015152035013706962 -0.036304443519300122 0 0.013973282357068276 -0.037725061038963899 0 0.015091501686614609 -0.036929937225055234 0 0.015152035013706962 -0.036304443519300122 0 0.013973282357068276 -0.037725061038963899 0 0.015152035013706962 -0.036304443519300122 0 0.015391542975909204 -0.036036943962519066 0 0.015152035013706962 -0.036304443519300122 0 0.015733954645814334 -0.035880733939446428 0 0.015391542975909204 -0.036036943962519066 0 0.015738877892239867 -0.035618317859032488 0 0.015152035013706962 -0.036304443519300122 0 0.015733954645814334 -0.035880733939446428 0 0.015912265432467744 -0.035645160957735435 0 0.015733954645814334 -0.035880733939446428 0 0.016128622751369979 -0.035801138804516366 0 0.015738877892239867 -0.035618317859032488 0 0.015912265432467744 -0.035645160957735435 0 0.015733954645814334 -0.035880733939446428 0 0.015733954645814334 -0.035880733939446428 0 0.016487741329588638 -0.036279699984748039 0 0.016128622751369979 -0.035801138804516366 0 0.016487741329588638 -0.036279699984748039 0 0.016128622751369979 -0.035801138804516366 0 0.016281490876802591 -0.03586443504763509 0 0.016128622751369979 -0.035801138804516366 0 0.016116597215807445 -0.03532683383387801 0 0.016252230591434692 -0.035427519268647449 0 0.015912265432467744 -0.035645160957735435 0 0.016128622751369979 -0.035801138804516366 0 0.016116597215807445 -0.03532683383387801 0 0.016116597215807445 -0.03532683383387801 0 0.01625606637675174 -0.034904809816392421 0 0.016383723341220596 -0.034970195597708857 0 0.016179911105544564 -0.035013609304810719 0 0.015738877892239867 -0.035618317859032488 0 0.01625606637675174 -0.034904809816392421 0 0.015738877892239867 -0.035618317859032488 0 0.016116597215807445 -0.03532683383387801 0 0.01625606637675174 -0.034904809816392421 0 0.015738877892239867 -0.035618317859032488 0 0.015912265432467744 -0.035645160957735435 0 0.016116597215807445 -0.03532683383387801 0 0.023521185094409612 -0.041762981029469189 0 0.021892655373215164 -0.044129684457938766 0 0.02450485234900392 -0.044544060525510867 0 0.023521185094409612 -0.041762981029469189 0 0.02450485234900392 -0.044544060525510867 0 0.026696185871296959 -0.04223556152343854 0 0.024924427744068986 -0.037886891038407859 0 0.023284013001188531 -0.041992373260328231 0 0.022719299474827252 -0.040001955477189086 0 0.023521185094409612 -0.041762981029469189 0 0.02163222994993276 -0.040241318633476679 0 0.023521185094409612 -0.041762981029469189 0 0.02163222994993276 -0.040241318633476679 0 0.021734829933162024 -0.041300014295318502 0 0.02163222994993276 -0.040241318633476679 0 0.021734829933162024 -0.041300014295318502 0 0.019675773869666145 -0.039734222998540167 0 0.020623589156769446 -0.040051998029552602 0 0.02163222994993276 -0.040241318633476679 0 0.019675773869666145 -0.039734222998540167 0 0.023521185094409612 -0.041762981029469189 0 0.021734829933162024 -0.041300014295318502 0 0.021892655373215164 -0.044129684457938766 0 0.021734829933162024 -0.041300014295318502 0 0.019675773869666145 -0.039734222998540167 0 0.021892655373215164 -0.044129684457938766 0 0.019684108920112561 -0.039847863480686495 0 0.020049565141004626 -0.040278196822970104 0 0.018953904398159006 -0.037454619881228245 0 0.019675773869666145 -0.039734222998540167 0 0.01808180259212349 -0.036792727671530912 0 0.018953904398159006 -0.037454619881228245 0 0.019675773869666145 -0.039734222998540167 0 0.021056920516599756 -0.038648034674677076 0 0.020728209770569238 -0.039931332655522025 0 0.019675773869666145 -0.039734222998540167 0 0.021056920516599756 -0.038648034674677076 0 0.020728209770569238 -0.039931332655522025 0 0.020623589156769446 -0.040051998029552602 0 0.019675773869666145 -0.039734222998540167 0 0.018544987878424377 -0.039451730957343938 0 0.018219321305081561 -0.037480491840204085 0 0.020728209770569238 -0.039931332655522025 0 0.022912457426517884 -0.040483126307655576 0 0.021056920516599756 -0.038648034674677076 0 0.018953904398159006 -0.037454619881228245 0 0.021056920516599756 -0.038648034674677076 0 0.017769234186267909 -0.036394804043953975 0 0.018219321305081561 -0.037480491840204085 0 0.017891920069129298 -0.036674371653868498 0 0.015733954645814334 -0.035880733939446428 0 0.015391542975909204 -0.036036943962519066 0 0.017769234186267909 -0.036394804043953975 0 0.015733954645814334 -0.035880733939446428 0 0.016487741329588638 -0.036279699984748039 0 0.017769234186267909 -0.036394804043953975 0 0.016487741329588638 -0.036279699984748039 0 0.017769234186267909 -0.036394804043953975 0 0.016796585467515879 -0.036572609619758348 0 0.018184417794759086 -0.036517789624812842 0 0.018148872601307924 -0.03712003477038605 0 0.016796585467515879 -0.036572609619758348 0 0.017769234186267909 -0.036394804043953975 0 0.018184417794759086 -0.036517789624812842 0 0.016796585467515879 -0.036572609619758348 0 0.018953904398159006 -0.037454619881228245 0 0.018184417794759086 -0.036517789624812842 0 0.01808180259212349 -0.036792727671530912 0 0.018953904398159006 -0.037454619881228245 0 0.017769234186267909 -0.036394804043953975 0 0.018184417794759086 -0.036517789624812842 0 0.018184417794759086 -0.036517789624812842 0 0.019398234879406652 -0.037078421262650443 0 0.018749140683343313 -0.037306818379909797 0 0.018184417794759086 -0.036517789624812842 0 0.01808180259212349 -0.036792727671530912 0 0.019398234879406652 -0.037078421262650443 0 0.020049565141004626 -0.040278196822970104 0 0.021936066334898443 -0.042235448786105655 0 0.024351295470470227 -0.046042733234150895 0 0.02450485234900392 -0.044544060525510867 0 0.026188053226843845 -0.046064084268680285 0 0.021892655373215164 -0.044129684457938766 0 0.024351295470470227 -0.046042733234150895 0 0.02450485234900392 -0.044544060525510867 0 0.019856929900308223 -0.037369210023267901 0 0.023097421220574621 -0.039622678150224598 0 0.020721652437209394 -0.036219329879845261 0 0.021257506757255445 -0.036622106371738967 0 0.021635569505100871 -0.036069163830946348 0 0.020721652437209394 -0.036219329879845261 0 0.020700380010191526 -0.036893174707639836 0 0.021257506757255445 -0.036622106371738967 0 0.019398234879406652 -0.037078421262650443 0 0.019329969200438356 -0.038291252012703315 0 0.02064423788756832 -0.038665440566253033 0 0.021936066334898443 -0.042235448786105655 0 0.023097421220574621 -0.039622678150224598 0 0.019398234879406652 -0.037078421262650443 0 0.019329969200438356 -0.038291252012703315 0 0.018749140683343313 -0.037306818379909797 0 0.019329969200438356 -0.038291252012703315 0 0.018749140683343313 -0.037306818379909797 0 0.018706930391108208 -0.037563376064053369 0 0.018749140683343313 -0.037306818379909797 0 0.018706930391108208 -0.037563376064053369 0 0.018148872601307924 -0.03712003477038605 0 0.019329969200438356 -0.038291252012703315 0 0.018706930391108208 -0.037563376064053369 0 0.018973117547631469 -0.037460301758368293 0 0.019856929900308223 -0.037369210023267901 0 0.019328067817986117 -0.037392701703276535 0 0.020721652437209394 -0.036219329879845261 0 0.020187937068903105 -0.036889779109099879 0 0.018973117547631469 -0.037460301758368293 0 0.020721652437209394 -0.036219329879845261 0 0.020187937068903105 -0.036889779109099879 0 0.020700380010191526 -0.036893174707639836 0 0.020187937068903105 -0.036889779109099879 0 0.019367694854465912 -0.037350774699777024 0 0.020136099470010684 -0.037185795201352186 0 0.020187937068903105 -0.036889779109099879 0 0.018973117547631469 -0.037460301758368293 0 0.019367694854465912 -0.037350774699777024 0 0.018973117547631469 -0.037460301758368293 0 0.018526873779283054 -0.037651629244328709 0 0.019449078059637647 -0.037468991543187342 0 0.01527122038596407 -0.034905612331548194 0 0.014866734978486382 -0.035377856052108872 0 0.014761815786663813 -0.034726610812330472 0 0.01527122038596407 -0.034905612331548194 0 0.014866734978486382 -0.035377856052108872 0 0.015892917727371562 -0.03559371670286253 0 0.018706930391108208 -0.037563376064053369 0 0.018973117547631469 -0.037460301758368293 0 0.018526873779283054 -0.037651629244328709 0 0.018526873779283054 -0.037651629244328709 0 0.018148872601307924 -0.03712003477038605 0 0.016796585467515879 -0.036572609619758348 0 0.016742539596475158 -0.036458873736341629 0 0.016703962205737093 -0.036461000240491696 0 0.018184417794759086 -0.036517789624812842 0 0.018749140683343313 -0.037306818379909797 0 0.018148872601307924 -0.03712003477038605 0 0.018706930391108208 -0.037563376064053369 0 0.018526873779283054 -0.037651629244328709 0 0.018148872601307924 -0.03712003477038605 0 0.014866734978486382 -0.035377856052108872 0 0.016796585467515879 -0.036572609619758348 0 0.015892917727371562 -0.03559371670286253 0 0.016487741329588638 -0.036279699984748039 0 0.016796585467515879 -0.036572609619758348 0 0.016281490876802591 -0.03586443504763509 0 0.016796585467515879 -0.036572609619758348 0 0.015892917727371562 -0.03559371670286253 0 0.016281490876802591 -0.03586443504763509 0 0.015892917727371562 -0.03559371670286253 0 0.015859645947447341 -0.035121267111335459 0 0.016281490876802591 -0.03586443504763509 0 0.01527122038596407 -0.034905612331548194 0 0.015859645947447341 -0.035121267111335459 0 0.015527244737480858 -0.034605242918266367 0 0.01527122038596407 -0.034905612331548194 0 0.015892917727371562 -0.03559371670286253 0 0.015859645947447341 -0.035121267111335459 0 0.015859645947447341 -0.035121267111335459 0 0.015527244737480858 -0.034605242918266367 0 0.015822001216184624 -0.034535190843649179 0 0.01527122038596407 -0.034905612331548194 0 0.015527244737480858 -0.034605242918266367 0 0.015215839419385839 -0.034311498097034127 0 0.015527244737480858 -0.034605242918266367 0 0.015215839419385839 -0.034311498097034127 0 0.015409891552897723 -0.034011027407282082 0 0.015527244737480858 -0.034605242918266367 0 0.015409891552897723 -0.034011027407282082 0 0.015822001216184624 -0.034535190843649179 0 0.015409891552897723 -0.034011027407282082 0 0.015093088663806032 -0.033490163853069632 0 0.015378810279772509 -0.033309881485764713 0 0.015215839419385839 -0.034311498097034127 0 0.015409891552897723 -0.034011027407282082 0 0.014972688645596531 -0.033823177358510786 0 0.015409891552897723 -0.034011027407282082 0 0.015093088663806032 -0.033490163853069632 0 0.014972688645596531 -0.033823177358510786 0 0.014972688645596531 -0.033823177358510786 0 0.014675819617931258 -0.033839873078010993 0 0.014857555707116429 -0.034118074136599216 0 0.014972688645596531 -0.033823177358510786 0 0.014675819617931258 -0.033839873078010993 0 0.014609409842586229 -0.033234230604242306 0 0.015093088663806032 -0.033490163853069632 0 0.014972688645596531 -0.033823177358510786 0 0.014609409842586229 -0.033234230604242306 0 0.014495074380177846 -0.033524873712873028 0 0.014675819617931258 -0.033839873078010993 0 0.014609409842586229 -0.033234230604242306 0 0.014495074380177846 -0.033524873712873028 0 0.014218083920317816 -0.033487774007014713 0 0.014609409842586229 -0.033234230604242306 0 0.014495074380177846 -0.033524873712873028 0 0.014675819617931258 -0.033839873078010993 0 0.014412683488584849 -0.033824692006224191 0 0.014675819617931258 -0.033839873078010993 0 0.014412683488584849 -0.033824692006224191 0 0.014582205921511323 -0.034088767046498381 0 0.014675819617931258 -0.033839873078010993 0 0.014582205921511323 -0.034088767046498381 0 0.014857555707116429 -0.034118074136599216 0 0.014866734978486382 -0.035377856052108872 0 0.014761815786663813 -0.034726610812330472 0 0.014143870814995945 -0.034161916175319725 0 0.016742539596475158 -0.036458873736341629 0 0.016502663770755585 -0.035619871702006228 0 0.014582205921511323 -0.034088767046498381 0 0.01479943629645482 -0.034459563808842138 0 0.014143870814995945 -0.034161916175319725 0 0.014412683488584849 -0.033824692006224191 0 0.014582205921511323 -0.034088767046498381 0 0.014143870814995945 -0.034161916175319725 0 0.014582205921511323 -0.034088767046498381 0 0.014857555707116429 -0.034118074136599216 0 0.01479943629645482 -0.034459563808842138 0 0.015215839419385839 -0.034311498097034127 0 0.014857555707116429 -0.034118074136599216 0 0.01479943629645482 -0.034459563808842138 0 0.015215839419385839 -0.034311498097034127 0 0.014972688645596531 -0.033823177358510786 0 0.014857555707116429 -0.034118074136599216 0 0.01527122038596407 -0.034905612331548194 0 0.014761815786663813 -0.034726610812330472 0 0.01479943629645482 -0.034459563808842138 0 0.01527122038596407 -0.034905612331548194 0 0.015215839419385839 -0.034311498097034127 0 0.01479943629645482 -0.034459563808842138 0 0.014761815786663813 -0.034726610812330472 0 0.01479943629645482 -0.034459563808842138 0 0.014143870814995945 -0.034161916175319725 0 0.019367694854465912 -0.037350774699777024 0 0.019462979692719123 -0.03746579708567891 0 0.019449078059637647 -0.037468991543187342 0 0.018973117547631469 -0.037460301758368293 0 0.019367694854465912 -0.037350774699777024 0 0.019449078059637647 -0.037468991543187342 0 0.019498029803943797 -0.03707535964048489 0 0.020166964444061034 -0.037623628493798855 0 0.019367694854465912 -0.037350774699777024 0 0.020136099470010684 -0.037185795201352186 0 0.020768009920454775 -0.037137991985306387 0 0.020187937068903105 -0.036889779109099879 0 0.020136099470010684 -0.037185795201352186 0 0.020385472253530941 -0.03713194975061955 0 0.020385472253530941 -0.03713194975061955 0 0.02078455092861092 -0.037085374088216438 0 0.020700380010191526 -0.036893174707639836 0 0.020187937068903105 -0.036889779109099879 0 0.020385472253530941 -0.03713194975061955 0 0.020700380010191526 -0.036893174707639836 0 0.020136099470010684 -0.037185795201352186 0 0.020385472253530941 -0.03713194975061955 0 0.020768009920454775 -0.037137991985306387 0 0.020768009920454775 -0.037137991985306387 0 0.020943042681607654 -0.037127199883234506 0 0.02078455092861092 -0.037085374088216438 0 0.020385472253530941 -0.03713194975061955 0 0.020768009920454775 -0.037137991985306387 0 0.02078455092861092 -0.037085374088216438 0 0.020166964444061034 -0.037623628493798855 0 0.018436468583936487 -0.035900125589241001 0 0.019462979692719123 -0.03746579708567891 0 0.019449078059637647 -0.037468991543187342 0 0.019473932726061814 -0.037404566745342531 0 0.014143870814995945 -0.034161916175319725 0 0.014218083920317816 -0.033487774007014713 0 0.01384034772452006 -0.033125821184790814 0 0.020768009920454775 -0.037137991985306387 0 0.020943042681607654 -0.037127199883234506 0 0.021034471060897647 -0.03729728887305455 0 0.014412683488584849 -0.033824692006224191 0 0.014143870814995945 -0.034161916175319725 0 0.014218083920317816 -0.033487774007014713 0 0.016502663770755585 -0.035619871702006228 0 0.018436468583936487 -0.035900125589241001 0 0.014218083920317816 -0.033487774007014713 0 0.014135162176269837 -0.033122764081620619 0 0.014609409842586229 -0.033234230604242306 0 0.014495074380177846 -0.033524873712873028 0 0.014412683488584849 -0.033824692006224191 0 0.014218083920317816 -0.033487774007014713 0 0.020943042681607654 -0.037127199883234506 0 0.021135855808096009 -0.037041976732724025 0 0.02109481137741424 -0.037148898307680832 0 0.021135855808096009 -0.037041976732724025 0 0.02109481137741424 -0.037148898307680832 0 0.021434403234035938 -0.037065446695517562 0 0.020943042681607654 -0.037127199883234506 0 0.02109481137741424 -0.037148898307680832 0 0.021034471060897647 -0.03729728887305455 0 0.02109481137741424 -0.037148898307680832 0 0.021220466507920789 -0.037201459947534578 0 0.021034471060897647 -0.03729728887305455 0 0.02109481137741424 -0.037148898307680832 0 0.021220466507920789 -0.037201459947534578 0 0.021434403234035938 -0.037065446695517562 0 0.021220466507920789 -0.037201459947534578 0 0.021434403234035938 -0.037065446695517562 0 0.021716664481758383 -0.037143347675739707 0 0.021434403234035938 -0.037065446695517562 0 0.021956267406385718 -0.036942064350760716 0 0.021716664481758383 -0.037143347675739707 0 0.021434403234035938 -0.037065446695517562 0 0.021552246925471759 -0.03695745721013774 0 0.021956267406385718 -0.036942064350760716 0 0.021135855808096009 -0.037041976732724025 0 0.021434403234035938 -0.037065446695517562 0 0.021552246925471759 -0.03695745721013774 0 0.021135855808096009 -0.037041976732724025 0 0.021476732132148079 -0.036836965555969353 0 0.021029472827993809 -0.036911050859189443 0 0.021135855808096009 -0.037041976732724025 0 0.021552246925471759 -0.03695745721013774 0 0.021476732132148079 -0.036836965555969353 0 0.020943042681607654 -0.037127199883234506 0 0.021135855808096009 -0.037041976732724025 0 0.02078455092861092 -0.037085374088216438 0 0.021135855808096009 -0.037041976732724025 0 0.02078455092861092 -0.037085374088216438 0 0.021029472827993809 -0.036911050859189443 0 0.02078455092861092 -0.037085374088216438 0 0.021029472827993809 -0.036911050859189443 0 0.020700380010191526 -0.036893174707639836 0 0.021029472827993809 -0.036911050859189443 0 0.020700380010191526 -0.036893174707639836 0 0.021257506757255445 -0.036622106371738967 0 0.021476732132148079 -0.036836965555969353 0 0.021257506757255445 -0.036622106371738967 0 0.021774529720991188 -0.036646353080914885 0 0.021476732132148079 -0.036836965555969353 0 0.021029472827993809 -0.036911050859189443 0 0.021257506757255445 -0.036622106371738967 0 0.016551615415013692 -0.03479486402774902 0 0.016353832736026693 -0.035112165716233046 0 0.016371400755378331 -0.034910913374142219 0 0.016551615415013692 -0.03479486402774902 0 0.016383723341220596 -0.034970195597708857 0 0.016588683396300388 -0.034704434161512615 0 0.016551615415013692 -0.03479486402774902 0 0.016383723341220596 -0.034970195597708857 0 0.016353832736026693 -0.035112165716233046 0 0.016116597215807445 -0.03532683383387801 0 0.016353832736026693 -0.035112165716233046 0 0.016252230591434692 -0.035427519268647449 0 0.016116597215807445 -0.03532683383387801 0 0.016383723341220596 -0.034970195597708857 0 0.016353832736026693 -0.035112165716233046 0 0.016252230591434692 -0.035427519268647449 0 0.016281490876802591 -0.03586443504763509 0 0.016169277878525901 -0.035115250872560205 0 0.016128622751369979 -0.035801138804516366 0 0.016252230591434692 -0.035427519268647449 0 0.016281490876802591 -0.03586443504763509 0 0.015859645947447341 -0.035121267111335459 0 0.016281490876802591 -0.03586443504763509 0 0.016169277878525901 -0.035115250872560205 0 0.015859645947447341 -0.035121267111335459 0 0.016169277878525901 -0.035115250872560205 0 0.015822001216184624 -0.034535190843649179 0 0.016252230591434692 -0.035427519268647449 0 0.016169277878525901 -0.035115250872560205 0 0.016371400755378331 -0.034910913374142219 0 0.016353832736026693 -0.035112165716233046 0 0.016252230591434692 -0.035427519268647449 0 0.016371400755378331 -0.034910913374142219 0 0.016169277878525901 -0.035115250872560205 0 0.016371400755378331 -0.034910913374142219 0 0.016175226840176627 -0.034424417317011881 0 0.016371400755378331 -0.034910913374142219 0 0.016175226840176627 -0.034424417317011881 0 0.01656894554450206 -0.034384314891884434 0 0.016169277878525901 -0.035115250872560205 0 0.016175226840176627 -0.034424417317011881 0 0.015822001216184624 -0.034535190843649179 0 0.016175226840176627 -0.034424417317011881 0 0.015822001216184624 -0.034535190843649179 0 0.015754579912393235 -0.03382591329135063 0 0.015409891552897723 -0.034011027407282082 0 0.015822001216184624 -0.034535190843649179 0 0.015754579912393235 -0.03382591329135063 0 0.015409891552897723 -0.034011027407282082 0 0.015754579912393235 -0.03382591329135063 0 0.015378810279772509 -0.033309881485764713 0 0.015754579912393235 -0.03382591329135063 0 0.015720603953996406 -0.033063151705752775 0 0.015378810279772509 -0.033309881485764713 0 0.016175226840176627 -0.034424417317011881 0 0.015754579912393235 -0.03382591329135063 0 0.016262498245904731 -0.033452852196037171 0 0.016175226840176627 -0.034424417317011881 0 0.01656894554450206 -0.034384314891884434 0 0.016262498245904731 -0.033452852196037171 0 0.01656894554450206 -0.034384314891884434 0 0.017165207064719214 -0.033767202835143256 0 0.016262498245904731 -0.033452852196037171 0 0.016551615415013692 -0.03479486402774902 0 0.016371400755378331 -0.034910913374142219 0 0.01656894554450206 -0.034384314891884434 0 0.016551615415013692 -0.03479486402774902 0 0.016840557671779804 -0.034377652516223829 0 0.016588683396300388 -0.034704434161512615 0 0.016551615415013692 -0.03479486402774902 0 0.01656894554450206 -0.034384314891884434 0 0.016840557671779804 -0.034377652516223829 0 0.01656894554450206 -0.034384314891884434 0 0.016840557671779804 -0.034377652516223829 0 0.017165207064719214 -0.033767202835143256 0 0.016840557671779804 -0.034377652516223829 0 0.016817556541711826 -0.034347489778058245 0 0.016692014989492295 -0.034490715458957974 0 0.016840557671779804 -0.034377652516223829 0 0.016817556541711826 -0.034347489778058245 0 0.017165207064719214 -0.033767202835143256 0 0.016817556541711826 -0.034347489778058245 0 0.016692014989492295 -0.034490715458957974 0 0.016776973787444353 -0.034432244685695154 0 0.018589966863733678 -0.034479064792124807 0 0.018125358952880016 -0.033250180808897349 0 0.016692014989492295 -0.034490715458957974 0 0.016466538867144873 -0.034704482529017887 0 0.016663160497455538 -0.034587434200390593 0 0.016840557671779804 -0.034377652516223829 0 0.016692014989492295 -0.034490715458957974 0 0.016588683396300388 -0.034704434161512615 0 0.016588683396300388 -0.034704434161512615 0 0.016466538867144873 -0.034704482529017887 0 0.016300214677374421 -0.03480874396459091 0 0.016466538867144873 -0.034704482529017887 0 0.016160605234599924 -0.034765268984812414 0 0.016663160497455538 -0.034587434200390593 0 0.016692014989492295 -0.034490715458957974 0 0.016588683396300388 -0.034704434161512615 0 0.016466538867144873 -0.034704482529017887 0 0.016466538867144873 -0.034704482529017887 0 0.016300214677374421 -0.03480874396459091 0 0.016160605234599924 -0.034765268984812414 0 0.016383723341220596 -0.034970195597708857 0 0.016588683396300388 -0.034704434161512615 0 0.016300214677374421 -0.03480874396459091 0 0.014736239209058191 -0.0323751563452363 0 0.014600789465448613 -0.031700200095616519 0 0.014716870793000016 -0.031748940255271453 0 0.014716870793000016 -0.031748940255271453 0 0.014735067155959158 -0.031488802113448552 0 0.014820959921695067 -0.032139450600753919 0 0.014736239209058191 -0.0323751563452363 0 0.014716870793000016 -0.031748940255271453 0 0.014820959921695067 -0.032139450600753919 0 0.014736239209058191 -0.0323751563452363 0 0.014820959921695067 -0.032139450600753919 0 0.014811404498141646 -0.032900511881231463 0 0.014736239209058191 -0.0323751563452363 0 0.014230043864729225 -0.032441815960757299 0 0.014600789465448613 -0.031700200095616519 0 0.014736239209058191 -0.0323751563452363 0 0.014230043864729225 -0.032441815960757299 0 0.01481924975383158 -0.033195290287947016 0 0.014230043864729225 -0.032441815960757299 0 0.014600789465448613 -0.031700200095616519 0 0.014288819081453841 -0.031346396151133403 0 0.015287564323518512 -0.033539583374745677 0 0.015251558769179135 -0.032919494337618066 0 0.014600789465448613 -0.031700200095616519 0 0.01462442297535306 -0.031319809799406698 0 0.014288819081453841 -0.031346396151133403 0 0.014600789465448613 -0.031700200095616519 0 0.014689988362209028 -0.031249931409043048 0 0.01462442297535306 -0.031319809799406698 0 0.014600789465448613 -0.031700200095616519 0 0.014716870793000016 -0.031748940255271453 0 0.014689988362209028 -0.031249931409043048 0 0.014716870793000016 -0.031748940255271453 0 0.014689988362209028 -0.031249931409043048 0 0.014735067155959158 -0.031488802113448552 0 0.014689988362209028 -0.031249931409043048 0 0.01462442297535306 -0.031319809799406698 0 0.014737938872997935 -0.031162393060534199 0 0.01462442297535306 -0.031319809799406698 0 0.014737938872997935 -0.031162393060534199 0 0.014561163492600785 -0.03119193219849509 0 0.014737938872997935 -0.031162393060534199 0 0.014561163492600785 -0.03119193219849509 0 0.014686268807165906 -0.031075008542924457 0 0.016692014989492295 -0.034490715458957974 0 0.016663160497455538 -0.034587434200390593 0 0.016776973787444353 -0.034432244685695154 0 0.015251558769179135 -0.032919494337618066 0 0.018125358952880016 -0.033250180808897349 0 0.014288819081453841 -0.031346396151133403 0 0.014561163492600785 -0.03119193219849509 0 0.014494659601163412 -0.031002628864093981 0 0.01462442297535306 -0.031319809799406698 0 0.014288819081453841 -0.031346396151133403 0 0.014561163492600785 -0.03119193219849509 0 0.018703340946376767 -0.03277992509420681 0 0.016956359177429475 -0.032556110914388744 0 0.018390109355724358 -0.034510750699649768 0 0.014561163492600785 -0.03119193219849509 0 0.014494659601163412 -0.031002628864093981 0 0.014686268807165906 -0.031075008542924457 0 0.018125358952880016 -0.033250180808897349 0 0.016158458280637451 -0.032136058246756603 0 0.018125358952880016 -0.033250180808897349 0 0.019684174954238381 -0.034581268625106631 0 0.017641457230321653 -0.032115606092606976 0 0.017901882167651137 -0.03330554170138008 0 0.019183233523328881 -0.034623017075408886 0 0.017641457230321653 -0.032115606092606976 0 0.016446636999831288 -0.032485771576570607 0 0.014791574115776264 -0.031273650642762413 0 0.016158458280637451 -0.032136058246756603 0 0.019684174954238381 -0.034581268625106631 0 0.016158458280637451 -0.032136058246756603 0 0.014896513209773435 -0.031297808281755705 0 0.014737938872997935 -0.031162393060534199 0 0.014686268807165906 -0.031075008542924457 0 0.014791574115776264 -0.031273650642762413 0 0.017641457230321653 -0.032115606092606976 0 0.017264645928623857 -0.032464108955327663 0 0.016446636999831288 -0.032485771576570607 0 0.017641457230321653 -0.032115606092606976 0 0.017516832870623049 -0.032692158991779866 0 0.017901882167651137 -0.03330554170138008 0 0.017901882167651137 -0.03330554170138008 0 0.017111416531208012 -0.033188379654559869 0 0.017989701350368658 -0.033911478221786279 0 0.017516832870623049 -0.032692158991779866 0 0.017901882167651137 -0.03330554170138008 0 0.017111416531208012 -0.033188379654559869 0 0.017111416531208012 -0.033188379654559869 0 0.01549446747019626 -0.033441488355413489 0 0.017114133423255913 -0.034175361980298524 0 0.017111416531208012 -0.033188379654559869 0 0.016446636999831288 -0.032485771576570607 0 0.01549446747019626 -0.033441488355413489 0 0.017516832870623049 -0.032692158991779866 0 0.017111416531208012 -0.033188379654559869 0 0.017264645928623857 -0.032464108955327663 0 0.017111416531208012 -0.033188379654559869 0 0.017264645928623857 -0.032464108955327663 0 0.016446636999831288 -0.032485771576570607 0 0.017641457230321653 -0.032115606092606976 0 0.017516832870623049 -0.032692158991779866 0 0.017264645928623857 -0.032464108955327663 0 0.016446636999831288 -0.032485771576570607 0 0.01549446747019626 -0.033441488355413489 0 0.014791574115776264 -0.031273650642762413 0 0.014791574115776264 -0.031273650642762413 0 0.01340878445435909 -0.033153805316152404 0 0.013308180781255485 -0.030655205521904892 0 0.01549446747019626 -0.033441488355413489 0 0.014791574115776264 -0.031273650642762413 0 0.01340878445435909 -0.033153805316152404 0 0.01340878445435909 -0.033153805316152404 0 0.013308180781255485 -0.030655205521904892 0 0.010685729541060661 -0.034003420108478455 0 0.013308180781255485 -0.030655205521904892 0 0.011044255820403016 -0.029647228544252544 0 0.010685729541060661 -0.034003420108478455 0 0.013308180781255485 -0.030655205521904892 0 0.014342280335452182 -0.030726658287533001 0 0.01387681803549359 -0.030267082682272971 0 0.01132316597273782 -0.029890857098223013 0 0.013944792310490403 -0.026669167771687177 0 0.013308180781255485 -0.030655205521904892 0 0.011044255820403016 -0.029647228544252544 0 0.01387681803549359 -0.030267082682272971 0 0.014689988362209028 -0.031249931409043048 0 0.014737938872997935 -0.031162393060534199 0 0.014342280335452182 -0.030726658287533001 0 0.014737938872997935 -0.031162393060534199 0 0.014791574115776264 -0.031273650642762413 0 0.014342280335452182 -0.030726658287533001 0 0.014791574115776264 -0.031273650642762413 0 0.013308180781255485 -0.030655205521904892 0 0.014342280335452182 -0.030726658287533001 0 0.0022104467050041107 -0.028158524454647463 0 0.0070127494110630581 -0.03270496151732593 0 0.0031152570954379611 -0.035643572682282208 0 0.0022104467050041107 -0.028158524454647463 0 0.0070127494110630581 -0.03270496151732593 0 0.011044255820403016 -0.029647228544252544 0 0.0070127494110630581 -0.03270496151732593 0 0.011044255820403016 -0.029647228544252544 0 0.010685729541060661 -0.034003420108478455 0 0.0022104467050041107 -0.028158524454647463 0 0.011044255820403016 -0.029647228544252544 0 0.0065068106765515067 -0.023019985655368832 0 0.0022104467050041107 -0.028158524454647463 0 0.0017141528678520734 -0.022035657012466167 0 0.0065068106765515067 -0.023019985655368832 0 0.0065068106765515067 -0.023019985655368832 0 0.0091368937304380001 -0.01765404213481284 0 0.013783627138915901 -0.023792114644485097 0 0.011044255820403016 -0.029647228544252544 0 0.0065068106765515067 -0.023019985655368832 0 0.013783627138915901 -0.023792114644485097 0 0.0061228550198516004 -0.023755138961989136 0 0.010178980354576114 -0.023852056137765344 0 0.0017141528678520734 -0.022035657012466167 0 0.002081542145246822 -0.017065888966912798 0 0.0065068106765515067 -0.023019985655368832 0 0.002081542145246822 -0.017065888966912798 0 0.0065068106765515067 -0.023019985655368832 0 0.0091368937304380001 -0.01765404213481284 0 0.014514376763949059 -0.030949484165862375 0 0.014578861235076554 -0.031061241975688297 0 0.014757586047954355 -0.03135338876535209 0 0.014578861235076554 -0.031061241975688297 0 0.014757586047954355 -0.03135338876535209 0 0.014735067155959158 -0.031488802113448552 0 0.014689988362209028 -0.031249931409043048 0 0.014578861235076554 -0.031061241975688297 0 0.014735067155959158 -0.031488802113448552 0 0.014689988362209028 -0.031249931409043048 0 0.014342280335452182 -0.030726658287533001 0 0.014578861235076554 -0.031061241975688297 0 0.014342280335452182 -0.030726658287533001 0 0.014514376763949059 -0.030949484165862375 0 0.014578861235076554 -0.031061241975688297 0 0.014342280335452182 -0.030726658287533001 0 0.014514376763949059 -0.030949484165862375 0 0.01387681803549359 -0.030267082682272971 0 0.014514376763949059 -0.030949484165862375 0 0.01387681803549359 -0.030267082682272971 0 0.015040583303543185 -0.03159828106880145 0 0.013944792310490403 -0.026669167771687177 0 0.013833335141634415 -0.027553992985759258 0 0.010178980354576114 -0.023852056137765344 0 0.013833335141634415 -0.027553992985759258 0 0.0091368937304380001 -0.01765404213481284 0 0.013783627138915901 -0.023792114644485097 0 0.016452678346960358 -0.018388508855011865 0 0.011276131353607752 -0.030671942849418217 0 0.012585334683522732 -0.030639688393968908 0 0.012083509255026671 -0.030040618199323469 0 0.013833335141634415 -0.027553992985759258 0 0.014673835584606387 -0.028483836091464067 0 0.015040583303543185 -0.03159828106880145 0 0.015013669189070159 -0.031779031274360298 0 0.014757586047954355 -0.03135338876535209 0 0.014514376763949059 -0.030949484165862375 0 0.015040583303543185 -0.03159828106880145 0 0.014757586047954355 -0.03135338876535209 0 0.015013669189070159 -0.031779031274360298 0 0.014757586047954355 -0.03135338876535209 0 0.014830458658856634 -0.031730239166847973 0 0.014735067155959158 -0.031488802113448552 0 0.014830458658856634 -0.031730239166847973 0 0.014820959921695067 -0.032139450600753919 0 0.014757586047954355 -0.03135338876535209 0 0.014735067155959158 -0.031488802113448552 0 0.014830458658856634 -0.031730239166847973 0 0.015013669189070159 -0.031779031274360298 0 0.014830458658856634 -0.031730239166847973 0 0.014820959921695067 -0.032139450600753919 0 0.013833335141634415 -0.027553992985759258 0 0.013769711814510602 -0.032227274946973736 0 0.015013669189070159 -0.031779031274360298 0 0.014820959921695067 -0.032139450600753919 0 0.015083395493082883 -0.033240538649881912 0 0.015313306509095676 -0.031796147540529424 0 0.015013669189070159 -0.031779031274360298 0 0.015083395493082883 -0.033240538649881912 0 0.012585334683522732 -0.030639688393968908 0 0.012892796007274337 -0.02985083873984706 0 0.012083509255026671 -0.030040618199323469 0 0.012892796007274337 -0.02985083873984706 0 0.012083509255026671 -0.030040618199323469 0 0.012208554238859515 -0.029388024993409277 0 0.013769711814510602 -0.032227274946973736 0 0.013903474735582998 -0.03161663612980864 0 0.012892796007274337 -0.02985083873984706 0 0.012787285795844684 -0.029709107918958713 0 0.012949382909947932 -0.030002716264355439 0 0.012892796007274337 -0.02985083873984706 0 0.012208554238859515 -0.029388024993409277 0 0.012787285795844684 -0.029709107918958713 0 0.0089480555793340338 -0.030363769734409275 0 0.011276131353607752 -0.030671942849418217 0 0.009980395778252946 -0.02948294401676204 0 0.011276131353607752 -0.030671942849418217 0 0.009980395778252946 -0.02948294401676204 0 0.01113399686529444 -0.029368004492174016 0 0.012083509255026671 -0.030040618199323469 0 0.012208554238859515 -0.029388024993409277 0 0.01113399686529444 -0.029368004492174016 0 0.011276131353607752 -0.030671942849418217 0 0.012083509255026671 -0.030040618199323469 0 0.01113399686529444 -0.029368004492174016 0 0.012208554238859515 -0.029388024993409277 0 0.01113399686529444 -0.029368004492174016 0 0.010850724914538507 -0.028152792900676255 0 0.009980395778252946 -0.02948294401676204 0 0.01113399686529444 -0.029368004492174016 0 0.009623726594615049 -0.028296463359059998 0 0.01113399686529444 -0.029368004492174016 0 0.009623726594615049 -0.028296463359059998 0 0.010850724914538507 -0.028152792900676255 0 0.0087210679922943065 -0.02870512295701683 0 0.009980395778252946 -0.02948294401676204 0 0.009623726594615049 -0.028296463359059998 0 0.009623726594615049 -0.028296463359059998 0 0.0097489423330138388 -0.027157907507173843 0 0.010850724914538507 -0.028152792900676255 0 0.0097489423330138388 -0.027157907507173843 0 0.010850724914538507 -0.028152792900676255 0 0.01128280858651136 -0.027039497566295388 0 0.011029167849812295 -0.028458785289466815 0 0.01181530744634321 -0.027656919727220532 0 0.012208554238859515 -0.029388024993409277 0 0.010850724914538507 -0.028152792900676255 0 0.012557903127049727 -0.02935354737286586 0 0.010850724914538507 -0.028152792900676255 0 0.01128280858651136 -0.027039497566295388 0 0.012184480130377538 -0.027193586181673828 0 0.01128280858651136 -0.027039497566295388 0 0.01171261585751762 -0.026938827268779133 0 0.012184480130377538 -0.027193586181673828 0 0.011611096559125667 -0.026967562695553785 0 0.01128280858651136 -0.027039497566295388 0 0.01171261585751762 -0.026938827268779133 0 0.010944221400877533 -0.026318558741280629 0 0.011063754111270734 -0.026878385578550573 0 0.0092877920471946488 -0.02559874582690096 0 0.0097489423330138388 -0.027157907507173843 0 0.01128280858651136 -0.027039497566295388 0 0.011588750532350048 -0.027002158272008834 0 0.011611096559125667 -0.026967562695553785 0 0.01128280858651136 -0.027039497566295388 0 0.012787285795844684 -0.029709107918958713 0 0.013044076600551511 -0.03014636062542345 0 0.012949382909947932 -0.030002716264355439 0 0.012787285795844684 -0.029709107918958713 0 0.013044076600551511 -0.03014636062542345 0 0.012557903127049727 -0.02935354737286586 0 0.012208554238859515 -0.029388024993409277 0 0.012787285795844684 -0.029709107918958713 0 0.012557903127049727 -0.02935354737286586 0 0.012130235711289664 -0.026806299018756762 0 0.01171261585751762 -0.026938827268779133 0 0.012184480130377538 -0.027193586181673828 0 0.012130235711289664 -0.026806299018756762 0 0.012184480130377538 -0.027193586181673828 0 0.012737643220709451 -0.026983783175986063 0 0.013044076600551511 -0.03014636062542345 0 0.012557903127049727 -0.02935354737286586 0 0.013217171020780889 -0.030411707505657845 0 0.013044076600551511 -0.03014636062542345 0 0.013217171020780889 -0.030411707505657845 0 0.013392456537735315 -0.030692113924159665 0 0.01181530744634321 -0.027656919727220532 0 0.015992523742483188 -0.03338961482975656 0 0.015992523742483188 -0.03338961482975656 0 0.017377188416830777 -0.033913841776997231 0 0.013217171020780889 -0.030411707505657845 0 0.014197834807808198 -0.03164334189645758 0 0.013392456537735315 -0.030692113924159665 0 0.013217171020780889 -0.030411707505657845 0 0.014197834807808198 -0.03164334189645758 0 0.015137329851915165 -0.032051724585254397 0 0.014197834807808198 -0.03164334189645758 0 0.013392456537735315 -0.030692113924159665 0 0.012949382909947932 -0.030002716264355439 0 0.014197834807808198 -0.03164334189645758 0 0.014529782553823941 -0.033695181602956863 0 0.014996443849559827 -0.033127752922172078 0 0.014170989185633436 -0.031521804228285842 0 0.013903474735582998 -0.03161663612980864 0 0.013044076600551511 -0.03014636062542345 0 0.013392456537735315 -0.030692113924159665 0 0.012949382909947932 -0.030002716264355439 0 0.014529782553823941 -0.033695181602956863 0 0.015271905258630069 -0.033860484665047687 0 0.014996443849559827 -0.033127752922172078 0 0.015271905258630069 -0.033860484665047687 0 0.014996443849559827 -0.033127752922172078 0 0.015796379918601416 -0.0337559969673508 0 0.014996443849559827 -0.033127752922172078 0 0.015137329851915165 -0.032051724585254397 0 0.015796379918601416 -0.0337559969673508 0 0.014197834807808198 -0.03164334189645758 0 0.014996443849559827 -0.033127752922172078 0 0.015137329851915165 -0.032051724585254397 0 0.018005130922591518 -0.036454163015554861 0 0.019372472716811719 -0.035644970345460276 0 0.01676649113615394 -0.034871151473813887 0 0.017377188416830777 -0.033913841776997231 0 0.016580282977969256 -0.034595525679542605 0 0.015137329851915165 -0.032051724585254397 0 0.01676649113615394 -0.034871151473813887 0 0.015796379918601416 -0.0337559969673508 0 0.016797266000182342 -0.036608211415036458 0 0.018005130922591518 -0.036454163015554861 0 0.01676649113615394 -0.034871151473813887 0 0.016070812324527062 -0.036500076514492635 0 0.016179911105544564 -0.035013609304810719 0 0.01676649113615394 -0.034871151473813887 0 0.016797266000182342 -0.036608211415036458 0 0.016070812324527062 -0.036500076514492635 0 0.01676649113615394 -0.034871151473813887 0 0.016179911105544564 -0.035013609304810719 0 0.01676649113615394 -0.034871151473813887 0 0.016111243587491636 -0.034315820942165634 0 0.015271905258630069 -0.033860484665047687 0 0.016111243587491636 -0.034315820942165634 0 0.015796379918601416 -0.0337559969673508 0 0.01676649113615394 -0.034871151473813887 0 0.016111243587491636 -0.034315820942165634 0 0.015796379918601416 -0.0337559969673508 0 0.016111243587491636 -0.034315820942165634 0 0.016094965714995534 -0.034506706222086889 0 0.015414846966647015 -0.034160877863957197 0 0.015271905258630069 -0.033860484665047687 0 0.016111243587491636 -0.034315820942165634 0 0.015414846966647015 -0.034160877863957197 0 0.016179911105544564 -0.035013609304810719 0 0.01625606637675174 -0.034904809816392421 0 0.016094965714995534 -0.034506706222086889 0 0.016179911105544564 -0.035013609304810719 0 0.016111243587491636 -0.034315820942165634 0 0.016094965714995534 -0.034506706222086889 0 0.01625606637675174 -0.034904809816392421 0 0.016383723341220596 -0.034970195597708857 0 0.016300214677374421 -0.03480874396459091 0 0.01625606637675174 -0.034904809816392421 0 0.016300214677374421 -0.03480874396459091 0 0.016094965714995534 -0.034506706222086889 0 0.016300214677374421 -0.03480874396459091 0 0.016094965714995534 -0.034506706222086889 0 0.015414846966647015 -0.034160877863957197 0 0.016300214677374421 -0.03480874396459091 0 0.016160605234599924 -0.034765268984812414 0 0.015414846966647015 -0.034160877863957197 0 0.015287564323518512 -0.033539583374745677 0 0.015365367317212808 -0.033971271309858157 0 0.015414846966647015 -0.034160877863957197 0 0.01481924975383158 -0.033195290287947016 0 0.014837356219364037 -0.033593461516963179 0 0.014230043864729225 -0.032441815960757299 0 0.015414846966647015 -0.034160877863957197 0 0.01481924975383158 -0.033195290287947016 0 0.014736239209058191 -0.0323751563452363 0 0.01481924975383158 -0.033195290287947016 0 0.014811404498141646 -0.032900511881231463 0 0.014820959921695067 -0.032139450600753919 0 0.015083395493082883 -0.033240538649881912 0 0.014811404498141646 -0.032900511881231463 0 0.015083395493082883 -0.033240538649881912 0 0.014811404498141646 -0.032900511881231463 0 0.014837356219364037 -0.033593461516963179 0 0.01481924975383158 -0.033195290287947016 0 0.014811404498141646 -0.032900511881231463 0 0.014837356219364037 -0.033593461516963179 0 0.014529782553823941 -0.033695181602956863 0 0.015271905258630069 -0.033860484665047687 0 0.014837356219364037 -0.033593461516963179 0 0.015083395493082883 -0.033240538649881912 0 0.014529782553823941 -0.033695181602956863 0 0.014837356219364037 -0.033593461516963179 0 0.015271905258630069 -0.033860484665047687 0 0.015414846966647015 -0.034160877863957197 0 0.014837356219364037 -0.033593461516963179 0 0.05499309666663791 -0.041810465524599286 0 0.054615471491662772 -0.045302494575204078 0 0.055234519646715982 -0.042086710667583974 0 0.055336750428627075 -0.043637685854575566 0 0.054615471491662772 -0.045302494575204078 0 0.054255570136024597 -0.046228102071369272 0 0.055336750428627075 -0.043637685854575566 0 0.054615471491662772 -0.045302494575204078 0 0.055234519646715982 -0.042086710667583974 0 0.054615471491662772 -0.045302494575204078 0 0.05376304859823143 -0.048992082423725228 0 0.052513124590017571 -0.049324152736783429 0 0.054615471491662772 -0.045302494575204078 0 0.052513124590017571 -0.049324152736783429 0 0.054255570136024597 -0.046228102071369272 0 0.05499309666663791 -0.041810465524599286 0 0.054615471491662772 -0.045302494575204078 0 0.05376304859823143 -0.048992082423725228 0 0.05499309666663791 -0.041810465524599286 0 0.05376304859823143 -0.048992082423725228 0 0.054993677633660219 -0.054998845902485306 0 0.05376304859823143 -0.048992082423725228 0 0.054993677633660219 -0.054998845902485306 0 0.051802184806764399 -0.052374143696374172 0 0.054993677633660219 -0.054998845902485306 0 0.051802184806764399 -0.052374143696374172 0 0.050709389199904163 -0.054994522822146577 0 0.051802184806764399 -0.052374143696374172 0 0.050709389199904163 -0.054994522822146577 0 0.049791382901219802 -0.052660652492352002 0 0.051802184806764399 -0.052374143696374172 0 0.052513124590017571 -0.049324152736783429 0 0.049791382901219802 -0.052660652492352002 0 0.05376304859823143 -0.048992082423725228 0 0.051802184806764399 -0.052374143696374172 0 0.052513124590017571 -0.049324152736783429 0 0.052513124590017571 -0.049324152736783429 0 0.049791382901219802 -0.052660652492352002 0 0.051851034001746836 -0.049796498043605239 0 0.052513124590017571 -0.049324152736783429 0 0.051851034001746836 -0.049796498043605239 0 0.053348577184982593 -0.047645842946565681 0 0.049791382901219802 -0.052660652492352002 0 0.049627860115434408 -0.052117484355361475 0 0.051851034001746836 -0.049796498043605239 0 0.050709389199904163 -0.054994522822146577 0 0.049791382901219802 -0.052660652492352002 0 0.04471390817113452 -0.054997114851046344 0 0.049791382901219802 -0.052660652492352002 0 0.04471390817113452 -0.054997114851046344 0 0.049627860115434408 -0.052117484355361475 0 0.04158742975164615 -0.054997486377032521 0 0.041875083700935595 -0.054161522804817633 0 0.042973515666437527 -0.052775305155767796 0 0.044695216748600906 -0.054999095387399104 0 0.046809911111400239 -0.053270497398840586 0 0.044688279401854381 -0.054999926997051279 0 0.04158742975164615 -0.054997486377032521 0 0.041875083700935595 -0.054161522804817633 0 0.04471390817113452 -0.054997114851046344 0 0.049627860115434408 -0.052117484355361475 0 0.051549900532665109 -0.05310231286065574 0 0.049627860115434408 -0.052117484355361475 0 0.051549900532665109 -0.05310231286065574 0 0.052087578022762024 -0.050724651343605251 0 0.046809911111400239 -0.053270497398840586 0 0.04867782741860105 -0.05072729440316625 0 0.041875083700935595 -0.054161522804817633 0 0.042795903604444747 -0.05030625651703944 0 0.042973515666437527 -0.052775305155767796 0 0.051549900532665109 -0.05310231286065574 0 0.052087578022762024 -0.050724651343605251 0 0.054004121328130747 -0.050635696163295274 0 0.052087578022762024 -0.050724651343605251 0 0.053281377293593418 -0.048946775054337165 0 0.054004121328130747 -0.050635696163295274 0 0.049627860115434408 -0.052117484355361475 0 0.052087578022762024 -0.050724651343605251 0 0.051851034001746836 -0.049796498043605239 0 0.052087578022762024 -0.050724651343605251 0 0.051851034001746836 -0.049796498043605239 0 0.053281377293593418 -0.048946775054337165 0 0.051851034001746836 -0.049796498043605239 0 0.053281377293593418 -0.048946775054337165 0 0.053348577184982593 -0.047645842946565681 0 0.053281377293593418 -0.048946775054337165 0 0.053348577184982593 -0.047645842946565681 0 0.053788098203450117 -0.04728022547132766 0 0.048043481788930337 -0.038271923735308765 0 0.047366633994680316 -0.038673835313432312 0 0.046783814304244227 -0.040164849578041513 0 0.053348577184982593 -0.047645842946565681 0 0.054154173489868604 -0.046257732178943627 0 0.053788098203450117 -0.04728022547132766 0 0.051037638705233229 -0.042240269229809085 0 0.05091229574277234 -0.043846089731395407 0 0.053348577184982593 -0.047645842946565681 0 0.054255570136024597 -0.046228102071369272 0 0.054154173489868604 -0.046257732178943627 0 0.052513124590017571 -0.049324152736783429 0 0.053348577184982593 -0.047645842946565681 0 0.054255570136024597 -0.046228102071369272 0 0.054255570136024597 -0.046228102071369272 0 0.055317109477809871 -0.044657240569168595 0 0.054154173489868604 -0.046257732178943627 0 0.055336750428627075 -0.043637685854575566 0 0.054255570136024597 -0.046228102071369272 0 0.055317109477809871 -0.044657240569168595 0 0.049969150827727161 -0.03753922318844586 0 0.048577317833596041 -0.038059911708822287 0 0.04944546494139665 -0.03817004313629898 0 0.049969150827727161 -0.03753922318844586 0 0.048577317833596041 -0.038059911708822287 0 0.048043481788930337 -0.038271923735308765 0 0.048577317833596041 -0.038059911708822287 0 0.047800115020760404 -0.03817891743583432 0 0.048344517571767713 -0.038423640467879661 0 0.048577317833596041 -0.038059911708822287 0 0.048043481788930337 -0.038271923735308765 0 0.047800115020760404 -0.03817891743583432 0 0.048043481788930337 -0.038271923735308765 0 0.047800115020760404 -0.03817891743583432 0 0.047366633994680316 -0.038673835313432312 0 0.052665206667280758 -0.041092503167494555 0 0.051037638705233229 -0.042240269229809085 0 0.047268966721735937 -0.038220279031120831 0 0.047167915923793886 -0.037647686313851528 0 0.047393404203842485 -0.038401662437273935 0 0.047268966721735937 -0.038220279031120831 0 0.047167915923793886 -0.037647686313851528 0 0.04739563845288354 -0.038099974587927951 0 0.047268966721735937 -0.038220279031120831 0 0.047800115020760404 -0.03817891743583432 0 0.047366633994680316 -0.038673835313432312 0 0.047268966721735937 -0.038220279031120831 0 0.047800115020760404 -0.03817891743583432 0 0.04739563845288354 -0.038099974587927951 0 0.047800115020760404 -0.03817891743583432 0 0.04739563845288354 -0.038099974587927951 0 0.047687958330096591 -0.038514002059713934 0 0.047800115020760404 -0.03817891743583432 0 0.047687958330096591 -0.038514002059713934 0 0.048344517571767713 -0.038423640467879661 0 0.04739563845288354 -0.038099974587927951 0 0.046940102276770514 -0.038119540242555566 0 0.047214269178416639 -0.038905407119528612 0 0.047167915923793886 -0.037647686313851528 0 0.04739563845288354 -0.038099974587927951 0 0.046940102276770514 -0.038119540242555566 0 0.046940102276770514 -0.038119540242555566 0 0.046816855150157564 -0.036585527364278801 0 0.045654951508805448 -0.038196117924275526 0 0.047167915923793886 -0.037647686313851528 0 0.046940102276770514 -0.038119540242555566 0 0.046816855150157564 -0.036585527364278801 0 0.045654951508805448 -0.038196117924275526 0 0.043208249823609726 -0.035910311596936494 0 0.042090923956602834 -0.038393568457216733 0 0.046816855150157564 -0.036585527364278801 0 0.045654951508805448 -0.038196117924275526 0 0.043208249823609726 -0.035910311596936494 0 0.046816855150157564 -0.036585527364278801 0 0.049020924949775779 -0.037355692540734703 0 0.048138332327918303 -0.038236521690136652 0 0.043208249823609726 -0.035910311596936494 0 0.044102469089974866 -0.032723963495188038 0 0.040476358713811215 -0.033180438974991441 0 0.046816855150157564 -0.036585527364278801 0 0.043208249823609726 -0.035910311596936494 0 0.044102469089974866 -0.032723963495188038 0 0.046962001490747925 -0.036295376721449862 0 0.046421058223238477 -0.03516916385190319 0 0.047167915923793886 -0.037647686313851528 0 0.046816855150157564 -0.036585527364278801 0 0.047393404203842485 -0.038401662437273935 0 0.046816855150157564 -0.036585527364278801 0 0.047393404203842485 -0.038401662437273935 0 0.048138332327918303 -0.038236521690136652 0 0.047393404203842485 -0.038401662437273935 0 0.048055716761704663 -0.039591731644555969 0 0.047395919363664663 -0.04004462088082876 0 0.047393404203842485 -0.038401662437273935 0 0.048055716761704663 -0.039591731644555969 0 0.048138332327918303 -0.038236521690136652 0 0.048055716761704663 -0.039591731644555969 0 0.048138332327918303 -0.038236521690136652 0 0.04888277719471612 -0.039426637925184263 0 0.049020924949775779 -0.037355692540734703 0 0.049897991793860175 -0.038536301332123282 0 0.0511497481947807 -0.038593962818153714 0 0.049020924949775779 -0.037355692540734703 0 0.049897991793860175 -0.038536301332123282 0 0.049161993391503407 -0.038546017886336069 0 0.046421058223238477 -0.03516916385190319 0 0.043094579080692932 -0.037920587374390392 0 0.049897991793860175 -0.038536301332123282 0 0.049161993391503407 -0.038546017886336069 0 0.049763580047794742 -0.039269362368538965 0 0.049020924949775779 -0.037355692540734703 0 0.049161993391503407 -0.038546017886336069 0 0.048138332327918303 -0.038236521690136652 0 0.049161993391503407 -0.038546017886336069 0 0.048138332327918303 -0.038236521690136652 0 0.04888277719471612 -0.039426637925184263 0 0.048055716761704663 -0.039591731644555969 0 0.04888277719471612 -0.039426637925184263 0 0.048869484990358418 -0.040528535987414509 0 0.04888277719471612 -0.039426637925184263 0 0.049763580047794742 -0.039269362368538965 0 0.049548651372782047 -0.040084829156586309 0 0.049161993391503407 -0.038546017886336069 0 0.04888277719471612 -0.039426637925184263 0 0.049763580047794742 -0.039269362368538965 0 0.049763580047794742 -0.039269362368538965 0 0.050555449575008612 -0.040327287993883174 0 0.050507007238791028 -0.038975101967628545 0 0.049763580047794742 -0.039269362368538965 0 0.050555449575008612 -0.040327287993883174 0 0.049548651372782047 -0.040084829156586309 0 0.049897991793860175 -0.038536301332123282 0 0.049763580047794742 -0.039269362368538965 0 0.050507007238791028 -0.038975101967628545 0 0.050555449575008612 -0.040327287993883174 0 0.049548651372782047 -0.040084829156586309 0 0.049744138538594405 -0.041030647971062026 0 0.04888277719471612 -0.039426637925184263 0 0.049548651372782047 -0.040084829156586309 0 0.048869484990358418 -0.040528535987414509 0 0.049548651372782047 -0.040084829156586309 0 0.049744138538594405 -0.041030647971062026 0 0.048869484990358418 -0.040528535987414509 0 0.049744138538594405 -0.041030647971062026 0 0.048869484990358418 -0.040528535987414509 0 0.049278436944317439 -0.04186481332298405 0 0.048869484990358418 -0.040528535987414509 0 0.049278436944317439 -0.04186481332298405 0 0.048157785410581931 -0.041155001811412933 0 0.050555449575008612 -0.040327287993883174 0 0.049744138538594405 -0.041030647971062026 0 0.050875426365839457 -0.042418902725361293 0 0.049744138538594405 -0.041030647971062026 0 0.049278436944317439 -0.04186481332298405 0 0.050875426365839457 -0.042418902725361293 0 0.048055716761704663 -0.039591731644555969 0 0.047395919363664663 -0.04004462088082876 0 0.048157785410581931 -0.041155001811412933 0 0.048055716761704663 -0.039591731644555969 0 0.048869484990358418 -0.040528535987414509 0 0.048157785410581931 -0.041155001811412933 0 0.048157785410581931 -0.041155001811412933 0 0.048604342412409386 -0.042201383623791347 0 0.047910118402406443 -0.042515879437177918 0 0.049278436944317439 -0.04186481332298405 0 0.048157785410581931 -0.041155001811412933 0 0.048604342412409386 -0.042201383623791347 0 0.047395919363664663 -0.04004462088082876 0 0.048157785410581931 -0.041155001811412933 0 0.047270872715590849 -0.041595019815410958 0 0.048157785410581931 -0.041155001811412933 0 0.047270872715590849 -0.041595019815410958 0 0.047910118402406443 -0.042515879437177918 0 0.047395919363664663 -0.04004462088082876 0 0.047270872715590849 -0.041595019815410958 0 0.046836677521208757 -0.041079973768557834 0 0.047395919363664663 -0.04004462088082876 0 0.046836677521208757 -0.041079973768557834 0 0.047087672382918416 -0.039268853887523381 0 0.047393404203842485 -0.038401662437273935 0 0.047395919363664663 -0.04004462088082876 0 0.047087672382918416 -0.039268853887523381 0 0.047268966721735937 -0.038220279031120831 0 0.047393404203842485 -0.038401662437273935 0 0.047087672382918416 -0.039268853887523381 0 0.047268966721735937 -0.038220279031120831 0 0.047087672382918416 -0.039268853887523381 0 0.047366633994680316 -0.038673835313432312 0 0.047087672382918416 -0.039268853887523381 0 0.047366633994680316 -0.038673835313432312 0 0.046783814304244227 -0.040164849578041513 0 0.046836677521208757 -0.041079973768557834 0 0.047087672382918416 -0.039268853887523381 0 0.046783814304244227 -0.040164849578041513 0 0.046836677521208757 -0.041079973768557834 0 0.046783814304244227 -0.040164849578041513 0 0.046467150457455864 -0.042816542141045126 0 0.05091229574277234 -0.043846089731395407 0 0.047707486573191203 -0.046165670647996794 0 0.053281377293593418 -0.048946775054337165 0 0.053788098203450117 -0.04728022547132766 0 0.054969415487128484 -0.048770960063198879 0 0.046836677521208757 -0.041079973768557834 0 0.046476152907451933 -0.042523486482073353 0 0.046467150457455864 -0.042816542141045126 0 0.047270872715590849 -0.041595019815410958 0 0.046836677521208757 -0.041079973768557834 0 0.046476152907451933 -0.042523486482073353 0 0.047270872715590849 -0.041595019815410958 0 0.046476152907451933 -0.042523486482073353 0 0.047236003847386777 -0.043470031669725129 0 0.047476123208552608 -0.044359382483743992 0 0.047707486573191203 -0.046165670647996794 0 0.046476152907451933 -0.042523486482073353 0 0.046397304198965789 -0.043709505091398912 0 0.047236003847386777 -0.043470031669725129 0 0.044827279711962584 -0.043682430550223278 0 0.046397304198965789 -0.043709505091398912 0 0.046817276984581872 -0.045312835433471615 0 0.046476152907451933 -0.042523486482073353 0 0.044827279711962584 -0.043682430550223278 0 0.046397304198965789 -0.043709505091398912 0 0.044827279711962584 -0.043682430550223278 0 0.047775751812263872 -0.049560794032763672 0 0.046817276984581872 -0.045312835433471615 0 0.045080813972198305 -0.047694447020168007 0 0.044905402186381706 -0.050441954450538701 0 0.047775751812263872 -0.049560794032763672 0 0.047707486573191203 -0.046165670647996794 0 0.046779315601563093 -0.04910649973135868 0 0.045080813972198305 -0.047694447020168007 0 0.042795903604444747 -0.05030625651703944 0 0.044905402186381706 -0.050441954450538701 0 0.047707486573191203 -0.046165670647996794 0 0.04867782741860105 -0.05072729440316625 0 0.053281377293593418 -0.048946775054337165 0 0.054969415487128484 -0.048770960063198879 0 0.054004121328130747 -0.050635696163295274 0 0.042795903604444747 -0.05030625651703944 0 0.042973515666437527 -0.052775305155767796 0 0.044905402186381706 -0.050441954450538701 0 0.044905402186381706 -0.050441954450538701 0 0.045450922221791638 -0.053241980708128293 0 0.047775751812263872 -0.049560794032763672 0 0.042973515666437527 -0.052775305155767796 0 0.044905402186381706 -0.050441954450538701 0 0.045450922221791638 -0.053241980708128293 0 0.041581936936244318 -0.055000005791481441 0 0.038732248014714407 -0.054999977129676053 0 0.038621452727279237 -0.056067465984626592 0 0.04158742975164615 -0.054997486377032521 0 0.042973515666437527 -0.052775305155767796 0 0.045450922221791638 -0.053241980708128293 0 0.041581913841182885 -0.054999966772717214 0 0.042049686210983046 -0.054618154860159064 0 0.035882542995540466 -0.054999950943585951 0 0.035676790076720678 -0.057087565882366929 0 0.033825925141329691 -0.056454311726777236 0 0.038621452727279237 -0.056067465984626592 0 0.035882542995540466 -0.054999950943585951 0 0.035676790076720678 -0.057087565882366929 0 0.038732248014714407 -0.054999977129676053 0 0.038621452727279237 -0.056067465984626592 0 0.035882542995540466 -0.054999950943585951 0 0.042049686210983046 -0.054618154860159064 0 0.042345116291012654 -0.053849139609876015 0 0.047775751812263872 -0.049560794032763672 0 0.049578314090073815 -0.050478936026566348 0 0.049167570616125401 -0.047093282259770455 0 0.045450922221791638 -0.053241980708128293 0 0.047775751812263872 -0.049560794032763672 0 0.049578314090073815 -0.050478936026566348 0 0.049578314090073815 -0.050478936026566348 0 0.050890624617779809 -0.046688326457958756 0 0.049167570616125401 -0.047093282259770455 0 0.049167570616125401 -0.047093282259770455 0 0.049682310720802751 -0.045196125267046715 0 0.0486421719113493 -0.044952560075707901 0 0.050890624617779809 -0.046688326457958756 0 0.049167570616125401 -0.047093282259770455 0 0.049682310720802751 -0.045196125267046715 0 0.050890624617779809 -0.046688326457958756 0 0.049682310720802751 -0.045196125267046715 0 0.050484092120497509 -0.044086006594839466 0 0.047775751812263872 -0.049560794032763672 0 0.048082290084750165 -0.046217653547056231 0 0.046817276984581872 -0.045312835433471615 0 0.047775751812263872 -0.049560794032763672 0 0.049167570616125401 -0.047093282259770455 0 0.048082290084750165 -0.046217653547056231 0 0.049167570616125401 -0.047093282259770455 0 0.0486421719113493 -0.044952560075707901 0 0.048082290084750165 -0.046217653547056231 0 0.0486421719113493 -0.044952560075707901 0 0.048082290084750165 -0.046217653547056231 0 0.0477903897135009 -0.044717580043956352 0 0.048082290084750165 -0.046217653547056231 0 0.046817276984581872 -0.045312835433471615 0 0.0477903897135009 -0.044717580043956352 0 0.046817276984581872 -0.045312835433471615 0 0.047236003847386777 -0.043470031669725129 0 0.0477903897135009 -0.044717580043956352 0 0.046397304198965789 -0.043709505091398912 0 0.046817276984581872 -0.045312835433471615 0 0.047236003847386777 -0.043470031669725129 0 0.047236003847386777 -0.043470031669725129 0 0.0477903897135009 -0.044717580043956352 0 0.048114103041818602 -0.043733364928899982 0 0.047236003847386777 -0.043470031669725129 0 0.048114103041818602 -0.043733364928899982 0 0.047910118402406443 -0.042515879437177918 0 0.0486421719113493 -0.044952560075707901 0 0.048114103041818602 -0.043733364928899982 0 0.049098053688208763 -0.043324669659354234 0 0.0486421719113493 -0.044952560075707901 0 0.0477903897135009 -0.044717580043956352 0 0.048114103041818602 -0.043733364928899982 0 0.048114103041818602 -0.043733364928899982 0 0.047910118402406443 -0.042515879437177918 0 0.049098053688208763 -0.043324669659354234 0 0.048604342412409386 -0.042201383623791347 0 0.047910118402406443 -0.042515879437177918 0 0.049098053688208763 -0.043324669659354234 0 0.047270872715590849 -0.041595019815410958 0 0.047236003847386777 -0.043470031669725129 0 0.047910118402406443 -0.042515879437177918 0 0.049682310720802751 -0.045196125267046715 0 0.050484092120497509 -0.044086006594839466 0 0.049098053688208763 -0.043324669659354234 0 0.049682310720802751 -0.045196125267046715 0 0.0486421719113493 -0.044952560075707901 0 0.049098053688208763 -0.043324669659354234 0 0.049278436944317439 -0.04186481332298405 0 0.049098053688208763 -0.043324669659354234 0 0.049928040020827569 -0.042921888134212882 0 0.049278436944317439 -0.04186481332298405 0 0.048604342412409386 -0.042201383623791347 0 0.049098053688208763 -0.043324669659354234 0 0.050484092120497509 -0.044086006594839466 0 0.049098053688208763 -0.043324669659354234 0 0.049928040020827569 -0.042921888134212882 0 0.050875426365839457 -0.042418902725361293 0 0.050484092120497509 -0.044086006594839466 0 0.049928040020827569 -0.042921888134212882 0 0.049278436944317439 -0.04186481332298405 0 0.050875426365839457 -0.042418902725361293 0 0.049928040020827569 -0.042921888134212882 0 0.050875426365839457 -0.042418902725361293 0 0.050484092120497509 -0.044086006594839466 0 0.052608237116893934 -0.044642620289620689 0 0.050875426365839457 -0.042418902725361293 0 0.053264742169118431 -0.043086475530707685 0 0.052608237116893934 -0.044642620289620689 0 0.052614146188575829 -0.044661697904829621 0 0.055413858047779506 -0.045198418207985896 0 0.054467524024234396 -0.042815190855465653 0 0.054637319960721888 -0.044735292070804587 0 0.056903571958754923 -0.045128476552422601 0 0.054467524024234396 -0.042815190855465653 0 0.055174047253861519 -0.044240658818812811 0 0.054529503268567092 -0.042264902297516192 0 0.053264742169118431 -0.043086475530707685 0 0.052608237116893934 -0.044642620289620689 0 0.054637319960721888 -0.044735292070804587 0 0.053264742169118431 -0.043086475530707685 0 0.054467524024234396 -0.042815190855465653 0 0.054637319960721888 -0.044735292070804587 0 0.053264742169118431 -0.043086475530707685 0 0.054467524024234396 -0.042815190855465653 0 0.054529503268567092 -0.042264902297516192 0 0.044227344211976494 -0.052899247431551499 0 0.038527711983909189 -0.052258779794811118 0 0.052608237116893934 -0.044642620289620689 0 0.054846778565687468 -0.045325640500907753 0 0.053592995426533327 -0.047894699688859253 0 0.054846778565687468 -0.045325640500907753 0 0.053592995426533327 -0.047894699688859253 0 0.056827119039127301 -0.046344587571755171 0 0.050890624617779809 -0.046688326457958756 0 0.052608237116893934 -0.044642620289620689 0 0.053592995426533327 -0.047894699688859253 0 0.050890624617779809 -0.046688326457958756 0 0.050484092120497509 -0.044086006594839466 0 0.052608237116893934 -0.044642620289620689 0 0.03277329771723065 -0.05801502469509507 0 0.031766370601332597 -0.056232139978795018 0 0.033825925141329691 -0.056454311726777236 0 0.035676790076720678 -0.057087565882366929 0 0.03277329771723065 -0.05801502469509507 0 0.033825925141329691 -0.056454311726777236 0 0.049578314090073815 -0.050478936026566348 0 0.050890624617779809 -0.046688326457958756 0 0.053592995426533327 -0.047894699688859253 0 0.042345116291012654 -0.053849139609876015 0 0.044227344211976494 -0.052899247431551499 0 0.03277329771723065 -0.05801502469509507 0 0.031766370601332597 -0.056232139978795018 0 0.030208406036654454 -0.057011656184238063 0 0.031766370601332597 -0.056232139978795018 0 0.033032817068344288 -0.054999924955310503 0 0.03018354883991126 -0.054999985867264609 0 0.035882542995540466 -0.054999950943585951 0 0.033032817068344288 -0.054999924955310503 0 0.033825925141329691 -0.056454311726777236 0 0.031766370601332597 -0.056232139978795018 0 0.033032817068344288 -0.054999924955310503 0 0.033825925141329691 -0.056454311726777236 0 0.028587290329570237 -0.056603759289036 0 0.028131773507806396 -0.054999947317180824 0 0.030182922671463507 -0.05500000296493051 0 0.027294153885771163 -0.056139725859173609 0 0.028587290329570237 -0.056603759289036 0 0.028131773507806396 -0.054999947317180824 0 0.028587290329570237 -0.056603759289036 0 0.030182922671463507 -0.05500000296493051 0 0.029888125861119254 -0.057053077838837084 0 0.030183285456525016 -0.05499898277108884 0 0.029559276918335899 -0.058361548653461083 0 0.031766370601332597 -0.056232139978795018 0 0.03018354883991126 -0.054999985867264609 0 0.030208406036654454 -0.057011656184238063 0 0.029559276918335899 -0.058361548653461083 0 0.038527711983909189 -0.052258779794811118 0 0.03277329771723065 -0.05801502469509507 0 0.030208406036654454 -0.057011656184238063 0 0.030115250382173976 -0.058882526795934156 0 0.029888125861119254 -0.057053077838837084 0 0.028301131194079746 -0.058212598242152351 0 0.029680253891567997 -0.058977953134009338 0 0.028587290329570237 -0.056603759289036 0 0.029888125861119254 -0.057053077838837084 0 0.028301131194079746 -0.058212598242152351 0 0.027506585215033835 -0.057561669696854278 0 0.028587290329570237 -0.056603759289036 0 0.028301131194079746 -0.058212598242152351 0 0.027506585215033835 -0.057561669696854278 0 0.027294153885771163 -0.056139725859173609 0 0.028587290329570237 -0.056603759289036 0 0.027357549043250572 -0.055706998688021085 0 0.028382803965631642 -0.055806705492871762 0 0.023079712235161927 -0.048860211172300778 0 0.027939114460657413 -0.050041746014358519 0 0.026760534932019055 -0.05480358933272575 0 0.027317931212349687 -0.054412604265765815 0 0.027508557947963953 -0.054903234522576498 0 0.026985317436573945 -0.054137833519281559 0 0.026760534932019055 -0.05480358933272575 0 0.027317931212349687 -0.054412604265765815 0 0.025779514883951124 -0.052930580805953718 0 0.027939114460657413 -0.050041746014358519 0 0.028301131194079746 -0.058212598242152351 0 0.029242371139938269 -0.059133536903247699 0 0.029680253891567997 -0.058977953134009338 0 0.027317931212349687 -0.054412604265765815 0 0.027508557947963953 -0.054903234522576498 0 0.02774290890191132 -0.054815829618460453 0 0.028382803965631642 -0.055806705492871762 0 0.034041483292421022 -0.051198083119429687 0 0.030798671761943289 -0.048299094952910099 0 0.034866250730692744 -0.046813984765484373 0 0.037202810669870787 -0.049329172799614469 0 0.027939114460657413 -0.050041746014358519 0 0.040157772175947931 -0.047072355749318312 0 0.027939114460657413 -0.050041746014358519 0 0.034041483292421022 -0.051198083119429687 0 0.055413858047779506 -0.045198418207985896 0 0.05181681567926584 -0.046600964079030929 0 0.054846778565687468 -0.045325640500907753 0 0.056691875510582045 -0.04571926577308854 0 0.056827119039127301 -0.046344587571755171 0 0.034041483292421022 -0.051198083119429687 0 0.038527711983909189 -0.052258779794811118 0 0.039319397373654433 -0.051126575309474814 0 0.038962092471211386 -0.050727946409625101 0 0.038769322016776353 -0.051333388594773599 0 0.040157772175947931 -0.047072355749318312 0 0.038527711983909189 -0.052258779794811118 0 0.034041483292421022 -0.051198083119429687 0 0.040157772175947931 -0.047072355749318312 0 0.040157772175947931 -0.047072355749318312 0 0.05181681567926584 -0.046600964079030929 0 0.056976988252426156 -0.045772708530676831 0 0.056691875510582045 -0.04571926577308854 0 0.056827119039127301 -0.046344587571755171 0 0.040147032286164841 -0.043850534047541044 0 0.040131709093460609 -0.042874661473380239 0 0.040045746893723602 -0.043059146046438138 0 0.040157772175947931 -0.047072355749318312 0 0.04866436377129945 -0.042946698831954629 0 0.055553510835318405 -0.042960288317767922 0 0.05181681567926584 -0.046600964079030929 0 0.054467524024234396 -0.042815190855465653 0 0.055174047253861519 -0.044240658818812811 0 0.055060351133064969 -0.044172414529804402 0 0.040147032286164841 -0.043850534047541044 0 0.040045746893723602 -0.043059146046438138 0 0.039584428274136503 -0.043101528351348638 0 0.040157772175947931 -0.047072355749318312 0 0.027068931891826215 -0.042842071475438184 0 0.021979455805523289 -0.045751482653963019 0 0.02448263550383031 -0.04485710548009695 0 0.023912237406351147 -0.046489675435086406 0 0.025534655415688255 -0.04503060840970978 0 0.023912237406351147 -0.046489675435086406 0 0.025150301954141425 -0.048757873370127304 0 0.02448263550383031 -0.04485710548009695 0 0.025534655415688255 -0.04503060840970978 0 0.023912237406351147 -0.046489675435086406 0 0.014504777604313122 -0.045347915481090427 0 0.014979753083408142 -0.047963617973465149 0 0.012058844607204621 -0.046840186857089919 0 0.022285580875480923 -0.047907427113942969 0 0.023912237406351147 -0.046489675435086406 0 0.025150301954141425 -0.048757873370127304 0 0.017019516458337682 -0.047929697349460378 0 0.027068931891826215 -0.042842071475438184 0 0.014504777604313122 -0.045347915481090427 0 0.01212796440516898 -0.045978877011296597 0 0.012058844607204621 -0.046840186857089919 0 0.025205670436326169 -0.038963997417247195 0 0.025494861497082001 -0.036001435024241017 0 0.026324950099762202 -0.03585546577435246 0 0.026098617154697159 -0.039544917500025589 0 0.021389705347002595 -0.038388037432530955 0 0.014504777604313122 -0.045347915481090427 0 0.01212796440516898 -0.045978877011296597 0 0.013100206570273033 -0.043081324169139436 0 0.026098617154697159 -0.039544917500025589 0 0.02870528681341198 -0.033408087945251255 0 0.032926592380149187 -0.030252124104781772 0 0.036348983768140157 -0.028183240185384793 0 0.034470351788279251 -0.031742107107272863 0 0.032926592380149187 -0.030252124104781772 0 0.031560478386546006 -0.028197424125610805 0 0.036348983768140157 -0.028183240185384793 0 0.032926592380149187 -0.030252124104781772 0 0.031560478386546006 -0.028197424125610805 0 0.031078432730021265 -0.032358727211889801 0 0.039814382485117393 -0.042920019587374805 0 0.040079337517491563 -0.042888027930341563 0 0.039609470146291584 -0.04267975864060454 0 0.031560478386546006 -0.028197424125610805 0 0.032029412653293232 -0.02699794727405724 0 0.036348983768140157 -0.028183240185384793 0 0.032116877963846241 -0.041251978287518483 0 0.037865558625856749 -0.03492237775116537 0 0.039814382485117393 -0.042920019587374805 0 0.040045746893723602 -0.043059146046438138 0 0.039584428274136503 -0.043101528351348638 0 0.039814382485117393 -0.042920019587374805 0 0.040079337517491563 -0.042888027930341563 0 0.040045746893723602 -0.043059146046438138 0 0.026098617154697159 -0.039544917500025589 0 0.027068931891826215 -0.042842071475438184 0 0.030216683049212687 -0.039522293340975428 0 0.028407260568086477 -0.044452209783826725 0 0.029674180996616513 -0.044856497816699321 0 0.026098617154697159 -0.039544917500025589 0 0.032116877963846241 -0.041251978287518483 0 0.040079609211860698 -0.042856631844580245 0 0.040131709093460609 -0.042874661473380239 0 0.040045746893723602 -0.043059146046438138 0 0.032116877963846241 -0.041251978287518483 0 0.034840232936891639 -0.041307944075637107 0 0.032116877963846241 -0.041251978287518483 0 0.027068931891826215 -0.042842071475438184 0 0.039584428274136503 -0.043101528351348638 0 0.039173630164638422 -0.042435201310761082 0 0.039609470146291584 -0.04267975864060454 0 0.053264742169118431 -0.043086475530707685 0 0.054529503268567092 -0.042264902297516192 0 0.052037903894273173 -0.041388148968974248 0 0.039814382485117393 -0.042920019587374805 0 0.039584428274136503 -0.043101528351348638 0 0.039609470146291584 -0.04267975864060454 0 0.050875426365839457 -0.042418902725361293 0 0.053264742169118431 -0.043086475530707685 0 0.052037903894273173 -0.041388148968974248 0 0.050555449575008612 -0.040327287993883174 0 0.052037903894273173 -0.041388148968974248 0 0.0511497481947807 -0.038593962818153714 0 0.04866436377129945 -0.042946698831954629 0 0.043094579080692932 -0.037920587374390392 0 0.054529503268567092 -0.042264902297516192 0 0.052037903894273173 -0.041388148968974248 0 0.0511497481947807 -0.038593962818153714 0 0.050555449575008612 -0.040327287993883174 0 0.050875426365839457 -0.042418902725361293 0 0.052037903894273173 -0.041388148968974248 0 0.043094579080692932 -0.037920587374390392 0 0.037865558625856749 -0.03492237775116537 0 0.050555449575008612 -0.040327287993883174 0 0.050507007238791028 -0.038975101967628545 0 0.0511497481947807 -0.038593962818153714 0 0.041252889882829567 -0.029683071916683408 0 0.037921443388276146 -0.031059292361969661 0 0.040476358713811215 -0.033180438974991441 0 0.049897991793860175 -0.038536301332123282 0 0.050507007238791028 -0.038975101967628545 0 0.0511497481947807 -0.038593962818153714 0 0.041252889882829567 -0.029683071916683408 0 0.036348983768140157 -0.028183240185384793 0 0.037921443388276146 -0.031059292361969661 0 0.036348983768140157 -0.028183240185384793 0 0.037921443388276146 -0.031059292361969661 0 0.034470351788279251 -0.031742107107272863 0 0.036965051977037422 -0.033730727206725118 0 0.033944584207590153 -0.035243511577008606 0 0.033627186621294526 -0.031145314378492037 0 0.037220865491335527 -0.031075239069995573 0 0.034402753677502472 -0.031455137456850878 0 0.037921443388276146 -0.031059292361969661 0 0.036965051977037422 -0.033730727206725118 0 0.033627186621294526 -0.031145314378492037 0 0.044102469089974866 -0.032723963495188038 0 0.041252889882829567 -0.029683071916683408 0 0.040476358713811215 -0.033180438974991441 0 0.037921443388276146 -0.031059292361969661 0 0.036965051977037422 -0.033730727206725118 0 0.040476358713811215 -0.033180438974991441 0 0.036965051977037422 -0.033730727206725118 0 0.040476358713811215 -0.033180438974991441 0 0.039608745190360513 -0.035984551776841227 0 0.043208249823609726 -0.035910311596936494 0 0.040476358713811215 -0.033180438974991441 0 0.039608745190360513 -0.035984551776841227 0 0.039608745190360513 -0.035984551776841227 0 0.038069887093677424 -0.038426462260252661 0 0.042090923956602834 -0.038393568457216733 0 0.043208249823609726 -0.035910311596936494 0 0.039608745190360513 -0.035984551776841227 0 0.042090923956602834 -0.038393568457216733 0 0.036965051977037422 -0.033730727206725118 0 0.036605593466536177 -0.036261983176259817 0 0.033944584207590153 -0.035243511577008606 0 0.036965051977037422 -0.033730727206725118 0 0.039608745190360513 -0.035984551776841227 0 0.036605593466536177 -0.036261983176259817 0 0.036605593466536177 -0.036261983176259817 0 0.034598220273276428 -0.038297963616888996 0 0.038069887093677424 -0.038426462260252661 0 0.039608745190360513 -0.035984551776841227 0 0.036605593466536177 -0.036261983176259817 0 0.038069887093677424 -0.038426462260252661 0 0.036605593466536177 -0.036261983176259817 0 0.033944584207590153 -0.035243511577008606 0 0.034598220273276428 -0.038297963616888996 0 0.033944584207590153 -0.035243511577008606 0 0.031283810751393311 -0.037340331716412392 0 0.034598220273276428 -0.038297963616888996 0 0.033944584207590153 -0.035243511577008606 0 0.031233199065172346 -0.034298851066066373 0 0.031283810751393311 -0.037340331716412392 0 0.031233199065172346 -0.034298851066066373 0 0.031283810751393311 -0.037340331716412392 0 0.028784184659047227 -0.036140611170941139 0 0.024924427744068986 -0.037886891038407859 0 0.021389705347002595 -0.038388037432530955 0 0.025916812611893082 -0.037130072763646417 0 0.028784184659047227 -0.036140611170941139 0 0.027964329306943436 -0.032063564786484637 0 0.031283810751393311 -0.037340331716412392 0 0.028784184659047227 -0.036140611170941139 0 0.028186811123317938 -0.039266430087511114 0 0.022719299474827252 -0.040001955477189086 0 0.022245162723322734 -0.039440970976467288 0 0.023026325396633556 -0.038784185086333738 0 0.025916812611893082 -0.037130072763646417 0 0.028784184659047227 -0.036140611170941139 0 0.028186811123317938 -0.039266430087511114 0 0.031233199065172346 -0.034298851066066373 0 0.028784184659047227 -0.036140611170941139 0 0.029623473314488849 -0.031660074645401798 0 0.02897007331962223 -0.035162065608579506 0 0.02870528681341198 -0.033408087945251255 0 0.028784184659047227 -0.036140611170941139 0 0.029197968557355066 -0.03185143129571822 0 0.027964329306943436 -0.032063564786484637 0 0.02870528681341198 -0.033408087945251255 0 0.021389705347002595 -0.038388037432530955 0 0.02870528681341198 -0.033408087945251255 0 0.034402753677502472 -0.031455137456850878 0 0.031233199065172346 -0.034298851066066373 0 0.029623473314488849 -0.031660074645401798 0 0.033627186621294526 -0.031145314378492037 0 0.032926592380149187 -0.030252124104781772 0 0.031078432730021265 -0.032358727211889801 0 0.034470351788279251 -0.031742107107272863 0 0.033944584207590153 -0.035243511577008606 0 0.031233199065172346 -0.034298851066066373 0 0.033627186621294526 -0.031145314378492037 0 0.031204443095783099 -0.041005657539956442 0 0.034762166199846609 -0.046769642265609312 0 0.027193833064264723 -0.04481995683771145 0 0.02450485234900392 -0.044544060525510867 0 0.026696185871296959 -0.04223556152343854 0 0.027193833064264723 -0.04481995683771145 0 0.023521185094409612 -0.041762981029469189 0 0.026696185871296959 -0.04223556152343854 0 0.028186811123317938 -0.039266430087511114 0 0.026696185871296959 -0.04223556152343854 0 0.031204443095783099 -0.041005657539956442 0 0.027193833064264723 -0.04481995683771145 0 0.026696185871296959 -0.04223556152343854 0 0.028186811123317938 -0.039266430087511114 0 0.031204443095783099 -0.041005657539956442 0 0.025916812611893082 -0.037130072763646417 0 0.023521185094409612 -0.041762981029469189 0 0.028186811123317938 -0.039266430087511114 0 0.031283810751393311 -0.037340331716412392 0 0.031204443095783099 -0.041005657539956442 0 0.034598220273276428 -0.038297963616888996 0 0.031283810751393311 -0.037340331716412392 0 0.028186811123317938 -0.039266430087511114 0 0.031204443095783099 -0.041005657539956442 0 0.031204443095783099 -0.041005657539956442 0 0.034598220273276428 -0.038297963616888996 0 0.036518951016551213 -0.041595585752176076 0 0.034598220273276428 -0.038297963616888996 0 0.038069887093677424 -0.038426462260252661 0 0.036518951016551213 -0.041595585752176076 0 0.038069887093677424 -0.038426462260252661 0 0.042090923956602834 -0.038393568457216733 0 0.040041577381086692 -0.041393570158740234 0 0.038069887093677424 -0.038426462260252661 0 0.040041577381086692 -0.041393570158740234 0 0.036518951016551213 -0.041595585752176076 0 0.042090923956602834 -0.038393568457216733 0 0.040041577381086692 -0.041393570158740234 0 0.042800369284304848 -0.040750248216187918 0 0.039326914802830487 -0.044239839589081779 0 0.041659992807701295 -0.047637941912069701 0 0.043633714612170874 -0.043887760520899238 0 0.040041577381086692 -0.041393570158740234 0 0.039326914802830487 -0.044239839589081779 0 0.043633714612170874 -0.043887760520899238 0 0.040041577381086692 -0.041393570158740234 0 0.039326914802830487 -0.044239839589081779 0 0.036518951016551213 -0.041595585752176076 0 0.039326914802830487 -0.044239839589081779 0 0.036518951016551213 -0.041595585752176076 0 0.034762166199846609 -0.046769642265609312 0 0.031204443095783099 -0.041005657539956442 0 0.036518951016551213 -0.041595585752176076 0 0.034762166199846609 -0.046769642265609312 0 0.030831885963044241 -0.046158786957118982 0 0.038244277171749372 -0.04256383559111436 0 0.039326914802830487 -0.044239839589081779 0 0.034762166199846609 -0.046769642265609312 0 0.041659992807701295 -0.047637941912069701 0 0.028050440606261526 -0.044905187438501311 0 0.029518889965715139 -0.044947251805551341 0 0.028943930865615308 -0.045907940488263924 0 0.036655104217513196 -0.03795012697404964 0 0.034707423435575056 -0.041646585040425621 0 0.038614152137504201 -0.040825505310105578 0 0.038244277171749372 -0.04256383559111436 0 0.031429582572841432 -0.044469372100521785 0 0.028050440606261526 -0.044905187438501311 0 0.028943930865615308 -0.045907940488263924 0 0.027610913860177905 -0.045930320617932313 0 0.027610913860177905 -0.045930320617932313 0 0.027193833064264723 -0.04481995683771145 0 0.026188053226843845 -0.046064084268680285 0 0.030831885963044241 -0.046158786957118982 0 0.02773531614071752 -0.044906370370900055 0 0.028050440606261526 -0.044905187438501311 0 0.027610913860177905 -0.045930320617932313 0 0.027193833064264723 -0.04481995683771145 0 0.02450485234900392 -0.044544060525510867 0 0.027193833064264723 -0.04481995683771145 0 0.026188053226843845 -0.046064084268680285 0 0.024351295470470227 -0.046042733234150895 0 0.026188053226843845 -0.046064084268680285 0 0.025530492395613856 -0.047117371337791723 0 0.026188053226843845 -0.046064084268680285 0 0.027037118049967643 -0.047109989592679702 0 0.025530492395613856 -0.047117371337791723 0 0.027610913860177905 -0.045930320617932313 0 0.026188053226843845 -0.046064084268680285 0 0.027037118049967643 -0.047109989592679702 0 0.022413760562477247 -0.036981833597114148 0 0.022419889079180102 -0.037005832226017665 0 0.022426884595664505 -0.036952076271516032 0 0.022413760562477247 -0.036981833597114148 0 0.022426884595664505 -0.036952076271516032 0 0.022394019677100276 -0.036925688852419883 0 0.022413760562477247 -0.036981833597114148 0 0.022394019677100276 -0.036925688852419883 0 0.022418767454624247 -0.03697653844587797 0 0.022426884595664505 -0.036952076271516032 0 0.022522939763051659 -0.037012702919533874 0 0.022363210258008227 -0.036846214680408947 0 0.021257506757255445 -0.036622106371738967 0 0.021635569505100871 -0.036069163830946348 0 0.021774529720991188 -0.036646353080914885 0 0.024332543272760486 -0.042263154855852303 0 0.023097421220574621 -0.039622678150224598 0 0.022419889079180102 -0.037005832226017665 0 0.022426884595664505 -0.036952076271516032 0 0.022522939763051659 -0.037012702919533874 0 0.023097421220574621 -0.039622678150224598 0 0.021825444451754005 -0.035554296553689205 0 0.021635569505100871 -0.036069163830946348 0 0.021774529720991188 -0.036646353080914885 0 0.022363210258008227 -0.036846214680408947 0 0.021476732132148079 -0.036836965555969353 0 0.021774529720991188 -0.036646353080914885 0 0.021941866131686895 -0.036856433761450286 0 0.021552246925471759 -0.03695745721013774 0 0.021476732132148079 -0.036836965555969353 0 0.021941866131686895 -0.036856433761450286 0 0.021774529720991188 -0.036646353080914885 0 0.022363210258008227 -0.036846214680408947 0 0.021941866131686895 -0.036856433761450286 0 0.022394019677100276 -0.036925688852419883 0 0.022351230251258122 -0.036848294431015123 0 0.022400393388087941 -0.036943162606193694 0 0.02352647145803986 -0.034566953133553575 0 0.02543978554981461 -0.035134415599273203 0 0.022426884595664505 -0.036952076271516032 0 0.022382653662559378 -0.036891932997858916 0 0.022394019677100276 -0.036925688852419883 0 0.022426884595664505 -0.036952076271516032 0 0.022382653662559378 -0.036891932997858916 0 0.022363210258008227 -0.036846214680408947 0 0.022382653662559378 -0.036891932997858916 0 0.022394019677100276 -0.036925688852419883 0 0.022351230251258122 -0.036848294431015123 0 0.022382653662559378 -0.036891932997858916 0 0.022351230251258122 -0.036848294431015123 0 0.022363210258008227 -0.036846214680408947 0 0.02352647145803986 -0.034566953133553575 0 0.02284002607357772 -0.036704547368295919 0 0.022351230251258122 -0.036848294431015123 0 0.022363210258008227 -0.036846214680408947 0 0.022379259364689475 -0.036839881186203564 0 0.022351230251258122 -0.036848294431015123 0 0.022379259364689475 -0.036839881186203564 0 0.022885516167043013 -0.036761631505436952 0 0.026416324051122413 -0.033607643312588482 0 0.026635901519027942 -0.035680516441510796 0 0.022885516167043013 -0.036761631505436952 0 0.024633934898784991 -0.032792642665817606 0 0.026416324051122413 -0.033607643312588482 0 0.022885516167043013 -0.036761631505436952 0 0.021956267406385718 -0.036942064350760716 0 0.022379259364689475 -0.036839881186203564 0 0.022885516167043013 -0.036761631505436952 0 0.021956267406385718 -0.036942064350760716 0 0.021716664481758383 -0.037143347675739707 0 0.022885516167043013 -0.036761631505436952 0 0.021956267406385718 -0.036942064350760716 0 0.021941866131686895 -0.036856433761450286 0 0.022379259364689475 -0.036839881186203564 0 0.021552246925471759 -0.03695745721013774 0 0.021956267406385718 -0.036942064350760716 0 0.021941866131686895 -0.036856433761450286 0 0.022363210258008227 -0.036846214680408947 0 0.021941866131686895 -0.036856433761450286 0 0.022379259364689475 -0.036839881186203564 0 0.029162253883359662 -0.03286696767662773 0 0.028789461669750376 -0.034987384958890436 0 0.027828250764382334 -0.033577622466492367 0 0.029162253883359662 -0.03286696767662773 0 0.028789461669750376 -0.034987384958890436 0 0.031018054975863379 -0.034031823480563009 0 0.029162253883359662 -0.03286696767662773 0 0.030691238355991791 -0.032656949138632867 0 0.031018054975863379 -0.034031823480563009 0 0.028789461669750376 -0.034987384958890436 0 0.031018054975863379 -0.034031823480563009 0 0.030000459982533662 -0.036263783230188147 0 0.028789461669750376 -0.034987384958890436 0 0.027828250764382334 -0.033577622466492367 0 0.026635901519027942 -0.035680516441510796 0 0.026416324051122413 -0.033607643312588482 0 0.027828250764382334 -0.033577622466492367 0 0.026635901519027942 -0.035680516441510796 0 0.026416324051122413 -0.033607643312588482 0 0.027828250764382334 -0.033577622466492367 0 0.02720196094992762 -0.031885194232835701 0 0.024633934898784991 -0.032792642665817606 0 0.026176802250332837 -0.031912312994992295 0 0.026465775503214006 -0.029378506681314163 0 0.027828250764382334 -0.033577622466492367 0 0.02720196094992762 -0.031885194232835701 0 0.028417806112098105 -0.031671760039239973 0 0.026416324051122413 -0.033607643312588482 0 0.02720196094992762 -0.031885194232835701 0 0.026176802250332837 -0.031912312994992295 0 0.024633934898784991 -0.032792642665817606 0 0.026416324051122413 -0.033607643312588482 0 0.026176802250332837 -0.031912312994992295 0 0.02720196094992762 -0.031885194232835701 0 0.026176802250332837 -0.031912312994992295 0 0.026465775503214006 -0.029378506681314163 0 0.02720196094992762 -0.031885194232835701 0 0.028171658163051651 -0.030299113675052582 0 0.026465775503214006 -0.029378506681314163 0 0.02720196094992762 -0.031885194232835701 0 0.028171658163051651 -0.030299113675052582 0 0.028417806112098105 -0.031671760039239973 0 0.028171658163051651 -0.030299113675052582 0 0.028417806112098105 -0.031671760039239973 0 0.030187166348327386 -0.030792697530698462 0 0.029162253883359662 -0.03286696767662773 0 0.028417806112098105 -0.031671760039239973 0 0.030187166348327386 -0.030792697530698462 0 0.029162253883359662 -0.03286696767662773 0 0.027828250764382334 -0.033577622466492367 0 0.028417806112098105 -0.031671760039239973 0 0.030691238355991791 -0.032656949138632867 0 0.030187166348327386 -0.030792697530698462 0 0.031815428055012772 -0.031861084193706236 0 0.029162253883359662 -0.03286696767662773 0 0.030691238355991791 -0.032656949138632867 0 0.030187166348327386 -0.030792697530698462 0 0.029077861778042054 -0.027817663042425878 0 0.031688356641881681 -0.026260567473776326 0 0.031931479862034776 -0.028752410494855985 0 0.030187166348327386 -0.030792697530698462 0 0.029077861778042054 -0.027817663042425878 0 0.031931479862034776 -0.028752410494855985 0 0.028171658163051651 -0.030299113675052582 0 0.030187166348327386 -0.030792697530698462 0 0.029077861778042054 -0.027817663042425878 0 0.022413760562477247 -0.036981833597114148 0 0.022419889079180102 -0.037005832226017665 0 0.022460972428539221 -0.037015254827774881 0 0.022184643021211255 -0.037092183000416841 0 0.02543978554981461 -0.035134415599273203 0 0.028171658163051651 -0.030299113675052582 0 0.029077861778042054 -0.027817663042425878 0 0.026465775503214006 -0.029378506681314163 0 0.02543978554981461 -0.035134415599273203 0 0.028175915342499636 -0.041545411941223714 0 0.030710341672568087 -0.037036119083090943 0 0.027397866701073102 -0.038994734781434018 0 0.029003037696831553 -0.035961240018930682 0 0.030146362301491945 -0.032195572163609097 0 0.02543978554981461 -0.035134415599273203 0 0.022413760562477247 -0.036981833597114148 0 0.022418767454624247 -0.03697653844587797 0 0.022460972428539221 -0.037015254827774881 0 0.024332543272760486 -0.042263154855852303 0 0.028175915342499636 -0.041545411941223714 0 0.028943930865615308 -0.045907940488263924 0 0.027610913860177905 -0.045930320617932313 0 0.028391649861460488 -0.046887744216608629 0 0.027610913860177905 -0.045930320617932313 0 0.027037118049967643 -0.047109989592679702 0 0.028391649861460488 -0.046887744216608629 0 0.030710341672568087 -0.037036119083090943 0 0.029003037696831553 -0.035961240018930682 0 0.034043215931400195 -0.035053758654306565 0 0.031429582572841432 -0.044469372100521785 0 0.028175915342499636 -0.041545411941223714 0 0.028175915342499636 -0.041545411941223714 0 0.036783507636840677 -0.037425467855853031 0 0.034707423435575056 -0.041646585040425621 0 0.032750297580877816 -0.045328080665185802 0 0.03767263038512652 -0.044437701225675731 0 0.030146362301491945 -0.032195572163609097 0 0.036783507636840677 -0.037425467855853031 0 0.036783507636840677 -0.037425467855853031 0 0.043881846006525921 -0.042070695063588494 0 0.031688356641881681 -0.026260567473776326 0 0.034326801336995047 -0.027289904046284702 0 0.031931479862034776 -0.028752410494855985 0 0.031688356641881681 -0.026260567473776326 0 0.034326801336995047 -0.027289904046284702 0 0.036442061017915264 -0.025366132247376095 0 0.042333995290868551 -0.042466943522817345 0 0.04548196558267615 -0.041977901459418425 0 0.044840493695581747 -0.041150185506696538 0 0.036783507636840677 -0.037425467855853031 0 0.041192771571838926 -0.033280865569918612 0 0.034326801336995047 -0.027289904046284702 0 0.036268665594022656 -0.02739787486111063 0 0.036442061017915264 -0.025366132247376095 0 0.034326801336995047 -0.027289904046284702 0 0.034020064240468169 -0.030038580592082077 0 0.035512132368240502 -0.029225249913103171 0 0.036268665594022656 -0.02739787486111063 0 0.035512132368240502 -0.029225249913103171 0 0.037047059672540079 -0.028652242950307362 0 0.034326801336995047 -0.027289904046284702 0 0.036268665594022656 -0.02739787486111063 0 0.035512132368240502 -0.029225249913103171 0 0.035512132368240502 -0.029225249913103171 0 0.036377446894384817 -0.030614226002914545 0 0.037047059672540079 -0.028652242950307362 0 0.034326801336995047 -0.027289904046284702 0 0.034020064240468169 -0.030038580592082077 0 0.031931479862034776 -0.028752410494855985 0 0.034020064240468169 -0.030038580592082077 0 0.031931479862034776 -0.028752410494855985 0 0.032383110630285511 -0.030369704939142105 0 0.030187166348327386 -0.030792697530698462 0 0.031931479862034776 -0.028752410494855985 0 0.032383110630285511 -0.030369704939142105 0 0.030187166348327386 -0.030792697530698462 0 0.031815428055012772 -0.031861084193706236 0 0.032383110630285511 -0.030369704939142105 0 0.030691238355991791 -0.032656949138632867 0 0.031815428055012772 -0.031861084193706236 0 0.032324347420543624 -0.033344418925845269 0 0.031815428055012772 -0.031861084193706236 0 0.032383110630285511 -0.030369704939142105 0 0.033742180273346217 -0.032364572607481504 0 0.031815428055012772 -0.031861084193706236 0 0.033742180273346217 -0.032364572607481504 0 0.032324347420543624 -0.033344418925845269 0 0.034020064240468169 -0.030038580592082077 0 0.032383110630285511 -0.030369704939142105 0 0.033742180273346217 -0.032364572607481504 0 0.034020064240468169 -0.030038580592082077 0 0.035512132368240502 -0.029225249913103171 0 0.035027029584385784 -0.031331072644569934 0 0.034020064240468169 -0.030038580592082077 0 0.035027029584385784 -0.031331072644569934 0 0.033742180273346217 -0.032364572607481504 0 0.035512132368240502 -0.029225249913103171 0 0.035027029584385784 -0.031331072644569934 0 0.036377446894384817 -0.030614226002914545 0 0.035027029584385784 -0.031331072644569934 0 0.036084036798682113 -0.032678354580852921 0 0.036377446894384817 -0.030614226002914545 0 0.035027029584385784 -0.031331072644569934 0 0.036084036798682113 -0.032678354580852921 0 0.033742180273346217 -0.032364572607481504 0 0.036084036798682113 -0.032678354580852921 0 0.033742180273346217 -0.032364572607481504 0 0.034825326359357964 -0.034008190926600214 0 0.033742180273346217 -0.032364572607481504 0 0.034825326359357964 -0.034008190926600214 0 0.0331906741456535 -0.034437268437152876 0 0.036084036798682113 -0.032678354580852921 0 0.036195394762282312 -0.034635158814345576 0 0.034825326359357964 -0.034008190926600214 0 0.036195394762282312 -0.034635158814345576 0 0.034825326359357964 -0.034008190926600214 0 0.03466740094837191 -0.035620061982388193 0 0.034825326359357964 -0.034008190926600214 0 0.0331906741456535 -0.034437268437152876 0 0.03466740094837191 -0.035620061982388193 0 0.0331906741456535 -0.034437268437152876 0 0.031018054975863379 -0.034031823480563009 0 0.031957629016035577 -0.035932824628975291 0 0.030691238355991791 -0.032656949138632867 0 0.031018054975863379 -0.034031823480563009 0 0.032324347420543624 -0.033344418925845269 0 0.0331906741456535 -0.034437268437152876 0 0.031018054975863379 -0.034031823480563009 0 0.032324347420543624 -0.033344418925845269 0 0.033742180273346217 -0.032364572607481504 0 0.0331906741456535 -0.034437268437152876 0 0.032324347420543624 -0.033344418925845269 0 0.039290324600817758 -0.032750147689230992 0 0.039799495328167823 -0.03400605522734175 0 0.038527575585144913 -0.034252928676409826 0 0.039290324600817758 -0.032750147689230992 0 0.041096123252844834 -0.032763007072584997 0 0.039799495328167823 -0.03400605522734175 0 0.041096123252844834 -0.032763007072584997 0 0.041035662146099702 -0.034440414301341871 0 0.042525069582010452 -0.034211871322780918 0 0.041096123252844834 -0.032763007072584997 0 0.041035662146099702 -0.034440414301341871 0 0.039799495328167823 -0.03400605522734175 0 0.041035662146099702 -0.034440414301341871 0 0.039878513357781926 -0.035071912999748649 0 0.041282192873705395 -0.035994608202412313 0 0.041035662146099702 -0.034440414301341871 0 0.042525069582010452 -0.034211871322780918 0 0.041282192873705395 -0.035994608202412313 0 0.039878513357781926 -0.035071912999748649 0 0.039799495328167823 -0.03400605522734175 0 0.038527575585144913 -0.034252928676409826 0 0.039878513357781926 -0.035071912999748649 0 0.038527575585144913 -0.034252928676409826 0 0.038708357793610655 -0.035490372775666149 0 0.041035662146099702 -0.034440414301341871 0 0.039878513357781926 -0.035071912999748649 0 0.039799495328167823 -0.03400605522734175 0 0.038527575585144913 -0.034252928676409826 0 0.037297342159561833 -0.033847470466050661 0 0.037485764230804082 -0.035619053031120326 0 0.038527575585144913 -0.034252928676409826 0 0.037485764230804082 -0.035619053031120326 0 0.038708357793610655 -0.035490372775666149 0 0.036195394762282312 -0.034635158814345576 0 0.037297342159561833 -0.033847470466050661 0 0.037485764230804082 -0.035619053031120326 0 0.036084036798682113 -0.032678354580852921 0 0.037297342159561833 -0.033847470466050661 0 0.037760948940926083 -0.032704522448375066 0 0.036084036798682113 -0.032678354580852921 0 0.036195394762282312 -0.034635158814345576 0 0.037297342159561833 -0.033847470466050661 0 0.038527575585144913 -0.034252928676409826 0 0.037297342159561833 -0.033847470466050661 0 0.037760948940926083 -0.032704522448375066 0 0.039290324600817758 -0.032750147689230992 0 0.038527575585144913 -0.034252928676409826 0 0.037760948940926083 -0.032704522448375066 0 0.039290324600817758 -0.032750147689230992 0 0.037760948940926083 -0.032704522448375066 0 0.03852872847813358 -0.031286868488502671 0 0.037760948940926083 -0.032704522448375066 0 0.037295783824950551 -0.031513098069174093 0 0.03852872847813358 -0.031286868488502671 0 0.036084036798682113 -0.032678354580852921 0 0.037760948940926083 -0.032704522448375066 0 0.037295783824950551 -0.031513098069174093 0 0.036084036798682113 -0.032678354580852921 0 0.037295783824950551 -0.031513098069174093 0 0.036377446894384817 -0.030614226002914545 0 0.037295783824950551 -0.031513098069174093 0 0.036377446894384817 -0.030614226002914545 0 0.037708207631342736 -0.030030614613299509 0 0.03852872847813358 -0.031286868488502671 0 0.039176087627914358 -0.029509015484200866 0 0.037708207631342736 -0.030030614613299509 0 0.037295783824950551 -0.031513098069174093 0 0.03852872847813358 -0.031286868488502671 0 0.037708207631342736 -0.030030614613299509 0 0.03852872847813358 -0.031286868488502671 0 0.040022622384463753 -0.031480056615757653 0 0.039176087627914358 -0.029509015484200866 0 0.040022622384463753 -0.031480056615757653 0 0.041242242049224241 -0.030280920014595203 0 0.039176087627914358 -0.029509015484200866 0 0.039290324600817758 -0.032750147689230992 0 0.041096123252844834 -0.032763007072584997 0 0.040022622384463753 -0.031480056615757653 0 0.039290324600817758 -0.032750147689230992 0 0.03852872847813358 -0.031286868488502671 0 0.040022622384463753 -0.031480056615757653 0 0.041096123252844834 -0.032763007072584997 0 0.040022622384463753 -0.031480056615757653 0 0.041242242049224241 -0.030280920014595203 0 0.041242242049224241 -0.030280920014595203 0 0.039176087627914358 -0.029509015484200866 0 0.041190567864844214 -0.027689296159904873 0 0.041242242049224241 -0.030280920014595203 0 0.041190567864844214 -0.027689296159904873 0 0.043019357194162569 -0.028945913534548645 0 0.039176087627914358 -0.029509015484200866 0 0.041190567864844214 -0.027689296159904873 0 0.038475866187187631 -0.027078243198390153 0 0.036377446894384817 -0.030614226002914545 0 0.037708207631342736 -0.030030614613299509 0 0.037047059672540079 -0.028652242950307362 0 0.039176087627914358 -0.029509015484200866 0 0.037708207631342736 -0.030030614613299509 0 0.037047059672540079 -0.028652242950307362 0 0.039176087627914358 -0.029509015484200866 0 0.037047059672540079 -0.028652242950307362 0 0.038475866187187631 -0.027078243198390153 0 0.036268665594022656 -0.02739787486111063 0 0.037047059672540079 -0.028652242950307362 0 0.038475866187187631 -0.027078243198390153 0 0.038475866187187631 -0.027078243198390153 0 0.036442061017915264 -0.025366132247376095 0 0.041306091819202806 -0.024515572199841757 0 0.041192771571838926 -0.033280865569918612 0 0.043926629747828606 -0.032728999762668042 0 0.036268665594022656 -0.02739787486111063 0 0.038475866187187631 -0.027078243198390153 0 0.036442061017915264 -0.025366132247376095 0 0.041190567864844214 -0.027689296159904873 0 0.038475866187187631 -0.027078243198390153 0 0.041306091819202806 -0.024515572199841757 0 0.047927312552883503 -0.041440237097337601 0 0.047845020760068989 -0.040640038866491826 0 0.046749403627265221 -0.040948920475126438 0 0.047845020760068989 -0.040640038866491826 0 0.047168065957745177 -0.040283823213577395 0 0.046749403627265221 -0.040948920475126438 0 0.047845020760068989 -0.040640038866491826 0 0.047659652920668823 -0.040110021925246472 0 0.0482245230801936 -0.040205630248019833 0 0.047845020760068989 -0.040640038866491826 0 0.047168065957745177 -0.040283823213577395 0 0.047659652920668823 -0.040110021925246472 0 0.046859225231217709 -0.039740774754951247 0 0.046815688986421689 -0.039717906035566929 0 0.047255595536443089 -0.039878611754188366 0 0.046815688986421689 -0.039717906035566929 0 0.047168065957745177 -0.040283823213577395 0 0.047659652920668823 -0.040110021925246472 0 0.04701257671917837 -0.040243989706345601 0 0.047659652920668823 -0.040110021925246472 0 0.047926068590382336 -0.039758211215742092 0 0.047292254587668558 -0.039922686425186517 0 0.047659652920668823 -0.040110021925246472 0 0.047292254587668558 -0.039922686425186517 0 0.047369855447413248 -0.040411074712518001 0 0.047659652920668823 -0.040110021925246472 0 0.047926068590382336 -0.039758211215742092 0 0.0482245230801936 -0.040205630248019833 0 0.047292254587668558 -0.039922686425186517 0 0.047369855447413248 -0.040411074712518001 0 0.046223740776220407 -0.04054567600124416 0 0.047292254587668558 -0.039922686425186517 0 0.046223740776220407 -0.04054567600124416 0 0.04689225027891214 -0.039669532034219385 0 0.046815688986421689 -0.039717906035566929 0 0.044561311729533391 -0.039173530322087792 0 0.046981804934009032 -0.040231480364125195 0 0.046749403627265221 -0.040948920475126438 0 0.044840493695581747 -0.041150185506696538 0 0.046874879719608728 -0.038897046226715914 0 0.042283189437743347 -0.041680370013606388 0 0.041765487223509395 -0.038409231442166972 0 0.04548196558267615 -0.041977901459418425 0 0.046749403627265221 -0.040948920475126438 0 0.044840493695581747 -0.041150185506696538 0 0.04548196558267615 -0.041977901459418425 0 0.047927312552883503 -0.041440237097337601 0 0.046749403627265221 -0.040948920475126438 0 0.046815688986421689 -0.039717906035566929 0 0.043881846006525921 -0.042070695063588494 0 0.047168065957745177 -0.040283823213577395 0 0.046981804934009032 -0.040231480364125195 0 0.046749403627265221 -0.040948920475126438 0 0.042283189437743347 -0.041680370013606388 0 0.038614152137504201 -0.040825505310105578 0 0.041765487223509395 -0.038409231442166972 0 0.03767263038512652 -0.044437701225675731 0 0.042283189437743347 -0.041680370013606388 0 0.038614152137504201 -0.040825505310105578 0 0.034707423435575056 -0.041646585040425621 0 0.03767263038512652 -0.044437701225675731 0 0.038614152137504201 -0.040825505310105578 0 0.036655104217513196 -0.03795012697404964 0 0.038614152137504201 -0.040825505310105578 0 0.041765487223509395 -0.038409231442166972 0 0.038244277171749372 -0.04256383559111436 0 0.044561311729533391 -0.039173530322087792 0 0.045216402978681833 -0.040539047389417326 0 0.046223740776220407 -0.04054567600124416 0 0.045551102143060594 -0.039979199431784219 0 0.038244277171749372 -0.04256383559111436 0 0.044536671168478509 -0.041678905596332735 0 0.046223740776220407 -0.04054567600124416 0 0.046134704682639777 -0.039877046102220488 0 0.045551102143060594 -0.039979199431784219 0 0.046223740776220407 -0.04054567600124416 0 0.046134704682639777 -0.039877046102220488 0 0.04689225027891214 -0.039669532034219385 0 0.046134704682639777 -0.039877046102220488 0 0.046502728766693764 -0.039288073099531792 0 0.04689225027891214 -0.039669532034219385 0 0.046134704682639777 -0.039877046102220488 0 0.045551102143060594 -0.039979199431784219 0 0.045544691833670548 -0.039830361846678 0 0.044536671168478509 -0.041678905596332735 0 0.045408381501379713 -0.040169095365371041 0 0.043633714612170874 -0.043887760520899238 0 0.042800369284304848 -0.040750248216187918 0 0.045544691833670548 -0.039830361846678 0 0.040041577381086692 -0.041393570158740234 0 0.043633714612170874 -0.043887760520899238 0 0.042800369284304848 -0.040750248216187918 0 0.042090923956602834 -0.038393568457216733 0 0.042800369284304848 -0.040750248216187918 0 0.045544691833670548 -0.039830361846678 0 0.045654951508805448 -0.038196117924275526 0 0.042090923956602834 -0.038393568457216733 0 0.045544691833670548 -0.039830361846678 0 0.046134704682639777 -0.039877046102220488 0 0.045544691833670548 -0.039830361846678 0 0.046502728766693764 -0.039288073099531792 0 0.045654951508805448 -0.038196117924275526 0 0.045544691833670548 -0.039830361846678 0 0.046502728766693764 -0.039288073099531792 0 0.046940102276770514 -0.038119540242555566 0 0.045654951508805448 -0.038196117924275526 0 0.046502728766693764 -0.039288073099531792 0 0.046940102276770514 -0.038119540242555566 0 0.046502728766693764 -0.039288073099531792 0 0.047214269178416639 -0.038905407119528612 0 0.04739563845288354 -0.038099974587927951 0 0.047214269178416639 -0.038905407119528612 0 0.047687958330096591 -0.038514002059713934 0 0.046502728766693764 -0.039288073099531792 0 0.047214269178416639 -0.038905407119528612 0 0.04689225027891214 -0.039669532034219385 0 0.047214269178416639 -0.038905407119528612 0 0.047687958330096591 -0.038514002059713934 0 0.047903152663115178 -0.039249334528794352 0 0.047687958330096591 -0.038514002059713934 0 0.047903152663115178 -0.039249334528794352 0 0.048344517571767713 -0.038423640467879661 0 0.047926068590382336 -0.039758211215742092 0 0.047903152663115178 -0.039249334528794352 0 0.048498034092382604 -0.039694658911296803 0 0.047926068590382336 -0.039758211215742092 0 0.047292254587668558 -0.039922686425186517 0 0.047903152663115178 -0.039249334528794352 0 0.047214269178416639 -0.038905407119528612 0 0.047903152663115178 -0.039249334528794352 0 0.04689225027891214 -0.039669532034219385 0 0.047292254587668558 -0.039922686425186517 0 0.047903152663115178 -0.039249334528794352 0 0.04689225027891214 -0.039669532034219385 0 0.049892717283140549 -0.039243137641482274 0 0.04944546494139665 -0.03817004313629898 0 0.050791842365807797 -0.038232387009291172 0 0.049892717283140549 -0.039243137641482274 0 0.048874458681564828 -0.038878125173404068 0 0.04944546494139665 -0.03817004313629898 0 0.049892717283140549 -0.039243137641482274 0 0.048874458681564828 -0.038878125173404068 0 0.048498034092382604 -0.039694658911296803 0 0.047903152663115178 -0.039249334528794352 0 0.048874458681564828 -0.038878125173404068 0 0.048498034092382604 -0.039694658911296803 0 0.047903152663115178 -0.039249334528794352 0 0.048874458681564828 -0.038878125173404068 0 0.048344517571767713 -0.038423640467879661 0 0.048577317833596041 -0.038059911708822287 0 0.048344517571767713 -0.038423640467879661 0 0.04944546494139665 -0.03817004313629898 0 0.048874458681564828 -0.038878125173404068 0 0.048344517571767713 -0.038423640467879661 0 0.04944546494139665 -0.03817004313629898 0 0.049969150827727161 -0.03753922318844586 0 0.050791842365807797 -0.038232387009291172 0 0.052713026743208199 -0.037753049250925291 0 0.049969150827727161 -0.03753922318844586 0 0.04944546494139665 -0.03817004313629898 0 0.050791842365807797 -0.038232387009291172 0 0.052665206667280758 -0.041092503167494555 0 0.054426312194685411 -0.039958280344903105 0 0.055336750428627075 -0.043637685854575566 0 0.055317109477809871 -0.044657240569168595 0 0.056184396864144989 -0.042157358772179528 0 0.052713026743208199 -0.037753049250925291 0 0.053748900933737166 -0.038818226418671463 0 0.05185997111801649 -0.038988104525142939 0 0.049892717283140549 -0.039243137641482274 0 0.050791842365807797 -0.038232387009291172 0 0.05185997111801649 -0.038988104525142939 0 0.050791842365807797 -0.038232387009291172 0 0.052713026743208199 -0.037753049250925291 0 0.05185997111801649 -0.038988104525142939 0 0.05185997111801649 -0.038988104525142939 0 0.051158465878175047 -0.040601627783257252 0 0.053326646365220109 -0.041408038294678734 0 0.049892717283140549 -0.039243137641482274 0 0.05185997111801649 -0.038988104525142939 0 0.05037184880668473 -0.039911619752988695 0 0.05185997111801649 -0.038988104525142939 0 0.051158465878175047 -0.040601627783257252 0 0.05037184880668473 -0.039911619752988695 0 0.05185997111801649 -0.038988104525142939 0 0.053326646365220109 -0.041408038294678734 0 0.059410410077453242 -0.038207877848907543 0 0.053748900933737166 -0.038818226418671463 0 0.05185997111801649 -0.038988104525142939 0 0.05538174360587194 -0.039635177890451921 0 0.052453127306934619 -0.038842062379769032 0 0.057195818657794377 -0.038908485389494853 0 0.058003999475772776 -0.039562599865811343 0 0.059036508844008344 -0.038514786403409967 0 0.053326646365220109 -0.041408038294678734 0 0.059368521215789095 -0.03829668670883439 0 0.059410410077453242 -0.038207877848907543 0 0.060706538905973814 -0.036558429036256328 0 0.062356453403798799 -0.037292270324603922 0 0.061876166538002687 -0.035137764933106032 0 0.060706538905973814 -0.036558429036256328 0 0.062356453403798799 -0.037292270324603922 0 0.059368521215789095 -0.03829668670883439 0 0.058003999475772776 -0.039562599865811343 0 0.055753323451453021 -0.034717137343177558 0 0.055753323451453021 -0.034717137343177558 0 0.063585927472239956 -0.034220445455500507 0 0.063413239616019829 -0.036517381975840459 0 0.062356453403798799 -0.037292270324603922 0 0.061876166538002687 -0.035137764933106032 0 0.063413239616019829 -0.036517381975840459 0 0.06469867053900849 -0.036678937632672791 0 0.061876166538002687 -0.035137764933106032 0 0.051158465878175047 -0.040601627783257252 0 0.053326646365220109 -0.041408038294678734 0 0.049577120386619065 -0.042082888791842576 0 0.063413239616019829 -0.036517381975840459 0 0.062356453403798799 -0.037292270324603922 0 0.06469867053900849 -0.036678937632672791 0 0.049477980417090207 -0.040833134425355695 0 0.049825673941103224 -0.040710633682058545 0 0.048836438374719321 -0.04058698728511051 0 0.051250815853446409 -0.035202889079101699 0 0.055753323451453021 -0.034717137343177558 0 0.046597408473491128 -0.023907098737415072 0 0.046865651776939785 -0.024051690313509198 0 0.044226919239636793 -0.026128821918695883 0 0.051250815853446409 -0.035202889079101699 0 0.049455843148836734 -0.040325885657543754 0 0.049477980417090207 -0.040833134425355695 0 0.049415867182102266 -0.040803360957431936 0 0.049825673941103224 -0.040710633682058545 0 0.051158465878175047 -0.040601627783257252 0 0.049577120386619065 -0.042082888791842576 0 0.049825673941103224 -0.040710633682058545 0 0.055753323451453021 -0.034717137343177558 0 0.052435700860121844 -0.041019063560361231 0 0.049825673941103224 -0.040710633682058545 0 0.049338994165410668 -0.040039769573582525 0 0.048836438374719321 -0.04058698728511051 0 0.049892717283140549 -0.039243137641482274 0 0.049338994165410668 -0.040039769573582525 0 0.048498034092382604 -0.039694658911296803 0 0.049825673941103224 -0.040710633682058545 0 0.05037184880668473 -0.039911619752988695 0 0.049338994165410668 -0.040039769573582525 0 0.051158465878175047 -0.040601627783257252 0 0.049825673941103224 -0.040710633682058545 0 0.05037184880668473 -0.039911619752988695 0 0.049892717283140549 -0.039243137641482274 0 0.05037184880668473 -0.039911619752988695 0 0.049338994165410668 -0.040039769573582525 0 0.047926068590382336 -0.039758211215742092 0 0.048498034092382604 -0.039694658911296803 0 0.0482245230801936 -0.040205630248019833 0 0.049338994165410668 -0.040039769573582525 0 0.048498034092382604 -0.039694658911296803 0 0.048836438374719321 -0.04058698728511051 0 0.048498034092382604 -0.039694658911296803 0 0.0482245230801936 -0.040205630248019833 0 0.048836438374719321 -0.04058698728511051 0 0.047845020760068989 -0.040640038866491826 0 0.0482245230801936 -0.040205630248019833 0 0.048836438374719321 -0.04058698728511051 0 0.047927312552883503 -0.041440237097337601 0 0.049737509508454202 -0.040973424616320614 0 0.048836438374719321 -0.04058698728511051 0 0.041306091819202806 -0.024515572199841757 0 0.046597408473491128 -0.023907098737415072 0 0.044226919239636793 -0.026128821918695883 0 0.047927312552883503 -0.041440237097337601 0 0.047845020760068989 -0.040640038866491826 0 0.048836438374719321 -0.04058698728511051 0 0.043926629747828606 -0.032728999762668042 0 0.051250815853446409 -0.035202889079101699 0 0.041190567864844214 -0.027689296159904873 0 0.044226919239636793 -0.026128821918695883 0 0.043019357194162569 -0.028945913534548645 0 0.041190567864844214 -0.027689296159904873 0 0.041306091819202806 -0.024515572199841757 0 0.044226919239636793 -0.026128821918695883 0 0.06362834964158913 -0.033488308176231302 0 0.064059786856601755 -0.031182979505594722 0 0.063098931267221658 -0.032234687978799755 0 0.046865651776939785 -0.024051690313509198 0 0.044226919239636793 -0.026128821918695883 0 0.045470255626922348 -0.028754950160982902 0 0.055753323451453021 -0.034717137343177558 0 0.054905110280795776 -0.028457118424541222 0 0.064059786856601755 -0.031182979505594722 0 0.063248403099295289 -0.030261331162644043 0 0.063098931267221658 -0.032234687978799755 0 0.045470255626922348 -0.028754950160982902 0 0.043019357194162569 -0.028945913534548645 0 0.042962907838008248 -0.031392614918397357 0 0.044226919239636793 -0.026128821918695883 0 0.045470255626922348 -0.028754950160982902 0 0.043019357194162569 -0.028945913534548645 0 0.041242242049224241 -0.030280920014595203 0 0.043019357194162569 -0.028945913534548645 0 0.042962907838008248 -0.031392614918397357 0 0.045470255626922348 -0.028754950160982902 0 0.042962907838008248 -0.031392614918397357 0 0.044415881482973173 -0.033377752333299912 0 0.041096123252844834 -0.032763007072584997 0 0.041242242049224241 -0.030280920014595203 0 0.042962907838008248 -0.031392614918397357 0 0.064350380698611376 -0.028801323520271972 0 0.062993756481537086 -0.029178764938063113 0 0.063248403099295289 -0.030261331162644043 0 0.054905110280795776 -0.028457118424541222 0 0.053566801898883701 -0.03196700773165638 0 0.064059786856601755 -0.031182979505594722 0 0.064350380698611376 -0.028801323520271972 0 0.063248403099295289 -0.030261331162644043 0 0.064350380698611376 -0.028801323520271972 0 0.063210358722552887 -0.028280093889780904 0 0.063836985614911301 -0.027909966646241399 0 0.064350380698611376 -0.028801323520271972 0 0.063210358722552887 -0.028280093889780904 0 0.062993756481537086 -0.029178764938063113 0 0.042962907838008248 -0.031392614918397357 0 0.044415881482973173 -0.033377752333299912 0 0.042525069582010452 -0.034211871322780918 0 0.041096123252844834 -0.032763007072584997 0 0.042962907838008248 -0.031392614918397357 0 0.042525069582010452 -0.034211871322780918 0 0.044415881482973173 -0.033377752333299912 0 0.042525069582010452 -0.034211871322780918 0 0.042811485145370233 -0.035780071779209596 0 0.061978689341821103 -0.02868831584697553 0 0.060566047546402657 -0.029404319322377657 0 0.061254733248536794 -0.026749009041715011 0 0.061978689341821103 -0.02868831584697553 0 0.063210358722552887 -0.028280093889780904 0 0.062258240745123282 -0.027452325481040287 0 0.061978689341821103 -0.02868831584697553 0 0.063210358722552887 -0.028280093889780904 0 0.062993756481537086 -0.029178764938063113 0 0.062993756481537086 -0.029178764938063113 0 0.063248403099295289 -0.030261331162644043 0 0.062028825123916519 -0.030661600022424965 0 0.061978689341821103 -0.02868831584697553 0 0.062993756481537086 -0.029178764938063113 0 0.062028825123916519 -0.030661600022424965 0 0.061978689341821103 -0.02868831584697553 0 0.062028825123916519 -0.030661600022424965 0 0.060566047546402657 -0.029404319322377657 0 0.062028825123916519 -0.030661600022424965 0 0.061776662369691537 -0.032556776217986763 0 0.059756269286285565 -0.031755161842997599 0 0.063248403099295289 -0.030261331162644043 0 0.062028825123916519 -0.030661600022424965 0 0.063098931267221658 -0.032234687978799755 0 0.06362834964158913 -0.033488308176231302 0 0.063098931267221658 -0.032234687978799755 0 0.061776662369691537 -0.032556776217986763 0 0.062028825123916519 -0.030661600022424965 0 0.063098931267221658 -0.032234687978799755 0 0.061776662369691537 -0.032556776217986763 0 0.060706538905973814 -0.036558429036256328 0 0.061876166538002687 -0.035137764933106032 0 0.059817290667828336 -0.035463908533960739 0 0.061876166538002687 -0.035137764933106032 0 0.059817290667828336 -0.035463908533960739 0 0.059259236263996554 -0.033329485395286455 0 0.063585927472239956 -0.034220445455500507 0 0.059046867008192776 -0.032353761690965765 0 0.059817290667828336 -0.035463908533960739 0 0.059259236263996554 -0.033329485395286455 0 0.057353195056208443 -0.035891221289110431 0 0.059259236263996554 -0.033329485395286455 0 0.05687920458924578 -0.033496562622894917 0 0.057353195056208443 -0.035891221289110431 0 0.059756269286285565 -0.031755161842997599 0 0.05907468788151625 -0.030137921652732554 0 0.057301268879939034 -0.031081483265508282 0 0.059046867008192776 -0.032353761690965765 0 0.057488707753673575 -0.031220746637032771 0 0.059259236263996554 -0.033329485395286455 0 0.057301268879939034 -0.031081483265508282 0 0.05687920458924578 -0.033496562622894917 0 0.062028825123916519 -0.030661600022424965 0 0.059756269286285565 -0.031755161842997599 0 0.060566047546402657 -0.029404319322377657 0 0.059756269286285565 -0.031755161842997599 0 0.060566047546402657 -0.029404319322377657 0 0.05907468788151625 -0.030137921652732554 0 0.05907468788151625 -0.030137921652732554 0 0.058529504718017392 -0.028141002251664455 0 0.057301268879939034 -0.031081483265508282 0 0.060566047546402657 -0.029404319322377657 0 0.05907468788151625 -0.030137921652732554 0 0.058529504718017392 -0.028141002251664455 0 0.060566047546402657 -0.029404319322377657 0 0.058529504718017392 -0.028141002251664455 0 0.061254733248536794 -0.026749009041715011 0 0.058529504718017392 -0.028141002251664455 0 0.054999459369575773 -0.031479074802909755 0 0.057351568739338193 -0.025745645142582381 0 0.058529504718017392 -0.028141002251664455 0 0.054999459369575773 -0.031479074802909755 0 0.057301268879939034 -0.031081483265508282 0 0.054999459369575773 -0.031479074802909755 0 0.057301268879939034 -0.031081483265508282 0 0.05687920458924578 -0.033496562622894917 0 0.05687920458924578 -0.033496562622894917 0 0.055232712098430913 -0.034147473512917692 0 0.057353195056208443 -0.035891221289110431 0 0.054999459369575773 -0.031479074802909755 0 0.05687920458924578 -0.033496562622894917 0 0.055232712098430913 -0.034147473512917692 0 0.05499309666663791 -0.041810465524599286 0 0.054999459369575773 -0.031479074802909755 0 0.055232712098430913 -0.034147473512917692 0 0.05499309666663791 -0.041810465524599286 0 0.055232712098430913 -0.034147473512917692 0 0.055619193103187865 -0.039281221312021108 0 0.055232712098430913 -0.034147473512917692 0 0.056056291325255685 -0.037062863150294938 0 0.055619193103187865 -0.039281221312021108 0 0.055164997524508923 -0.034392752949920675 0 0.056642280567102236 -0.036440466054073015 0 0.056642280567102236 -0.036440466054073015 0 0.057195818657794377 -0.038908485389494853 0 0.057353195056208443 -0.035891221289110431 0 0.059671653490745123 -0.036742004599881008 0 0.059368521215789095 -0.03829668670883439 0 0.057353195056208443 -0.035891221289110431 0 0.059368521215789095 -0.03829668670883439 0 0.059410410077453242 -0.038207877848907543 0 0.059817290667828336 -0.035463908533960739 0 0.057353195056208443 -0.035891221289110431 0 0.059671653490745123 -0.036742004599881008 0 0.060706538905973814 -0.036558429036256328 0 0.059817290667828336 -0.035463908533960739 0 0.059671653490745123 -0.036742004599881008 0 0.060706538905973814 -0.036558429036256328 0 0.059671653490745123 -0.036742004599881008 0 0.059368521215789095 -0.03829668670883439 0 0.053748900933737166 -0.038818226418671463 0 0.05538174360587194 -0.039635177890451921 0 0.055821983916615206 -0.039266593838367912 0 0.056056291325255685 -0.037062863150294938 0 0.05538174360587194 -0.039635177890451921 0 0.055821983916615206 -0.039266593838367912 0 0.056056291325255685 -0.037062863150294938 0 0.055821983916615206 -0.039266593838367912 0 0.055619193103187865 -0.039281221312021108 0 0.055821983916615206 -0.039266593838367912 0 0.055605624677462898 -0.041216509847960811 0 0.055619193103187865 -0.039281221312021108 0 0.055605624677462898 -0.041216509847960811 0 0.055234519646715982 -0.042086710667583974 0 0.055619193103187865 -0.039281221312021108 0 0.056184396864144989 -0.042157358772179528 0 0.055821983916615206 -0.039266593838367912 0 0.055605624677462898 -0.041216509847960811 0 0.054426312194685411 -0.039958280344903105 0 0.05564304660433593 -0.039389162982014579 0 0.052713026743208199 -0.037753049250925291 0 0.053748900933737166 -0.038818226418671463 0 0.055821983916615206 -0.039266593838367912 0 0.055336750428627075 -0.043637685854575566 0 0.055605624677462898 -0.041216509847960811 0 0.055234519646715982 -0.042086710667583974 0 0.055336750428627075 -0.043637685854575566 0 0.056184396864144989 -0.042157358772179528 0 0.055605624677462898 -0.041216509847960811 0 0.05499309666663791 -0.041810465524599286 0 0.055234519646715982 -0.042086710667583974 0 0.055619193103187865 -0.039281221312021108 0 0.056441285114349898 -0.017112127241299763 0 0.054999922649374658 -0.014950356674289305 0 0.054999450020155452 -0.024070315378601111 0 0.05587127746478663 -0.016498921640406786 0 0.056966328544067461 -0.015343682057797257 0 0.05732512350274168 -0.016375137121547197 0 0.05587127746478663 -0.016498921640406786 0 0.056966328544067461 -0.015343682057797257 0 0.05611399953014775 -0.014612859799585778 0 0.056149829371037255 -0.016807697999277341 0 0.055000232195433187 -0.014950168822981951 0 0.05587127746478663 -0.016498921640406786 0 0.054999813376953068 -0.014948625803927171 0 0.05611399953014775 -0.014612859799585778 0 0.054999813376953068 -0.014948625803927171 0 0.054999905410788225 -0.014469077054118887 0 0.05611399953014775 -0.014612859799585778 0 0.054999905410788225 -0.014469077054118887 0 0.05611399953014775 -0.014612859799585778 0 0.056622111724391209 -0.013334150737883075 0 0.056966328544067461 -0.015343682057797257 0 0.05611399953014775 -0.014612859799585778 0 0.057382691146118707 -0.014239384691690119 0 0.057382691146118707 -0.014239384691690119 0 0.058601104681180259 -0.014312320828710123 0 0.058316112347701135 -0.015531445893202354 0 0.056966328544067461 -0.015343682057797257 0 0.057382691146118707 -0.014239384691690119 0 0.058316112347701135 -0.015531445893202354 0 0.058316112347701135 -0.015531445893202354 0 0.06034160444913593 -0.015900299125645442 0 0.059880673574515916 -0.014522385250768672 0 0.058601104681180259 -0.014312320828710123 0 0.058316112347701135 -0.015531445893202354 0 0.059880673574515916 -0.014522385250768672 0 0.058316112347701135 -0.015531445893202354 0 0.0588840417620956 -0.016883397887077 0 0.06034160444913593 -0.015900299125645442 0 0.056966328544067461 -0.015343682057797257 0 0.058316112347701135 -0.015531445893202354 0 0.05732512350274168 -0.016375137121547197 0 0.058316112347701135 -0.015531445893202354 0 0.05732512350274168 -0.016375137121547197 0 0.0588840417620956 -0.016883397887077 0 0.05732512350274168 -0.016375137121547197 0 0.058041909208340778 -0.017750863759954303 0 0.0588840417620956 -0.016883397887077 0 0.05732512350274168 -0.016375137121547197 0 0.058041909208340778 -0.017750863759954303 0 0.056990923805519393 -0.017219648257381596 0 0.058041909208340778 -0.017750863759954303 0 0.056849204493890838 -0.018298176366840901 0 0.056990923805519393 -0.017219648257381596 0 0.058041909208340778 -0.017750863759954303 0 0.0588840417620956 -0.016883397887077 0 0.058974619033244018 -0.018037772347675476 0 0.0588840417620956 -0.016883397887077 0 0.058974619033244018 -0.018037772347675476 0 0.059993917968428789 -0.017463806998254172 0 0.058974619033244018 -0.018037772347675476 0 0.059833451631085284 -0.018889957435119939 0 0.059993917968428789 -0.017463806998254172 0 0.057890378129938871 -0.019240611695955239 0 0.058923052341978852 -0.021270937181784865 0 0.06143299159233432 -0.020330142733777097 0 0.058974619033244018 -0.018037772347675476 0 0.057890378129938871 -0.019240611695955239 0 0.059833451631085284 -0.018889957435119939 0 0.05810166534834274 -0.019244550495152078 0 0.060249299396505418 -0.019651085530850793 0 0.057367883494432594 -0.018836842695228756 0 0.058821511788044935 -0.021068322635762131 0 0.058041909208340778 -0.017750863759954303 0 0.058974619033244018 -0.018037772347675476 0 0.057890378129938871 -0.019240611695955239 0 0.057890378129938871 -0.019240611695955239 0 0.056849204493890838 -0.018298176366840901 0 0.058923052341978852 -0.021270937181784865 0 0.058041909208340778 -0.017750863759954303 0 0.057890378129938871 -0.019240611695955239 0 0.056849204493890838 -0.018298176366840901 0 0.057810131466389088 -0.01927638360041381 0 0.057193572073437796 -0.02100790896276708 0 0.058923052341978852 -0.021270937181784865 0 0.056441285114349898 -0.017112127241299763 0 0.057810131466389088 -0.01927638360041381 0 0.057193572073437796 -0.02100790896276708 0 0.05587127746478663 -0.016498921640406786 0 0.05732512350274168 -0.016375137121547197 0 0.056990923805519393 -0.017219648257381596 0 0.056149829371037255 -0.016807697999277341 0 0.057367883494432594 -0.018836842695228756 0 0.05587127746478663 -0.016498921640406786 0 0.056849204493890838 -0.018298176366840901 0 0.056990923805519393 -0.017219648257381596 0 0.054999459369575773 -0.031479074802909755 0 0.054999450020155452 -0.024070315378601111 0 0.057351568739338193 -0.025745645142582381 0 0.056441285114349898 -0.017112127241299763 0 0.057193572073437796 -0.02100790896276708 0 0.054999450020155452 -0.024070315378601111 0 0.057193572073437796 -0.02100790896276708 0 0.057636925450321473 -0.023246045920814508 0 0.058923052341978852 -0.021270937181784865 0 0.057193572073437796 -0.02100790896276708 0 0.057636925450321473 -0.023246045920814508 0 0.054999450020155452 -0.024070315378601111 0 0.057636925450321473 -0.023246045920814508 0 0.054999450020155452 -0.024070315378601111 0 0.057351568739338193 -0.025745645142582381 0 0.058529504718017392 -0.028141002251664455 0 0.059374605141246116 -0.024361876199498676 0 0.061254733248536794 -0.026749009041715011 0 0.058529504718017392 -0.028141002251664455 0 0.057351568739338193 -0.025745645142582381 0 0.059374605141246116 -0.024361876199498676 0 0.057636925450321473 -0.023246045920814508 0 0.057351568739338193 -0.025745645142582381 0 0.059374605141246116 -0.024361876199498676 0 0.059374605141246116 -0.024361876199498676 0 0.061893482323613573 -0.023712960568782013 0 0.061254733248536794 -0.026749009041715011 0 0.059374605141246116 -0.024361876199498676 0 0.060790031028972083 -0.022308509540827397 0 0.061893482323613573 -0.023712960568782013 0 0.059374605141246116 -0.024361876199498676 0 0.058923052341978852 -0.021270937181784865 0 0.060790031028972083 -0.022308509540827397 0 0.057636925450321473 -0.023246045920814508 0 0.059374605141246116 -0.024361876199498676 0 0.058923052341978852 -0.021270937181784865 0 0.058923052341978852 -0.021270937181784865 0 0.060790031028972083 -0.022308509540827397 0 0.06143299159233432 -0.020330142733777097 0 0.06244938615985722 -0.022033727108133134 0 0.064268244293834723 -0.020982765006283564 0 0.06143299159233432 -0.020330142733777097 0 0.060790031028972083 -0.022308509540827397 0 0.06244938615985722 -0.022033727108133134 0 0.06143299159233432 -0.020330142733777097 0 0.06244938615985722 -0.022033727108133134 0 0.064268244293834723 -0.020982765006283564 0 0.063748674829109009 -0.022890284197228217 0 0.063748674829109009 -0.022890284197228217 0 0.061893482323613573 -0.023712960568782013 0 0.063250022095175717 -0.024623272902430795 0 0.063748674829109009 -0.022890284197228217 0 0.063250022095175717 -0.024623272902430795 0 0.064959276868440857 -0.024157648600242661 0 0.06244938615985722 -0.022033727108133134 0 0.063748674829109009 -0.022890284197228217 0 0.061893482323613573 -0.023712960568782013 0 0.060790031028972083 -0.022308509540827397 0 0.06244938615985722 -0.022033727108133134 0 0.061893482323613573 -0.023712960568782013 0 0.061893482323613573 -0.023712960568782013 0 0.063250022095175717 -0.024623272902430795 0 0.061254733248536794 -0.026749009041715011 0 0.063250022095175717 -0.024623272902430795 0 0.064050918481112287 -0.02597291739954885 0 0.061254733248536794 -0.026749009041715011 0 0.063250022095175717 -0.024623272902430795 0 0.064050918481112287 -0.02597291739954885 0 0.064959276868440857 -0.024157648600242661 0 0.063000530419083739 -0.026931568646606188 0 0.063262360303256701 -0.027548356292086559 0 0.062258240745123282 -0.027452325481040287 0 0.063210358722552887 -0.028280093889780904 0 0.063262360303256701 -0.027548356292086559 0 0.062258240745123282 -0.027452325481040287 0 0.061978689341821103 -0.02868831584697553 0 0.062258240745123282 -0.027452325481040287 0 0.061254733248536794 -0.026749009041715011 0 0.063000530419083739 -0.026931568646606188 0 0.062258240745123282 -0.027452325481040287 0 0.061254733248536794 -0.026749009041715011 0 0.064754118899352162 -0.025982098498784092 0 0.060813901932463915 -0.026926693654433845 0 0.053566801898883701 -0.03196700773165638 0 0.059191253770753412 -0.030300925016846166 0 0.044415881482973173 -0.033377752333299912 0 0.042811485145370233 -0.035780071779209596 0 0.043588387899059208 -0.038181861141335503 0 0.042203679123817998 -0.037245653336695959 0 0.042811485145370233 -0.035780071779209596 0 0.043588387899059208 -0.038181861141335503 0 0.042203679123817998 -0.037245653336695959 0 0.041441892183787916 -0.038068942274472155 0 0.041185801794692868 -0.037292607134140107 0 0.042525069582010452 -0.034211871322780918 0 0.042811485145370233 -0.035780071779209596 0 0.041282192873705395 -0.035994608202412313 0 0.042203679123817998 -0.037245653336695959 0 0.042811485145370233 -0.035780071779209596 0 0.041282192873705395 -0.035994608202412313 0 0.065327499210877271 -0.026135740914398572 0 0.059191253770753412 -0.030300925016846166 0 0.063000530419083739 -0.026931568646606188 0 0.063262360303256701 -0.027548356292086559 0 0.064254588470537929 -0.026855767334208254 0 0.064350380698611376 -0.028801323520271972 0 0.063836985614911301 -0.027909966646241399 0 0.064447790086620882 -0.02680970537922513 0 0.065446290272654903 -0.026136962672361638 0 0.059191253770753412 -0.030300925016846166 0 0.063262360303256701 -0.027548356292086559 0 0.063836985614911301 -0.027909966646241399 0 0.064489743073076783 -0.026888306437043513 0 0.063210358722552887 -0.028280093889780904 0 0.063262360303256701 -0.027548356292086559 0 0.063836985614911301 -0.027909966646241399 0 0.064050918481112287 -0.02597291739954885 0 0.066704896702735592 -0.025312562389314525 0 0.064959276868440857 -0.024157648600242661 0 0.066704896702735592 -0.025312562389314525 0 0.06603531549667635 -0.024036261414714818 0 0.064959276868440857 -0.024157648600242661 0 0.064754118899352162 -0.025982098498784092 0 0.060248271667414192 -0.028596859492240771 0 0.063000530419083739 -0.026931568646606188 0 0.064341208925475429 -0.026730675983705269 0 0.064254588470537929 -0.026855767334208254 0 0.053946941017088849 -0.030641610495924034 0 0.052012489438624472 -0.031062030153127893 0 0.049550118496964009 -0.037147636611632229 0 0.066704896702735592 -0.025312562389314525 0 0.066855407710929474 -0.023459338170499711 0 0.06603531549667635 -0.024036261414714818 0 0.060248271667414192 -0.028596859492240771 0 0.062530188676273246 -0.02571547508940172 0 0.060248271667414192 -0.028596859492240771 0 0.049929202841810787 -0.034131750159562158 0 0.057752589346906344 -0.031542418229850017 0 0.059648149595409969 -0.02872915419049785 0 0.052039420555808083 -0.032773953864167753 0 0.059191253770753412 -0.030300925016846166 0 0.049437673309523492 -0.033689803463111741 0 0.060248271667414192 -0.028596859492240771 0 0.059191253770753412 -0.030300925016846166 0 0.042203679123817998 -0.037245653336695959 0 0.043588387899059208 -0.038181861141335503 0 0.04241647940921639 -0.038063207853444442 0 0.042203679123817998 -0.037245653336695959 0 0.04241647940921639 -0.038063207853444442 0 0.041441892183787916 -0.038068942274472155 0 0.04241647940921639 -0.038063207853444442 0 0.042389554105369667 -0.038864100907980058 0 0.041441892183787916 -0.038068942274472155 0 0.043588387899059208 -0.038181861141335503 0 0.04241647940921639 -0.038063207853444442 0 0.042389554105369667 -0.038864100907980058 0 0.060248271667414192 -0.028596859492240771 0 0.049437673309523492 -0.033689803463111741 0 0.057636314526099443 -0.029553710512969986 0 0.057709949684625055 -0.02837532752644641 0 0.058396865967041689 -0.028373255326377772 0 0.066855407710929474 -0.023459338170499711 0 0.06603531549667635 -0.024036261414714818 0 0.065544213344810934 -0.022176064001840218 0 0.057709949684625055 -0.02837532752644641 0 0.057911804893328526 -0.027023587636602574 0 0.058396865967041689 -0.028373255326377772 0 0.06603531549667635 -0.024036261414714818 0 0.064959276868440857 -0.024157648600242661 0 0.065544213344810934 -0.022176064001840218 0 0.063748674829109009 -0.022890284197228217 0 0.064959276868440857 -0.024157648600242661 0 0.065544213344810934 -0.022176064001840218 0 0.06172847544832924 -0.019072879644816632 0 0.063601517974598676 -0.019361853578299969 0 0.06266405315532235 -0.018749299568356637 0 0.064268244293834723 -0.020982765006283564 0 0.065544213344810934 -0.022176064001840218 0 0.067126710753155142 -0.02148066788736681 0 0.064328422610053462 -0.01958175452469799 0 0.059421739357155598 -0.024057280884080916 0 0.064268244293834723 -0.020982765006283564 0 0.063748674829109009 -0.022890284197228217 0 0.065544213344810934 -0.022176064001840218 0 0.059421739357155598 -0.024057280884080916 0 0.049929202841810787 -0.034131750159562158 0 0.066855407710929474 -0.023459338170499711 0 0.065544213344810934 -0.022176064001840218 0 0.067126710753155142 -0.02148066788736681 0 0.062530188676273246 -0.02571547508940172 0 0.059421739357155598 -0.024057280884080916 0 0.06337750010768485 -0.019682891280224307 0 0.062807600108453501 -0.018211090839912202 0 0.063629401527891913 -0.018206909109823623 0 0.063601517974598676 -0.019361853578299969 0 0.06306681517620516 -0.018116145565177374 0 0.06266405315532235 -0.018749299568356637 0 0.059421739357155598 -0.024057280884080916 0 0.062959707393682757 -0.017621956421794548 0 0.059421739357155598 -0.024057280884080916 0 0.056206123974130447 -0.023687150081039721 0 0.063629401527891913 -0.018206909109823623 0 0.06313946661504434 -0.017458951469929398 0 0.063739586723258398 -0.016985764956917004 0 0.06313946661504434 -0.017458951469929398 0 0.062499070143100709 -0.016904232376379551 0 0.063739586723258398 -0.016985764956917004 0 0.062807600108453501 -0.018211090839912202 0 0.06313946661504434 -0.017458951469929398 0 0.062499070143100709 -0.016904232376379551 0 0.056206123974130447 -0.023687150081039721 0 0.055449156746018809 -0.019340274241492244 0 0.062807600108453501 -0.018211090839912202 0 0.063629401527891913 -0.018206909109823623 0 0.06313946661504434 -0.017458951469929398 0 0.062959707393682757 -0.017621956421794548 0 0.062586203936747201 -0.017218036962304201 0 0.06306681517620516 -0.018116145565177374 0 0.062297970826271531 -0.01771368666923535 0 0.062499070143100709 -0.016904232376379551 0 0.062297970826271531 -0.01771368666923535 0 0.061754831144785957 -0.017004877051772126 0 0.062499070143100709 -0.016904232376379551 0 0.062297970826271531 -0.01771368666923535 0 0.062318606960292983 -0.018446222262764961 0 0.061251834790307207 -0.017871175011263323 0 0.06306681517620516 -0.018116145565177374 0 0.062297970826271531 -0.01771368666923535 0 0.062318606960292983 -0.018446222262764961 0 0.06306681517620516 -0.018116145565177374 0 0.062318606960292983 -0.018446222262764961 0 0.06266405315532235 -0.018749299568356637 0 0.06172847544832924 -0.019072879644816632 0 0.062318606960292983 -0.018446222262764961 0 0.06266405315532235 -0.018749299568356637 0 0.06172847544832924 -0.019072879644816632 0 0.062318606960292983 -0.018446222262764961 0 0.061251834790307207 -0.017871175011263323 0 0.06172847544832924 -0.019072879644816632 0 0.059833451631085284 -0.018889957435119939 0 0.061251834790307207 -0.017871175011263323 0 0.059833451631085284 -0.018889957435119939 0 0.059993917968428789 -0.017463806998254172 0 0.061251834790307207 -0.017871175011263323 0 0.064328422610053462 -0.01958175452469799 0 0.060249299396505418 -0.019651085530850793 0 0.059993917968428789 -0.017463806998254172 0 0.061251834790307207 -0.017871175011263323 0 0.06034160444913593 -0.015900299125645442 0 0.0588840417620956 -0.016883397887077 0 0.059993917968428789 -0.017463806998254172 0 0.06034160444913593 -0.015900299125645442 0 0.062297970826271531 -0.01771368666923535 0 0.061251834790307207 -0.017871175011263323 0 0.061754831144785957 -0.017004877051772126 0 0.061251834790307207 -0.017871175011263323 0 0.061754831144785957 -0.017004877051772126 0 0.06034160444913593 -0.015900299125645442 0 0.061754831144785957 -0.017004877051772126 0 0.06034160444913593 -0.015900299125645442 0 0.062213021249719884 -0.016558916669315225 0 0.059616163943194349 -0.015914225021318427 0 0.063924066534504026 -0.015964379556024911 0 0.061543746267279716 -0.015324540955039939 0 0.06034160444913593 -0.015900299125645442 0 0.061995453480144978 -0.015828225186326712 0 0.061543746267279716 -0.015324540955039939 0 0.06034160444913593 -0.015900299125645442 0 0.060985800566937233 -0.014858209864407146 0 0.06034160444913593 -0.015900299125645442 0 0.059880673574515916 -0.014522385250768672 0 0.060985800566937233 -0.014858209864407146 0 0.059880673574515916 -0.014522385250768672 0 0.060985800566937233 -0.014858209864407146 0 0.061269716616732584 -0.013803306945475364 0 0.060985800566937233 -0.014858209864407146 0 0.06198088498653552 -0.01477593794433619 0 0.061269716616732584 -0.013803306945475364 0 0.061543746267279716 -0.015324540955039939 0 0.060985800566937233 -0.014858209864407146 0 0.06198088498653552 -0.01477593794433619 0 0.06198088498653552 -0.01477593794433619 0 0.062620800750141384 -0.014006157991804496 0 0.061269716616732584 -0.013803306945475364 0 0.061543746267279716 -0.015324540955039939 0 0.06198088498653552 -0.01477593794433619 0 0.062344931473603961 -0.015309251157086787 0 0.06198088498653552 -0.01477593794433619 0 0.062902788978207336 -0.014921187745565964 0 0.062344931473603961 -0.015309251157086787 0 0.06198088498653552 -0.01477593794433619 0 0.062902788978207336 -0.014921187745565964 0 0.062620800750141384 -0.014006157991804496 0 0.062902788978207336 -0.014921187745565964 0 0.063566459848041698 -0.016099634719643586 0 0.063897599509988245 -0.014306933808687309 0 0.062902788978207336 -0.014921187745565964 0 0.063897599509988245 -0.014306933808687309 0 0.062620800750141384 -0.014006157991804496 0 0.063924066534504026 -0.015964379556024911 0 0.055449156746018809 -0.019340274241492244 0 0.062499070143100709 -0.016904232376379551 0 0.062213021249719884 -0.016558916669315225 0 0.063739586723258398 -0.016985764956917004 0 0.061995453480144978 -0.015828225186326712 0 0.062344931473603961 -0.015309251157086787 0 0.063566459848041698 -0.016099634719643586 0 0.062902788978207336 -0.014921187745565964 0 0.062344931473603961 -0.015309251157086787 0 0.063566459848041698 -0.016099634719643586 0 0.061754831144785957 -0.017004877051772126 0 0.062499070143100709 -0.016904232376379551 0 0.062213021249719884 -0.016558916669315225 0 0.061543746267279716 -0.015324540955039939 0 0.061995453480144978 -0.015828225186326712 0 0.062344931473603961 -0.015309251157086787 0 0.047008271869674829 -0.016728532158050358 0 0.04736143902989931 -0.017891194843015126 0 0.046270827618140907 -0.01768128960111796 0 0.047008271869674829 -0.016728532158050358 0 0.046091942010378598 -0.01666035383550811 0 0.046270827618140907 -0.01768128960111796 0 0.045163008069173352 -0.017495253351646062 0 0.046091942010378598 -0.01666035383550811 0 0.045375881428622089 -0.0155406044610453 0 0.045163008069173352 -0.017495253351646062 0 0.046091942010378598 -0.01666035383550811 0 0.046270827618140907 -0.01768128960111796 0 0.055449156746018809 -0.019340274241492244 0 0.054190374574764055 -0.014434627567706589 0 0.046091942010378598 -0.01666035383550811 0 0.045375881428622089 -0.0155406044610453 0 0.046640416598728356 -0.015804769126129554 0 0.047008271869674829 -0.016728532158050358 0 0.046091942010378598 -0.01666035383550811 0 0.046640416598728356 -0.015804769126129554 0 0.047008271869674829 -0.016728532158050358 0 0.046640416598728356 -0.015804769126129554 0 0.047371568629867411 -0.01611461974313276 0 0.04788046884360668 -0.015902933780922546 0 0.047371568629867411 -0.01611461974313276 0 0.048377040905187692 -0.016211513367573201 0 0.04788046884360668 -0.015902933780922546 0 0.048377040905187692 -0.016211513367573201 0 0.047894634059033117 -0.015023682657397107 0 0.04788046884360668 -0.015902933780922546 0 0.047371568629867411 -0.01611461974313276 0 0.047525932067406344 -0.015167588408930607 0 0.047008271869674829 -0.016728532158050358 0 0.047371568629867411 -0.01611461974313276 0 0.048377040905187692 -0.016211513367573201 0 0.046640416598728356 -0.015804769126129554 0 0.047371568629867411 -0.01611461974313276 0 0.047525932067406344 -0.015167588408930607 0 0.047908420321116349 -0.015702589774666625 0 0.047936569923104203 -0.014927611215484976 0 0.036811299765338368 -0.01623752751710221 0 0.042881679573976879 -0.01494099899129088 0 0.036811299765338368 -0.01623752751710221 0 0.029617965547811195 -0.015890748152171986 0 0.027349401787102011 -0.020161095619076481 0 0.027996896111493672 -0.01993396386651285 0 0.028907918726926728 -0.017211105030302459 0 0.027349401787102011 -0.020161095619076481 0 0.02780342335205031 -0.020604014858815873 0 0.027269410291518258 -0.020972930926577669 0 0.027349401787102011 -0.020161095619076481 0 0.027996896111493672 -0.01993396386651285 0 0.02780342335205031 -0.020604014858815873 0 0.036811299765338368 -0.01623752751710221 0 0.038350701805302471 -0.027473466817424807 0 0.047008271869674829 -0.016728532158050358 0 0.048377040905187692 -0.016211513367573201 0 0.04736143902989931 -0.017891194843015126 0 0.035127666552645001 -0.048170077255130124 0 0.031412262002425848 -0.047600381069539344 0 0.034028655026062851 -0.0453093762681323 0 0.038350701805302471 -0.027473466817424807 0 0.028022998398254444 -0.034741399534031728 0 0.02780342335205031 -0.020604014858815873 0 0.027269410291518258 -0.020972930926577669 0 0.027814678700994064 -0.020982551392748731 0 0.031398900542062874 -0.045340690444121014 0 0.03244569266768841 -0.043445689216129957 0 0.029847987031109011 -0.044556176482817574 0 0.031412262002425848 -0.047600381069539344 0 0.031398900542062874 -0.045340690444121014 0 0.034028655026062851 -0.0453093762681323 0 0.031398900542062874 -0.045340690444121014 0 0.034028655026062851 -0.0453093762681323 0 0.03244569266768841 -0.043445689216129957 0 0.035127666552645001 -0.048170077255130124 0 0.034028655026062851 -0.0453093762681323 0 0.037025177093397831 -0.045589382517482561 0 0.034028655026062851 -0.0453093762681323 0 0.037025177093397831 -0.045589382517482561 0 0.036214208120596988 -0.044040185581933872 0 0.041069671076041321 -0.037831429866692065 0 0.043138691457609422 -0.036352497749822535 0 0.046065670262468134 -0.027633738525449311 0 0.047485410323490851 -0.028328086668853121 0 0.04731972557511388 -0.025848680805943356 0 0.037025177093397831 -0.045589382517482561 0 0.038848501354050671 -0.04288384094123153 0 0.036214208120596988 -0.044040185581933872 0 0.044785911037515287 -0.029430222636463759 0 0.046065670262468134 -0.027633738525449311 0 0.046775165045688606 -0.029716406513033772 0 0.038350701805302471 -0.027473466817424807 0 0.046405799711947859 -0.023683043777028529 0 0.038350701805302471 -0.027473466817424807 0 0.041069671076041321 -0.037831429866692065 0 0.046065670262468134 -0.027633738525449311 0 0.046775165045688606 -0.029716406513033772 0 0.047485410323490851 -0.028328086668853121 0 0.055449156746018809 -0.019340274241492244 0 0.046405799711947859 -0.023683043777028529 0 0.048740326279660851 -0.029965500194755027 0 0.046775165045688606 -0.029716406513033772 0 0.047485410323490851 -0.028328086668853121 0 0.049048412757432581 -0.028028625093001677 0 0.048740326279660851 -0.029965500194755027 0 0.047485410323490851 -0.028328086668853121 0 0.049395044575026421 -0.026075078766862582 0 0.049048412757432581 -0.028028625093001677 0 0.04731972557511388 -0.025848680805943356 0 0.049048412757432581 -0.028028625093001677 0 0.047485410323490851 -0.028328086668853121 0 0.04731972557511388 -0.025848680805943356 0 0.043138691457609422 -0.036352497749822535 0 0.049929202841810787 -0.034131750159562158 0 0.059421739357155598 -0.024057280884080916 0 0.043138691457609422 -0.036352497749822535 0 0.051990771691258625 -0.032572029022509004 0 0.049482677819293976 -0.032281184649029473 0 0.050980961185451631 -0.030076501992140649 0 0.040109042485046958 -0.043116897169352478 0 0.03668870617824628 -0.040438818221341773 0 0.03487725785534234 -0.04242999762753516 0 0.043138691457609422 -0.036352497749822535 0 0.033811533890377457 -0.043791565070657033 0 0.040109042485046958 -0.043116897169352478 0 0.03668870617824628 -0.040438818221341773 0 0.04007550856075949 -0.040493621783390783 0 0.038848501354050671 -0.04288384094123153 0 0.036214208120596988 -0.044040185581933872 0 0.03487725785534234 -0.04242999762753516 0 0.035923813882193498 -0.041546092062383556 0 0.043176926116982789 -0.037012029415645638 0 0.03668870617824628 -0.040438818221341773 0 0.04007550856075949 -0.040493621783390783 0 0.040251665850296596 -0.039420579613197212 0 0.03668870617824628 -0.040438818221341773 0 0.040251665850296596 -0.039420579613197212 0 0.041656025868882472 -0.03726609674374224 0 0.036216090360188302 -0.041974772634556526 0 0.037527026516477942 -0.040601787012861011 0 0.040264497056967823 -0.039914354199428591 0 0.036216090360188302 -0.041974772634556526 0 0.037527026516477942 -0.040601787012861011 0 0.035647015023622906 -0.04040722896088212 0 0.040109042485046958 -0.043116897169352478 0 0.04007550856075949 -0.040493621783390783 0 0.042615531234322004 -0.039505872293510214 0 0.04007550856075949 -0.040493621783390783 0 0.040251665850296596 -0.039420579613197212 0 0.042615531234322004 -0.039505872293510214 0 0.040251665850296596 -0.039420579613197212 0 0.042615531234322004 -0.039505872293510214 0 0.041656025868882472 -0.03726609674374224 0 0.049929202841810787 -0.034131750159562158 0 0.043176926116982789 -0.037012029415645638 0 0.052012489438624472 -0.031062030153127893 0 0.049550118496964009 -0.037147636611632229 0 0.047989905087417059 -0.033510318966649681 0 0.049437673309523492 -0.033689803463111741 0 0.041378280191295559 -0.037562495814991194 0 0.048569200041731798 -0.034672323580358898 0 0.043267369164687486 -0.037919671414724125 0 0.042453386491880317 -0.03601268608473155 0 0.049437673309523492 -0.033689803463111741 0 0.043176926116982789 -0.037012029415645638 0 0.043176926116982789 -0.037012029415645638 0 0.041378280191295559 -0.037562495814991194 0 0.042389554105369667 -0.038864100907980058 0 0.040826629600462995 -0.038581641019746538 0 0.040081479744620285 -0.039376131337673294 0 0.042389554105369667 -0.038864100907980058 0 0.040826629600462995 -0.038581641019746538 0 0.041441892183787916 -0.038068942274472155 0 0.040826629600462995 -0.038581641019746538 0 0.039767998541433487 -0.038685352559917986 0 0.040081479744620285 -0.039376131337673294 0 0.040826629600462995 -0.038581641019746538 0 0.04041488854114967 -0.037910541514228978 0 0.039767998541433487 -0.038685352559917986 0 0.04041488854114967 -0.037910541514228978 0 0.041441892183787916 -0.038068942274472155 0 0.041185801794692868 -0.037292607134140107 0 0.040826629600462995 -0.038581641019746538 0 0.04041488854114967 -0.037910541514228978 0 0.041441892183787916 -0.038068942274472155 0 0.039767998541433487 -0.038685352559917986 0 0.038755981173592767 -0.038610617100778719 0 0.039238162200247652 -0.037698295320674036 0 0.04041488854114967 -0.037910541514228978 0 0.039767998541433487 -0.038685352559917986 0 0.039238162200247652 -0.037698295320674036 0 0.04123367686207615 -0.037926551691977305 0 0.041378280191295559 -0.037562495814991194 0 0.039767998541433487 -0.038685352559917986 0 0.038755981173592767 -0.038610617100778719 0 0.039052790763957394 -0.03942323821375316 0 0.040264497056967823 -0.039914354199428591 0 0.039052790763957394 -0.03942323821375316 0 0.038634355489632337 -0.039789399556966983 0 0.037527026516477942 -0.040601787012861011 0 0.040264497056967823 -0.039914354199428591 0 0.038634355489632337 -0.039789399556966983 0 0.039767998541433487 -0.038685352559917986 0 0.039052790763957394 -0.03942323821375316 0 0.040003110892904474 -0.03927308921397904 0 0.040264497056967823 -0.039914354199428591 0 0.039052790763957394 -0.03942323821375316 0 0.039975097624912116 -0.039222361364261389 0 0.039936947877873448 -0.038213865365834196 0 0.041378280191295559 -0.037562495814991194 0 0.037527026516477942 -0.040601787012861011 0 0.038634355489632337 -0.039789399556966983 0 0.037702745216220704 -0.039227195710826078 0 0.039052790763957394 -0.03942323821375316 0 0.038634355489632337 -0.039789399556966983 0 0.037702745216220704 -0.039227195710826078 0 0.038755981173592767 -0.038610617100778719 0 0.039052790763957394 -0.03942323821375316 0 0.037702745216220704 -0.039227195710826078 0 0.037527026516477942 -0.040601787012861011 0 0.037702745216220704 -0.039227195710826078 0 0.036154081821983208 -0.039346155591254477 0 0.037527026516477942 -0.040601787012861011 0 0.036154081821983208 -0.039346155591254477 0 0.035647015023622906 -0.04040722896088212 0 0.037702745216220704 -0.039227195710826078 0 0.036154081821983208 -0.039346155591254477 0 0.036787278800392037 -0.038072677708223902 0 0.038755981173592767 -0.038610617100778719 0 0.037702745216220704 -0.039227195710826078 0 0.038037761461397361 -0.037998417423835765 0 0.037702745216220704 -0.039227195710826078 0 0.036787278800392037 -0.038072677708223902 0 0.038037761461397361 -0.037998417423835765 0 0.038755981173592767 -0.038610617100778719 0 0.038037761461397361 -0.037998417423835765 0 0.039238162200247652 -0.037698295320674036 0 0.038037761461397361 -0.037998417423835765 0 0.038504904922258443 -0.037294060335740398 0 0.039238162200247652 -0.037698295320674036 0 0.036787278800392037 -0.038072677708223902 0 0.038037761461397361 -0.037998417423835765 0 0.037577876890631655 -0.037034089680719202 0 0.038037761461397361 -0.037998417423835765 0 0.038504904922258443 -0.037294060335740398 0 0.037577876890631655 -0.037034089680719202 0 0.038504904922258443 -0.037294060335740398 0 0.037577876890631655 -0.037034089680719202 0 0.038714371487680213 -0.036503991144295971 0 0.036787278800392037 -0.038072677708223902 0 0.037577876890631655 -0.037034089680719202 0 0.036313413126415055 -0.03680070879079813 0 0.037577876890631655 -0.037034089680719202 0 0.036313413126415055 -0.03680070879079813 0 0.037485764230804082 -0.035619053031120326 0 0.036313413126415055 -0.03680070879079813 0 0.037485764230804082 -0.035619053031120326 0 0.036238487889308543 -0.035771183944500788 0 0.036195394762282312 -0.034635158814345576 0 0.037485764230804082 -0.035619053031120326 0 0.036238487889308543 -0.035771183944500788 0 0.037577876890631655 -0.037034089680719202 0 0.038714371487680213 -0.036503991144295971 0 0.037485764230804082 -0.035619053031120326 0 0.038714371487680213 -0.036503991144295971 0 0.037485764230804082 -0.035619053031120326 0 0.038708357793610655 -0.035490372775666149 0 0.039878513357781926 -0.035071912999748649 0 0.038708357793610655 -0.035490372775666149 0 0.039712997432867429 -0.036175898901278931 0 0.038714371487680213 -0.036503991144295971 0 0.038708357793610655 -0.035490372775666149 0 0.039712997432867429 -0.036175898901278931 0 0.039712997432867429 -0.036175898901278931 0 0.041282192873705395 -0.035994608202412313 0 0.040258409447510378 -0.037069072949920581 0 0.039878513357781926 -0.035071912999748649 0 0.039712997432867429 -0.036175898901278931 0 0.041282192873705395 -0.035994608202412313 0 0.042203679123817998 -0.037245653336695959 0 0.041282192873705395 -0.035994608202412313 0 0.041185801794692868 -0.037292607134140107 0 0.041282192873705395 -0.035994608202412313 0 0.040258409447510378 -0.037069072949920581 0 0.041185801794692868 -0.037292607134140107 0 0.04041488854114967 -0.037910541514228978 0 0.040258409447510378 -0.037069072949920581 0 0.041185801794692868 -0.037292607134140107 0 0.04041488854114967 -0.037910541514228978 0 0.040258409447510378 -0.037069072949920581 0 0.039238162200247652 -0.037698295320674036 0 0.040258409447510378 -0.037069072949920581 0 0.039238162200247652 -0.037698295320674036 0 0.039422048564081061 -0.0369492908275438 0 0.038504904922258443 -0.037294060335740398 0 0.039238162200247652 -0.037698295320674036 0 0.039422048564081061 -0.0369492908275438 0 0.038504904922258443 -0.037294060335740398 0 0.038714371487680213 -0.036503991144295971 0 0.039422048564081061 -0.0369492908275438 0 0.038714371487680213 -0.036503991144295971 0 0.039712997432867429 -0.036175898901278931 0 0.039422048564081061 -0.0369492908275438 0 0.039712997432867429 -0.036175898901278931 0 0.040258409447510378 -0.037069072949920581 0 0.039422048564081061 -0.0369492908275438 0 0.033431780591785025 -0.037075218850273907 0 0.031471770377817919 -0.037558710097423009 0 0.031957629016035577 -0.035932824628975291 0 0.031471770377817919 -0.037558710097423009 0 0.031957629016035577 -0.035932824628975291 0 0.030000459982533662 -0.036263783230188147 0 0.031018054975863379 -0.034031823480563009 0 0.031957629016035577 -0.035932824628975291 0 0.030000459982533662 -0.036263783230188147 0 0.0331906741456535 -0.034437268437152876 0 0.031957629016035577 -0.035932824628975291 0 0.03331119337688683 -0.035768929499424916 0 0.033431780591785025 -0.037075218850273907 0 0.031957629016035577 -0.035932824628975291 0 0.03331119337688683 -0.035768929499424916 0 0.0331906741456535 -0.034437268437152876 0 0.03331119337688683 -0.035768929499424916 0 0.03466740094837191 -0.035620061982388193 0 0.033431780591785025 -0.037075218850273907 0 0.03331119337688683 -0.035768929499424916 0 0.03466740094837191 -0.035620061982388193 0 0.036238487889308543 -0.035771183944500788 0 0.03466740094837191 -0.035620061982388193 0 0.035067900323997668 -0.036805503094919832 0 0.036195394762282312 -0.034635158814345576 0 0.036238487889308543 -0.035771183944500788 0 0.03466740094837191 -0.035620061982388193 0 0.036313413126415055 -0.03680070879079813 0 0.036238487889308543 -0.035771183944500788 0 0.035067900323997668 -0.036805503094919832 0 0.036787278800392037 -0.038072677708223902 0 0.036313413126415055 -0.03680070879079813 0 0.034969339355174177 -0.038023144197311107 0 0.036313413126415055 -0.03680070879079813 0 0.035067900323997668 -0.036805503094919832 0 0.034969339355174177 -0.038023144197311107 0 0.033431780591785025 -0.037075218850273907 0 0.03466740094837191 -0.035620061982388193 0 0.035067900323997668 -0.036805503094919832 0 0.033431780591785025 -0.037075218850273907 0 0.035067900323997668 -0.036805503094919832 0 0.034969339355174177 -0.038023144197311107 0 0.034969339355174177 -0.038023144197311107 0 0.034653315730148015 -0.0394060405677761 0 0.033135073788725225 -0.038716297600916771 0 0.033431780591785025 -0.037075218850273907 0 0.034969339355174177 -0.038023144197311107 0 0.033135073788725225 -0.038716297600916771 0 0.036154081821983208 -0.039346155591254477 0 0.036787278800392037 -0.038072677708223902 0 0.034969339355174177 -0.038023144197311107 0 0.036154081821983208 -0.039346155591254477 0 0.034969339355174177 -0.038023144197311107 0 0.034653315730148015 -0.0394060405677761 0 0.036154081821983208 -0.039346155591254477 0 0.034653315730148015 -0.0394060405677761 0 0.035647015023622906 -0.04040722896088212 0 0.034653315730148015 -0.0394060405677761 0 0.033135073788725225 -0.038716297600916771 0 0.033750259046798257 -0.04070632494947455 0 0.033135073788725225 -0.038716297600916771 0 0.030872155620746106 -0.039500234170743505 0 0.033750259046798257 -0.04070632494947455 0 0.033431780591785025 -0.037075218850273907 0 0.031471770377817919 -0.037558710097423009 0 0.033135073788725225 -0.038716297600916771 0 0.031471770377817919 -0.037558710097423009 0 0.033135073788725225 -0.038716297600916771 0 0.030872155620746106 -0.039500234170743505 0 0.030872155620746106 -0.039500234170743505 0 0.031261205237536518 -0.041561826097396302 0 0.033750259046798257 -0.04070632494947455 0 0.031261205237536518 -0.041561826097396302 0 0.033750259046798257 -0.04070632494947455 0 0.033400755907552246 -0.041917063047809622 0 0.036216090360188302 -0.041974772634556526 0 0.033750259046798257 -0.04070632494947455 0 0.033400755907552246 -0.041917063047809622 0 0.036216090360188302 -0.041974772634556526 0 0.035647015023622906 -0.04040722896088212 0 0.033750259046798257 -0.04070632494947455 0 0.034653315730148015 -0.0394060405677761 0 0.035647015023622906 -0.04040722896088212 0 0.033750259046798257 -0.04070632494947455 0 0.03668870617824628 -0.040438818221341773 0 0.03487725785534234 -0.04242999762753516 0 0.03244569266768841 -0.043445689216129957 0 0.036216090360188302 -0.041974772634556526 0 0.033400755907552246 -0.041917063047809622 0 0.03244569266768841 -0.043445689216129957 0 0.034028655026062851 -0.0453093762681323 0 0.036214208120596988 -0.044040185581933872 0 0.03487725785534234 -0.04242999762753516 0 0.034028655026062851 -0.0453093762681323 0 0.03487725785534234 -0.04242999762753516 0 0.03244569266768841 -0.043445689216129957 0 0.035923813882193498 -0.041546092062383556 0 0.032948960720484359 -0.043172072602225837 0 0.031261205237536518 -0.041561826097396302 0 0.03244569266768841 -0.043445689216129957 0 0.029315807257074323 -0.043093472252270094 0 0.031261205237536518 -0.041561826097396302 0 0.033400755907552246 -0.041917063047809622 0 0.03244569266768841 -0.043445689216129957 0 0.03244569266768841 -0.043445689216129957 0 0.029315807257074323 -0.043093472252270094 0 0.029847987031109011 -0.044556176482817574 0 0.029315807257074323 -0.043093472252270094 0 0.027004705524637958 -0.04509244558939441 0 0.029847987031109011 -0.044556176482817574 0 0.029315807257074323 -0.043093472252270094 0 0.027056112058884328 -0.042740668143999017 0 0.027004705524637958 -0.04509244558939441 0 0.027056112058884328 -0.042740668143999017 0 0.024812421106982376 -0.044176084991940506 0 0.027004705524637958 -0.04509244558939441 0 0.029315807257074323 -0.043093472252270094 0 0.027056112058884328 -0.042740668143999017 0 0.028622148084665393 -0.041025517151586879 0 0.027056112058884328 -0.042740668143999017 0 0.028622148084665393 -0.041025517151586879 0 0.025189500763358706 -0.040200781487590403 0 0.028622148084665393 -0.041025517151586879 0 0.027933560191125809 -0.038930290433309152 0 0.025189500763358706 -0.040200781487590403 0 0.031261205237536518 -0.041561826097396302 0 0.029315807257074323 -0.043093472252270094 0 0.028622148084665393 -0.041025517151586879 0 0.030872155620746106 -0.039500234170743505 0 0.031261205237536518 -0.041561826097396302 0 0.028622148084665393 -0.041025517151586879 0 0.030872155620746106 -0.039500234170743505 0 0.029638253163359374 -0.037873049268009912 0 0.027933560191125809 -0.038930290433309152 0 0.030872155620746106 -0.039500234170743505 0 0.028622148084665393 -0.041025517151586879 0 0.027933560191125809 -0.038930290433309152 0 0.031471770377817919 -0.037558710097423009 0 0.030872155620746106 -0.039500234170743505 0 0.029638253163359374 -0.037873049268009912 0 0.029638253163359374 -0.037873049268009912 0 0.027933560191125809 -0.038930290433309152 0 0.027943072203049459 -0.037083986506422521 0 0.027933560191125809 -0.038930290433309152 0 0.025365285694366125 -0.037992496853434331 0 0.025189500763358706 -0.040200781487590403 0 0.027933560191125809 -0.038930290433309152 0 0.027943072203049459 -0.037083986506422521 0 0.025365285694366125 -0.037992496853434331 0 0.027943072203049459 -0.037083986506422521 0 0.026635901519027942 -0.035680516441510796 0 0.025365285694366125 -0.037992496853434331 0 0.028789461669750376 -0.034987384958890436 0 0.027943072203049459 -0.037083986506422521 0 0.026635901519027942 -0.035680516441510796 0 0.028789461669750376 -0.034987384958890436 0 0.027943072203049459 -0.037083986506422521 0 0.030000459982533662 -0.036263783230188147 0 0.031471770377817919 -0.037558710097423009 0 0.029638253163359374 -0.037873049268009912 0 0.030000459982533662 -0.036263783230188147 0 0.029638253163359374 -0.037873049268009912 0 0.027943072203049459 -0.037083986506422521 0 0.030000459982533662 -0.036263783230188147 0 0.021723896261750621 -0.037773050391675327 0 0.022885516167043013 -0.036761631505436952 0 0.022942819512948739 -0.038923446209329131 0 0.021723896261750621 -0.037773050391675327 0 0.021716664481758383 -0.037143347675739707 0 0.022885516167043013 -0.036761631505436952 0 0.022885516167043013 -0.036761631505436952 0 0.025365285694366125 -0.037992496853434331 0 0.022942819512948739 -0.038923446209329131 0 0.026635901519027942 -0.035680516441510796 0 0.022885516167043013 -0.036761631505436952 0 0.025365285694366125 -0.037992496853434331 0 0.025365285694366125 -0.037992496853434331 0 0.022942819512948739 -0.038923446209329131 0 0.025189500763358706 -0.040200781487590403 0 0.021723896261750621 -0.037773050391675327 0 0.022942819512948739 -0.038923446209329131 0 0.021096295856300001 -0.039116511004824717 0 0.022942819512948739 -0.038923446209329131 0 0.021915906999260288 -0.041935930228903372 0 0.021096295856300001 -0.039116511004824717 0 0.022942819512948739 -0.038923446209329131 0 0.025189500763358706 -0.040200781487590403 0 0.021915906999260288 -0.041935930228903372 0 0.02566805039049555 -0.041321729225952439 0 0.022260731927182975 -0.04106985227365919 0 0.025189500763358706 -0.040200781487590403 0 0.024264340541237262 -0.043059773330091318 0 0.021915906999260288 -0.041935930228903372 0 0.027056112058884328 -0.042740668143999017 0 0.025189500763358706 -0.040200781487590403 0 0.024812421106982376 -0.044176084991940506 0 0.016653215723344123 -0.032670998454517902 0 0.016660851255765306 -0.032753012619974431 0 0.016363776119402446 -0.032609073729254694 0 0.017146871385135192 -0.034967492353644117 0 0.015993534934106657 -0.031512331325438216 0 0.022260731927182975 -0.04106985227365919 0 0.017146871385135192 -0.034967492353644117 0 0.020243297512474088 -0.030405581219356288 0 0.010949053111426167 -0.028522863198748558 0 0.016363776119402446 -0.032609073729254694 0 0.016787953017543239 -0.032987500921168617 0 0.01549496833288048 -0.032522225942832036 0 0.015801196300657776 -0.031486678970122396 0 0.016363776119402446 -0.032609073729254694 0 0.01549496833288048 -0.032522225942832036 0 0.0093848734508515698 -0.024824871417333211 0 0.0092834389514267358 -0.024930271686793661 0 0.0092999642403071622 -0.02463492156431607 0 0.0093848734508515698 -0.024824871417333211 0 0.0092834389514267358 -0.024930271686793661 0 0.0094818469237922427 -0.025098777641483407 0 0.028182566662368843 -0.020815481335931276 0 0.028206691494903464 -0.020698604473864606 0 0.02813860453313563 -0.020838315766643353 0 0.028182566662368843 -0.020815481335931276 0 0.028157605908017819 -0.020872624827735647 0 0.028177814479251103 -0.020899969295416227 0 0.028182566662368843 -0.020815481335931276 0 0.028157605908017819 -0.020872624827735647 0 0.02813860453313563 -0.020838315766643353 0 0.020243297512474088 -0.030405581219356288 0 0.019919352366851648 -0.020952963040425585 0 0.022260731927182975 -0.04106985227365919 0 0.020243297512474088 -0.030405581219356288 0 0.023696232466541813 -0.042502729595225656 0 0.023076228521922197 -0.045908380224068623 0 0.02526142240505606 -0.044858160556796298 0 0.016653215723344123 -0.032670998454517902 0 0.016363776119402446 -0.032609073729254694 0 0.016787953017543239 -0.032987500921168617 0 0.023696232466541813 -0.042502729595225656 0 0.02526142240505606 -0.044858160556796298 0 0.026564603917202331 -0.044067162122712701 0 0.022260731927182975 -0.04106985227365919 0 0.027196445050831273 -0.044744577273803293 0 0.023076228521922197 -0.045908380224068623 0 0.02526142240505606 -0.044858160556796298 0 0.027685853953139116 -0.046919075797097538 0 0.027196445050831273 -0.044744577273803293 0 0.028660518475640183 -0.045537454930198645 0 0.026564603917202331 -0.044067162122712701 0 0.029148490772858374 -0.045813621904944181 0 0.027685853953139116 -0.046919075797097538 0 0.02526142240505606 -0.044858160556796298 0 0.026564603917202331 -0.044067162122712701 0 0.027685853953139116 -0.046919075797097538 0 0.027004705524637958 -0.04509244558939441 0 0.029847987031109011 -0.044556176482817574 0 0.029148490772858374 -0.045813621904944181 0 0.031398900542062874 -0.045340690444121014 0 0.029847987031109011 -0.044556176482817574 0 0.029148490772858374 -0.045813621904944181 0 0.031412262002425848 -0.047600381069539344 0 0.031398900542062874 -0.045340690444121014 0 0.029148490772858374 -0.045813621904944181 0 0.031412262002425848 -0.047600381069539344 0 0.029148490772858374 -0.045813621904944181 0 0.027685853953139116 -0.046919075797097538 0 0.028022998398254444 -0.034741399534031728 0 0.029348209095754918 -0.034260973933878995 0 0.027814678700994064 -0.020982551392748731 0 0.028177814479251103 -0.020899969295416227 0 0.028061012808114315 -0.020688272506306223 0 0.02780342335205031 -0.020604014858815873 0 0.027814678700994064 -0.020982551392748731 0 0.028061012808114315 -0.020688272506306223 0 0.020243297512474088 -0.030405581219356288 0 0.029348209095754918 -0.034260973933878995 0 0.028182566662368843 -0.020815481335931276 0 0.028177814479251103 -0.020899969295416227 0 0.028206691494903464 -0.020698604473864606 0 0.028177814479251103 -0.020899969295416227 0 0.028206691494903464 -0.020698604473864606 0 0.028061012808114315 -0.020688272506306223 0 0.028206691494903464 -0.020698604473864606 0 0.028156461945054757 -0.02050259306470311 0 0.028061012808114315 -0.020688272506306223 0 0.028215020948464148 -0.02045295672609005 0 0.028156461945054757 -0.02050259306470311 0 0.028155744208467483 -0.02034282408585698 0 0.028206691494903464 -0.020698604473864606 0 0.028215020948464148 -0.02045295672609005 0 0.028156461945054757 -0.02050259306470311 0 0.028206691494903464 -0.020698604473864606 0 0.028215020948464148 -0.02045295672609005 0 0.028249946100397959 -0.020466086807740102 0 0.02780342335205031 -0.020604014858815873 0 0.028061012808114315 -0.020688272506306223 0 0.028077056527219972 -0.020404081278464391 0 0.028156461945054757 -0.02050259306470311 0 0.028061012808114315 -0.020688272506306223 0 0.028077056527219972 -0.020404081278464391 0 0.028156461945054757 -0.02050259306470311 0 0.028077056527219972 -0.020404081278464391 0 0.028155744208467483 -0.02034282408585698 0 0.027996896111493672 -0.01993396386651285 0 0.02780342335205031 -0.020604014858815873 0 0.028077056527219972 -0.020404081278464391 0 0.027996896111493672 -0.01993396386651285 0 0.030096954054195234 -0.018943885791343783 0 0.031929990704529787 -0.0189757253483459 0 0.027996896111493672 -0.01993396386651285 0 0.028155744208467483 -0.02034282408585698 0 0.028242724722896788 -0.020392534058123545 0 0.02709971683724292 -0.019993728320894771 0 0.032343255627595276 -0.019780771710887907 0 0.027996896111493672 -0.01993396386651285 0 0.028077056527219972 -0.020404081278464391 0 0.028155744208467483 -0.02034282408585698 0 0.027996896111493672 -0.01993396386651285 0 0.030096954054195234 -0.018943885791343783 0 0.028907918726926728 -0.017211105030302459 0 0.028215020948464148 -0.02045295672609005 0 0.028242724722896788 -0.020392534058123545 0 0.028249946100397959 -0.020466086807740102 0 0.028215020948464148 -0.02045295672609005 0 0.028155744208467483 -0.02034282408585698 0 0.028242724722896788 -0.020392534058123545 0 0.030096954054195234 -0.018943885791343783 0 0.031929990704529787 -0.0189757253483459 0 0.031140130200532943 -0.016618526463700881 0 0.028242724722896788 -0.020392534058123545 0 0.028239049468596535 -0.020425544135684624 0 0.028249946100397959 -0.020466086807740102 0 0.031929990704529787 -0.0189757253483459 0 0.036486629618742078 -0.017864447999733489 0 0.033996610082297478 -0.017142162117911454 0 0.032343255627595276 -0.019780771710887907 0 0.022288586279582027 -0.016856342684965577 0 0.028242724722896788 -0.020392534058123545 0 0.028228199799345783 -0.020411789524595887 0 0.028239049468596535 -0.020425544135684624 0 0.017683936207492212 -0.018611055762998568 0 0.010616116565102534 -0.018329007798773628 0 0.022288586279582027 -0.016856342684965577 0 0.017683936207492212 -0.018611055762998568 0 0.010591770337913616 -0.016141666421186109 0 0.010582472147696021 -0.016209074960539378 0 0.010709902485639213 -0.016173870238940541 0 0.010582472147696021 -0.016209074960539378 0 0.010816645840300598 -0.016381268277041745 0 0.010709902485639213 -0.016173870238940541 0 0.010591770337913616 -0.016141666421186109 0 0.010709902485639213 -0.016173870238940541 0 0.010819218374147824 -0.015934689069770365 0 0.016033394330052946 -0.021870159269324761 0 0.016630122028230478 -0.018657579373478127 0 0.012541423660318419 -0.019262437874495109 0 0.019919352366851648 -0.020952963040425585 0 0.0094836134804601752 -0.022185260503859206 0 0.0093848734508515698 -0.024824871417333211 0 0.0092999642403071622 -0.02463492156431607 0 0.0095438226729965842 -0.02441115906582015 0 0.017683936207492212 -0.018611055762998568 0 0.019919352366851648 -0.020952963040425585 0 0.031382066842597582 -0.020358568356650765 0 0.019919352366851648 -0.020952963040425585 0 0.028239049468596535 -0.020425544135684624 0 0.028272026488597113 -0.02053815839388605 0 0.028249946100397959 -0.020466086807740102 0 0.028206691494903464 -0.020698604473864606 0 0.028272026488597113 -0.02053815839388605 0 0.028249946100397959 -0.020466086807740102 0 0.036525976791391121 -0.013262464791715386 0 0.033448542543845078 -0.015171181983670817 0 0.034394751973720786 -0.011503723219343929 0 0.03534447013623155 -0.014099416149836477 0 0.035534195933872206 -0.016345638357692583 0 0.033448542543845078 -0.015171181983670817 0 0.03653629078143758 -0.013165583205282596 0 0.033593430345219846 -0.015094113427201933 0 0.036525976791391121 -0.013262464791715386 0 0.036932119351518335 -0.010801220142036931 0 0.034394751973720786 -0.011503723219343929 0 0.03534447013623155 -0.014099416149836477 0 0.036812727360587938 -0.015303587428167653 0 0.03717662198493997 -0.012944896478135655 0 0.023819905561427202 -0.01583099667698001 0 0.032273410598481336 -0.01324313911479166 0 0.03653629078143758 -0.013165583205282596 0 0.032273410598481336 -0.01324313911479166 0 0.036525976791391121 -0.013262464791715386 0 0.036932119351518335 -0.010801220142036931 0 0.039338268500280035 -0.011400805131146557 0 0.01068649537150018 -0.015644222012562655 0 0.010760365175234803 -0.015257589975676847 0 0.01087553109470406 -0.015376038294422625 0 0.010835795049478125 -0.015254222217169166 0 0.010760365175234803 -0.015257589975676847 0 0.01087553109470406 -0.015376038294422625 0 0.03534447013623155 -0.014099416149836477 0 0.036812727360587938 -0.015303587428167653 0 0.035534195933872206 -0.016345638357692583 0 0.022288586279582027 -0.016856342684965577 0 0.023819905561427202 -0.01583099667698001 0 0.010716250657034155 -0.01584630042050688 0 0.010755565567038231 -0.015773066191316625 0 0.010819218374147824 -0.015934689069770365 0 0.036486629618742078 -0.017864447999733489 0 0.036812727360587938 -0.015303587428167653 0 0.035534195933872206 -0.016345638357692583 0 0.022288586279582027 -0.016856342684965577 0 0.0065141723406212477 -0.016378241972692682 0 0.01068649537150018 -0.015644222012562655 0 0.010755565567038231 -0.015773066191316625 0 0.010859126515390847 -0.015603439446864223 0 0.010716250657034155 -0.01584630042050688 0 0.01068649537150018 -0.015644222012562655 0 0.010755565567038231 -0.015773066191316625 0 0.036486629618742078 -0.017864447999733489 0 0.035534195933872206 -0.016345638357692583 0 0.033996610082297478 -0.017142162117911454 0 0.035534195933872206 -0.016345638357692583 0 0.033996610082297478 -0.017142162117911454 0 0.033448542543845078 -0.015171181983670817 0 0.031929990704529787 -0.0189757253483459 0 0.033996610082297478 -0.017142162117911454 0 0.032630760631729462 -0.016985714518157721 0 0.031929990704529787 -0.0189757253483459 0 0.032630760631729462 -0.016985714518157721 0 0.031140130200532943 -0.016618526463700881 0 0.033996610082297478 -0.017142162117911454 0 0.032630760631729462 -0.016985714518157721 0 0.033448542543845078 -0.015171181983670817 0 0.032630760631729462 -0.016985714518157721 0 0.031140130200532943 -0.016618526463700881 0 0.033448542543845078 -0.015171181983670817 0 0.031140130200532943 -0.016618526463700881 0 0.028345796381991854 -0.016212970181555462 0 0.030384095542928383 -0.012656006761906348 0 0.030096954054195234 -0.018943885791343783 0 0.031140130200532943 -0.016618526463700881 0 0.028345796381991854 -0.016212970181555462 0 0.029941450725684413 -0.01874675375073024 0 0.029617965547811195 -0.015890748152171986 0 0.028698929032153032 -0.014990323259528921 0 0.03084760006586287 -0.011720602036629297 0 0.026756996756349197 -0.01128625256989476 0 0.029617965547811195 -0.015890748152171986 0 0.030590621527643733 -0.012139826580892006 0 0.031140130200532943 -0.016618526463700881 0 0.030384095542928383 -0.012656006761906348 0 0.033448542543845078 -0.015171181983670817 0 0.030384095542928383 -0.012656006761906348 0 0.033448542543845078 -0.015171181983670817 0 0.034394751973720786 -0.011503723219343929 0 0.03084760006586287 -0.011720602036629297 0 0.03300343921998701 -0.0085345806973221253 0 0.029777735377446757 -0.0088205997087694946 0 0.030384095542928383 -0.012656006761906348 0 0.03300343921998701 -0.0085345806973221253 0 0.034394751973720786 -0.011503723219343929 0 0.030590621527643733 -0.012139826580892006 0 0.032825149406973175 -0.0088322239164422868 0 0.03084760006586287 -0.011720602036629297 0 0.029777735377446757 -0.0088205997087694946 0 0.026756996756349197 -0.01128625256989476 0 0.029777735377446757 -0.0088205997087694946 0 0.027267958237578077 -0.0065241967812363745 0 0.026756996756349197 -0.01128625256989476 0 0.030803134555753967 -0.0064054154345819462 0 0.02952254444750808 -0.0040538659155519427 0 0.027267958237578077 -0.0065241967812363745 0 0.029777735377446757 -0.0088205997087694946 0 0.030803134555753967 -0.0064054154345819462 0 0.027267958237578077 -0.0065241967812363745 0 0.041904909213805588 -0.00027532792142995346 0 0.038549290124804007 -0.0009799478667023426 0 0.038137098946154059 -0.0041533172609365034 0 0.034647081565566631 -0.0032406346322650876 0 0.035823364893316438 -0.0061476190464862359 0 0.03300343921998701 -0.0085345806973221253 0 0.029777735377446757 -0.0088205997087694946 0 0.030803134555753967 -0.0064054154345819462 0 0.03300343921998701 -0.0085345806973221253 0 0.033238676992773657 -0.0048478819406467142 0 0.034819446252765514 -0.0067785838657979875 0 0.030803134555753967 -0.0064054154345819462 0 0.033238676992773657 -0.0048478819406467142 0 0.02952254444750808 -0.0040538659155519427 0 0.03300343921998701 -0.0085345806973221253 0 0.030803134555753967 -0.0064054154345819462 0 0.033238676992773657 -0.0048478819406467142 0 0.033238676992773657 -0.0048478819406467142 0 0.035398046945623228 -0.0050049816893064777 0 0.034819446252765514 -0.0067785838657979875 0 0.035398046945623228 -0.0050049816893064777 0 0.036505155038761915 -0.0062185050983181384 0 0.036796391339780327 -0.0040614073814518705 0 0.035398046945623228 -0.0050049816893064777 0 0.036505155038761915 -0.0062185050983181384 0 0.034819446252765514 -0.0067785838657979875 0 0.036505155038761915 -0.0062185050983181384 0 0.038174947658964127 -0.0050417856338446712 0 0.036796391339780327 -0.0040614073814518705 0 0.036505155038761915 -0.0062185050983181384 0 0.034819446252765514 -0.0067785838657979875 0 0.036071747062647451 -0.0086980217272359436 0 0.036505155038761915 -0.0062185050983181384 0 0.036071747062647451 -0.0086980217272359436 0 0.038106109400588062 -0.007391201031471074 0 0.03300343921998701 -0.0085345806973221253 0 0.034819446252765514 -0.0067785838657979875 0 0.036071747062647451 -0.0086980217272359436 0 0.03300343921998701 -0.0085345806973221253 0 0.036071747062647451 -0.0086980217272359436 0 0.034394751973720786 -0.011503723219343929 0 0.036071747062647451 -0.0086980217272359436 0 0.036932119351518335 -0.010801220142036931 0 0.038441854135573453 -0.0093499864059279295 0 0.036071747062647451 -0.0086980217272359436 0 0.036932119351518335 -0.010801220142036931 0 0.034394751973720786 -0.011503723219343929 0 0.039338268500280035 -0.011400805131146557 0 0.038441854135573453 -0.0093499864059279295 0 0.039910042860504237 -0.007757510299530407 0 0.032273410598481336 -0.01324313911479166 0 0.039860848697442816 -0.0072567879647663864 0 0.040344641032999402 -0.010822668658063868 0 0.039910042860504237 -0.007757510299530407 0 0.040700819688600343 -0.0070390492824177163 0 0.040344641032999402 -0.010822668658063868 0 0.039045840102992176 -0.011620890345723242 0 0.039910042860504237 -0.007757510299530407 0 0.010869419486365502 -0.015171936192542548 0 0.010835795049478125 -0.015254222217169166 0 0.010760365175234803 -0.015257589975676847 0 0.026340514519243532 -0.010403309461630011 0 0.032273410598481336 -0.01324313911479166 0 0.026340514519243532 -0.010403309461630011 0 0.024606613756842657 -0.012327669856089029 0 0.036932119351518335 -0.010801220142036931 0 0.039338268500280035 -0.011400805131146557 0 0.038441854135573453 -0.0093499864059279295 0 0.038441854135573453 -0.0093499864059279295 0 0.038975127153322055 -0.0077502946063678687 0 0.038106109400588062 -0.007391201031471074 0 0.036071747062647451 -0.0086980217272359436 0 0.038441854135573453 -0.0093499864059279295 0 0.038106109400588062 -0.007391201031471074 0 0.038441854135573453 -0.0093499864059279295 0 0.039910042860504237 -0.007757510299530407 0 0.038975127153322055 -0.0077502946063678687 0 0.039448890373465863 -0.0064914863735197207 0 0.040700819688600343 -0.0070390492824177163 0 0.040924520804531218 -0.0034817713876019733 0 0.039910042860504237 -0.007757510299530407 0 0.038975127153322055 -0.0077502946063678687 0 0.039448890373465863 -0.0064914863735197207 0 0.039910042860504237 -0.007757510299530407 0 0.039448890373465863 -0.0064914863735197207 0 0.040700819688600343 -0.0070390492824177163 0 0.038975127153322055 -0.0077502946063678687 0 0.039448890373465863 -0.0064914863735197207 0 0.038106109400588062 -0.007391201031471074 0 0.039448890373465863 -0.0064914863735197207 0 0.038106109400588062 -0.007391201031471074 0 0.038174947658964127 -0.0050417856338446712 0 0.036505155038761915 -0.0062185050983181384 0 0.038106109400588062 -0.007391201031471074 0 0.038174947658964127 -0.0050417856338446712 0 0.039448890373465863 -0.0064914863735197207 0 0.038174947658964127 -0.0050417856338446712 0 0.040924520804531218 -0.0034817713876019733 0 0.038236558564965537 0.014478816535730878 0 0.037601336856007229 0.013956122651955177 0 0.037142024641154146 0.014711841327206949 0 0.038174947658964127 -0.0050417856338446712 0 0.037030523194688227 -0.0025582239621349634 0 0.040924520804531218 -0.0034817713876019733 0 0.039496047195560997 0.0087763844019157367 0 0.037780694189949234 0.0051533802333482643 0 0.038174947658964127 -0.0050417856338446712 0 0.036796391339780327 -0.0040614073814518705 0 0.037030523194688227 -0.0025582239621349634 0 0.039496047195560997 0.0087763844019157367 0 0.041582486338390477 0.0091077001208958314 0 0.033238676992773657 -0.0048478819406467142 0 0.037029097680390914 -0.0026573274478969627 0 0.031919790630573069 -0.0014946016660013759 0 0.033238676992773657 -0.0048478819406467142 0 0.035398046945623228 -0.0050049816893064777 0 0.037029097680390914 -0.0026573274478969627 0 0.035398046945623228 -0.0050049816893064777 0 0.036796391339780327 -0.0040614073814518705 0 0.037029097680390914 -0.0026573274478969627 0 0.037608259987832654 -0.0015901339690932051 0 0.039496047195560997 0.0087763844019157367 0 0.043473703366699291 0.018710329924160166 0 0.045198474777602804 0.016392098617553707 0 0.042815924528184959 0.015603460599072706 0 0.043473703366699291 0.018710329924160166 0 0.045198474777602804 0.016392098617553707 0 0.046663156937583862 0.017873513194560198 0 0.038236558564965537 0.014478816535730878 0 0.037601336856007229 0.013956122651955177 0 0.038134078733980226 0.012988045501491817 0 0.039496047195560997 0.0087763844019157367 0 0.040753678776793645 0.015973887321200312 0 0.037601336856007229 0.013956122651955177 0 0.036942878252241268 0.013549208257894883 0 0.037142024641154146 0.014711841327206949 0 0.037601336856007229 0.013956122651955177 0 0.038134078733980226 0.012988045501491817 0 0.036942878252241268 0.013549208257894883 0 0.038134078733980226 0.012988045501491817 0 0.036942878252241268 0.013549208257894883 0 0.03656972609624963 0.011981227400479218 0 0.038134078733980226 0.012988045501491817 0 0.038380268144853555 0.010940068528812555 0 0.03656972609624963 0.011981227400479218 0 0.040753678776793645 0.015973887321200312 0 0.040008730977161087 0.010985465644519578 0 0.042815924528184959 0.015603460599072706 0 0.04448721066852801 0.014588422752917243 0 0.041745498699485503 0.012207097288468438 0 0.045198474777602804 0.016392098617553707 0 0.042815924528184959 0.015603460599072706 0 0.04448721066852801 0.014588422752917243 0 0.045593918245671911 0.012760218365616839 0 0.041745498699485503 0.012207097288468438 0 0.044929768089691999 0.0095832586365759021 0 0.04448721066852801 0.014588422752917243 0 0.045593918245671911 0.012760218365616839 0 0.041745498699485503 0.012207097288468438 0 0.048062363143514183 0.012901925496469086 0 0.050269205670491868 0.013758994761334723 0 0.049670833910075866 0.0093668241029963 0 0.05064531363499377 0.012010583048242202 0 0.04965100783220875 0.0090423589172741025 0 0.045593918245671911 0.012760218365616839 0 0.048062363143514183 0.012901925496469086 0 0.04736330439084524 0.010176438760359065 0 0.048062363143514183 0.012901925496469086 0 0.047103261536142263 0.015447262294054491 0 0.048706320553447313 0.014831426444127238 0 0.04448721066852801 0.014588422752917243 0 0.045593918245671911 0.012760218365616839 0 0.047103261536142263 0.015447262294054491 0 0.045198474777602804 0.016392098617553707 0 0.04448721066852801 0.014588422752917243 0 0.047103261536142263 0.015447262294054491 0 0.045593918245671911 0.012760218365616839 0 0.048062363143514183 0.012901925496469086 0 0.047103261536142263 0.015447262294054491 0 0.047103261536142263 0.015447262294054491 0 0.048706320553447313 0.014831426444127238 0 0.048576482532843489 0.016375675331264678 0 0.05064531363499377 0.012010583048242202 0 0.048448588689553748 0.0091121772274019141 0 0.048706320553447313 0.014831426444127238 0 0.049606318514138339 0.015849093132358869 0 0.048576482532843489 0.016375675331264678 0 0.050269205670491868 0.013758994761334723 0 0.049606318514138339 0.015849093132358869 0 0.050806174786437383 0.017450914878360636 0 0.048062363143514183 0.012901925496469086 0 0.048706320553447313 0.014831426444127238 0 0.050269205670491868 0.013758994761334723 0 0.048706320553447313 0.014831426444127238 0 0.050269205670491868 0.013758994761334723 0 0.049606318514138339 0.015849093132358869 0 0.049606318514138339 0.015849093132358869 0 0.049367645662317078 0.017034020889432285 0 0.050806174786437383 0.017450914878360636 0 0.049606318514138339 0.015849093132358869 0 0.049367645662317078 0.017034020889432285 0 0.048576482532843489 0.016375675331264678 0 0.048576482532843489 0.016375675331264678 0 0.048724860237925327 0.017584203907522775 0 0.047375277502313122 0.016836242930776121 0 0.049367645662317078 0.017034020889432285 0 0.048576482532843489 0.016375675331264678 0 0.048724860237925327 0.017584203907522775 0 0.048724860237925327 0.017584203907522775 0 0.049087057335760839 0.017906083197221524 0 0.047232857000154935 0.01838636696065863 0 0.049367645662317078 0.017034020889432285 0 0.048724860237925327 0.017584203907522775 0 0.049091059050471467 0.017893064995460541 0 0.046078314353961772 0.0097147738656227414 0 0.041582486338390477 0.0091077001208958314 0 0.047512329449661675 0.011520370350481934 0 0.046078314353961772 0.0097147738656227414 0 0.049367645662317078 0.017034020889432285 0 0.049091059050471467 0.017893064995460541 0 0.050806174786437383 0.017450914878360636 0 0.046078314353961772 0.0097147738656227414 0 0.048448588689553748 0.0091121772274019141 0 0.045198474777602804 0.016392098617553707 0 0.047103261536142263 0.015447262294054491 0 0.047375277502313122 0.016836242930776121 0 0.045198474777602804 0.016392098617553707 0 0.047375277502313122 0.016836242930776121 0 0.047232857000154935 0.01838636696065863 0 0.047103261536142263 0.015447262294054491 0 0.048576482532843489 0.016375675331264678 0 0.047375277502313122 0.016836242930776121 0 0.048724860237925327 0.017584203907522775 0 0.047375277502313122 0.016836242930776121 0 0.047232857000154935 0.01838636696065863 0 0.047789001936680432 0.019046256991874386 0 0.041582486338390477 0.0091077001208958314 0 0.033238676992773657 -0.0048478819406467142 0 0.031919790630573069 -0.0014946016660013759 0 0.02952254444750808 -0.0040538659155519427 0 0.048786289702659316 0.0072547679642304078 0 0.044074758172321114 0.0029036234328617752 0 0.045109927667246266 0.0081465687602356261 0 0.046078314353961772 0.0097147738656227414 0 0.043763115614362122 -0.00020887004204374825 0 0.042055792161027991 0.0044762559371873999 0 0.041904909213805588 -0.00027532792142995346 0 0.037551568629640014 0.00027737747961560931 0 0.042055792161027991 0.0044762559371873999 0 0.045655465752897299 0.0036088059469806789 0 0.041904909213805588 -0.00027532792142995346 0 0.041582486338390477 0.0091077001208958314 0 0.034647081565566631 -0.0032406346322650876 0 0.041904909213805588 -0.00027532792142995346 0 0.038549290124804007 -0.0009799478667023426 0 0.037551568629640014 0.00027737747961560931 0 0.038549290124804007 -0.0009799478667023426 0 0.037551568629640014 0.00027737747961560931 0 0.038191430466608493 -0.0041329076285024939 0 0.053038487272045624 -0.0018961326252613384 0 0.052858520561072833 -0.0022105631825213505 0 0.052880298409665662 -0.0016972887265753287 0 0.051102780285478232 0.0020866341344827795 0 0.048074568439723943 -0.0021099197431176031 0 0.043763115614362122 -0.00020887004204374825 0 0.048448588689553748 0.0091121772274019141 0 0.048514838228620294 0.00019735583039632071 0 0.047237215674939916 0.0047527374878377866 0 0.046689614182263924 -0.0014864112961570594 0 0.043763115614362122 -0.00020887004204374825 0 0.048074568439723943 -0.0021099197431176031 0 0.05317807457323237 -0.0014569528249902095 0 0.05061199514253404 -0.0041891843375901757 0 0.053038487272045624 -0.0018961326252613384 0 0.053038984195640987 -0.0015510938194689913 0 0.052880298409665662 -0.0016972887265753287 0 0.053038487272045624 -0.0018961326252613384 0 0.05327216406634263 -0.0019113824845925977 0 0.053038984195640987 -0.0015510938194689913 0 0.053038487272045624 -0.0018961326252613384 0 0.05327216406634263 -0.0019113824845925977 0 0.053150233297601615 -0.0020985243274755862 0 0.05327216406634263 -0.0019113824845925977 0 0.053150233297601615 -0.0020985243274755862 0 0.053350973065709309 -0.0021345017738669415 0 0.053150233297601615 -0.0020985243274755862 0 0.053276796363493001 -0.0023005251084159133 0 0.052858520561072833 -0.0022105631825213505 0 0.054079614090372395 -0.0027106028463815416 0 0.051102780285478232 0.0020866341344827795 0 0.053276796363493001 -0.0023005251084159133 0 0.052761190723634041 -0.0018106025409171998 0 0.052747083670841091 -0.0020430866702463297 0 0.053276796363493001 -0.0023005251084159133 0 0.052747083670841091 -0.0020430866702463297 0 0.053511320138151158 -0.0024822617216936648 0 0.052279678525883402 0.0043879839026614983 0 0.052349964821581073 0.0028378943724221418 0 0.053150233297601615 -0.0020985243274755862 0 0.053276796363493001 -0.0023005251084159133 0 0.053350973065709309 -0.0021345017738669415 0 0.053038487272045624 -0.0018961326252613384 0 0.053150233297601615 -0.0020985243274755862 0 0.052858520561072833 -0.0022105631825213505 0 0.048514838228620294 0.00019735583039632071 0 0.049319021718606804 0.0042515491343614068 0 0.047237215674939916 0.0047527374878377866 0 0.048448588689553748 0.0091121772274019141 0 0.051102780285478232 0.0020866341344827795 0 0.050413067087217635 0.0082107498882177752 0 0.050516282901241161 0.0083690074269561175 0 0.050443139819273175 0.0084095022270516875 0 0.051102780285478232 0.0020866341344827795 0 0.052279678525883402 0.0043879839026614983 0 0.050592190111441677 0.0082487307110900871 0 0.050413067087217635 0.0082107498882177752 0 0.050516282901241161 0.0083690074269561175 0 0.050516282901241161 0.0083690074269561175 0 0.050487991976019123 0.0085386112912018922 0 0.050443139819273175 0.0084095022270516875 0 0.050472250584981851 0.0086411056455897185 0 0.050592190111441677 0.0082487307110900871 0 0.050516282901241161 0.0083690074269561175 0 0.050472250584981851 0.0086411056455897185 0 0.050516282901241161 0.0083690074269561175 0 0.050487991976019123 0.0085386112912018922 0 0.050472250584981851 0.0086411056455897185 0 0.050516246203489268 0.0085414782513802447 0 0.050487991976019123 0.0085386112912018922 0 0.050649486975701256 0.008470079679717215 0 0.050516246203489268 0.0085414782513802447 0 0.050487991976019123 0.0085386112912018922 0 0.050649486975701256 0.008470079679717215 0 0.050487991976019123 0.0085386112912018922 0 0.050509621313482224 0.0086720023467368092 0 0.052005846101525033 0.0069075496191268546 0 0.052279678525883402 0.0043879839026614983 0 0.050509621313482224 0.0086720023467368092 0 0.051002727294893024 0.0083410902024840926 0 0.051489180748167676 0.0084820837751416554 0 0.050649486975701256 0.008470079679717215 0 0.050509621313482224 0.0086720023467368092 0 0.051002727294893024 0.0083410902024840926 0 0.050649486975701256 0.008470079679717215 0 0.051002727294893024 0.0083410902024840926 0 0.050487308337066467 0.0085807474065814817 0 0.051002727294893024 0.0083410902024840926 0 0.050487308337066467 0.0085807474065814817 0 0.051039107026706117 0.0080846725929081664 0 0.050472250584981851 0.0086411056455897185 0 0.050487308337066467 0.0085807474065814817 0 0.049670833910075866 0.0093668241029963 0 0.050472250584981851 0.0086411056455897185 0 0.050516246203489268 0.0085414782513802447 0 0.050487308337066467 0.0085807474065814817 0 0.050649486975701256 0.008470079679717215 0 0.050516246203489268 0.0085414782513802447 0 0.050487308337066467 0.0085807474065814817 0 0.052493525516775254 0.0071567632785928953 0 0.051737405338059317 0.0078057794569805277 0 0.051762924488648193 0.0074942212678429879 0 0.051002727294893024 0.0083410902024840926 0 0.051737405338059317 0.0078057794569805277 0 0.051039107026706117 0.0080846725929081664 0 0.051002727294893024 0.0083410902024840926 0 0.051737405338059317 0.0078057794569805277 0 0.051489180748167676 0.0084820837751416554 0 0.051737405338059317 0.0078057794569805277 0 0.051489180748167676 0.0084820837751416554 0 0.052839722275257371 0.0077006816686734899 0 0.052493525516775254 0.0071567632785928953 0 0.051737405338059317 0.0078057794569805277 0 0.052839722275257371 0.0077006816686734899 0 0.052349964821581073 0.0028378943724221418 0 0.053704812106108779 0.0025315743887680472 0 0.053511320138151158 -0.0024822617216936648 0 0.053739156726437073 -0.0019151138812685186 0 0.054574821751263762 -0.0026562036287125106 0 0.053511320138151158 -0.0024822617216936648 0 0.053350973065709309 -0.0021345017738669415 0 0.053739156726437073 -0.0019151138812685186 0 0.053276796363493001 -0.0023005251084159133 0 0.053511320138151158 -0.0024822617216936648 0 0.053350973065709309 -0.0021345017738669415 0 0.05327216406634263 -0.0019113824845925977 0 0.053739156726437073 -0.0019151138812685186 0 0.05342332762875724 -0.0016664483022790705 0 0.05327216406634263 -0.0019113824845925977 0 0.053350973065709309 -0.0021345017738669415 0 0.053739156726437073 -0.0019151138812685186 0 0.053825192612246317 -0.0011238101334357993 0 0.054497067514500619 -0.0036995621471304302 0 0.053739156726437073 -0.0019151138812685186 0 0.053872800136956202 -0.0012400065885449759 0 0.05465017250766268 -0.001639034206010613 0 0.053739156726437073 -0.0019151138812685186 0 0.05465017250766268 -0.001639034206010613 0 0.054574821751263762 -0.0026562036287125106 0 0.054497067514500619 -0.0036995621471304302 0 0.056381193232403634 -0.0026965396810897961 0 0.058487160125862983 -0.0042349987095328797 0 0.057883134374764292 -0.0044795651979837653 0 0.057617645254844592 -0.0037580776700351062 0 0.054497067514500619 -0.0036995621471304302 0 0.05821992734636329 -0.0097215995411394605 0 0.058487160125862983 -0.0042349987095328797 0 0.057883134374764292 -0.0044795651979837653 0 0.058363378415399111 -0.005122325231958008 0 0.052734483065101513 -0.007876042813584571 0 0.052673344946073813 -0.0082921994866089702 0 0.052822812815269314 -0.0083325170469304381 0 0.05821992734636329 -0.0097215995411394605 0 0.050092457809871045 -0.011699349932065107 0 0.052734483065101513 -0.007876042813584571 0 0.052822812815269314 -0.0083325170469304381 0 0.053070734126959875 -0.0080802715786878632 0 0.050092457809871045 -0.011699349932065107 0 0.046634864113476435 -0.012045558165723126 0 0.046078689482357105 -0.012578180365790342 0 0.047276603937602156 -0.012226523398553377 0 0.047101951476410421 -0.012827985112097911 0 0.046078689482357105 -0.012578180365790342 0 0.047333299862401812 -0.011357781728719497 0 0.047276603937602156 -0.012226523398553377 0 0.050092457809871045 -0.011699349932065107 0 0.050556192687028052 -0.0082320199131431099 0 0.054497067514500619 -0.0036995621471304302 0 0.050556192687028052 -0.0082320199131431099 0 0.053734946549709069 -0.0015673968331822955 0 0.05342332762875724 -0.0016664483022790705 0 0.05334126895207935 -0.0014082765131987072 0 0.053739156726437073 -0.0019151138812685186 0 0.053734946549709069 -0.0015673968331822955 0 0.05342332762875724 -0.0016664483022790705 0 0.05327216406634263 -0.0019113824845925977 0 0.05342332762875724 -0.0016664483022790705 0 0.053111084088566157 -0.0016030649972810906 0 0.05061199514253404 -0.0041891843375901757 0 0.048074568439723943 -0.0021099197431176031 0 0.05061199514253404 -0.0041891843375901757 0 0.046477180383661568 -0.0096352057130464751 0 0.048556124777578973 -0.0099239864927980551 0 0.047167566925342144 -0.011216710367972423 0 0.048442346538390454 -0.011105587067417466 0 0.048556124777578973 -0.0099239864927980551 0 0.049243795611485522 -0.011332281910966916 0 0.048442346538390454 -0.011105587067417466 0 0.05061199514253404 -0.0041891843375901757 0 0.050556192687028052 -0.0082320199131431099 0 0.05342332762875724 -0.0016664483022790705 0 0.053111084088566157 -0.0016030649972810906 0 0.05334126895207935 -0.0014082765131987072 0 0.037551568629640014 0.00027737747961560931 0 0.036383842367023897 -0.0060104132709625988 0 0.038191430466608493 -0.0041329076285024939 0 0.046282228623805696 -0.0011632473764960237 0 0.044230955387527145 -0.0030654047883388325 0 0.045179673995554413 -0.0068990011633417248 0 0.046581510674095543 -0.004857988254481911 0 0.048703538352824566 -0.0029065428778949848 0 0.048254019673548844 -0.0080869973178391286 0 0.044230955387527145 -0.0030654047883388325 0 0.045179673995554413 -0.0068990011633417248 0 0.043810405940835101 -0.0081843843244453537 0 0.048074568439723943 -0.0021099197431176031 0 0.046477180383661568 -0.0096352057130464751 0 0.043763115614362122 -0.00020887004204374825 0 0.041367075852890567 -0.0074535510715657421 0 0.037656387503880652 -0.0015353681399003214 0 0.035823364893316438 -0.0061476190464862359 0 0.041367075852890567 -0.0074535510715657421 0 0.035823364893316438 -0.0061476190464862359 0 0.035823364893316438 -0.0061476190464862359 0 0.037031061766970422 -0.012379329679444941 0 0.046477180383661568 -0.0096352057130464751 0 0.047624347610509071 -0.013124418758335345 0 0.037943505988001745 -0.0081852405811258921 0 0.039071440494803829 -0.007024300167914021 0 0.03847787404730578 -0.011869100772576167 0 0.04685304710554878 -0.01038627465280097 0 0.047215067618475923 -0.011068932681862735 0 0.046693389196784479 -0.012622925067220646 0 0.037943505988001745 -0.0081852405811258921 0 0.037570963893249716 -0.010122674843573131 0 0.03847787404730578 -0.011869100772576167 0 0.041367075852890567 -0.0074535510715657421 0 0.044516121206268973 -0.011141571787768477 0 0.043717464753938402 -0.0083083270497061358 0 0.042820327664363347 -0.0091519028051587278 0 0.043360037168283336 -0.010183692413386803 0 0.041367075852890567 -0.0074535510715657421 0 0.046477180383661568 -0.0096352057130464751 0 0.046477180383661568 -0.0096352057130464751 0 0.044516121206268973 -0.011141571787768477 0 0.044516121206268973 -0.011141571787768477 0 0.037031061766970422 -0.012379329679444941 0 0.048701574540838961 -0.01175304915683642 0 0.047864048353439416 -0.012672466692484494 0 0.0485823591405556 -0.013193350767060841 0 0.04798536725844299 -0.011659908532076857 0 0.047333299862401812 -0.011357781728719497 0 0.047276603937602156 -0.012226523398553377 0 0.04798536725844299 -0.011659908532076857 0 0.047167566925342144 -0.011216710367972423 0 0.048442346538390454 -0.011105587067417466 0 0.049004824238451386 -0.0093399823759672939 0 0.050556192687028052 -0.0082320199131431099 0 0.049243795611485522 -0.011332281910966916 0 0.04798536725844299 -0.011659908532076857 0 0.048442346538390454 -0.011105587067417466 0 0.049243795611485522 -0.011332281910966916 0 0.04798536725844299 -0.011659908532076857 0 0.047864048353439416 -0.012672466692484494 0 0.046477180383661568 -0.0096352057130464751 0 0.047954937737772659 -0.012318946059237647 0 0.04798536725844299 -0.011659908532076857 0 0.047864048353439416 -0.012672466692484494 0 0.047276603937602156 -0.012226523398553377 0 0.047864048353439416 -0.012672466692484494 0 0.047276603937602156 -0.012226523398553377 0 0.047101951476410421 -0.012827985112097911 0 0.047628791371220523 -0.013770216873413637 0 0.0485823591405556 -0.013193350767060841 0 0.048352410256817552 -0.014632190515967876 0 0.047624347610509071 -0.013124418758335345 0 0.047893708276195747 -0.014782725710935401 0 0.047864048353439416 -0.012672466692484494 0 0.047628791371220523 -0.013770216873413637 0 0.047101951476410421 -0.012827985112097911 0 0.047864048353439416 -0.012672466692484494 0 0.047628791371220523 -0.013770216873413637 0 0.0485823591405556 -0.013193350767060841 0 0.029617965547811195 -0.015890748152171986 0 0.037031061766970422 -0.012379329679444941 0 0.036553820551413381 -0.01486724670504729 0 0.03615133249513227 -0.014029089432984402 0 0.036042667475156526 -0.014920944948493969 0 0.048093290059382808 -0.012772031212252627 0 0.048458451644090357 -0.013398213339297383 0 0.047893280426216121 -0.014861934171122082 0 0.048458451644090357 -0.013398213339297383 0 0.048394854073713293 -0.014872340367184244 0 0.047893280426216121 -0.014861934171122082 0 0.047215067618475923 -0.011068932681862735 0 0.046693389196784479 -0.012622925067220646 0 0.046540213227361356 -0.014801647586041662 0 0.044516121206268973 -0.011141571787768477 0 0.047893708276195747 -0.014782725710935401 0 0.037031061766970422 -0.012379329679444941 0 0.042881679573976879 -0.01494099899129088 0 0.048377040905187692 -0.016211513367573201 0 0.048394854073713293 -0.014872340367184244 0 0.047894634059033117 -0.015023682657397107 0 0.03594491657393134 -0.015794877658120311 0 0.036553820551413381 -0.01486724670504729 0 0.036042667475156526 -0.014920944948493969 0 0.048394854073713293 -0.014872340367184244 0 0.047893280426216121 -0.014861934171122082 0 0.047894634059033117 -0.015023682657397107 0 0.047628791371220523 -0.013770216873413637 0 0.047525932067406344 -0.015167588408930607 0 0.046612190021383816 -0.014530360662926838 0 0.047628791371220523 -0.013770216873413637 0 0.048352410256817552 -0.014632190515967876 0 0.047525932067406344 -0.015167588408930607 0 0.047893708276195747 -0.014782725710935401 0 0.047936569923104203 -0.014927611215484976 0 0.04788046884360668 -0.015902933780922546 0 0.048295422420060463 -0.014825670982471022 0 0.047525932067406344 -0.015167588408930607 0 0.048352410256817552 -0.014632190515967876 0 0.048295422420060463 -0.014825670982471022 0 0.047525932067406344 -0.015167588408930607 0 0.045375881428622089 -0.0155406044610453 0 0.046640416598728356 -0.015804769126129554 0 0.046612190021383816 -0.014530360662926838 0 0.046640416598728356 -0.015804769126129554 0 0.047525932067406344 -0.015167588408930607 0 0.046612190021383816 -0.014530360662926838 0 0.045375881428622089 -0.0155406044610453 0 0.046612190021383816 -0.014530360662926838 0 0.045658519115349967 -0.013389921468633929 0 0.063897599509988245 -0.014306933808687309 0 0.064102045705350122 -0.012551373137151883 0 0.063361417008172286 -0.013300750295193092 0 0.054190374574764055 -0.014434627567706589 0 0.057426403548940935 -0.012919532663003948 0 0.057426403548940935 -0.012919532663003948 0 0.064883592373854562 -0.012079391498598933 0 0.064227731508437857 -0.012419979520019787 0 0.063382871922562423 -0.012298638614948173 0 0.063361417008172286 -0.013300750295193092 0 0.06431917796114299 -0.011722356387624019 0 0.064227731508437857 -0.012419979520019787 0 0.063382871922562423 -0.012298638614948173 0 0.050092457809871045 -0.011699349932065107 0 0.057426403548940935 -0.012919532663003948 0 0.055741544762477599 -0.011789345309408636 0 0.055032559497493985 -0.011628911438514713 0 0.05589945779863463 -0.010866843977641193 0 0.05821992734636329 -0.0097215995411394605 0 0.057426403548940935 -0.012919532663003948 0 0.046360555871587536 -0.012692313247909259 0 0.045658519115349967 -0.013389921468633929 0 0.046629502906510419 -0.01348037653968207 0 0.046360555871587536 -0.012692313247909259 0 0.047101951476410421 -0.012827985112097911 0 0.046629502906510419 -0.01348037653968207 0 0.047628791371220523 -0.013770216873413637 0 0.047101951476410421 -0.012827985112097911 0 0.046629502906510419 -0.01348037653968207 0 0.047628791371220523 -0.013770216873413637 0 0.046612190021383816 -0.014530360662926838 0 0.046629502906510419 -0.01348037653968207 0 0.046612190021383816 -0.014530360662926838 0 0.045658519115349967 -0.013389921468633929 0 0.046629502906510419 -0.01348037653968207 0 0.062358375498619403 -0.012814447417280319 0 0.061010392001776437 -0.012304110844492067 0 0.06264820967394169 -0.011259644919270111 0 0.062358375498619403 -0.012814447417280319 0 0.063382871922562423 -0.012298638614948173 0 0.06264820967394169 -0.011259644919270111 0 0.062358375498619403 -0.012814447417280319 0 0.063382871922562423 -0.012298638614948173 0 0.063361417008172286 -0.013300750295193092 0 0.062358375498619403 -0.012814447417280319 0 0.063361417008172286 -0.013300750295193092 0 0.062620800750141384 -0.014006157991804496 0 0.063897599509988245 -0.014306933808687309 0 0.063361417008172286 -0.013300750295193092 0 0.062620800750141384 -0.014006157991804496 0 0.062358375498619403 -0.012814447417280319 0 0.062620800750141384 -0.014006157991804496 0 0.061269716616732584 -0.013803306945475364 0 0.061269716616732584 -0.013803306945475364 0 0.059585738488845304 -0.013061179673071455 0 0.061010392001776437 -0.012304110844492067 0 0.059880673574515916 -0.014522385250768672 0 0.061269716616732584 -0.013803306945475364 0 0.059585738488845304 -0.013061179673071455 0 0.059585738488845304 -0.013061179673071455 0 0.061010392001776437 -0.012304110844492067 0 0.059736646029044251 -0.011480987998112181 0 0.062358375498619403 -0.012814447417280319 0 0.061269716616732584 -0.013803306945475364 0 0.061010392001776437 -0.012304110844492067 0 0.061010392001776437 -0.012304110844492067 0 0.060904068172729663 -0.010698879585654514 0 0.06264820967394169 -0.011259644919270111 0 0.061010392001776437 -0.012304110844492067 0 0.059736646029044251 -0.011480987998112181 0 0.060904068172729663 -0.010698879585654514 0 0.059736646029044251 -0.011480987998112181 0 0.060904068172729663 -0.010698879585654514 0 0.059063595353461562 -0.010165089221935913 0 0.055323445402295598 -0.0039274431847258926 0 0.056004594431231014 -0.0044625834479339408 0 0.05557995524612757 -0.0036971286674578794 0 0.058312265281000183 -0.007579643905254797 0 0.057041965242289376 -0.0071696948157695386 0 0.055323445402295598 -0.0039274431847258926 0 0.056004594431231014 -0.0044625834479339408 0 0.05498078677317686 -0.0041392252196858622 0 0.056004594431231014 -0.0044625834479339408 0 0.056053619981185999 -0.0034879528323322152 0 0.05557995524612757 -0.0036971286674578794 0 0.056004594431231014 -0.0044625834479339408 0 0.056670157240154541 -0.0040126964926509613 0 0.056053619981185999 -0.0034879528323322152 0 0.056004594431231014 -0.0044625834479339408 0 0.056670157240154541 -0.0040126964926509613 0 0.057177215846421464 -0.004804674608123281 0 0.058312265281000183 -0.007579643905254797 0 0.060566247102301046 -0.0079248211414114141 0 0.057883134374764292 -0.0044795651979837653 0 0.058363378415399111 -0.005122325231958008 0 0.057177215846421464 -0.004804674608123281 0 0.05821992734636329 -0.0097215995411394605 0 0.060566247102301046 -0.0079248211414114141 0 0.06431917796114299 -0.011722356387624019 0 0.063382871922562423 -0.012298638614948173 0 0.06264820967394169 -0.011259644919270111 0 0.057883134374764292 -0.0044795651979837653 0 0.057177215846421464 -0.004804674608123281 0 0.057617645254844592 -0.0037580776700351062 0 0.056670157240154541 -0.0040126964926509613 0 0.057177215846421464 -0.004804674608123281 0 0.057617645254844592 -0.0037580776700351062 0 0.056381193232403634 -0.0026965396810897961 0 0.056027713237773329 -0.0027119781240987815 0 0.05465017250766268 -0.001639034206010613 0 0.055491117776703888 -0.0021392422499164352 0 0.054574821751263762 -0.0026562036287125106 0 0.056670157240154541 -0.0040126964926509613 0 0.056742259302069234 -0.0032782622918329802 0 0.056053619981185999 -0.0034879528323322152 0 0.056670157240154541 -0.0040126964926509613 0 0.057617645254844592 -0.0037580776700351062 0 0.056742259302069234 -0.0032782622918329802 0 0.053704812106108779 0.0025315743887680472 0 0.054889620551732653 0.0018377781160440348 0 0.055491117776703888 -0.0021392422499164352 0 0.054574821751263762 -0.0026562036287125106 0 0.055755231585161318 -0.0026815637532644622 0 0.052839722275257371 0.0077006816686734899 0 0.053731128127809641 0.006275583665696311 0 0.054219775057910868 0.0064200117439208336 0 0.052493525516775254 0.0071567632785928953 0 0.052839722275257371 0.0077006816686734899 0 0.053731128127809641 0.006275583665696311 0 0.055005698547636893 0.0050237030043249345 0 0.055438989941826868 0.0042260684628015813 0 0.055829287367666236 0.0036530518894289403 0 0.055005698547636893 0.0050237030043249345 0 0.054719306807299188 0.0054111745893793781 0 0.055438989941826868 0.0042260684628015813 0 0.053731128127809641 0.006275583665696311 0 0.055005698547636893 0.0050237030043249345 0 0.054719306807299188 0.0054111745893793781 0 0.054719306807299188 0.0054111745893793781 0 0.055310695720747746 0.0045155219523795153 0 0.054219775057910868 0.0064200117439208336 0 0.053731128127809641 0.006275583665696311 0 0.054719306807299188 0.0054111745893793781 0 0.054219775057910868 0.0064200117439208336 0 0.054719306807299188 0.0054111745893793781 0 0.055438989941826868 0.0042260684628015813 0 0.055310695720747746 0.0045155219523795153 0 0.055438989941826868 0.0042260684628015813 0 0.055310695720747746 0.0045155219523795153 0 0.055713811546510186 0.0035860353741372355 0 0.055310695720747746 0.0045155219523795153 0 0.055441313823731811 0.0045612624216799071 0 0.054219775057910868 0.0064200117439208336 0 0.055423172111348902 -0.0028319288454152938 0 0.055721200629473305 -0.0028109016712285044 0 0.055495815184936723 -0.0031897436973672109 0 0.055310695720747746 0.0045155219523795153 0 0.055441313823731811 0.0045612624216799071 0 0.055584537205865911 0.0042311135648014026 0 0.055423172111348902 -0.0028319288454152938 0 0.055495815184936723 -0.0031897436973672109 0 0.055035948785745067 -0.0031681731354779243 0 0.056027713237773329 -0.0027119781240987815 0 0.055769572677085336 -0.0027558098529427344 0 0.055360081319329589 0.00086483377519917662 0 0.054889620551732653 0.0018377781160440348 0 0.055423172111348902 -0.0028319288454152938 0 0.055755231585161318 -0.0026815637532644622 0 0.055721200629473305 -0.0028109016712285044 0 0.055491117776703888 -0.0021392422499164352 0 0.055755231585161318 -0.0026815637532644622 0 0.055721200629473305 -0.0028109016712285044 0 0.056742259302069234 -0.0032782622918329802 0 0.055721200629473305 -0.0028109016712285044 0 0.056053619981185999 -0.0034879528323322152 0 0.055721200629473305 -0.0028109016712285044 0 0.056053619981185999 -0.0034879528323322152 0 0.055495815184936723 -0.0031897436973672109 0 0.056053619981185999 -0.0034879528323322152 0 0.055495815184936723 -0.0031897436973672109 0 0.05557995524612757 -0.0036971286674578794 0 0.055323445402295598 -0.0039274431847258926 0 0.05557995524612757 -0.0036971286674578794 0 0.055132586775067459 -0.0035653782390263314 0 0.055495815184936723 -0.0031897436973672109 0 0.05557995524612757 -0.0036971286674578794 0 0.055132586775067459 -0.0035653782390263314 0 0.055323445402295598 -0.0039274431847258926 0 0.055132586775067459 -0.0035653782390263314 0 0.055039262306605177 -0.0038891374646853822 0 0.055132586775067459 -0.0035653782390263314 0 0.054773198294802969 -0.0036796268897343119 0 0.055039262306605177 -0.0038891374646853822 0 0.055132586775067459 -0.0035653782390263314 0 0.054773198294802969 -0.0036796268897343119 0 0.054668423829948964 -0.0033728508687694701 0 0.055132586775067459 -0.0035653782390263314 0 0.054668423829948964 -0.0033728508687694701 0 0.055035948785745067 -0.0031681731354779243 0 0.055495815184936723 -0.0031897436973672109 0 0.055132586775067459 -0.0035653782390263314 0 0.055035948785745067 -0.0031681731354779243 0 0.054773198294802969 -0.0036796268897343119 0 0.054041388272333235 -0.0034722586135179792 0 0.054954795352408811 -0.0041227032607387528 0 0.054773198294802969 -0.0036796268897343119 0 0.054668423829948964 -0.0033728508687694701 0 0.054041388272333235 -0.0034722586135179792 0 0.054668423829948964 -0.0033728508687694701 0 0.054252657307404091 -0.0028961882855635369 0 0.054041388272333235 -0.0034722586135179792 0 0.054403421253164927 -0.0041892625887765328 0 0.054960939532994149 -0.0040990374411199702 0 0.05490385220349759 -0.0045251772445354249 0 0.054920142189056352 -0.0044245390715939633 0 0.054954795352408811 -0.0041227032607387528 0 0.055887167265018467 0.0028724894327652891 0 0.056061686500099274 0.0019450094236481397 0 0.056283613902062588 0.00066026637617248765 0 0.056007373420228858 0.0038121753392031449 0 0.055584537205865911 0.0042311135648014026 0 0.056109369849318948 0.0036604230049555541 0 0.055584537205865911 0.0042311135648014026 0 0.055887167265018467 0.0028724894327652891 0 0.056283613902062588 0.00066026637617248765 0 0.055525181666476603 0.0039330875085597577 0 0.055987451246384462 0.0021255194211603923 0 0.054668423829948964 -0.0033728508687694701 0 0.054252657307404091 -0.0028961882855635369 0 0.055035948785745067 -0.0031681731354779243 0 0.055360081319329589 0.00086483377519917662 0 0.055088925079653066 0.00082602259310977119 0 0.055423172111348902 -0.0028319288454152938 0 0.054252657307404091 -0.0028961882855635369 0 0.055035948785745067 -0.0031681731354779243 0 0.055441313823731811 0.0045612624216799071 0 0.056007373420228858 0.0038121753392031449 0 0.055584537205865911 0.0042311135648014026 0 0.055310695720747746 0.0045155219523795153 0 0.055584537205865911 0.0042311135648014026 0 0.05566983542902957 0.0037763652300667129 0 0.055584537205865911 0.0042311135648014026 0 0.05566983542902957 0.0037763652300667129 0 0.055887167265018467 0.0028724894327652891 0 0.055310695720747746 0.0045155219523795153 0 0.055713811546510186 0.0035860353741372355 0 0.05566983542902957 0.0037763652300667129 0 0.055438989941826868 0.0042260684628015813 0 0.055713811546510186 0.0035860353741372355 0 0.055811839694980936 0.0033631743256162644 0 0.055811839694980936 0.0033631743256162644 0 0.055958052799201491 0.0026752046447157175 0 0.05599420104028778 0.0027144752482328653 0 0.055713811546510186 0.0035860353741372355 0 0.055811839694980936 0.0033631743256162644 0 0.055958052799201491 0.0026752046447157175 0 0.055713811546510186 0.0035860353741372355 0 0.05566983542902957 0.0037763652300667129 0 0.055887167265018467 0.0028724894327652891 0 0.055713811546510186 0.0035860353741372355 0 0.055887167265018467 0.0028724894327652891 0 0.055958052799201491 0.0026752046447157175 0 0.055887167265018467 0.0028724894327652891 0 0.055958052799201491 0.0026752046447157175 0 0.056061686500099274 0.0019450094236481397 0 0.055958052799201491 0.0026752046447157175 0 0.056061686500099274 0.0019450094236481397 0 0.056092033544973462 0.001927649806282379 0 0.056061686500099274 0.0019450094236481397 0 0.056146396787586997 0.0011760847550000607 0 0.056283613902062588 0.00066026637617248765 0 0.056061686500099274 0.0019450094236481397 0 0.056146396787586997 0.0011760847550000607 0 0.056092033544973462 0.001927649806282379 0 0.056092033544973462 0.001927649806282379 0 0.056117766108552562 0.0021770533543865964 0 0.056100953595601917 0.0011173129486166671 0 0.056146396787586997 0.0011760847550000607 0 0.056092033544973462 0.001927649806282379 0 0.056100953595601917 0.0011173129486166671 0 0.055958052799201491 0.0026752046447157175 0 0.056092033544973462 0.001927649806282379 0 0.05599420104028778 0.0027144752482328653 0 0.05599420104028778 0.0027144752482328653 0 0.056117766108552562 0.0021770533543865964 0 0.055829287367666236 0.0036530518894289403 0 0.056117766108552562 0.0021770533543865964 0 0.055829287367666236 0.0036530518894289403 0 0.056014455239958301 0.003542536842173729 0 0.056092033544973462 0.001927649806282379 0 0.05599420104028778 0.0027144752482328653 0 0.056117766108552562 0.0021770533543865964 0 0.055438989941826868 0.0042260684628015813 0 0.055811839694980936 0.0033631743256162644 0 0.055829287367666236 0.0036530518894289403 0 0.055811839694980936 0.0033631743256162644 0 0.05599420104028778 0.0027144752482328653 0 0.055829287367666236 0.0036530518894289403 0 0.054999398203539308 -0.0011726187105395769 0 0.055913060484933018 0.00040604300104063972 0 0.05583565721901642 0.0015092032822689445 0 0.056117766108552562 0.0021770533543865964 0 0.055913060484933018 0.00040604300104063972 0 0.05583565721901642 0.0015092032822689445 0 0.056117766108552562 0.0021770533543865964 0 0.055913060484933018 0.00040604300104063972 0 0.056100953595601917 0.0011173129486166671 0 0.055913060484933018 0.00040604300104063972 0 0.056100953595601917 0.0011173129486166671 0 0.056095928481185615 0.0003785281997733921 0 0.056146396787586997 0.0011760847550000607 0 0.056095928481185615 0.0003785281997733921 0 0.056283613902062588 0.00066026637617248765 0 0.056146396787586997 0.0011760847550000607 0 0.056100953595601917 0.0011173129486166671 0 0.056095928481185615 0.0003785281997733921 0 0.056095928481185615 0.0003785281997733921 0 0.055724024796738103 -0.0012537138735248497 0 0.056283613902062588 0.00066026637617248765 0 0.055913060484933018 0.00040604300104063972 0 0.056095928481185615 0.0003785281997733921 0 0.055724024796738103 -0.0012537138735248497 0 0.054999398203539308 -0.0011726187105395769 0 0.055913060484933018 0.00040604300104063972 0 0.055724024796738103 -0.0012537138735248497 0 0.054999398203539308 -0.0011726187105395769 0 0.055724024796738103 -0.0012537138735248497 0 0.054999677522124923 -0.0039709373837358147 0 0.055724024796738103 -0.0012537138735248497 0 0.054999677522124923 -0.0039709373837358147 0 0.056283613902062588 0.00066026637617248765 0 0.056485745944690476 0.0034437483488339664 0 0.056386973050259796 0.0035601200852933635 0 0.056109369849318948 0.0036604230049555541 0 0.055637985814861887 6.8825722752740014e-05 0 0.055987451246384462 0.0021255194211603923 0 0.055637985814861887 6.8825722752740014e-05 0 0.054979381698344557 -0.0023462409635699104 0 0.055052278846228028 -0.0047779387179392495 0 0.055000521870547693 -0.0048468034203227655 0 0.054999525542420345 -0.0045910520229785427 0 0.054999999244563558 -0.0039759612192609524 0 0.055864237465287292 -0.0045211440524991018 0 0.054999991204226509 -0.0045893600151816595 0 0.054979381698344557 -0.0023462409635699104 0 0.055000064567635974 -0.0045872223366550252 0 0.056007373420228858 0.0038121753392031449 0 0.056386973050259796 0.0035601200852933635 0 0.056109369849318948 0.0036604230049555541 0 0.055088925079653066 0.00082602259310977119 0 0.054979381698344557 -0.0023462409635699104 0 0.054252657307404091 -0.0028961882855635369 0 0.053238965147543567 -0.0029648665757514782 0 0.054041388272333235 -0.0034722586135179792 0 0.055213410060338995 -0.0067899187122515709 0 0.056229387573257274 -0.0071085481464895402 0 0.054979381698344557 -0.0023462409635699104 0 0.054403421253164927 -0.0041892625887765328 0 0.054987475617462554 -0.0045954902028345042 0 0.055070930652954042 -0.0046544452973470421 0 0.054920142189056352 -0.0044245390715939633 0 0.055052278846228028 -0.0047779387179392495 0 0.05490385220349759 -0.0045251772445354249 0 0.054987475617462554 -0.0045954902028345042 0 0.05490385220349759 -0.0045251772445354249 0 0.054987475617462554 -0.0045954902028345042 0 0.054920142189056352 -0.0044245390715939633 0 0.055052278846228028 -0.0047779387179392495 0 0.054987475617462554 -0.0045954902028345042 0 0.055070930652954042 -0.0046544452973470421 0 0.055052278846228028 -0.0047779387179392495 0 0.055000521870547693 -0.0048468034203227655 0 0.055070930652954042 -0.0046544452973470421 0 0.054999998698791602 -0.004848640153338862 0 0.054999996949182242 -0.0063981651464066411 0 0.055422468184049493 -0.0064966941245610029 0 0.054999842533381797 -0.0048480491864895817 0 0.055213410060338995 -0.0067899187122515709 0 0.055000220270215047 -0.0063990347629655237 0 0.055213410060338995 -0.0067899187122515709 0 0.055913933755622126 -0.0093681688687386067 0 0.05656410689697948 -0.01001795757541599 0 0.056288862864817955 -0.010677830661332157 0 0.055424059028047847 -0.0064954686777123957 0 0.054999972472557647 -0.0090880634365884151 0 0.056070359732335075 -0.0089292298955992288 0 0.055213410060338995 -0.0067899187122515709 0 0.056253560832055238 -0.010080390531788169 0 0.055000014932378175 -0.0063981444374219404 0 0.055424059028047847 -0.0064954686777123957 0 0.054999972472557647 -0.0090880634365884151 0 0.05656410689697948 -0.01001795757541599 0 0.056288862864817955 -0.010677830661332157 0 0.05689480734746287 -0.010377261867206921 0 0.056070359732335075 -0.0089292298955992288 0 0.056605450856093573 -0.011687155026020571 0 0.055676108312045731 -0.010421158806048197 0 0.056253560832055238 -0.010080390531788169 0 0.05655240345290475 -0.01143214628461304 0 0.054999972472557647 -0.0090880634365884151 0 0.056070359732335075 -0.0089292298955992288 0 0.055676108312045731 -0.010421158806048197 0 0.056288862864817955 -0.010677830661332157 0 0.057326478951072193 -0.011103038539187116 0 0.05689480734746287 -0.010377261867206921 0 0.056288862864817955 -0.010677830661332157 0 0.057326478951072193 -0.011103038539187116 0 0.056605450856093573 -0.011687155026020571 0 0.057326478951072193 -0.011103038539187116 0 0.05689480734746287 -0.010377261867206921 0 0.057449004755566295 -0.0097424858409883349 0 0.055913933755622126 -0.0093681688687386067 0 0.05656410689697948 -0.01001795757541599 0 0.057449004755566295 -0.0097424858409883349 0 0.05656410689697948 -0.01001795757541599 0 0.05689480734746287 -0.010377261867206921 0 0.057449004755566295 -0.0097424858409883349 0 0.057326478951072193 -0.011103038539187116 0 0.057449004755566295 -0.0097424858409883349 0 0.059063595353461562 -0.010165089221935913 0 0.056229387573257274 -0.0071085481464895402 0 0.057041965242289376 -0.0071696948157695386 0 0.054920142189056352 -0.0044245390715939633 0 0.054954795352408811 -0.0041227032607387528 0 0.05498078677317686 -0.0041392252196858622 0 0.055039262306605177 -0.0038891374646853822 0 0.054954795352408811 -0.0041227032607387528 0 0.05498078677317686 -0.0041392252196858622 0 0.055323445402295598 -0.0039274431847258926 0 0.055039262306605177 -0.0038891374646853822 0 0.05498078677317686 -0.0041392252196858622 0 0.054773198294802969 -0.0036796268897343119 0 0.055039262306605177 -0.0038891374646853822 0 0.054954795352408811 -0.0041227032607387528 0 0.059736646029044251 -0.011480987998112181 0 0.059063595353461562 -0.010165089221935913 0 0.058403400596445561 -0.011839422358291036 0 0.057326478951072193 -0.011103038539187116 0 0.059063595353461562 -0.010165089221935913 0 0.058403400596445561 -0.011839422358291036 0 0.05835355592699526 -0.01186689468244217 0 0.056908831941516531 -0.012920612447939182 0 0.057326478951072193 -0.011103038539187116 0 0.058403400596445561 -0.011839422358291036 0 0.057181592450295388 -0.012485244839188545 0 0.058403400596445561 -0.011839422358291036 0 0.058115520471800866 -0.013326315369494577 0 0.056622111724391209 -0.013334150737883075 0 0.059585738488845304 -0.013061179673071455 0 0.058403400596445561 -0.011839422358291036 0 0.058115520471800866 -0.013326315369494577 0 0.059585738488845304 -0.013061179673071455 0 0.059736646029044251 -0.011480987998112181 0 0.058403400596445561 -0.011839422358291036 0 0.058601104681180259 -0.014312320828710123 0 0.059585738488845304 -0.013061179673071455 0 0.058115520471800866 -0.013326315369494577 0 0.058601104681180259 -0.014312320828710123 0 0.059880673574515916 -0.014522385250768672 0 0.059585738488845304 -0.013061179673071455 0 0.057382691146118707 -0.014239384691690119 0 0.058601104681180259 -0.014312320828710123 0 0.058115520471800866 -0.013326315369494577 0 0.057382691146118707 -0.014239384691690119 0 0.058115520471800866 -0.013326315369494577 0 0.056622111724391209 -0.013334150737883075 0 0.05611399953014775 -0.014612859799585778 0 0.057382691146118707 -0.014239384691690119 0 0.056622111724391209 -0.013334150737883075 0 0.057181592450295388 -0.012485244839188545 0 0.055975336298176873 -0.012570765364660784 0 0.056605450856093573 -0.011687155026020571 0 0.055000146568002839 -0.014467314691759698 0 0.057181592450295388 -0.012485244839188545 0 0.055975336298176873 -0.012570765364660784 0 0.055000238020867988 -0.014467537327759024 0 0.056908831941516531 -0.012920612447939182 0 0.055000146568002839 -0.014467314691759698 0 0.055975336298176873 -0.012570765364660784 0 0.054999889763324782 -0.011778395166395393 0 0.054999972472557647 -0.0090880634365884151 0 0.054999889763324782 -0.011778395166395393 0 0.055676108312045731 -0.010421158806048197 0 0.055975336298176873 -0.012570765364660784 0 0.056605450856093573 -0.011687155026020571 0 0.054999889763324782 -0.011778395166395393 0 0.056605450856093573 -0.011687155026020571 0 0.054999889763324782 -0.011778395166395393 0 0.055676108312045731 -0.010421158806048197 0 0.057326478951072193 -0.011103038539187116 0 0.057181592450295388 -0.012485244839188545 0 0.056605450856093573 -0.011687155026020571 0 0.021646178731895768 -0.021404092017414566 0 0.020766058881567486 -0.021874230163006169 0 0.02068610968790488 -0.019928300676946026 0 0.021646178731895768 -0.021404092017414566 0 0.020766058881567486 -0.021874230163006169 0 0.021386556193300876 -0.022078272915884756 0 0.021646178731895768 -0.021404092017414566 0 0.022187692333335403 -0.022184491245873291 0 0.023318410130208807 -0.02145297793737129 0 0.021646178731895768 -0.021404092017414566 0 0.022100571355882847 -0.019777529871684338 0 0.023234693446884037 -0.021154600664291711 0 0.022450372878417977 -0.021293873516991135 0 0.021434937673120769 -0.022132075476881612 0 0.021646178731895768 -0.021404092017414566 0 0.022187692333335403 -0.022184491245873291 0 0.021386556193300876 -0.022078272915884756 0 0.022833543682854614 -0.024777164630211724 0 0.024980977225240265 -0.025117199269315934 0 0.023996276872825767 -0.025474647178692637 0 0.022187692333335403 -0.022184491245873291 0 0.020850589168539452 -0.022797992458873075 0 0.023010674907174313 -0.022943950661609334 0 0.022187692333335403 -0.022184491245873291 0 0.023318410130208807 -0.02145297793737129 0 0.023010674907174313 -0.022943950661609334 0 0.022475177904559787 -0.023453649695346562 0 0.020826222104249073 -0.026897012151551204 0 0.022187692333335403 -0.022184491245873291 0 0.021386556193300876 -0.022078272915884756 0 0.020850589168539452 -0.022797992458873075 0 0.022833543682854614 -0.024777164630211724 0 0.023178279833369234 -0.025344004228084926 0 0.023996276872825767 -0.025474647178692637 0 0.020766058881567486 -0.021874230163006169 0 0.020850589168539452 -0.022797992458873075 0 0.020044394910934869 -0.022541812561441565 0 0.020766058881567486 -0.021874230163006169 0 0.021386556193300876 -0.022078272915884756 0 0.020850589168539452 -0.022797992458873075 0 0.022833543682854614 -0.024777164630211724 0 0.022289139745986591 -0.025602078558872282 0 0.023178279833369234 -0.025344004228084926 0 0.022475177904559787 -0.023453649695346562 0 0.018764416436108593 -0.023810039245917559 0 0.022833543682854614 -0.024777164630211724 0 0.019016109126625692 -0.023761049253629957 0 0.021173460200266992 -0.025291557860080506 0 0.020850589168539452 -0.022797992458873075 0 0.020044394910934869 -0.022541812561441565 0 0.019016109126625692 -0.023761049253629957 0 0.022833543682854614 -0.024777164630211724 0 0.022289139745986591 -0.025602078558872282 0 0.021173460200266992 -0.025291557860080506 0 0.020044394910934869 -0.022541812561441565 0 0.019016109126625692 -0.023761049253629957 0 0.019105159550098016 -0.022307550302425913 0 0.018126659240122949 -0.024567202386771743 0 0.019016109126625692 -0.023761049253629957 0 0.018879189979506283 -0.026044352428156801 0 0.019016109126625692 -0.023761049253629957 0 0.020153998113220856 -0.025755717715608653 0 0.021173460200266992 -0.025291557860080506 0 0.019016109126625692 -0.023761049253629957 0 0.018879189979506283 -0.026044352428156801 0 0.020153998113220856 -0.025755717715608653 0 0.018126659240122949 -0.024567202386771743 0 0.019016109126625692 -0.023761049253629957 0 0.017779520196894879 -0.022697957484657864 0 0.019016109126625692 -0.023761049253629957 0 0.019105159550098016 -0.022307550302425913 0 0.017779520196894879 -0.022697957484657864 0 0.019105159550098016 -0.022307550302425913 0 0.018430545024374082 -0.021218252326151536 0 0.017779520196894879 -0.022697957484657864 0 0.019105159550098016 -0.022307550302425913 0 0.018430545024374082 -0.021218252326151536 0 0.019809473538824292 -0.021342150450942763 0 0.020766058881567486 -0.021874230163006169 0 0.019809473538824292 -0.021342150450942763 0 0.02068610968790488 -0.019928300676946026 0 0.020766058881567486 -0.021874230163006169 0 0.020044394910934869 -0.022541812561441565 0 0.019809473538824292 -0.021342150450942763 0 0.020044394910934869 -0.022541812561441565 0 0.019105159550098016 -0.022307550302425913 0 0.019809473538824292 -0.021342150450942763 0 0.019158716137724362 -0.019416753309319003 0 0.019991705863083666 -0.017857649525517712 0 0.02068610968790488 -0.019928300676946026 0 0.019809473538824292 -0.021342150450942763 0 0.019158716137724362 -0.019416753309319003 0 0.02068610968790488 -0.019928300676946026 0 0.018430545024374082 -0.021218252326151536 0 0.019158716137724362 -0.019416753309319003 0 0.017536047282302538 -0.019575072706250061 0 0.018430545024374082 -0.021218252326151536 0 0.019809473538824292 -0.021342150450942763 0 0.019158716137724362 -0.019416753309319003 0 0.019158716137724362 -0.019416753309319003 0 0.01840407682168135 -0.017880638870895915 0 0.017536047282302538 -0.019575072706250061 0 0.01840407682168135 -0.017880638870895915 0 0.017536047282302538 -0.019575072706250061 0 0.017058339118572456 -0.017648390234375037 0 0.019158716137724362 -0.019416753309319003 0 0.01840407682168135 -0.017880638870895915 0 0.019991705863083666 -0.017857649525517712 0 0.019991705863083666 -0.017857649525517712 0 0.02068610968790488 -0.019928300676946026 0 0.021709009106516946 -0.017683505748543268 0 0.02068610968790488 -0.019928300676946026 0 0.022100571355882847 -0.019777529871684338 0 0.021709009106516946 -0.017683505748543268 0 0.021646178731895768 -0.021404092017414566 0 0.02068610968790488 -0.019928300676946026 0 0.022100571355882847 -0.019777529871684338 0 0.022100571355882847 -0.019777529871684338 0 0.021709009106516946 -0.017683505748543268 0 0.023382600103879228 -0.019261668617929214 0 0.021701408328291615 -0.017636334141673302 0 0.022411023150970728 -0.017702986282236981 0 0.021709009106516946 -0.017683505748543268 0 0.021819758919212943 -0.016307719862862977 0 0.021738067815413396 -0.016750563948465007 0 0.021709009106516946 -0.017683505748543268 0 0.023392968301039433 -0.019219231968103018 0 0.023382600103879228 -0.019261668617929214 0 0.021819758919212943 -0.016307719862862977 0 0.021738067815413396 -0.016750563948465007 0 0.02151132105608285 -0.016406629113759116 0 0.021738067815413396 -0.016750563948465007 0 0.02151132105608285 -0.016406629113759116 0 0.021484397541336443 -0.01661896251730938 0 0.02151132105608285 -0.016406629113759116 0 0.021210806580117467 -0.016234969926146491 0 0.021233214388940078 -0.016483238290618416 0 0.021210806580117467 -0.016234969926146491 0 0.020831843925721901 -0.016176524124305456 0 0.021233214388940078 -0.016483238290618416 0 0.020831843925721901 -0.016176524124305456 0 0.020960041693753012 -0.016452021600534474 0 0.021233214388940078 -0.016483238290618416 0 0.021210806580117467 -0.016234969926146491 0 0.020860119042612361 -0.015864012189129788 0 0.020831843925721901 -0.016176524124305456 0 0.021210806580117467 -0.016234969926146491 0 0.021223768057326314 -0.015933673862120645 0 0.020860119042612361 -0.015864012189129788 0 0.021819758919212943 -0.016307719862862977 0 0.02151132105608285 -0.016406629113759116 0 0.021223768057326314 -0.015933673862120645 0 0.02151132105608285 -0.016406629113759116 0 0.021210806580117467 -0.016234969926146491 0 0.021223768057326314 -0.015933673862120645 0 0.023392968301039433 -0.019219231968103018 0 0.022686989902181327 -0.018881678093449712 0 0.020317659508719093 -0.019246383905299397 0 0.022686989902181327 -0.018881678093449712 0 0.021971269084855007 -0.018513187709864393 0 0.020317659508719093 -0.019246383905299397 0 0.021819758919212943 -0.016307719862862977 0 0.021223768057326314 -0.015933673862120645 0 0.020535644652641086 -0.014476996795420369 0 0.022411023150970728 -0.017702986282236981 0 0.020238422415606985 -0.016846560873161109 0 0.021223768057326314 -0.015933673862120645 0 0.020860119042612361 -0.015864012189129788 0 0.020535644652641086 -0.014476996795420369 0 0.021006343434931057 -0.018281426353043296 0 0.021971269084855007 -0.018513187709864393 0 0.020317659508719093 -0.019246383905299397 0 0.022686989902181327 -0.018881678093449712 0 0.021971269084855007 -0.018513187709864393 0 0.022890720434208617 -0.018087646977847385 0 0.022686989902181327 -0.018881678093449712 0 0.022890720434208617 -0.018087646977847385 0 0.023382600103879228 -0.019261668617929214 0 0.022100571355882847 -0.019777529871684338 0 0.023382600103879228 -0.019261668617929214 0 0.023234693446884037 -0.021154600664291711 0 0.022890720434208617 -0.018087646977847385 0 0.023382600103879228 -0.019261668617929214 0 0.023984232025534784 -0.017003516336114344 0 0.02385408723903619 -0.018013463294543362 0 0.021434937673120769 -0.022132075476881612 0 0.023392968301039433 -0.019219231968103018 0 0.022686989902181327 -0.018881678093449712 0 0.023382600103879228 -0.019261668617929214 0 0.014812969028137755 -0.014008695193161266 0 0.017464911328382276 -0.0142823842649443 0 0.014563719503590757 -0.017700412581003591 0 0.016427022894737839 -0.015956152484764494 0 0.01834494740411027 -0.016582071506614813 0 0.014964559987494665 -0.010371683412036177 0 0.015547672132188812 -0.010207828247283958 0 0.015377764637343269 -0.010743388939850045 0 0.014563719503590757 -0.017700412581003591 0 0.016427022894737839 -0.015956152484764494 0 0.014864228261783539 -0.014876750446920623 0 0.016427022894737839 -0.015956152484764494 0 0.01834494740411027 -0.016582071506614813 0 0.017902700250868302 -0.014661282159876032 0 0.017464911328382276 -0.0142823842649443 0 0.019601576456052823 -0.014804095540625391 0 0.018492822239195624 -0.016554410627371081 0 0.020383852442064063 -0.015860986036171053 0 0.017902700250868302 -0.014661282159876032 0 0.017464911328382276 -0.0142823842649443 0 0.017924317658799961 -0.015348999997570818 0 0.020207006765237446 -0.016007858110239071 0 0.020831843925721901 -0.016176524124305456 0 0.020960041693753012 -0.016452021600534474 0 0.020860119042612361 -0.015864012189129788 0 0.020831843925721901 -0.016176524124305456 0 0.020383852442064063 -0.015860986036171053 0 0.020207006765237446 -0.016007858110239071 0 0.020831843925721901 -0.016176524124305456 0 0.020383852442064063 -0.015860986036171053 0 0.020860119042612361 -0.015864012189129788 0 0.020383852442064063 -0.015860986036171053 0 0.020535644652641086 -0.014476996795420369 0 0.021006343434931057 -0.018281426353043296 0 0.020317659508719093 -0.019246383905299397 0 0.02029845852197577 -0.018000464099933559 0 0.020317659508719093 -0.019246383905299397 0 0.02029845852197577 -0.018000464099933559 0 0.018956995885298946 -0.017740704684774695 0 0.020383852442064063 -0.015860986036171053 0 0.020535644652641086 -0.014476996795420369 0 0.017902700250868302 -0.014661282159876032 0 0.020238422415606985 -0.016846560873161109 0 0.015797719715381221 -0.014675879374837946 0 0.020317659508719093 -0.019246383905299397 0 0.01633775329542745 -0.018212674942723214 0 0.018956995885298946 -0.017740704684774695 0 0.020535644652641086 -0.014476996795420369 0 0.017902700250868302 -0.014661282159876032 0 0.014672802206452144 -0.011840704224989665 0 0.016427022894737839 -0.015956152484764494 0 0.017902700250868302 -0.014661282159876032 0 0.014864228261783539 -0.014876750446920623 0 0.013151490039395501 -0.013913274532218562 0 0.014672802206452144 -0.011840704224989665 0 0.014864228261783539 -0.014876750446920623 0 0.017902700250868302 -0.014661282159876032 0 0.014672802206452144 -0.011840704224989665 0 0.014864228261783539 -0.014876750446920623 0 0.01633775329542745 -0.018212674942723214 0 0.016818171394880416 -0.016640973110761556 0 0.018956995885298946 -0.017740704684774695 0 0.0080447815034046348 -0.028065653152160665 0 0.0091897111547270555 -0.029211077304432988 0 0.0090389840063999603 -0.027655042945474623 0 0.0091897111547270555 -0.029211077304432988 0 0.010217696719490023 -0.027379461928123766 0 0.0090389840063999603 -0.027655042945474623 0 0.013019896528957825 -0.023581521802977217 0 0.017346437150286106 -0.023030729812232614 0 0.016818171394880416 -0.016640973110761556 0 0.018956995885298946 -0.017740704684774695 0 0.021008902594114226 -0.016843068292859753 0 0.0091897111547270555 -0.029211077304432988 0 0.010217696719490023 -0.027379461928123766 0 0.013823839635617854 -0.029173664182926922 0 0.02029845852197577 -0.018000464099933559 0 0.018956995885298946 -0.017740704684774695 0 0.021008902594114226 -0.016843068292859753 0 0.021006343434931057 -0.018281426353043296 0 0.02029845852197577 -0.018000464099933559 0 0.021008902594114226 -0.016843068292859753 0 0.010882596800040091 -0.026366265976704783 0 0.014115081703036242 -0.025569118613888647 0 0.009189738642016972 -0.025399383859538105 0 0.012254400445668917 -0.027122151938374531 0 0.010882596800040091 -0.026366265976704783 0 0.014115081703036242 -0.025569118613888647 0 0.012254400445668917 -0.027122151938374531 0 0.010217696719490023 -0.027379461928123766 0 0.013823839635617854 -0.029173664182926922 0 0.012796076895087081 -0.029282271937430916 0 0.0085134748039857426 -0.02749681010484684 0 0.012254400445668917 -0.027122151938374531 0 0.013823839635617854 -0.029173664182926922 0 0.014115081703036242 -0.025569118613888647 0 0.012254400445668917 -0.027122151938374531 0 0.010217696719490023 -0.027379461928123766 0 0.010882596800040091 -0.026366265976704783 0 0.010217696719490023 -0.027379461928123766 0 0.0097219789160801449 -0.026883020411381166 0 0.010882596800040091 -0.026366265976704783 0 0.010882596800040091 -0.026366265976704783 0 0.009585955825580814 -0.026265917697771486 0 0.009189738642016972 -0.025399383859538105 0 0.0097219789160801449 -0.026883020411381166 0 0.010882596800040091 -0.026366265976704783 0 0.009585955825580814 -0.026265917697771486 0 0.009585955825580814 -0.026265917697771486 0 0.0090111567347162316 -0.026006624960045306 0 0.0089140040301993583 -0.026729282627055571 0 0.0097219789160801449 -0.026883020411381166 0 0.009585955825580814 -0.026265917697771486 0 0.0089140040301993583 -0.026729282627055571 0 0.009585955825580814 -0.026265917697771486 0 0.0090111567347162316 -0.026006624960045306 0 0.009189738642016972 -0.025399383859538105 0 0.0081171287085177631 -0.026230220502504342 0 0.0090111567347162316 -0.026006624960045306 0 0.009189738642016972 -0.025399383859538105 0 0.0081171287085177631 -0.026230220502504342 0 0.0090111567347162316 -0.026006624960045306 0 0.0089140040301993583 -0.026729282627055571 0 0.0081100528167760959 -0.027327974889316032 0 0.0089140040301993583 -0.026729282627055571 0 0.0090389840063999603 -0.027655042945474623 0 0.0097219789160801449 -0.026883020411381166 0 0.0089140040301993583 -0.026729282627055571 0 0.0090389840063999603 -0.027655042945474623 0 0.010217696719490023 -0.027379461928123766 0 0.0097219789160801449 -0.026883020411381166 0 0.0090389840063999603 -0.027655042945474623 0 0.022890720434208617 -0.018087646977847385 0 0.023984232025534784 -0.017003516336114344 0 0.021008902594114226 -0.016843068292859753 0 0.021434937673120769 -0.022132075476881612 0 0.017346437150286106 -0.023030729812232614 0 0.018547779918216961 -0.029041780977912005 0 0.013823839635617854 -0.029173664182926922 0 0.016405332661706688 -0.027415075765234699 0 0.021971269084855007 -0.018513187709864393 0 0.022890720434208617 -0.018087646977847385 0 0.021008902594114226 -0.016843068292859753 0 0.021006343434931057 -0.018281426353043296 0 0.021971269084855007 -0.018513187709864393 0 0.021008902594114226 -0.016843068292859753 0 0.013823839635617854 -0.029173664182926922 0 0.016405332661706688 -0.027415075765234699 0 0.014115081703036242 -0.025569118613888647 0 0.012796076895087081 -0.029282271937430916 0 0.020826222104249073 -0.026897012151551204 0 0.021434937673120769 -0.022132075476881612 0 0.020826222104249073 -0.026897012151551204 0 0.016405332661706688 -0.027415075765234699 0 0.014115081703036242 -0.025569118613888647 0 0.019142927328026776 -0.025871265747798005 0 0.018547779918216961 -0.029041780977912005 0 0.016405332661706688 -0.027415075765234699 0 0.019142927328026776 -0.025871265747798005 0 0.012554199857448682 -0.032124294430229343 0 0.017808029543493854 -0.032466067306257777 0 0.015197286000615944 -0.03059666652603998 0 0.017808029543493854 -0.032466067306257777 0 0.015197286000615944 -0.03059666652603998 0 0.018366083423198468 -0.029472019171521962 0 0.015197286000615944 -0.03059666652603998 0 0.015817282403745844 -0.027894678943197759 0 0.018366083423198468 -0.029472019171521962 0 0.015197286000615944 -0.03059666652603998 0 0.015817282403745844 -0.027894678943197759 0 0.010638800826113326 -0.029023759245236029 0 0.012554199857448682 -0.032124294430229343 0 0.015197286000615944 -0.03059666652603998 0 0.010638800826113326 -0.029023759245236029 0 0.015262586584932503 -0.034367359306451177 0 0.0081070364811248879 -0.035165312590963289 0 0.009729938511099245 -0.036418886080169847 0 0.01325713228963739 -0.038599760057897586 0 0.006636451774395283 -0.040070183282452043 0 0.011905094974082988 -0.037193468574800853 0 0.015262586584932503 -0.034367359306451177 0 0.01347168101807728 -0.037543936773311103 0 0.015304551980779893 -0.038652855318858016 0 0.016027839228645584 -0.036891448984453082 0 0.015262586584932503 -0.034367359306451177 0 0.019956787635086577 -0.033869006795618127 0 0.015304551980779893 -0.038652855318858016 0 0.016027839228645584 -0.036891448984453082 0 0.017249374267708003 -0.038207111638474719 0 0.017997613953124693 -0.032221533503360551 0 0.019569030235328182 -0.031875197740293799 0 0.019350144577988174 -0.033047495149762608 0 0.015262586584932503 -0.034367359306451177 0 0.021705449950129616 -0.028654946361878247 0 0.0042259633113351097 -0.030413943539801137 0 0.0081070364811248879 -0.035165312590963289 0 0.0054746307007483641 -0.030140596784240602 0 0.0073073990427205103 -0.031748353359541265 0 0.010638800826113326 -0.029023759245236029 0 0.0042259633113351097 -0.030413943539801137 0 0.0085134748039857426 -0.02749681010484684 0 0.012554199857448682 -0.032124294430229343 0 0.0073073990427205103 -0.031748353359541265 0 0.010638800826113326 -0.029023759245236029 0 0.009729938511099245 -0.036418886080169847 0 0.006636451774395283 -0.040070183282452043 0 0.0053826676102978945 -0.037119494076195685 0 0.006636451774395283 -0.040070183282452043 0 0.0053826676102978945 -0.037119494076195685 0 0.0027403366075762618 -0.038426943095315504 0 0.00012723219120568563 -0.04140452277809737 0 0.006636451774395283 -0.040070183282452043 0 0.0027403366075762618 -0.038426943095315504 0 0.0053826676102978945 -0.037119494076195685 0 0.0027403366075762618 -0.038426943095315504 0 0.0019204419975466791 -0.03530681174883335 0 -0.00028218499434180577 -0.038055775702843041 0 0.0027403366075762618 -0.038426943095315504 0 0.0019204419975466791 -0.03530681174883335 0 0.00057622846135336125 -0.03585272117992501 0 0.0036663019830078685 -0.035156479724031173 0 7.2884721024020981e-05 -0.032952602809566696 0 0.0053826676102978945 -0.037119494076195685 0 0.0019204419975466791 -0.03530681174883335 0 0.0062232192702865148 -0.034252451030769002 0 0.00076987882726090137 -0.035653107026570444 0 0.0075774667601075478 -0.03601746924656208 0 0.009729938511099245 -0.036418886080169847 0 0.0053826676102978945 -0.037119494076195685 0 0.0062232192702865148 -0.034252451030769002 0 0.011905094974082988 -0.037193468574800853 0 0.0075774667601075478 -0.03601746924656208 0 0.0087234455741926394 -0.038487614765951819 0 0.010685729541060661 -0.034003420108478455 0 0.007438310691807574 -0.035195316746572704 0 0.0070127494110630581 -0.03270496151732593 0 0.010685729541060661 -0.034003420108478455 0 0.007438310691807574 -0.035195316746572704 0 0.0070127494110630581 -0.03270496151732593 0 0.007438310691807574 -0.035195316746572704 0 0.0031152570954379611 -0.035643572682282208 0 0.0087234455741926394 -0.038487614765951819 0 0.007438310691807574 -0.035195316746572704 0 0.0031152570954379611 -0.035643572682282208 0 0.0075774667601075478 -0.03601746924656208 0 0.0013143801166630548 -0.034238716775492138 0 0.016027839228645584 -0.036891448984453082 0 0.014723973924166628 -0.035692255723741975 0 0.017655135236373534 -0.035131268872200735 0 0.01347168101807728 -0.037543936773311103 0 0.016027839228645584 -0.036891448984453082 0 0.014723973924166628 -0.035692255723741975 0 0.0075774667601075478 -0.03601746924656208 0 0.014762744841709932 -0.036259557246520815 0 0.01347168101807728 -0.037543936773311103 0 0.011575954020353064 -0.036367105845058756 0 0.014723973924166628 -0.035692255723741975 0 0.01340878445435909 -0.033153805316152404 0 0.010685729541060661 -0.034003420108478455 0 0.013761982328544756 -0.036604898549001584 0 0.0087234455741926394 -0.038487614765951819 0 0.010685729541060661 -0.034003420108478455 0 0.013761982328544756 -0.036604898549001584 0 0.013761982328544756 -0.036604898549001584 0 0.017114133423255913 -0.034175361980298524 0 0.017655135236373534 -0.035131268872200735 0 0.01549446747019626 -0.033441488355413489 0 0.01340878445435909 -0.033153805316152404 0 0.013761982328544756 -0.036604898549001584 0 0.014762744841709932 -0.036259557246520815 0 0.017224197888803097 -0.035221677841891029 0 0.01549446747019626 -0.033441488355413489 0 0.013761982328544756 -0.036604898549001584 0 0.017114133423255913 -0.034175361980298524 0 0.017111416531208012 -0.033188379654559869 0 0.017114133423255913 -0.034175361980298524 0 0.017989701350368658 -0.033911478221786279 0 0.017989701350368658 -0.033911478221786279 0 0.018080881750054498 -0.034618988372864389 0 0.019183233523328881 -0.034623017075408886 0 0.017901882167651137 -0.03330554170138008 0 0.017989701350368658 -0.033911478221786279 0 0.019183233523328881 -0.034623017075408886 0 0.017114133423255913 -0.034175361980298524 0 0.017989701350368658 -0.033911478221786279 0 0.018080881750054498 -0.034618988372864389 0 0.017114133423255913 -0.034175361980298524 0 0.018080881750054498 -0.034618988372864389 0 0.017655135236373534 -0.035131268872200735 0 0.017655135236373534 -0.035131268872200735 0 0.017607122136037334 -0.036280878842057912 0 0.018246511658569331 -0.035738649658645948 0 0.018080881750054498 -0.034618988372864389 0 0.01839594797742521 -0.035210685986415025 0 0.019183233523328881 -0.034623017075408886 0 0.018080881750054498 -0.034618988372864389 0 0.017655135236373534 -0.035131268872200735 0 0.01839594797742521 -0.035210685986415025 0 0.017655135236373534 -0.035131268872200735 0 0.01839594797742521 -0.035210685986415025 0 0.018246511658569331 -0.035738649658645948 0 0.022012820381281856 -0.034735400901298244 0 0.022247825474476152 -0.033481133209000757 0 0.02076841634710886 -0.032983398361217227 0 0.01839594797742521 -0.035210685986415025 0 0.019183233523328881 -0.034623017075408886 0 0.018965327419019264 -0.035253367923797914 0 0.01839594797742521 -0.035210685986415025 0 0.018965327419019264 -0.035253367923797914 0 0.018246511658569331 -0.035738649658645948 0 0.019684174954238381 -0.034581268625106631 0 0.019495089252301145 -0.034902731703372082 0 0.018965327419019264 -0.035253367923797914 0 0.018833276519598329 -0.036574860379662684 0 0.020889354302463723 -0.037237668933147873 0 0.018833276519598329 -0.036574860379662684 0 0.019112350913954614 -0.037649383420373175 0 0.020889354302463723 -0.037237668933147873 0 0.019684174954238381 -0.034581268625106631 0 0.020927337777971664 -0.032794549029364344 0 0.019067616555052413 -0.034708846742878628 0 0.018965327419019264 -0.035253367923797914 0 0.020889354302463723 -0.037237668933147873 0 0.018965327419019264 -0.035253367923797914 0 0.018833276519598329 -0.036574860379662684 0 0.018246511658569331 -0.035738649658645948 0 0.018833276519598329 -0.036574860379662684 0 0.018158028620754916 -0.037194735718077 0 0.019112350913954614 -0.037649383420373175 0 0.017330441067027549 -0.037988242389434879 0 0.019956787635086577 -0.033869006795618127 0 0.017607122136037334 -0.036280878842057912 0 0.018158028620754916 -0.037194735718077 0 0.017352293931038525 -0.038023416771976085 0 0.016027839228645584 -0.036891448984453082 0 0.017655135236373534 -0.035131268872200735 0 0.017607122136037334 -0.036280878842057912 0 0.016027839228645584 -0.036891448984453082 0 0.017607122136037334 -0.036280878842057912 0 0.017249374267708003 -0.038207111638474719 0 0.018833276519598329 -0.036574860379662684 0 0.017607122136037334 -0.036280878842057912 0 0.018246511658569331 -0.035738649658645948 0 0.018833276519598329 -0.036574860379662684 0 0.017607122136037334 -0.036280878842057912 0 0.018158028620754916 -0.037194735718077 0 0.019956787635086577 -0.033869006795618127 0 0.021480809684774994 -0.033222232819765357 0 0.025307633517138026 -0.028486547589382735 0 0.023358429267055416 -0.02891067971170078 0 0.02387445166981985 -0.027489985533958327 0 0.018158028620754916 -0.037194735718077 0 0.017352293931038525 -0.038023416771976085 0 0.019112350913954614 -0.037649383420373175 0 0.019956787635086577 -0.033869006795618127 0 0.021705449950129616 -0.028654946361878247 0 0.025307633517138026 -0.028486547589382735 0 0.02387445166981985 -0.027489985533958327 0 0.025601472832273348 -0.026989237289707722 0 0.021480809684774994 -0.033222232819765357 0 0.020927337777971664 -0.032794549029364344 0 0.023358429267055416 -0.02891067971170078 0 0.022586544068230692 -0.028012453333355874 0 0.021386374144605435 -0.029363325400355723 0 0.022586544068230692 -0.028012453333355874 0 0.02387445166981985 -0.027489985533958327 0 0.022671191366564938 -0.02662197998900416 0 0.022586544068230692 -0.028012453333355874 0 0.022671191366564938 -0.02662197998900416 0 0.021629795240180119 -0.027671681785560908 0 0.023358429267055416 -0.02891067971170078 0 0.022586544068230692 -0.028012453333355874 0 0.02387445166981985 -0.027489985533958327 0 0.02387445166981985 -0.027489985533958327 0 0.023828711619268691 -0.026611890152348144 0 0.022671191366564938 -0.02662197998900416 0 0.022671191366564938 -0.02662197998900416 0 0.022289139745986591 -0.025602078558872282 0 0.023178279833369234 -0.025344004228084926 0 0.023828711619268691 -0.026611890152348144 0 0.022671191366564938 -0.02662197998900416 0 0.023178279833369234 -0.025344004228084926 0 0.020826222104249073 -0.026897012151551204 0 0.021705449950129616 -0.028654946361878247 0 0.023178279833369234 -0.025344004228084926 0 0.023996276872825767 -0.025474647178692637 0 0.024731412047274026 -0.026386574839335843 0 0.024980977225240265 -0.025117199269315934 0 0.023996276872825767 -0.025474647178692637 0 0.024731412047274026 -0.026386574839335843 0 0.024292126711170817 -0.025280902435065113 0 0.021705449950129616 -0.028654946361878247 0 0.023828711619268691 -0.026611890152348144 0 0.023178279833369234 -0.025344004228084926 0 0.025601472832273348 -0.026989237289707722 0 0.02387445166981985 -0.027489985533958327 0 0.023828711619268691 -0.026611890152348144 0 0.025601472832273348 -0.026989237289707722 0 0.018879189979506283 -0.026044352428156801 0 0.020559255066525634 -0.029239670497512683 0 0.01794039063895294 -0.02948860436791044 0 0.019041605977013529 -0.026393114918906266 0 0.020134315978856503 -0.028081262826585445 0 0.018879189979506283 -0.026044352428156801 0 0.020153998113220856 -0.025755717715608653 0 0.020111596391866063 -0.02760964167242665 0 0.020153998113220856 -0.025755717715608653 0 0.021173460200266992 -0.025291557860080506 0 0.02136259574305403 -0.026324757310013904 0 0.022289139745986591 -0.025602078558872282 0 0.021173460200266992 -0.025291557860080506 0 0.02136259574305403 -0.026324757310013904 0 0.022671191366564938 -0.02662197998900416 0 0.022289139745986591 -0.025602078558872282 0 0.02136259574305403 -0.026324757310013904 0 0.022671191366564938 -0.02662197998900416 0 0.02136259574305403 -0.026324757310013904 0 0.021629795240180119 -0.027671681785560908 0 0.020153998113220856 -0.025755717715608653 0 0.02136259574305403 -0.026324757310013904 0 0.020111596391866063 -0.02760964167242665 0 0.02136259574305403 -0.026324757310013904 0 0.021629795240180119 -0.027671681785560908 0 0.020111596391866063 -0.02760964167242665 0 0.021629795240180119 -0.027671681785560908 0 0.020111596391866063 -0.02760964167242665 0 0.021386374144605435 -0.029363325400355723 0 0.020559255066525634 -0.029239670497512683 0 0.019318929795684781 -0.031691241991989846 0 0.02188199838876535 -0.031210736354647023 0 0.022586544068230692 -0.028012453333355874 0 0.021629795240180119 -0.027671681785560908 0 0.021386374144605435 -0.029363325400355723 0 0.020134315978856503 -0.028081262826585445 0 0.020927337777971664 -0.032794549029364344 0 0.020559255066525634 -0.029239670497512683 0 0.019318929795684781 -0.031691241991989846 0 0.01794039063895294 -0.02948860436791044 0 0.019318929795684781 -0.031691241991989846 0 0.018726419902594181 -0.032964199618475173 0 0.017524883529283764 -0.032066080368870993 0 0.019318929795684781 -0.031691241991989846 0 0.02076841634710886 -0.032983398361217227 0 0.018726419902594181 -0.032964199618475173 0 0.01977479758173404 -0.031597091074904805 0 0.020927337777971664 -0.032794549029364344 0 0.022247825474476152 -0.033481133209000757 0 0.020775402145343798 -0.03141001079358105 0 0.02076841634710886 -0.032983398361217227 0 0.019318929795684781 -0.031691241991989846 0 0.020775402145343798 -0.03141001079358105 0 0.02076841634710886 -0.032983398361217227 0 0.019786671088556616 -0.034313612600694612 0 0.022012820381281856 -0.034735400901298244 0 0.02076841634710886 -0.032983398361217227 0 0.019786671088556616 -0.034313612600694612 0 0.018726419902594181 -0.032964199618475173 0 0.017165207064719214 -0.033767202835143256 0 0.018589966863733678 -0.034479064792124807 0 0.017049370638210534 -0.033782479490766425 0 0.019786671088556616 -0.034313612600694612 0 0.02076841634710886 -0.032983398361217227 0 0.018726419902594181 -0.032964199618475173 0 0.018726419902594181 -0.032964199618475173 0 0.017165207064719214 -0.033767202835143256 0 0.017524883529283764 -0.032066080368870993 0 0.017165207064719214 -0.033767202835143256 0 0.017524883529283764 -0.032066080368870993 0 0.016652267821945916 -0.032493622037017639 0 0.019318929795684781 -0.031691241991989846 0 0.017524883529283764 -0.032066080368870993 0 0.01794039063895294 -0.02948860436791044 0 0.016652267821945916 -0.032493622037017639 0 0.015998128386833038 -0.031859757143318991 0 0.016744444176856582 -0.030839135096218041 0 0.017524883529283764 -0.032066080368870993 0 0.016652267821945916 -0.032493622037017639 0 0.016744444176856582 -0.030839135096218041 0 0.017165207064719214 -0.033767202835143256 0 0.016652267821945916 -0.032493622037017639 0 0.016262498245904731 -0.033452852196037171 0 0.016652267821945916 -0.032493622037017639 0 0.016262498245904731 -0.033452852196037171 0 0.015998128386833038 -0.031859757143318991 0 0.015754579912393235 -0.03382591329135063 0 0.016262498245904731 -0.033452852196037171 0 0.015720603953996406 -0.033063151705752775 0 0.016262498245904731 -0.033452852196037171 0 0.015720603953996406 -0.033063151705752775 0 0.015998128386833038 -0.031859757143318991 0 0.015720603953996406 -0.033063151705752775 0 0.015378810279772509 -0.033309881485764713 0 0.015122150015713638 -0.032488810586492396 0 0.015494938674941448 -0.032188606355772545 0 0.015185857169256486 -0.03141645368024603 0 0.015122150015713638 -0.032488810586492396 0 0.015720603953996406 -0.033063151705752775 0 0.015494938674941448 -0.032188606355772545 0 0.015998128386833038 -0.031859757143318991 0 0.015720603953996406 -0.033063151705752775 0 0.015494938674941448 -0.032188606355772545 0 0.015122150015713638 -0.032488810586492396 0 0.015494938674941448 -0.032188606355772545 0 0.015998128386833038 -0.031859757143318991 0 0.015185857169256486 -0.03141645368024603 0 0.015998128386833038 -0.031859757143318991 0 0.015987685494485641 -0.030610016227321575 0 0.015185857169256486 -0.03141645368024603 0 0.015998128386833038 -0.031859757143318991 0 0.015987685494485641 -0.030610016227321575 0 0.016744444176856582 -0.030839135096218041 0 0.015185857169256486 -0.03141645368024603 0 0.015613292546916999 -0.030275811674057636 0 0.014866772663661461 -0.030945862313508762 0 0.015987685494485641 -0.030610016227321575 0 0.015185857169256486 -0.03141645368024603 0 0.015613292546916999 -0.030275811674057636 0 0.015987685494485641 -0.030610016227321575 0 0.015613292546916999 -0.030275811674057636 0 0.016885615648963011 -0.028994748330840214 0 0.015150134860562088 -0.029135795936834859 0 0.016855625075642883 -0.029095279129680188 0 0.014422327238374919 -0.028079398368788758 0 0.016885615648963011 -0.028994748330840214 0 0.016745500355322563 -0.028256101314303669 0 0.016885615648963011 -0.028994748330840214 0 0.01794039063895294 -0.02948860436791044 0 0.016745500355322563 -0.028256101314303669 0 0.017168782618810437 -0.025840932127944465 0 0.01794039063895294 -0.02948860436791044 0 0.014657779522562087 -0.024475699294802193 0 0.017900885035502748 -0.029331847837717782 0 0.015792753848842708 -0.02641716362866376 0 0.018126659240122949 -0.024567202386771743 0 0.018879189979506283 -0.026044352428156801 0 0.017168782618810437 -0.025840932127944465 0 0.018879189979506283 -0.026044352428156801 0 0.017168782618810437 -0.025840932127944465 0 0.01794039063895294 -0.02948860436791044 0 0.016885615648963011 -0.028994748330840214 0 0.01794039063895294 -0.02948860436791044 0 0.016744444176856582 -0.030839135096218041 0 0.017524883529283764 -0.032066080368870993 0 0.01794039063895294 -0.02948860436791044 0 0.016744444176856582 -0.030839135096218041 0 0.015987685494485641 -0.030610016227321575 0 0.016885615648963011 -0.028994748330840214 0 0.016744444176856582 -0.030839135096218041 0 0.013990666545793286 -0.032495581012505284 0 0.014028442550974211 -0.032792983588600749 0 0.014125175554707905 -0.032480801406361601 0 0.021723896261750621 -0.037773050391675327 0 0.021096295856300001 -0.039116511004824717 0 0.021004514429596895 -0.037553594604894984 0 0.021096295856300001 -0.039116511004824717 0 0.020824009748412784 -0.036986078603945156 0 0.021004514429596895 -0.037553594604894984 0 0.013990666545793286 -0.032495581012505284 0 0.01384034772452006 -0.033125821184790814 0 0.014028442550974211 -0.032792983588600749 0 0.017585245358254783 -0.036149362854128196 0 0.018436468583936487 -0.035900125589241001 0 0.021723896261750621 -0.037773050391675327 0 0.02128317877879703 -0.037355829363436482 0 0.021004514429596895 -0.037553594604894984 0 0.021723896261750621 -0.037773050391675327 0 0.021716664481758383 -0.037143347675739707 0 0.02128317877879703 -0.037355829363436482 0 0.021220466507920789 -0.037201459947534578 0 0.021716664481758383 -0.037143347675739707 0 0.02128317877879703 -0.037355829363436482 0 0.021220466507920789 -0.037201459947534578 0 0.02128317877879703 -0.037355829363436482 0 0.021034471060897647 -0.03729728887305455 0 0.02128317877879703 -0.037355829363436482 0 0.021034471060897647 -0.03729728887305455 0 0.021004514429596895 -0.037553594604894984 0 0.018436468583936487 -0.035900125589241001 0 0.020094429226656774 -0.037614456363444251 0 0.014028442550974211 -0.032792983588600749 0 0.014135162176269837 -0.033122764081620619 0 0.014244632864838761 -0.03282816408766305 0 0.01384034772452006 -0.033125821184790814 0 0.014028442550974211 -0.032792983588600749 0 0.014135162176269837 -0.033122764081620619 0 0.014218083920317816 -0.033487774007014713 0 0.01384034772452006 -0.033125821184790814 0 0.014135162176269837 -0.033122764081620619 0 0.014135162176269837 -0.033122764081620619 0 0.014244632864838761 -0.03282816408766305 0 0.014609409842586229 -0.033234230604242306 0 0.014244632864838761 -0.03282816408766305 0 0.014125175554707905 -0.032480801406361601 0 0.01458014496246203 -0.032639132717034017 0 0.014125175554707905 -0.032480801406361601 0 0.014622735097099025 -0.031994102033470223 0 0.014058705406139663 -0.032373405900293792 0 0.013990666545793286 -0.032495581012505284 0 0.014125175554707905 -0.032480801406361601 0 0.014058705406139663 -0.032373405900293792 0 0.014028442550974211 -0.032792983588600749 0 0.014244632864838761 -0.03282816408766305 0 0.014125175554707905 -0.032480801406361601 0 0.014622735097099025 -0.031994102033470223 0 0.01458014496246203 -0.032639132717034017 0 0.015122150015713638 -0.032488810586492396 0 0.014125175554707905 -0.032480801406361601 0 0.014622735097099025 -0.031994102033470223 0 0.01458014496246203 -0.032639132717034017 0 0.014244632864838761 -0.03282816408766305 0 0.014609409842586229 -0.033234230604242306 0 0.01458014496246203 -0.032639132717034017 0 0.015093088663806032 -0.033490163853069632 0 0.014609409842586229 -0.033234230604242306 0 0.014961417968401254 -0.033011344847004534 0 0.014609409842586229 -0.033234230604242306 0 0.01458014496246203 -0.032639132717034017 0 0.014961417968401254 -0.033011344847004534 0 0.01458014496246203 -0.032639132717034017 0 0.014961417968401254 -0.033011344847004534 0 0.015122150015713638 -0.032488810586492396 0 0.014961417968401254 -0.033011344847004534 0 0.015378810279772509 -0.033309881485764713 0 0.015122150015713638 -0.032488810586492396 0 0.015093088663806032 -0.033490163853069632 0 0.014961417968401254 -0.033011344847004534 0 0.015378810279772509 -0.033309881485764713 0 0.015185857169256486 -0.03141645368024603 0 0.014622735097099025 -0.031994102033470223 0 0.015122150015713638 -0.032488810586492396 0 0.015185857169256486 -0.03141645368024603 0 0.014622735097099025 -0.031994102033470223 0 0.014630014147534015 -0.031455369969507242 0 0.015185857169256486 -0.03141645368024603 0 0.014630014147534015 -0.031455369969507242 0 0.014866772663661461 -0.030945862313508762 0 0.014630014147534015 -0.031455369969507242 0 0.01465771659704585 -0.031709474160785393 0 0.014866772663661461 -0.030945862313508762 0 0.014622735097099025 -0.031994102033470223 0 0.014630014147534015 -0.031455369969507242 0 0.014806448291406047 -0.031398417251211265 0 0.01491528754373459 -0.032170179509944545 0 0.013927671097896577 -0.031445056961577428 0 0.014630014147534015 -0.031455369969507242 0 0.015034539453812924 -0.031708576244335547 0 0.01465771659704585 -0.031709474160785393 0 0.014630014147534015 -0.031455369969507242 0 0.014806448291406047 -0.031398417251211265 0 0.015034539453812924 -0.031708576244335547 0 0.015801196300657776 -0.031486678970122396 0 0.015034539453812924 -0.031708576244335547 0 0.01549496833288048 -0.032522225942832036 0 0.015801196300657776 -0.031486678970122396 0 0.014806448291406047 -0.031398417251211265 0 0.015034539453812924 -0.031708576244335547 0 0.014169556185468002 -0.032645643502172833 0 0.013990666545793286 -0.032495581012505284 0 0.014058705406139663 -0.032373405900293792 0 0.017146871385135192 -0.034967492353644117 0 0.013927671097896577 -0.031445056961577428 0 0.017146871385135192 -0.034967492353644117 0 0.017585245358254783 -0.036149362854128196 0 0.0093848734508515698 -0.024824871417333211 0 0.0095406525714072533 -0.024801118754889856 0 0.0095438226729965842 -0.02441115906582015 0 0.0095406525714072533 -0.024801118754889856 0 0.0097918517599208735 -0.024816251736261893 0 0.0095438226729965842 -0.02441115906582015 0 0.0095406525714072533 -0.024801118754889856 0 0.0094818469237922427 -0.025098777641483407 0 0.0097918517599208735 -0.024816251736261893 0 0.0093848734508515698 -0.024824871417333211 0 0.0095406525714072533 -0.024801118754889856 0 0.0094818469237922427 -0.025098777641483407 0 0.010949053111426167 -0.028522863198748558 0 0.012802532488098813 -0.028765214128471911 0 0.0094818469237922427 -0.025098777641483407 0 0.010076009983641837 -0.025650100994688084 0 0.0097918517599208735 -0.024816251736261893 0 0.015034539453812924 -0.031708576244335547 0 0.01549496833288048 -0.032522225942832036 0 0.01465771659704585 -0.031709474160785393 0 0.0097918517599208735 -0.024816251736261893 0 0.010111759808012502 -0.024421723125952574 0 0.0095438226729965842 -0.02441115906582015 0 0.010076009983641837 -0.025650100994688084 0 0.0097918517599208735 -0.024816251736261893 0 0.010559546280067805 -0.024913005320308136 0 0.0097918517599208735 -0.024816251736261893 0 0.010559546280067805 -0.024913005320308136 0 0.010111759808012502 -0.024421723125952574 0 0.010559546280067805 -0.024913005320308136 0 0.010639833477054765 -0.024244435194086138 0 0.010111759808012502 -0.024421723125952574 0 0.010559546280067805 -0.024913005320308136 0 0.011148405613115961 -0.024340342265287033 0 0.010639833477054765 -0.024244435194086138 0 0.010076009983641837 -0.025650100994688084 0 0.010559546280067805 -0.024913005320308136 0 0.011531522714667546 -0.026704910915292514 0 0.012802532488098813 -0.028765214128471911 0 0.013219484859912865 -0.028838349893916489 0 0.010559546280067805 -0.024913005320308136 0 0.011531522714667546 -0.026704910915292514 0 0.011687036275915845 -0.025101860624651251 0 0.011531522714667546 -0.026704910915292514 0 0.011687036275915845 -0.025101860624651251 0 0.013151434813794763 -0.026118313714651956 0 0.010559546280067805 -0.024913005320308136 0 0.011687036275915845 -0.025101860624651251 0 0.011148405613115961 -0.024340342265287033 0 0.011687036275915845 -0.025101860624651251 0 0.011826469340628721 -0.02411290312426739 0 0.012770286014243333 -0.024681045154044387 0 0.011687036275915845 -0.025101860624651251 0 0.011148405613115961 -0.024340342265287033 0 0.011826469340628721 -0.02411290312426739 0 0.011826469340628721 -0.02411290312426739 0 0.011213553469221869 -0.023700899926613731 0 0.012893708395428511 -0.022962232110108192 0 0.010128226732719306 -0.021565329299936854 0 0.012893708395428511 -0.022962232110108192 0 0.011789738755454592 -0.02074252454040203 0 0.010733028525328175 -0.02270073765159987 0 0.012796447038032208 -0.02301347925194968 0 0.010679532236276821 -0.018554360864211906 0 0.012622860377034814 -0.018016680965802299 0 0.01005734049826747 -0.020509159552396052 0 0.011789738755454592 -0.02074252454040203 0 0.012308435947769468 -0.020100299615556032 0 0.011148405613115961 -0.024340342265287033 0 0.011826469340628721 -0.02411290312426739 0 0.011213553469221869 -0.023700899926613731 0 0.011148405613115961 -0.024340342265287033 0 0.011213553469221869 -0.023700899926613731 0 0.010639833477054765 -0.024244435194086138 0 0.010128226732719306 -0.021565329299936854 0 0.01005734049826747 -0.020509159552396052 0 0.011789738755454592 -0.02074252454040203 0 0.012788427421798388 -0.017270053393472418 0 0.011760239411792059 -0.016877434165516951 0 0.01316283391809083 -0.017761555868962147 0 0.011546684685217861 -0.01654282634121992 0 0.012622860377034814 -0.018016680965802299 0 0.012788427421798388 -0.017270053393472418 0 0.012399544025839513 -0.016797578800662977 0 0.011760239411792059 -0.016877434165516951 0 0.011555963513389812 -0.016580966315720102 0 0.011337598669459216 -0.016434937956992805 0 0.011912068705265599 -0.016559261686927583 0 0.012796894159869602 -0.016833844542637574 0 0.012399544025839513 -0.016797578800662977 0 0.012535548787719399 -0.016269903970268191 0 0.012788427421798388 -0.017270053393472418 0 0.012796894159869602 -0.016833844542637574 0 0.012399544025839513 -0.016797578800662977 0 0.012399544025839513 -0.016797578800662977 0 0.012056912730513087 -0.01649765014628387 0 0.012535548787719399 -0.016269903970268191 0 0.011760239411792059 -0.016877434165516951 0 0.012056912730513087 -0.01649765014628387 0 0.011723456661251118 -0.016268617397949225 0 0.012399544025839513 -0.016797578800662977 0 0.011760239411792059 -0.016877434165516951 0 0.012056912730513087 -0.01649765014628387 0 0.011760239411792059 -0.016877434165516951 0 0.011305556291825784 -0.016231219129771622 0 0.011723456661251118 -0.016268617397949225 0 0.011555963513389812 -0.016580966315720102 0 0.011337598669459216 -0.016434937956992805 0 0.011215340011702138 -0.016589405503969385 0 0.011213553469221869 -0.023700899926613731 0 0.010288754874492597 -0.023917041308067152 0 0.010639833477054765 -0.024244435194086138 0 0.010733028525328175 -0.02270073765159987 0 0.0099708060773309459 -0.020322913738675404 0 0.010128226732719306 -0.021565329299936854 0 0.01005734049826747 -0.020509159552396052 0 0.0077559670592574331 -0.020854443634806714 0 0.010679532236276821 -0.018554360864211906 0 0.0099708060773309459 -0.020322913738675404 0 0.010288754874492597 -0.023917041308067152 0 0.010639833477054765 -0.024244435194086138 0 0.010111759808012502 -0.024421723125952574 0 0.0099708060773309459 -0.020322913738675404 0 0.010616116565102534 -0.018329007798773628 0 0.0085420084573924176 -0.019868696596798026 0 0.012250264941399091 -0.020862333610560335 0 0.012541423660318419 -0.019262437874495109 0 0.0099708060773309459 -0.020322913738675404 0 0.0094836134804601752 -0.022185260503859206 0 0.010288754874492597 -0.023917041308067152 0 0.010111759808012502 -0.024421723125952574 0 0.0095438226729965842 -0.02441115906582015 0 0.011215340011702138 -0.016589405503969385 0 0.010816645840300598 -0.016381268277041745 0 0.01084009637699104 -0.01628596002032031 0 0.011337598669459216 -0.016434937956992805 0 0.011215340011702138 -0.016589405503969385 0 0.01084009637699104 -0.01628596002032031 0 0.011760239411792059 -0.016877434165516951 0 0.011305556291825784 -0.016231219129771622 0 0.01084009637699104 -0.01628596002032031 0 0.011546684685217861 -0.01654282634121992 0 0.010895488898987282 -0.016366960719006885 0 0.011305556291825784 -0.016231219129771622 0 0.01084009637699104 -0.01628596002032031 0 0.010951586801527233 -0.016075564977270189 0 0.010816645840300598 -0.016381268277041745 0 0.01084009637699104 -0.01628596002032031 0 0.010795029738208874 -0.016161831833400669 0 0.016033394330052946 -0.021870159269324761 0 0.012250264941399091 -0.020862333610560335 0 0.012541423660318419 -0.019262437874495109 0 0.01084009637699104 -0.01628596002032031 0 0.010795029738208874 -0.016161831833400669 0 0.010951586801527233 -0.016075564977270189 0 0.010816645840300598 -0.016381268277041745 0 0.010709902485639213 -0.016173870238940541 0 0.010795029738208874 -0.016161831833400669 0 0.010709902485639213 -0.016173870238940541 0 0.010795029738208874 -0.016161831833400669 0 0.010819218374147824 -0.015934689069770365 0 0.0148608712670404 -0.022277510274773701 0 0.016473011014455908 -0.021307762853169598 0 0.014607566713167193 -0.020784095110761895 0 0.0148608712670404 -0.022277510274773701 0 0.016473011014455908 -0.021307762853169598 0 0.015769722498045962 -0.023163464707650284 0 0.018430545024374082 -0.021218252326151536 0 0.016473011014455908 -0.021307762853169598 0 0.017779520196894879 -0.022697957484657864 0 0.016473011014455908 -0.021307762853169598 0 0.017779520196894879 -0.022697957484657864 0 0.015769722498045962 -0.023163464707650284 0 0.017779520196894879 -0.022697957484657864 0 0.016938207631785548 -0.024118399319693947 0 0.015769722498045962 -0.023163464707650284 0 0.017168782618810437 -0.025840932127944465 0 0.016122752303122545 -0.024420150153743506 0 0.014657779522562087 -0.024475699294802193 0 0.018126659240122949 -0.024567202386771743 0 0.017779520196894879 -0.022697957484657864 0 0.016938207631785548 -0.024118399319693947 0 0.018126659240122949 -0.024567202386771743 0 0.017168782618810437 -0.025840932127944465 0 0.016938207631785548 -0.024118399319693947 0 0.016938207631785548 -0.024118399319693947 0 0.016122752303122545 -0.024420150153743506 0 0.015769722498045962 -0.023163464707650284 0 0.017168782618810437 -0.025840932127944465 0 0.016938207631785548 -0.024118399319693947 0 0.016122752303122545 -0.024420150153743506 0 0.0148608712670404 -0.022277510274773701 0 0.014657779522562087 -0.024475699294802193 0 0.015769722498045962 -0.023163464707650284 0 0.0148608712670404 -0.022277510274773701 0 0.014657779522562087 -0.024475699294802193 0 0.013360437969850316 -0.021683001379166917 0 0.016122752303122545 -0.024420150153743506 0 0.014657779522562087 -0.024475699294802193 0 0.015769722498045962 -0.023163464707650284 0 0.014422327238374919 -0.028079398368788758 0 0.016745500355322563 -0.028256101314303669 0 0.014910659026400182 -0.025036128482653561 0 0.015792753848842708 -0.02641716362866376 0 0.014024857305220162 -0.023343572331774309 0 0.014422327238374919 -0.028079398368788758 0 0.011531522714667546 -0.026704910915292514 0 0.013151434813794763 -0.026118313714651956 0 0.014422327238374919 -0.028079398368788758 0 0.013151434813794763 -0.026118313714651956 0 0.014910659026400182 -0.025036128482653561 0 0.015150134860562088 -0.029135795936834859 0 0.013219484859912865 -0.028838349893916489 0 0.011687036275915845 -0.025101860624651251 0 0.013151434813794763 -0.026118313714651956 0 0.012770286014243333 -0.024681045154044387 0 0.013151434813794763 -0.026118313714651956 0 0.012770286014243333 -0.024681045154044387 0 0.014910659026400182 -0.025036128482653561 0 0.012770286014243333 -0.024681045154044387 0 0.014910659026400182 -0.025036128482653561 0 0.012893708395428511 -0.022962232110108192 0 0.011826469340628721 -0.02411290312426739 0 0.012770286014243333 -0.024681045154044387 0 0.012893708395428511 -0.022962232110108192 0 0.0148608712670404 -0.022277510274773701 0 0.013360437969850316 -0.021683001379166917 0 0.014607566713167193 -0.020784095110761895 0 0.013360437969850316 -0.021683001379166917 0 0.013286811451461411 -0.020537799841523555 0 0.014607566713167193 -0.020784095110761895 0 0.013286811451461411 -0.020537799841523555 0 0.012308435947769468 -0.020100299615556032 0 0.014731486404176116 -0.019242072368359914 0 0.013286811451461411 -0.020537799841523555 0 0.014731486404176116 -0.019242072368359914 0 0.014607566713167193 -0.020784095110761895 0 0.013130019900835035 -0.017757141339586478 0 0.013363429031506105 -0.017890550559767165 0 0.014731486404176116 -0.019242072368359914 0 0.012622860377034814 -0.018016680965802299 0 0.014854904738908367 -0.019469996889952795 0 0.013286811451461411 -0.020537799841523555 0 0.011789738755454592 -0.02074252454040203 0 0.012308435947769468 -0.020100299615556032 0 0.013360437969850316 -0.021683001379166917 0 0.013286811451461411 -0.020537799841523555 0 0.011789738755454592 -0.02074252454040203 0 0.014024857305220162 -0.023343572331774309 0 0.011868398924914203 -0.020828739620644899 0 0.014910659026400182 -0.025036128482653561 0 0.012893708395428511 -0.022962232110108192 0 0.011789738755454592 -0.02074252454040203 0 0.012788427421798388 -0.017270053393472418 0 0.013106618905590473 -0.017503558246074875 0 0.013227853721841071 -0.017340994374278766 0 0.012788427421798388 -0.017270053393472418 0 0.01316283391809083 -0.017761555868962147 0 0.013106618905590473 -0.017503558246074875 0 0.01316283391809083 -0.017761555868962147 0 0.013249900634187486 -0.017630215297386991 0 0.013106618905590473 -0.017503558246074875 0 0.012622860377034814 -0.018016680965802299 0 0.012918056109742499 -0.017962812251526124 0 0.01316283391809083 -0.017761555868962147 0 0.013249900634187486 -0.017630215297386991 0 0.013363429031506105 -0.017890550559767165 0 0.013249900634187486 -0.017630215297386991 0 0.013106618905590473 -0.017503558246074875 0 0.013227853721841071 -0.017340994374278766 0 0.013394849439672042 -0.017610577204361343 0 0.013744438764111147 -0.017583049306583463 0 0.013227853721841071 -0.017340994374278766 0 0.013249900634187486 -0.017630215297386991 0 0.013394849439672042 -0.017610577204361343 0 0.013227853721841071 -0.017340994374278766 0 0.013394849439672042 -0.017610577204361343 0 0.013363429031506105 -0.017890550559767165 0 0.013744438764111147 -0.017583049306583463 0 0.013249900634187486 -0.017630215297386991 0 0.013394849439672042 -0.017610577204361343 0 0.013363429031506105 -0.017890550559767165 0 0.013744438764111147 -0.017583049306583463 0 0.013227853721841071 -0.017340994374278766 0 0.013201410547084669 -0.016690130200329067 0 0.012796894159869602 -0.016833844542637574 0 0.013227853721841071 -0.017340994374278766 0 0.013201410547084669 -0.016690130200329067 0 0.012788427421798388 -0.017270053393472418 0 0.012796894159869602 -0.016833844542637574 0 0.013227853721841071 -0.017340994374278766 0 0.013363429031506105 -0.017890550559767165 0 0.013744438764111147 -0.017583049306583463 0 0.014731486404176116 -0.019242072368359914 0 0.013744438764111147 -0.017583049306583463 0 0.014627793717241096 -0.017288718162744836 0 0.014731486404176116 -0.019242072368359914 0 0.013744438764111147 -0.017583049306583463 0 0.014627793717241096 -0.017288718162744836 0 0.013941825424833507 -0.016397816629541286 0 0.015743700614540047 -0.017498638435628506 0 0.014731486404176116 -0.019242072368359914 0 0.016027258783688155 -0.019298635155378805 0 0.014627793717241096 -0.017288718162744836 0 0.015743700614540047 -0.017498638435628506 0 0.014731486404176116 -0.019242072368359914 0 0.014731486404176116 -0.019242072368359914 0 0.016027258783688155 -0.019298635155378805 0 0.014607566713167193 -0.020784095110761895 0 0.016473011014455908 -0.021307762853169598 0 0.016027258783688155 -0.019298635155378805 0 0.014607566713167193 -0.020784095110761895 0 0.016473011014455908 -0.021307762853169598 0 0.016027258783688155 -0.019298635155378805 0 0.017536047282302538 -0.019575072706250061 0 0.018430545024374082 -0.021218252326151536 0 0.016473011014455908 -0.021307762853169598 0 0.017536047282302538 -0.019575072706250061 0 0.016027258783688155 -0.019298635155378805 0 0.017536047282302538 -0.019575072706250061 0 0.017058339118572456 -0.017648390234375037 0 0.015743700614540047 -0.017498638435628506 0 0.016027258783688155 -0.019298635155378805 0 0.017058339118572456 -0.017648390234375037 0 0.015743700614540047 -0.017498638435628506 0 0.017058339118572456 -0.017648390234375037 0 0.017148126805765263 -0.016014379984144306 0 0.017148126805765263 -0.016014379984144306 0 0.016382535623100221 -0.01512345659447826 0 0.017294785513014794 -0.01420470764439603 0 0.016566702229894852 -0.014811205493973007 0 0.015401704042118373 -0.016067861519288375 0 0.017148126805765263 -0.016014379984144306 0 0.016382535623100221 -0.01512345659447826 0 0.015260535710618917 -0.016153230199692024 0 0.016868855023886371 -0.014456580369260197 0 0.015260535710618917 -0.016153230199692024 0 0.015216119966561243 -0.014539020005560652 0 0.015743700614540047 -0.017498638435628506 0 0.017148126805765263 -0.016014379984144306 0 0.015260535710618917 -0.016153230199692024 0 0.014627793717241096 -0.017288718162744836 0 0.015743700614540047 -0.017498638435628506 0 0.015260535710618917 -0.016153230199692024 0 0.015260535710618917 -0.016153230199692024 0 0.013941825424833507 -0.016397816629541286 0 0.014103183956414047 -0.015151452703998357 0 0.014627793717241096 -0.017288718162744836 0 0.015260535710618917 -0.016153230199692024 0 0.013941825424833507 -0.016397816629541286 0 0.013201410547084669 -0.016690130200329067 0 0.013107146826984202 -0.015638502931481352 0 0.012535548787719399 -0.016269903970268191 0 0.013941825424833507 -0.016397816629541286 0 0.013201410547084669 -0.016690130200329067 0 0.013107146826984202 -0.015638502931481352 0 0.013744438764111147 -0.017583049306583463 0 0.013941825424833507 -0.016397816629541286 0 0.013201410547084669 -0.016690130200329067 0 0.013941825424833507 -0.016397816629541286 0 0.013107146826984202 -0.015638502931481352 0 0.014103183956414047 -0.015151452703998357 0 0.013107146826984202 -0.015638502931481352 0 0.014103183956414047 -0.015151452703998357 0 0.01311130643748365 -0.014325140549281704 0 0.014103183956414047 -0.015151452703998357 0 0.014292013555026037 -0.013615076590062185 0 0.01311130643748365 -0.014325140549281704 0 0.015260535710618917 -0.016153230199692024 0 0.015216119966561243 -0.014539020005560652 0 0.014103183956414047 -0.015151452703998357 0 0.015216119966561243 -0.014539020005560652 0 0.014103183956414047 -0.015151452703998357 0 0.014292013555026037 -0.013615076590062185 0 0.014292013555026037 -0.013615076590062185 0 0.014692325915938767 -0.012153007484417864 0 0.015756448803438537 -0.013310634392659206 0 0.015216119966561243 -0.014539020005560652 0 0.014292013555026037 -0.013615076590062185 0 0.015756448803438537 -0.013310634392659206 0 0.014292013555026037 -0.013615076590062185 0 0.013448192205216244 -0.012875916354809525 0 0.014692325915938767 -0.012153007484417864 0 0.01311130643748365 -0.014325140549281704 0 0.013448192205216244 -0.012875916354809525 0 0.012151245654526837 -0.013285096650028203 0 0.014292013555026037 -0.013615076590062185 0 0.01311130643748365 -0.014325140549281704 0 0.013448192205216244 -0.012875916354809525 0 0.013448192205216244 -0.012875916354809525 0 0.014692325915938767 -0.012153007484417864 0 0.013339012494206137 -0.010918547175745311 0 0.013448192205216244 -0.012875916354809525 0 0.012151245654526837 -0.013285096650028203 0 0.013339012494206137 -0.010918547175745311 0 0.014692325915938767 -0.012153007484417864 0 0.015951280421843132 -0.01163706585876886 0 0.01542067129413162 -0.010390497517107701 0 0.015951280421843132 -0.01163706585876886 0 0.018282940129135807 -0.012694529984904083 0 0.015756448803438537 -0.013310634392659206 0 0.014692325915938767 -0.012153007484417864 0 0.015951280421843132 -0.01163706585876886 0 0.015756448803438537 -0.013310634392659206 0 0.015951280421843132 -0.01163706585876886 0 0.018282940129135807 -0.012694529984904083 0 0.016801185789654529 -0.010503385377433521 0 0.016566702229894852 -0.014811205493973007 0 0.017950830557991501 -0.013503836158015836 0 0.016868855023886371 -0.014456580369260197 0 0.018282940129135807 -0.012694529984904083 0 0.015756448803438537 -0.013310634392659206 0 0.016868855023886371 -0.014456580369260197 0 0.015216119966561243 -0.014539020005560652 0 0.015756448803438537 -0.013310634392659206 0 0.01068649537150018 -0.015644222012562655 0 0.01087553109470406 -0.015376038294422625 0 0.010859126515390847 -0.015603439446864223 0 0.01087553109470406 -0.015376038294422625 0 0.010859126515390847 -0.015603439446864223 0 0.011183293288085025 -0.015271335969142114 0 0.01087553109470406 -0.015376038294422625 0 0.011183293288085025 -0.015271335969142114 0 0.011008401766716185 -0.015204277002827166 0 0.010835795049478125 -0.015254222217169166 0 0.01087553109470406 -0.015376038294422625 0 0.011008401766716185 -0.015204277002827166 0 0.010755565567038231 -0.015773066191316625 0 0.010859126515390847 -0.015603439446864223 0 0.010819218374147824 -0.015934689069770365 0 0.010795029738208874 -0.016161831833400669 0 0.010819218374147824 -0.015934689069770365 0 0.010951586801527233 -0.016075564977270189 0 0.010819218374147824 -0.015934689069770365 0 0.010896253751736831 -0.015575095694771607 0 0.010951586801527233 -0.016075564977270189 0 0.010859126515390847 -0.015603439446864223 0 0.010819218374147824 -0.015934689069770365 0 0.010896253751736831 -0.015575095694771607 0 0.011305556291825784 -0.016231219129771622 0 0.010896253751736831 -0.015575095694771607 0 0.010951586801527233 -0.016075564977270189 0 0.011305556291825784 -0.016231219129771622 0 0.010896253751736831 -0.015575095694771607 0 0.011527752473846532 -0.015670753718803648 0 0.010896253751736831 -0.015575095694771607 0 0.01181568146662126 -0.014753030539999646 0 0.011527752473846532 -0.015670753718803648 0 0.010859126515390847 -0.015603439446864223 0 0.010896253751736831 -0.015575095694771607 0 0.011183293288085025 -0.015271335969142114 0 0.010896253751736831 -0.015575095694771607 0 0.01181568146662126 -0.014753030539999646 0 0.010371769366365699 -0.013911870448528192 0 0.010862395797103351 -0.01505895073190041 0 0.010799448842483624 -0.01556512779467578 0 0.01181568146662126 -0.014753030539999646 0 0.012336476293841655 -0.015167508305307968 0 0.012151245654526837 -0.013285096650028203 0 0.01181568146662126 -0.014753030539999646 0 0.011527752473846532 -0.015670753718803648 0 0.012336476293841655 -0.015167508305307968 0 0.011527752473846532 -0.015670753718803648 0 0.012005560325360851 -0.016038018127414139 0 0.012336476293841655 -0.015167508305307968 0 0.011527752473846532 -0.015670753718803648 0 0.011723456661251118 -0.016268617397949225 0 0.012005560325360851 -0.016038018127414139 0 0.011305556291825784 -0.016231219129771622 0 0.011527752473846532 -0.015670753718803648 0 0.011723456661251118 -0.016268617397949225 0 0.012056912730513087 -0.01649765014628387 0 0.011723456661251118 -0.016268617397949225 0 0.012005560325360851 -0.016038018127414139 0 0.012005560325360851 -0.016038018127414139 0 0.012535548787719399 -0.016269903970268191 0 0.012336476293841655 -0.015167508305307968 0 0.012056912730513087 -0.01649765014628387 0 0.012005560325360851 -0.016038018127414139 0 0.012535548787719399 -0.016269903970268191 0 0.012796894159869602 -0.016833844542637574 0 0.013201410547084669 -0.016690130200329067 0 0.012535548787719399 -0.016269903970268191 0 0.013107146826984202 -0.015638502931481352 0 0.012535548787719399 -0.016269903970268191 0 0.012336476293841655 -0.015167508305307968 0 0.013107146826984202 -0.015638502931481352 0 0.01311130643748365 -0.014325140549281704 0 0.012336476293841655 -0.015167508305307968 0 0.01311130643748365 -0.014325140549281704 0 0.012336476293841655 -0.015167508305307968 0 0.012151245654526837 -0.013285096650028203 0 0.013200107153839468 -0.012472178858008932 0 0.014312348862819187 -0.010219893509493453 0 0.014309998168431117 -0.01163964769645616 0 0.013250320475349315 -0.0098802244388326559 0 0.015239284685632543 -0.009481937019369488 0 0.014309998168431117 -0.01163964769645616 0 0.013250320475349315 -0.0098802244388326559 0 0.012069719612439326 -0.0123574254657981 0 0.013250320475349315 -0.0098802244388326559 0 0.012069719612439326 -0.0123574254657981 0 0.010313572217010228 -0.011545095962917225 0 0.01181568146662126 -0.014753030539999646 0 0.014309998168431117 -0.01163964769645616 0 0.012069719612439326 -0.0123574254657981 0 0.011880761987773247 -0.014576076038726737 0 0.013200107153839468 -0.012472178858008932 0 0.010799448842483624 -0.01556512779467578 0 0.017772968876631122 -0.0075277455962615902 0 0.011183293288085025 -0.015271335969142114 0 0.011295463480950427 -0.014795872382539394 0 0.011008401766716185 -0.015204277002827166 0 0.01181568146662126 -0.014753030539999646 0 0.012069719612439326 -0.0123574254657981 0 0.010371769366365699 -0.013911870448528192 0 0.012069719612439326 -0.0123574254657981 0 0.010371769366365699 -0.013911870448528192 0 0.010313572217010228 -0.011545095962917225 0 0.017772968876631122 -0.0075277455962615902 0 0.025445247967915387 -0.0019558998442018491 0 0.038080194662824175 0.00019715514984662398 0 0.036189810347063554 0.0037795965663126631 0 0.038077001797457995 0.0063121415973367524 0 0.010571852131960385 -0.01140460770275524 0 0.017772968876631122 -0.0075277455962615902 0 0.013250320475349315 -0.0098802244388326559 0 0.012455512885048401 -0.01025084344261811 0 0.012426290531221868 -0.0093165214619759275 0 0.033991309726569614 0.0027929560139973797 0 0.032329839526609359 0.0010775119814598324 0 0.03293218370053054 0.0059107903886069981 0 0.038080194662824175 0.00019715514984662398 0 0.033991309726569614 0.0027929560139973797 0 0.032329839526609359 0.0010775119814598324 0 0.036340429588863216 -0.0030316763613617635 0 0.037780694189949234 0.0051533802333482643 0 0.038080194662824175 0.00019715514984662398 0 0.036189810347063554 0.0037795965663126631 0 0.033991309726569614 0.0027929560139973797 0 0.036189810347063554 0.0037795965663126631 0 0.033991309726569614 0.0027929560139973797 0 0.035088325443307693 0.004861228692170344 0 0.010837517724957927 -0.015171971628749961 0 0.011295463480950427 -0.014795872382539394 0 0.011008401766716185 -0.015204277002827166 0 0.031921923179374409 -0.0037997925470467245 0 0.038080194662824175 0.00019715514984662398 0 0.032329839526609359 0.0010775119814598324 0 0.026340514519243532 -0.010403309461630011 0 0.036340429588863216 -0.0030316763613617635 0 0.026340514519243532 -0.010403309461630011 0 0.017772968876631122 -0.0075277455962615902 0 0.010837517724957927 -0.015171971628749961 0 0.010835795049478125 -0.015254222217169166 0 0.011008401766716185 -0.015204277002827166 0 0.034628028901185173 0.01058310349112822 0 0.034815534352287923 0.0083511097278640926 0 0.033068589438440647 0.0059773210290133497 0 0.035726870798204503 0.012878294829511984 0 0.037780694189949234 0.0051533802333482643 0 0.035881972555879368 0.011064757404636593 0 0.035555400098588333 0.0097944555090957904 0 0.036723806845546006 0.0096417007631376637 0 0.034628028901185173 0.01058310349112822 0 0.035881972555879368 0.011064757404636593 0 0.035555400098588333 0.0097944555090957904 0 0.035555400098588333 0.0097944555090957904 0 0.03585659555046649 0.0079761338517947387 0 0.036723806845546006 0.0096417007631376637 0 0.035555400098588333 0.0097944555090957904 0 0.034815534352287923 0.0083511097278640926 0 0.03585659555046649 0.0079761338517947387 0 0.034628028901185173 0.01058310349112822 0 0.035555400098588333 0.0097944555090957904 0 0.034815534352287923 0.0083511097278640926 0 0.034815534352287923 0.0083511097278640926 0 0.034516565971977546 0.0069863404118405189 0 0.033068589438440647 0.0059773210290133497 0 0.033991309726569614 0.0027929560139973797 0 0.03293218370053054 0.0059107903886069981 0 0.033570894877059505 0.0057653471982599645 0 0.033991309726569614 0.0027929560139973797 0 0.033570894877059505 0.0057653471982599645 0 0.035088325443307693 0.004861228692170344 0 0.037780694189949234 0.0051533802333482643 0 0.03705021355449796 0.0053128908965411371 0 0.033570894877059505 0.0057653471982599645 0 0.035088325443307693 0.004861228692170344 0 0.034747746946735908 0.0059608421369672319 0 0.034516565971977546 0.0069863404118405189 0 0.033068589438440647 0.0059773210290133497 0 0.033570894877059505 0.0057653471982599645 0 0.034516565971977546 0.0069863404118405189 0 0.033570894877059505 0.0057653471982599645 0 0.034747746946735908 0.0059608421369672319 0 0.036189810347063554 0.0037795965663126631 0 0.035088325443307693 0.004861228692170344 0 0.035792084784599755 0.0061795494668521632 0 0.035088325443307693 0.004861228692170344 0 0.034747746946735908 0.0059608421369672319 0 0.035792084784599755 0.0061795494668521632 0 0.034516565971977546 0.0069863404118405189 0 0.034747746946735908 0.0059608421369672319 0 0.035792084784599755 0.0061795494668521632 0 0.035792084784599755 0.0061795494668521632 0 0.03585659555046649 0.0079761338517947387 0 0.038077001797457995 0.0063121415973367524 0 0.034516565971977546 0.0069863404118405189 0 0.035792084784599755 0.0061795494668521632 0 0.03585659555046649 0.0079761338517947387 0 0.034815534352287923 0.0083511097278640926 0 0.034516565971977546 0.0069863404118405189 0 0.03585659555046649 0.0079761338517947387 0 0.03585659555046649 0.0079761338517947387 0 0.038077001797457995 0.0063121415973367524 0 0.036723806845546006 0.0096417007631376637 0 0.036189810347063554 0.0037795965663126631 0 0.035792084784599755 0.0061795494668521632 0 0.038077001797457995 0.0063121415973367524 0 0.012426290531221868 -0.0093165214619759275 0 0.012453037737604714 -0.0078997764277478587 0 0.013181600321103127 -0.0087126312090441953 0 0.038077001797457995 0.0063121415973367524 0 0.036723806845546006 0.0096417007631376637 0 0.037772711653950887 0.011548156534145204 0 0.025445247967915387 -0.0019558998442018491 0 0.029153747714100623 0.006594387884627532 0 0.035881972555879368 0.011064757404636593 0 0.036723806845546006 0.0096417007631376637 0 0.036838852013577311 0.010995590350894938 0 0.035235510468833914 0.011511285602810768 0 0.029153747714100623 0.006594387884627532 0 0.012453037737604714 -0.0078997764277478587 0 0.013181600321103127 -0.0087126312090441953 0 0.01358247820258834 -0.0076394193228714012 0 0.013181600321103127 -0.0087126312090441953 0 0.014231013749718619 -0.0084174474429857069 0 0.01358247820258834 -0.0076394193228714012 0 0.013250320475349315 -0.0098802244388326559 0 0.012426290531221868 -0.0093165214619759275 0 0.013181600321103127 -0.0087126312090441953 0 0.013250320475349315 -0.0098802244388326559 0 0.013181600321103127 -0.0087126312090441953 0 0.014231013749718619 -0.0084174474429857069 0 0.013250320475349315 -0.0098802244388326559 0 0.014231013749718619 -0.0084174474429857069 0 0.015239284685632543 -0.009481937019369488 0 0.014231013749718619 -0.0084174474429857069 0 0.014614344235413083 -0.0065245480646241878 0 0.015624563747100433 -0.0069853655688872198 0 0.014231013749718619 -0.0084174474429857069 0 0.014614344235413083 -0.0065245480646241878 0 0.01358247820258834 -0.0076394193228714012 0 0.01430125970733594 -0.0083727575773676292 0 0.015172938230662554 -0.0074824500012455157 0 0.014614344235413083 -0.0065245480646241878 0 0.013569919530668623 -0.0062951414862795971 0 0.014785210481453702 -0.0050303214318434993 0 0.012453037737604714 -0.0078997764277478587 0 0.013569919530668623 -0.0062951414862795971 0 0.01358247820258834 -0.0076394193228714012 0 0.014614344235413083 -0.0065245480646241878 0 0.013569919530668623 -0.0062951414862795971 0 0.01358247820258834 -0.0076394193228714012 0 0.033231073330931352 0.018095032089453626 0 0.030308295819467923 0.014009577632583585 0 0.033192131754034904 0.013872460499747247 0 0.036838852013577311 0.010995590350894938 0 0.035383766874607252 0.011735996546124701 0 0.036121466761500069 0.011558670310003221 0 0.029153747714100623 0.006594387884627532 0 0.020853057073926352 0.0032442736707932705 0 0.029153747714100623 0.006594387884627532 0 0.034874506647911245 0.014345010376126909 0 0.035881972555879368 0.011064757404636593 0 0.036838852013577311 0.010995590350894938 0 0.036121466761500069 0.011558670310003221 0 0.030308295819467923 0.014009577632583585 0 0.033192131754034904 0.013872460499747247 0 0.033571340920530379 0.0087875483885503543 0 0.038380268144853555 0.010940068528812555 0 0.03656972609624963 0.011981227400479218 0 0.036526898333309021 0.010086053216917603 0 0.035383766874607252 0.011735996546124701 0 0.03656972609624963 0.011981227400479218 0 0.036526898333309021 0.010086053216917603 0 0.035881972555879368 0.011064757404636593 0 0.03656972609624963 0.011981227400479218 0 0.036121466761500069 0.011558670310003221 0 0.034628028901185173 0.01058310349112822 0 0.035881972555879368 0.011064757404636593 0 0.03656972609624963 0.011981227400479218 0 0.035383766874607252 0.011735996546124701 0 0.03656972609624963 0.011981227400479218 0 0.036121466761500069 0.011558670310003221 0 0.035726870798204503 0.012878294829511984 0 0.036340085878569947 0.011516668331414947 0 0.016415283854420568 -0.0088816562172841108 0 0.015287873103775256 -0.0086135242194704271 0 0.016186829221809123 -0.0082405998359845762 0 0.016415283854420568 -0.0088816562172841108 0 0.01542067129413162 -0.010390497517107701 0 0.015287873103775256 -0.0086135242194704271 0 0.016415283854420568 -0.0088816562172841108 0 0.016489767305013055 -0.0084236487252268601 0 0.016186829221809123 -0.0082405998359845762 0 0.016415283854420568 -0.0088816562172841108 0 0.016489767305013055 -0.0084236487252268601 0 0.016477486335317284 -0.0086066360146444063 0 0.016415283854420568 -0.0088816562172841108 0 0.018188373895041438 -0.0099331671141481975 0 0.016801185789654529 -0.010503385377433521 0 0.016507212872741015 -0.0088847198156510772 0 0.017329579590586695 -0.0092993833052619178 0 0.018282940129135807 -0.012694529984904083 0 0.018188373895041438 -0.0099331671141481975 0 0.016801185789654529 -0.010503385377433521 0 0.015951280421843132 -0.01163706585876886 0 0.016801185789654529 -0.010503385377433521 0 0.01542067129413162 -0.010390497517107701 0 0.016415283854420568 -0.0088816562172841108 0 0.016801185789654529 -0.010503385377433521 0 0.01542067129413162 -0.010390497517107701 0 0.014692325915938767 -0.012153007484417864 0 0.01542067129413162 -0.010390497517107701 0 0.013339012494206137 -0.010918547175745311 0 0.01542067129413162 -0.010390497517107701 0 0.013339012494206137 -0.010918547175745311 0 0.015287873103775256 -0.0086135242194704271 0 0.014312348862819187 -0.010219893509493453 0 0.015237421552102599 -0.0087315625273377342 0 0.014231013749718619 -0.0084174474429857069 0 0.014948167106769833 -0.0085700585801628763 0 0.014805180642015048 -0.0079727824067724537 0 0.014231013749718619 -0.0084174474429857069 0 0.015239284685632543 -0.009481937019369488 0 0.014948167106769833 -0.0085700585801628763 0 0.015239284685632543 -0.009481937019369488 0 0.014948167106769833 -0.0085700585801628763 0 0.015287873103775256 -0.0086135242194704271 0 0.014948167106769833 -0.0085700585801628763 0 0.015287873103775256 -0.0086135242194704271 0 0.015311890261541419 -0.0080641866404481035 0 0.014948167106769833 -0.0085700585801628763 0 0.015311890261541419 -0.0080641866404481035 0 0.014805180642015048 -0.0079727824067724537 0 0.015172938230662554 -0.0074824500012455157 0 0.015854076261764081 -0.0065015729100871339 0 0.014614344235413083 -0.0065245480646241878 0 0.015624563747100433 -0.0069853655688872198 0 0.015712162421743357 -0.005421824632670577 0 0.015624563747100433 -0.0069853655688872198 0 0.016465299123453795 -0.0058149341237238852 0 0.015712162421743357 -0.005421824632670577 0 0.015311890261541419 -0.0080641866404481035 0 0.014805180642015048 -0.0079727824067724537 0 0.015199025817698421 -0.0072308855231666127 0 0.015311890261541419 -0.0080641866404481035 0 0.015199025817698421 -0.0072308855231666127 0 0.016001201209206766 -0.0077776863051282098 0 0.015199025817698421 -0.0072308855231666127 0 0.016225001569200849 -0.0073257641922412709 0 0.016001201209206766 -0.0077776863051282098 0 0.015199025817698421 -0.0072308855231666127 0 0.016225001569200849 -0.0073257641922412709 0 0.016370722308679073 -0.0066896008900863054 0 0.015287873103775256 -0.0086135242194704271 0 0.015311890261541419 -0.0080641866404481035 0 0.016186829221809123 -0.0082405998359845762 0 0.015311890261541419 -0.0080641866404481035 0 0.016001201209206766 -0.0077776863051282098 0 0.016186829221809123 -0.0082405998359845762 0 0.016489767305013055 -0.0084236487252268601 0 0.016186829221809123 -0.0082405998359845762 0 0.016427290344877301 -0.0078449057092758855 0 0.016001201209206766 -0.0077776863051282098 0 0.016186829221809123 -0.0082405998359845762 0 0.016427290344877301 -0.0078449057092758855 0 0.016225001569200849 -0.0073257641922412709 0 0.016427290344877301 -0.0078449057092758855 0 0.016301641804928536 -0.0071848620824579313 0 0.016225001569200849 -0.0073257641922412709 0 0.016001201209206766 -0.0077776863051282098 0 0.016427290344877301 -0.0078449057092758855 0 0.016427290344877301 -0.0078449057092758855 0 0.016301641804928536 -0.0071848620824579313 0 0.016438508202239948 -0.0074950521937582944 0 0.016225001569200849 -0.0073257641922412709 0 0.016301641804928536 -0.0071848620824579313 0 0.016370722308679073 -0.0066896008900863054 0 0.016427290344877301 -0.0078449057092758855 0 0.016438508202239948 -0.0074950521937582944 0 0.016616956754433275 -0.0079769044420151501 0 0.016438508202239948 -0.0074950521937582944 0 0.016616956754433275 -0.0079769044420151501 0 0.016505568954831025 -0.0073014499420076314 0 0.016616956754433275 -0.0079769044420151501 0 0.016682799109426865 -0.0077133846631236352 0 0.016505568954831025 -0.0073014499420076314 0 0.016616956754433275 -0.0079769044420151501 0 0.016574063463331325 -0.008348127724692565 0 0.016715207867134315 -0.0083435256464860046 0 0.016616956754433275 -0.0079769044420151501 0 0.016594572437273025 -0.0082270158328662871 0 0.016715207867134315 -0.0083435256464860046 0 0.016427290344877301 -0.0078449057092758855 0 0.016616956754433275 -0.0079769044420151501 0 0.016594572437273025 -0.0082270158328662871 0 0.016489767305013055 -0.0084236487252268601 0 0.016427290344877301 -0.0078449057092758855 0 0.016594572437273025 -0.0082270158328662871 0 0.016574063463331325 -0.008348127724692565 0 0.017429114647037072 -0.0082361661450300709 0 0.017040445672767471 -0.0075587883060346441 0 0.017429114647037072 -0.0082361661450300709 0 0.017712829471836711 -0.0077033553460150667 0 0.017040445672767471 -0.0075587883060346441 0 0.016682799109426865 -0.0077133846631236352 0 0.016574063463331325 -0.008348127724692565 0 0.017040445672767471 -0.0075587883060346441 0 0.016616956754433275 -0.0079769044420151501 0 0.016682799109426865 -0.0077133846631236352 0 0.016574063463331325 -0.008348127724692565 0 0.016578466864947353 -0.0084236866390183171 0 0.015644065476816769 -0.0091583198490512996 0 0.016574063463331325 -0.008348127724692565 0 0.017429114647037072 -0.0082361661450300709 0 0.017013383927254291 -0.0098615768875631622 0 0.016574063463331325 -0.008348127724692565 0 0.017013383927254291 -0.0098615768875631622 0 0.014990623902390792 -0.010176091463867949 0 0.017013383927254291 -0.0098615768875631622 0 0.016317833390808049 -0.011476089662047485 0 0.014990623902390792 -0.010176091463867949 0 0.016317833390808049 -0.011476089662047485 0 0.014990623902390792 -0.010176091463867949 0 0.015085990629279724 -0.011576864419045438 0 0.016317833390808049 -0.011476089662047485 0 0.015085990629279724 -0.011576864419045438 0 0.015521879975582582 -0.012847727137207981 0 0.017013383927254291 -0.0098615768875631622 0 0.016317833390808049 -0.011476089662047485 0 0.017709495146469707 -0.011564001815881977 0 0.016317833390808049 -0.011476089662047485 0 0.017414670148226945 -0.012735897560304637 0 0.017709495146469707 -0.011564001815881977 0 0.016489767305013055 -0.0084236487252268601 0 0.016477486335317284 -0.0086066360146444063 0 0.016576753072187162 -0.0084537961349695212 0 0.016594572437273025 -0.0082270158328662871 0 0.016576753072187162 -0.0084537961349695212 0 0.016715207867134315 -0.0083435256464860046 0 0.016489767305013055 -0.0084236487252268601 0 0.016594572437273025 -0.0082270158328662871 0 0.016576753072187162 -0.0084537961349695212 0 0.014990623902390792 -0.010176091463867949 0 0.015085990629279724 -0.011576864419045438 0 0.013745607258157305 -0.011826289452512692 0 0.016576753072187162 -0.0084537961349695212 0 0.016715207867134315 -0.0083435256464860046 0 0.016612455875694657 -0.008654369680343903 0 0.015644065476816769 -0.0091583198490512996 0 0.016944575567250458 -0.011323724320768478 0 0.016477486335317284 -0.0086066360146444063 0 0.016576753072187162 -0.0084537961349695212 0 0.016612455875694657 -0.008654369680343903 0 0.017329579590586695 -0.0092993833052619178 0 0.016944575567250458 -0.011323724320768478 0 0.017950830557991501 -0.013503836158015836 0 0.016944575567250458 -0.011323724320768478 0 0.017294785513014794 -0.01420470764439603 0 0.017897015743313243 -0.013808294892586739 0 0.018043207413956437 -0.014321575637853783 0 0.018282940129135807 -0.012694529984904083 0 0.018188373895041438 -0.0099331671141481975 0 0.019717773765348723 -0.01085902702731719 0 0.017294785513014794 -0.01420470764439603 0 0.018043207413956437 -0.014321575637853783 0 0.018529910666030627 -0.015692031603600037 0 0.018043207413956437 -0.014321575637853783 0 0.018328924377681577 -0.01479537921860289 0 0.018285566101896328 -0.014391098339687014 0 0.018043207413956437 -0.014321575637853783 0 0.018328924377681577 -0.01479537921860289 0 0.018529910666030627 -0.015692031603600037 0 0.016944575567250458 -0.011323724320768478 0 0.016749184974545032 -0.013733493568521261 0 0.017897015743313243 -0.013808294892586739 0 0.018043207413956437 -0.014321575637853783 0 0.018285566101896328 -0.014391098339687014 0 0.015085990629279724 -0.011576864419045438 0 0.013745607258157305 -0.011826289452512692 0 0.015521879975582582 -0.012847727137207981 0 0.016317833390808049 -0.011476089662047485 0 0.015521879975582582 -0.012847727137207981 0 0.017414670148226945 -0.012735897560304637 0 0.015521879975582582 -0.012847727137207981 0 0.017414670148226945 -0.012735897560304637 0 0.017533287163870419 -0.013800355598925951 0 0.017414670148226945 -0.012735897560304637 0 0.017533287163870419 -0.013800355598925951 0 0.017482326378113935 -0.013469189117252393 0 0.017533287163870419 -0.013800355598925951 0 0.018025252716055637 -0.014275673109015964 0 0.017482326378113935 -0.013469189117252393 0 0.019313032200458366 -0.015091929135099932 0 0.019506765356820565 -0.01503444404219422 0 0.018285566101896328 -0.014391098339687014 0 0.017533287163870419 -0.013800355598925951 0 0.018025252716055637 -0.014275673109015964 0 0.016749184974545032 -0.013733493568521261 0 0.01753073724079067 -0.013789134731941103 0 0.018328924377681577 -0.01479537921860289 0 0.018285566101896328 -0.014391098339687014 0 0.018025252716055637 -0.014275673109015964 0 0.020855575124103475 -0.015773593904382564 0 0.021106780367850311 -0.016699140664413224 0 0.018529910666030627 -0.015692031603600037 0 0.020855575124103475 -0.015773593904382564 0 0.021465974243812466 -0.016405097018704757 0 0.021106780367850311 -0.016699140664413224 0 0.020855575124103475 -0.015773593904382564 0 0.021465974243812466 -0.016405097018704757 0 0.02154359784611715 -0.016418779538291656 0 0.021465974243812466 -0.016405097018704757 0 0.021657938043968046 -0.016759628679116283 0 0.021578037731438474 -0.016582651679252467 0 0.021465974243812466 -0.016405097018704757 0 0.021657938043968046 -0.016759628679116283 0 0.021106780367850311 -0.016699140664413224 0 0.021709009106516946 -0.017683505748543268 0 0.021738067815413396 -0.016750563948465007 0 0.021657938043968046 -0.016759628679116283 0 0.021709009106516946 -0.017683505748543268 0 0.021657938043968046 -0.016759628679116283 0 0.021106780367850311 -0.016699140664413224 0 0.019991705863083666 -0.017857649525517712 0 0.021709009106516946 -0.017683505748543268 0 0.021106780367850311 -0.016699140664413224 0 0.01840407682168135 -0.017880638870895915 0 0.019991705863083666 -0.017857649525517712 0 0.018529910666030627 -0.015692031603600037 0 0.019991705863083666 -0.017857649525517712 0 0.021106780367850311 -0.016699140664413224 0 0.018529910666030627 -0.015692031603600037 0 0.017148126805765263 -0.016014379984144306 0 0.017294785513014794 -0.01420470764439603 0 0.018529910666030627 -0.015692031603600037 0 0.01840407682168135 -0.017880638870895915 0 0.017148126805765263 -0.016014379984144306 0 0.018529910666030627 -0.015692031603600037 0 0.01840407682168135 -0.017880638870895915 0 0.017058339118572456 -0.017648390234375037 0 0.017148126805765263 -0.016014379984144306 0 0.018328924377681577 -0.01479537921860289 0 0.018025252716055637 -0.014275673109015964 0 0.018529910666030627 -0.015692031603600037 0 0.019313032200458366 -0.015091929135099932 0 0.018469252478694503 -0.015659629814248611 0 0.015516760938153887 -0.01153158681464715 0 0.015796077611531806 -0.010997508236174217 0 0.016263312379419279 -0.011878506748815836 0 0.018381431311966116 -0.013554291549700826 0 0.01883359641697642 -0.014367016998549068 0 0.020971693526145082 -0.016666654872991699 0 0.021320543138978014 -0.01664184583988355 0 0.021325478157142672 -0.016636949739088108 0 0.015516760938153887 -0.01153158681464715 0 0.014889624198666815 -0.011387147567999701 0 0.015377764637343269 -0.010743388939850045 0 0.014964559987494665 -0.010371683412036177 0 0.014889624198666815 -0.011387147567999701 0 0.015377764637343269 -0.010743388939850045 0 0.015547672132188812 -0.010207828247283958 0 0.015377764637343269 -0.010743388939850045 0 0.015796077611531806 -0.010997508236174217 0 0.020207006765237446 -0.016007858110239071 0 0.020971693526145082 -0.016666654872991699 0 0.020960041693753012 -0.016452021600534474 0 0.017464911328382276 -0.0142823842649443 0 0.018381431311966116 -0.013554291549700826 0 0.015516760938153887 -0.01153158681464715 0 0.015377764637343269 -0.010743388939850045 0 0.015796077611531806 -0.010997508236174217 0 0.020971693526145082 -0.016666654872991699 0 0.020960041693753012 -0.016452021600534474 0 0.021326473639722242 -0.016656872334572543 0 0.020960041693753012 -0.016452021600534474 0 0.021233214388940078 -0.016483238290618416 0 0.021326473639722242 -0.016656872334572543 0 0.02151132105608285 -0.016406629113759116 0 0.021233214388940078 -0.016483238290618416 0 0.021484397541336443 -0.01661896251730938 0 0.021233214388940078 -0.016483238290618416 0 0.021484397541336443 -0.01661896251730938 0 0.021326473639722242 -0.016656872334572543 0 0.021484397541336443 -0.01661896251730938 0 0.021326473639722242 -0.016656872334572543 0 0.021570584488383296 -0.01664837751887302 0 0.021738067815413396 -0.016750563948465007 0 0.021657938043968046 -0.016759628679116283 0 0.021570584488383296 -0.01664837751887302 0 0.021738067815413396 -0.016750563948465007 0 0.021484397541336443 -0.01661896251730938 0 0.021570584488383296 -0.01664837751887302 0 0.021657938043968046 -0.016759628679116283 0 0.021570584488383296 -0.01664837751887302 0 0.021578037731438474 -0.016582651679252467 0 0.021465974243812466 -0.016405097018704757 0 0.02152760696710845 -0.016505069744277952 0 0.02154359784611715 -0.016418779538291656 0 0.021465974243812466 -0.016405097018704757 0 0.021578037731438474 -0.016582651679252467 0 0.02152760696710845 -0.016505069744277952 0 0.021570584488383296 -0.01664837751887302 0 0.021578037731438474 -0.016582651679252467 0 0.021512223136552742 -0.016600118663971819 0 0.021578037731438474 -0.016582651679252467 0 0.021512223136552742 -0.016600118663971819 0 0.02152760696710845 -0.016505069744277952 0 0.021512223136552742 -0.016600118663971819 0 0.02152760696710845 -0.016505069744277952 0 0.02144374298735199 -0.016587008890351387 0 0.02152760696710845 -0.016505069744277952 0 0.02144374298735199 -0.016587008890351387 0 0.021481542526847711 -0.01652839326832551 0 0.020971693526145082 -0.016666654872991699 0 0.021326473639722242 -0.016656872334572543 0 0.021320543138978014 -0.01664184583988355 0 0.021326473639722242 -0.016656872334572543 0 0.021570584488383296 -0.01664837751887302 0 0.021512223136552742 -0.016600118663971819 0 0.021326473639722242 -0.016656872334572543 0 0.021512223136552742 -0.016600118663971819 0 0.02144374298735199 -0.016587008890351387 0 0.021326473639722242 -0.016656872334572543 0 0.02144374298735199 -0.016587008890351387 0 0.021320543138978014 -0.01664184583988355 0 0.021320543138978014 -0.01664184583988355 0 0.021405786794345561 -0.016601756682824188 0 0.021325478157142672 -0.016636949739088108 0 0.021405786794345561 -0.016601756682824188 0 0.02154359784611715 -0.016418779538291656 0 0.021335227198982534 -0.016718977236661554 0 0.019506765356820565 -0.01503444404219422 0 0.01910425710741866 -0.01408851319845375 0 0.017482326378113935 -0.013469189117252393 0 0.017592413127151492 -0.012866422240670137 0 0.017560524711302174 -0.012798826472838927 0 0.02144374298735199 -0.016587008890351387 0 0.021405786794345561 -0.016601756682824188 0 0.021481542526847711 -0.01652839326832551 0 0.02144374298735199 -0.016587008890351387 0 0.021320543138978014 -0.01664184583988355 0 0.021405786794345561 -0.016601756682824188 0 0.021405786794345561 -0.016601756682824188 0 0.021335227198982534 -0.016718977236661554 0 0.021325478157142672 -0.016636949739088108 0 0.021405786794345561 -0.016601756682824188 0 0.02154359784611715 -0.016418779538291656 0 0.021481542526847711 -0.01652839326832551 0 0.02152760696710845 -0.016505069744277952 0 0.02154359784611715 -0.016418779538291656 0 0.021481542526847711 -0.01652839326832551 0 0.017414670148226945 -0.012735897560304637 0 0.017482326378113935 -0.013469189117252393 0 0.017592413127151492 -0.012866422240670137 0 0.017414670148226945 -0.012735897560304637 0 0.017592413127151492 -0.012866422240670137 0 0.01766715559278393 -0.012520564269679055 0 0.017592413127151492 -0.012866422240670137 0 0.017560524711302174 -0.012798826472838927 0 0.017265286768792382 -0.012914986076414394 0 0.01910425710741866 -0.01408851319845375 0 0.017491574981968259 -0.012480363587179261 0 0.017592413127151492 -0.012866422240670137 0 0.01766715559278393 -0.012520564269679055 0 0.017265286768792382 -0.012914986076414394 0 0.017265286768792382 -0.012914986076414394 0 0.015842199688899446 -0.013422341155994716 0 0.016157005635265207 -0.012651609536619257 0 0.015842199688899446 -0.013422341155994716 0 0.016157005635265207 -0.012651609536619257 0 0.015300179273112273 -0.012479446778890565 0 0.016629825528257973 -0.012452043840981289 0 0.017265286768792382 -0.012914986076414394 0 0.016157005635265207 -0.012651609536619257 0 0.015516760938153887 -0.01153158681464715 0 0.016263312379419279 -0.011878506748815836 0 0.015300179273112273 -0.012479446778890565 0 0.01910425710741866 -0.01408851319845375 0 0.01883359641697642 -0.014367016998549068 0 0.016629825528257973 -0.012452043840981289 0 0.016157005635265207 -0.012651609536619257 0 0.016263312379419279 -0.011878506748815836 0 0.016157005635265207 -0.012651609536619257 0 0.016263312379419279 -0.011878506748815836 0 0.015300179273112273 -0.012479446778890565 0 0.013310625865556933 -0.012520903241937546 0 0.013461434535566915 -0.010870793079406709 0 0.015300179273112273 -0.012479446778890565 0 0.015516760938153887 -0.01153158681464715 0 0.014889624198666815 -0.011387147567999701 0 0.015300179273112273 -0.012479446778890565 0 0.014428750964482918 -0.01071608166409764 0 0.015209552300282713 -0.012625252660115155 0 0.013310625865556933 -0.012520903241937546 0 0.015300179273112273 -0.012479446778890565 0 0.014424361125532277 -0.013426167711602282 0 0.015842199688899446 -0.013422341155994716 0 0.015300179273112273 -0.012479446778890565 0 0.014424361125532277 -0.013426167711602282 0 0.015842199688899446 -0.013422341155994716 0 0.014424361125532277 -0.013426167711602282 0 0.014511420468052465 -0.015230130771454546 0 0.01305998733983812 -0.01364244973897903 0 0.014424361125532277 -0.013426167711602282 0 0.014511420468052465 -0.015230130771454546 0 0.015842199688899446 -0.013422341155994716 0 0.014511420468052465 -0.015230130771454546 0 0.017051222141164769 -0.013972296722002548 0 0.016237769762775592 -0.012007573061729542 0 0.017726905812385375 -0.011916387638036053 0 0.017265286768792382 -0.012914986076414394 0 0.015842199688899446 -0.013422341155994716 0 0.017051222141164769 -0.013972296722002548 0 0.018391295261410121 -0.0088450387093408286 0 0.018729290295132071 -0.0094058896015126615 0 0.018753666942333755 -0.0099201915040394474 0 0.018391295261410121 -0.0088450387093408286 0 0.018729290295132071 -0.0094058896015126615 0 0.018717062358881428 -0.0095343816229102197 0 0.016589098251870427 -0.0096760377773901229 0 0.018391295261410121 -0.0088450387093408286 0 0.018717062358881428 -0.0095343816229102197 0 0.017414670148226945 -0.012735897560304637 0 0.01766715559278393 -0.012520564269679055 0 0.017709495146469707 -0.011564001815881977 0 0.017530705906609132 -0.011676880799215715 0 0.017726905812385375 -0.011916387638036053 0 0.01766715559278393 -0.012520564269679055 0 0.017265286768792382 -0.012914986076414394 0 0.017051222141164769 -0.013972296722002548 0 0.01766715559278393 -0.012520564269679055 0 0.017709495146469707 -0.011564001815881977 0 0.017051222141164769 -0.013972296722002548 0 0.017709495146469707 -0.011564001815881977 0 0.018753666942333755 -0.0099201915040394474 0 0.018116584358630897 -0.0094943998362174466 0 0.018729290295132071 -0.0094058896015126615 0 0.018753666942333755 -0.0099201915040394474 0 0.018116584358630897 -0.0094943998362174466 0 0.017013383927254291 -0.0098615768875631622 0 0.017709495146469707 -0.011564001815881977 0 0.018116584358630897 -0.0094943998362174466 0 0.017429114647037072 -0.0082361661450300709 0 0.018116584358630897 -0.0094943998362174466 0 0.018149407884393683 -0.0078751057713018439 0 0.017429114647037072 -0.0082361661450300709 0 0.017013383927254291 -0.0098615768875631622 0 0.018116584358630897 -0.0094943998362174466 0 0.018729290295132071 -0.0094058896015126615 0 0.018116584358630897 -0.0094943998362174466 0 0.018149407884393683 -0.0078751057713018439 0 0.018149407884393683 -0.0078751057713018439 0 0.016607804274939211 -0.0075992734249616554 0 0.017536121641857465 -0.0084170450156186311 0 0.017429114647037072 -0.0082361661450300709 0 0.018149407884393683 -0.0078751057713018439 0 0.017712829471836711 -0.0077033553460150667 0 0.018729290295132071 -0.0094058896015126615 0 0.018149407884393683 -0.0078751057713018439 0 0.018717062358881428 -0.0095343816229102197 0 0.017961459371135843 -0.0077286591718528242 0 0.017071462995155672 -0.0072563479231321729 0 0.018149407884393683 -0.0078751057713018439 0 0.01564852084843869 -0.0048388248712381296 0 0.016607804274939211 -0.0075992734249616554 0 0.012817777813002884 -0.0056441262580129332 0 0.01564852084843869 -0.0048388248712381296 0 0.016607804274939211 -0.0075992734249616554 0 0.012817777813002884 -0.0056441262580129332 0 0.016607804274939211 -0.0075992734249616554 0 0.01442173760020642 -0.0090504617450491674 0 0.01064477946597903 -0.0046221788001583174 0 0.014030440755910381 -0.0050888242029364537 0 0.016607804274939211 -0.0075992734249616554 0 0.01442173760020642 -0.0090504617450491674 0 0.017536121641857465 -0.0084170450156186311 0 0.0069806582472925734 -0.00019778184124406186 0 0.0079673549833946707 -0.0027309760250828498 0 0.010757705741297162 -0.0017856999005301482 0 0.0079673549833946707 -0.0027309760250828498 0 0.010757705741297162 -0.0017856999005301482 0 0.0094730662288548713 -0.0051941155777326274 0 0.0069806582472925734 -0.00019778184124406186 0 0.0079673549833946707 -0.0027309760250828498 0 0.0045700432746721949 -0.0019286555419274708 0 0.018149407884393683 -0.0078751057713018439 0 0.017712829471836711 -0.0077033553460150667 0 0.017536121641857465 -0.0084170450156186311 0 0.014030440755910381 -0.0050888242029364537 0 0.015971103281931825 -0.0055067148710502617 0 0.010757705741297162 -0.0017856999005301482 0 0.014441731363668033 -0.0037464750076447581 0 0.013103107140807318 -0.0060251181934501078 0 0.017712829471836711 -0.0077033553460150667 0 0.017536121641857465 -0.0084170450156186311 0 0.017697858152913012 -0.0072607085703694559 0 0.014441731363668033 -0.0037464750076447581 0 0.013103107140807318 -0.0060251181934501078 0 0.016147338681211716 -0.006555294318008764 0 0.010968873942683996 -0.0044777580001542786 0 0.013403776552110292 -0.0048338785678042201 0 0.010968873942683996 -0.0044777580001542786 0 0.0082438457073292434 -0.003991753449535217 0 0.0088028901826190404 -0.0029265584241825108 0 0.0079891625614964181 -0.0036350796821736885 0 0.0069521976590227038 -0.0027902149917962598 0 0.010757705741297162 -0.0017856999005301482 0 0.013103107140807318 -0.0060251181934501078 0 0.0094730662288548713 -0.0051941155777326274 0 0.0079891625614964181 -0.0036350796821736885 0 0.0070455789203316506 -0.0042709706299285891 0 0.0082993531013303631 -0.004525547934955361 0 0.0079891625614964181 -0.0036350796821736885 0 0.0096070815623738419 -0.0041139556195581893 0 0.0082993531013303631 -0.004525547934955361 0 0.0088028901826190404 -0.0029265584241825108 0 0.0096070815623738419 -0.0041139556195581893 0 0.010747932516056925 -0.0031933126291339795 0 0.0088028901826190404 -0.0029265584241825108 0 0.0079891625614964181 -0.0036350796821736885 0 0.0096070815623738419 -0.0041139556195581893 0 0.0079673549833946707 -0.0027309760250828498 0 0.0094730662288548713 -0.0051941155777326274 0 0.0059423138467848968 -0.0042003991261216952 0 0.0082438457073292434 -0.003991753449535217 0 0.005475603348931349 -0.0034431164025706703 0 0.0069521976590227038 -0.0027902149917962598 0 0.0058775245736910125 -0.0036297572903519378 0 0.004973718618550939 -0.0026931993942497898 0 0.0079891625614964181 -0.0036350796821736885 0 0.0069521976590227038 -0.0027902149917962598 0 0.0070455789203316506 -0.0042709706299285891 0 0.0069521976590227038 -0.0027902149917962598 0 0.0058775245736910125 -0.0036297572903519378 0 0.0070455789203316506 -0.0042709706299285891 0 0.0058775245736910125 -0.0036297572903519378 0 0.0053960708167197996 -0.0045932640779165314 0 0.0070455789203316506 -0.0042709706299285891 0 0.0058775245736910125 -0.0036297572903519378 0 0.0049950437268060852 -0.0037264267387924458 0 0.004973718618550939 -0.0026931993942497898 0 0.0058775245736910125 -0.0036297572903519378 0 0.0053960708167197996 -0.0045932640779165314 0 0.0049950437268060852 -0.0037264267387924458 0 0.0053960708167197996 -0.0045932640779165314 0 0.0068577267265511402 -0.0052476143937175267 0 0.0070455789203316506 -0.0042709706299285891 0 0.0042804794562045084 -0.0035866683548384541 0 0.0059795842327821491 -0.0043175693159814782 0 0.0031089933647382522 -0.002534047100828283 0 0.0034291512423576271 -0.0035400558296340185 0 0.0050882794731252571 -0.0032728801287193643 0 0.0034291512423576271 -0.0035400558296340185 0 0.004306430108866781 -0.0045852863391319639 0 0.0050882794731252571 -0.0032728801287193643 0 0.0034291512423576271 -0.0035400558296340185 0 0.004306430108866781 -0.0045852863391319639 0 0.0027684074278349754 -0.0043045282660380277 0 0.0062700550449592924 -0.0050219466187465828 0 0.0050882794731252571 -0.0032728801287193643 0 0.0078640565094675284 -0.0055491491628798456 0 0.0068577267265511402 -0.0052476143937175267 0 0.0076714363885736691 -0.0052367409651277582 0 0.0078640565094675284 -0.0055491491628798456 0 0.0059795842327821491 -0.0043175693159814782 0 0.0076860953198416536 -0.0054266404584792241 0 0.0062700550449592924 -0.0050219466187465828 0 0.0052664422361670439 -0.0046705139386180542 0 0.0054568807291220768 -0.0056566283453879235 0 0.0062700550449592924 -0.0050219466187465828 0 0.0052664422361670439 -0.0046705139386180542 0 0.0050882794731252571 -0.0032728801287193643 0 0.004306430108866781 -0.0045852863391319639 0 0.0052664422361670439 -0.0046705139386180542 0 0.0054568807291220768 -0.0056566283453879235 0 0.004306430108866781 -0.0045852863391319639 0 0.0052664422361670439 -0.0046705139386180542 0 0.0050882794731252571 -0.0032728801287193643 0 0.0068577267265511402 -0.0052476143937175267 0 0.0076686590087077034 -0.0049309963684230004 0 0.0076714363885736691 -0.0052367409651277582 0 0.0068577267265511402 -0.0052476143937175267 0 0.0070455789203316506 -0.0042709706299285891 0 0.0076686590087077034 -0.0049309963684230004 0 0.0070455789203316506 -0.0042709706299285891 0 0.0082993531013303631 -0.004525547934955361 0 0.0076686590087077034 -0.0049309963684230004 0 0.0082993531013303631 -0.004525547934955361 0 0.0076686590087077034 -0.0049309963684230004 0 0.0083476431193483715 -0.005215039961055927 0 0.0096070815623738419 -0.0041139556195581893 0 0.0082993531013303631 -0.004525547934955361 0 0.0094291841883556264 -0.0049161206770778395 0 0.0082993531013303631 -0.004525547934955361 0 0.0094291841883556264 -0.0049161206770778395 0 0.0083476431193483715 -0.005215039961055927 0 0.010127821315017556 -0.0056555146255962462 0 0.0097270301909488776 -0.0056861189027576451 0 0.010439659299134795 -0.0058464947613314916 0 0.0094291841883556264 -0.0049161206770778395 0 0.0091114981327170014 -0.0057250857010060765 0 0.010651178247731157 -0.0053081316231657089 0 0.0094291841883556264 -0.0049161206770778395 0 0.0091114981327170014 -0.0057250857010060765 0 0.0083476431193483715 -0.005215039961055927 0 0.0089233696983943862 -0.0061151412032470305 0 0.011216348662306407 -0.00045800016107648306 0 0.0091114981327170014 -0.0057250857010060765 0 0.0078640565094675284 -0.0055491491628798456 0 0.0077498570133639182 -0.0058892707847377742 0 0.0091114981327170014 -0.0057250857010060765 0 0.0083476431193483715 -0.005215039961055927 0 0.0078640565094675284 -0.0055491491628798456 0 0.0076714363885736691 -0.0052367409651277582 0 0.0083476431193483715 -0.005215039961055927 0 0.0078640565094675284 -0.0055491491628798456 0 0.0076686590087077034 -0.0049309963684230004 0 0.0076714363885736691 -0.0052367409651277582 0 0.0083476431193483715 -0.005215039961055927 0 0.0078640565094675284 -0.0055491491628798456 0 0.007104770664336007 -0.0054886377730228031 0 0.0077498570133639182 -0.0058892707847377742 0 0.0062700550449592924 -0.0050219466187465828 0 0.0078640565094675284 -0.0055491491628798456 0 0.007104770664336007 -0.0054886377730228031 0 0.016747200986053624 0.01471046595383476 0 0.016411488114833412 0.01554574288463602 0 0.015077022878888553 0.0154156048343124 0 0.016411488114833412 0.01554574288463602 0 0.016846364305914987 0.01603100660212858 0 0.016441053644408898 0.016327579122836399 0 0.016747200986053624 0.01471046595383476 0 0.016411488114833412 0.01554574288463602 0 0.017337922928489534 0.015714122768476873 0 0.016411488114833412 0.01554574288463602 0 0.016846364305914987 0.01603100660212858 0 0.017337922928489534 0.015714122768476873 0 0.016747200986053624 0.01471046595383476 0 0.015077022878888553 0.0154156048343124 0 0.014121542207692591 0.01427056713959096 0 0.011216348662306407 -0.00045800016107648306 0 0.012913319543185892 0.0050061495987926861 0 0.016411488114833412 0.01554574288463602 0 0.015077022878888553 0.0154156048343124 0 0.015727985043283606 0.016221471263395956 0 0.015077022878888553 0.0154156048343124 0 0.014958856919262156 0.016840858955492435 0 0.014060547867771585 0.016179149246214455 0 0.015077022878888553 0.0154156048343124 0 0.015727985043283606 0.016221471263395956 0 0.014958856919262156 0.016840858955492435 0 0.015727985043283606 0.016221471263395956 0 0.014958856919262156 0.016840858955492435 0 0.015948502596611954 0.016893266836870421 0 0.014958856919262156 0.016840858955492435 0 0.015948502596611954 0.016893266836870421 0 0.016043415867348219 0.017878370914606447 0 0.017199405936953481 0.016542375390153161 0 0.016441053644408898 0.016327579122836399 0 0.016587150048770937 0.017126287274134021 0 0.017199405936953481 0.016542375390153161 0 0.016846364305914987 0.01603100660212858 0 0.017337922928489534 0.015714122768476873 0 0.017199405936953481 0.016542375390153161 0 0.016846364305914987 0.01603100660212858 0 0.016441053644408898 0.016327579122836399 0 0.016411488114833412 0.01554574288463602 0 0.015727985043283606 0.016221471263395956 0 0.016441053644408898 0.016327579122836399 0 0.015727985043283606 0.016221471263395956 0 0.016441053644408898 0.016327579122836399 0 0.015948502596611954 0.016893266836870421 0 0.016441053644408898 0.016327579122836399 0 0.016587150048770937 0.017126287274134021 0 0.015948502596611954 0.016893266836870421 0 0.016587150048770937 0.017126287274134021 0 0.015948502596611954 0.016893266836870421 0 0.016043415867348219 0.017878370914606447 0 0.017199405936953481 0.016542375390153161 0 0.016587150048770937 0.017126287274134021 0 0.017212975813166165 0.017644778378344807 0 0.017199405936953481 0.016542375390153161 0 0.017931329554056321 0.016915363738234226 0 0.017212975813166165 0.017644778378344807 0 0.017199405936953481 0.016542375390153161 0 0.018085846833678178 0.016146739458837628 0 0.017337922928489534 0.015714122768476873 0 0.017199405936953481 0.016542375390153161 0 0.017931329554056321 0.016915363738234226 0 0.018085846833678178 0.016146739458837628 0 0.018085846833678178 0.016146739458837628 0 0.018648451673587554 0.016431733892211937 0 0.018679099352895908 0.01560072648511812 0 0.017931329554056321 0.016915363738234226 0 0.018085846833678178 0.016146739458837628 0 0.018648451673587554 0.016431733892211937 0 0.017931329554056321 0.016915363738234226 0 0.018648451673587554 0.016431733892211937 0 0.018894768896793195 0.017399756600889899 0 0.018894768896793195 0.017399756600889899 0 0.019654715695788132 0.01609075600229877 0 0.01974200491735377 0.018999151403666779 0 0.00029473251217359783 0.015425387959747794 0 0.00019661017473651305 0.020759324577962236 0 0.0030800070922973998 0.016839721663594723 0 0.018648451673587554 0.016431733892211937 0 0.018894768896793195 0.017399756600889899 0 0.019654715695788132 0.01609075600229877 0 0.018648451673587554 0.016431733892211937 0 0.019654715695788132 0.01609075600229877 0 0.018679099352895908 0.01560072648511812 0 -0.0019035656010112951 0.0041848024145875696 0 -0.0019808078140572129 0.0035589396283818059 0 -0.0023755392160736237 0.003955880219722558 0 0.010041045961452714 0.0075501337258826861 0 -0.00037535121289441955 -0.0016989715302371442 0 0.004306430108866781 -0.0045852863391319639 0 0.0047383744771211829 -0.0064458922991474186 0 0.0027684074278349754 -0.0043045282660380277 0 0.0044888041537398549 0.011446176742685204 0 0.010041045961452714 0.0075501337258826861 0 -0.0019808078140572129 0.0035589396283818059 0 -0.0023755392160736237 0.003955880219722558 0 -0.0015925185488829764 0.0027343637395891027 0 0.0044888041537398549 0.011446176742685204 0 0.00041807005750460843 0.0030362733891568243 0 -0.0022270311503877951 0.0046694844344541435 0 -0.0019808078140572129 0.0035589396283818059 0 -0.0013099835802479691 0.0041874092279378192 0 0.0074020981440703366 -0.0054765004351601662 0 0.0054568807291220768 -0.0056566283453879235 0 0.0047383744771211829 -0.0064458922991474186 0 0.004306430108866781 -0.0045852863391319639 0 0.0054568807291220768 -0.0056566283453879235 0 0.0047383744771211829 -0.0064458922991474186 0 0.016747200986053624 0.01471046595383476 0 0.017337922928489534 0.015714122768476873 0 0.018625697584472394 0.015626854611392033 0 0.011216348662306407 -0.00045800016107648306 0 0.010041045961452714 0.0075501337258826861 0 0.007104770664336007 -0.0054886377730228031 0 0.0077498570133639182 -0.0058892707847377742 0 0.0054568807291220768 -0.0056566283453879235 0 0.011216348662306407 -0.00045800016107648306 0 0.0044764641694695715 -0.0055577781235103263 0 0.0062700550449592924 -0.0050219466187465828 0 0.007104770664336007 -0.0054886377730228031 0 0.0054568807291220768 -0.0056566283453879235 0 0.018085846833678178 0.016146739458837628 0 0.017337922928489534 0.015714122768476873 0 0.018625697584472394 0.015626854611392033 0 0.014209662541451118 0.011177257913158567 0 0.010041045961452714 0.0075501337258826861 0 0.013314640629395013 0.015296969929859726 0 0.013053043797883059 0.01583250529278573 0 0.013428456316347467 0.015823871568744666 0 0.013053043797883059 0.01583250529278573 0 0.013125278127514458 0.015898488843805261 0 0.013144486218849971 0.015856081813965976 0 0.013125278127514458 0.015898488843805261 0 0.013428456316347467 0.015823871568744666 0 0.013016390408006947 0.016216357251860918 0 0.013053043797883059 0.01583250529278573 0 0.013125278127514458 0.015898488843805261 0 0.013428456316347467 0.015823871568744666 0 0.013125278127514458 0.015898488843805261 0 0.013144486218849971 0.015856081813965976 0 0.013016390408006947 0.016216357251860918 0 0.013428456316347467 0.015823871568744666 0 0.013850582776473842 0.016181668306355441 0 0.013016390408006947 0.016216357251860918 0 0.013428456316347467 0.015823871568744666 0 0.014213449044654927 0.016132833625575195 0 0.013850582776473842 0.016181668306355441 0 0.013314640629395013 0.015296969929859726 0 0.013428456316347467 0.015823871568744666 0 0.014222676187695354 0.01574051786741712 0 0.013428456316347467 0.015823871568744666 0 0.014213449044654927 0.016132833625575195 0 0.014222676187695354 0.01574051786741712 0 0.014213449044654927 0.016132833625575195 0 0.014222676187695354 0.01574051786741712 0 0.014869777712948474 0.016141754235729583 0 0.014222676187695354 0.01574051786741712 0 0.014869777712948474 0.016141754235729583 0 0.015578926994691777 0.015714297952047297 0 0.015578926994691777 0.015714297952047297 0 0.015566056650055227 0.016294788566607349 0 0.016470306674086718 0.016051932429591777 0 0.014869777712948474 0.016141754235729583 0 0.015578926994691777 0.015714297952047297 0 0.015566056650055227 0.016294788566607349 0 0.014222676187695354 0.01574051786741712 0 0.015578926994691777 0.015714297952047297 0 0.015307044492038287 0.014404246540173894 0 0.015578926994691777 0.015714297952047297 0 0.015307044492038287 0.014404246540173894 0 0.016696390885965324 0.015273337270207391 0 0.013314640629395013 0.015296969929859726 0 0.014222676187695354 0.01574051786741712 0 0.015307044492038287 0.014404246540173894 0 0.015307044492038287 0.014404246540173894 0 0.016442869044308469 0.010955795688167331 0 0.013390130929738986 0.011873228704205221 0 0.013314640629395013 0.015296969929859726 0 0.015307044492038287 0.014404246540173894 0 0.013390130929738986 0.011873228704205221 0 0.013178513596844828 0.015708576781341167 0 0.012469512956581863 0.013652793934777856 0 0.013314640629395013 0.015296969929859726 0 0.012800420745431203 0.016613098138845386 0 0.011920464035892633 0.017150441135345716 0 0.013053043797883059 0.01583250529278573 0 0.012800420745431203 0.016613098138845386 0 0.013158177312997872 0.016269721386982374 0 0.013314640629395013 0.015296969929859726 0 0.013053043797883059 0.01583250529278573 0 0.012800420745431203 0.016613098138845386 0 0.012800420745431203 0.016613098138845386 0 0.013233588556951996 0.017047037140634408 0 0.012804159832889997 0.017779167537595782 0 0.012800420745431203 0.016613098138845386 0 0.013233588556951996 0.017047037140634408 0 0.013158177312997872 0.016269721386982374 0 0.013233588556951996 0.017047037140634408 0 0.013607564947149611 0.016611876987657058 0 0.013793490820058795 0.017430502430004668 0 0.013158177312997872 0.016269721386982374 0 0.013607564947149611 0.016611876987657058 0 0.01342251881697429 0.016051852396517158 0 0.013233588556951996 0.017047037140634408 0 0.013158177312997872 0.016269721386982374 0 0.013607564947149611 0.016611876987657058 0 0.014958856919262156 0.016840858955492435 0 0.014200430043860216 0.01691831047552126 0 0.01454990261010719 0.017995784205400916 0 0.014200430043860216 0.01691831047552126 0 0.013607564947149611 0.016611876987657058 0 0.013793490820058795 0.017430502430004668 0 0.014200430043860216 0.01691831047552126 0 0.013607564947149611 0.016611876987657058 0 0.014060547867771585 0.016179149246214455 0 0.013607564947149611 0.016611876987657058 0 0.014060547867771585 0.016179149246214455 0 0.01342251881697429 0.016051852396517158 0 0.014958856919262156 0.016840858955492435 0 0.014200430043860216 0.01691831047552126 0 0.014060547867771585 0.016179149246214455 0 0.015077022878888553 0.0154156048343124 0 0.014060547867771585 0.016179149246214455 0 0.01345534716736004 0.015553549142273936 0 0.015006681370040893 0.015425203616519036 0 0.013349220842134104 0.01500060190936995 0 0.015077022878888553 0.0154156048343124 0 0.013139710643114479 0.014504052614770082 0 0.014121542207692591 0.01427056713959096 0 0.014060547867771585 0.016179149246214455 0 0.01345534716736004 0.015553549142273936 0 0.01342251881697429 0.016051852396517158 0 0.01345534716736004 0.015553549142273936 0 0.013144486218849971 0.015856081813965976 0 0.013016390408006947 0.016216357251860918 0 0.013053043797883059 0.01583250529278573 0 0.013158177312997872 0.016269721386982374 0 0.013144486218849971 0.015856081813965976 0 0.013158177312997872 0.016269721386982374 0 0.01342251881697429 0.016051852396517158 0 0.013144486218849971 0.015856081813965976 0 0.01345534716736004 0.015553549142273936 0 0.01342251881697429 0.016051852396517158 0 0.013144486218849971 0.015856081813965976 0 0.013139710643114479 0.014504052614770082 0 0.014121542207692591 0.01427056713959096 0 0.01188131852123589 0.013585450188538137 0 0.012913319543185892 0.0050061495987926861 0 0.011461310437815744 0.0031942511809985989 0 0.013349220842134104 0.01500060190936995 0 0.012437673749440046 0.015595800029545383 0 0.013139710643114479 0.014504052614770082 0 0.011460060008871073 0.013675154306707432 0 0.01188131852123589 0.013585450188538137 0 0.011509710859355524 -0.005311523982179019 0 0.010439659299134795 -0.0058464947613314916 0 0.012138310194588288 -0.0057683541221608316 0 0.011509710859355524 -0.005311523982179019 0 0.012091977283671373 -0.0053090945118234086 0 0.012138310194588288 -0.0057683541221608316 0 0.011509710859355524 -0.005311523982179019 0 0.010439659299134795 -0.0058464947613314916 0 0.010651178247731157 -0.0053081316231657089 0 0.010127821315017556 -0.0056555146255962462 0 0.010439659299134795 -0.0058464947613314916 0 0.010651178247731157 -0.0053081316231657089 0 0.0089233696983943862 -0.0061151412032470305 0 0.010831106120996262 -0.0051762295866969159 0 0.0096070815623738419 -0.0041139556195581893 0 0.0094291841883556264 -0.0049161206770778395 0 0.010740551402259815 -0.0047143358620186215 0 0.0094291841883556264 -0.0049161206770778395 0 0.010651178247731157 -0.0053081316231657089 0 0.010740551402259815 -0.0047143358620186215 0 0.011509710859355524 -0.005311523982179019 0 0.010651178247731157 -0.0053081316231657089 0 0.010740551402259815 -0.0047143358620186215 0 0.010740551402259815 -0.0047143358620186215 0 0.011441574865557592 -0.004681905223138127 0 0.010781772773406027 -0.0040895892689936627 0 0.0096070815623738419 -0.0041139556195581893 0 0.010740551402259815 -0.0047143358620186215 0 0.010781772773406027 -0.0040895892689936627 0 0.011509710859355524 -0.005311523982179019 0 0.012091977283671373 -0.0053090945118234086 0 0.011921363587106715 -0.0050248850695679371 0 0.011921363587106715 -0.0050248850695679371 0 0.012125508145485265 -0.0047252464772168856 0 0.012341662345200805 -0.0050645185342822361 0 0.012091977283671373 -0.0053090945118234086 0 0.011921363587106715 -0.0050248850695679371 0 0.012341662345200805 -0.0050645185342822361 0 0.011509710859355524 -0.005311523982179019 0 0.011921363587106715 -0.0050248850695679371 0 0.011441574865557592 -0.004681905223138127 0 0.011509710859355524 -0.005311523982179019 0 0.010740551402259815 -0.0047143358620186215 0 0.011441574865557592 -0.004681905223138127 0 0.011441574865557592 -0.004681905223138127 0 0.010781772773406027 -0.0040895892689936627 0 0.01173539387360233 -0.0042084268336654088 0 0.011921363587106715 -0.0050248850695679371 0 0.011441574865557592 -0.004681905223138127 0 0.012125508145485265 -0.0047252464772168856 0 0.011441574865557592 -0.004681905223138127 0 0.012125508145485265 -0.0047252464772168856 0 0.01173539387360233 -0.0042084268336654088 0 0.012125508145485265 -0.0047252464772168856 0 0.012566850916677447 -0.0047863266995540653 0 0.012519337301034755 -0.0045159044226457815 0 0.012566850916677447 -0.0047863266995540653 0 0.012718591755557588 -0.0050590922994803982 0 0.013029337386541629 -0.0046421843757584813 0 0.01363534656980973 -0.0050561499174886252 0 0.012732955780632974 -0.0046648875844939519 0 0.012566850916677447 -0.0047863266995540653 0 0.013029337386541629 -0.0046421843757584813 0 0.012519337301034755 -0.0045159044226457815 0 0.012718591755557588 -0.0050590922994803982 0 0.013066749192903711 -0.0051752488393177467 0 0.013029337386541629 -0.0046421843757584813 0 0.012125508145485265 -0.0047252464772168856 0 0.012566850916677447 -0.0047863266995540653 0 0.012341662345200805 -0.0050645185342822361 0 0.012566850916677447 -0.0047863266995540653 0 0.012718591755557588 -0.0050590922994803982 0 0.012341662345200805 -0.0050645185342822361 0 0.012718591755557588 -0.0050590922994803982 0 0.012341662345200805 -0.0050645185342822361 0 0.012443474327291561 -0.0053643598843933432 0 0.011460060008871073 0.013675154306707432 0 0.01188131852123589 0.013585450188538137 0 0.0099606538317914134 0.012925098007865728 0 0.012091977283671373 -0.0053090945118234086 0 0.012443474327291561 -0.0053643598843933432 0 0.012138310194588288 -0.0057683541221608316 0 0.012882393974624578 -0.0054717593943536527 0 0.012138310194588288 -0.0057683541221608316 0 0.01365776265027336 -0.0054612134201692895 0 0.012443474327291561 -0.0053643598843933432 0 0.012882393974624578 -0.0054717593943536527 0 0.012138310194588288 -0.0057683541221608316 0 0.012091977283671373 -0.0053090945118234086 0 0.012341662345200805 -0.0050645185342822361 0 0.012443474327291561 -0.0053643598843933432 0 0.011461310437815744 0.0031942511809985989 0 0.013353370142540394 0.0080703857780682967 0 0.013850582776473842 0.016181668306355441 0 0.013016390408006947 0.016216357251860918 0 0.014770772694131446 0.016603185129796694 0 0.012718591755557588 -0.0050590922994803982 0 0.012443474327291561 -0.0053643598843933432 0 0.012882393974624578 -0.0054717593943536527 0 0.012718591755557588 -0.0050590922994803982 0 0.012882393974624578 -0.0054717593943536527 0 0.013066749192903711 -0.0051752488393177467 0 0.013016390408006947 0.016216357251860918 0 0.014770772694131446 0.016603185129796694 0 0.015572987295403965 0.017188957475803866 0 0.012437673749440046 0.015595800029545383 0 0.013353370142540394 0.0080703857780682967 0 0.015462965123965352 0.01665535082791493 0 0.014770772694131446 0.016603185129796694 0 0.015572987295403965 0.017188957475803866 0 0.015462965123965352 0.01665535082791493 0 0.015572987295403965 0.017188957475803866 0 0.015965552627909226 0.016553644502912898 0 0.015462965123965352 0.01665535082791493 0 0.015566056650055227 0.016294788566607349 0 0.015965552627909226 0.016553644502912898 0 0.015462965123965352 0.01665535082791493 0 0.015566056650055227 0.016294788566607349 0 0.014770772694131446 0.016603185129796694 0 0.014869777712948474 0.016141754235729583 0 0.015566056650055227 0.016294788566607349 0 0.014770772694131446 0.016603185129796694 0 0.014213449044654927 0.016132833625575195 0 0.014869777712948474 0.016141754235729583 0 0.014770772694131446 0.016603185129796694 0 0.014213449044654927 0.016132833625575195 0 0.013850582776473842 0.016181668306355441 0 0.014770772694131446 0.016603185129796694 0 0.012882393974624578 -0.0054717593943536527 0 0.013279809142329423 -0.005400087030647982 0 0.01365776265027336 -0.0054612134201692895 0 0.012882393974624578 -0.0054717593943536527 0 0.013279809142329423 -0.005400087030647982 0 0.013066749192903711 -0.0051752488393177467 0 0.013279809142329423 -0.005400087030647982 0 0.013439866441534278 -0.0051530771966987457 0 0.013066749192903711 -0.0051752488393177467 0 0.013279809142329423 -0.005400087030647982 0 0.013439866441534278 -0.0051530771966987457 0 0.013509288522398143 -0.0053099090363100329 0 0.013439866441534278 -0.0051530771966987457 0 0.013509288522398143 -0.0053099090363100329 0 0.01364893341451235 -0.0052459525993902075 0 0.013279809142329423 -0.005400087030647982 0 0.013509288522398143 -0.0053099090363100329 0 0.01365776265027336 -0.0054612134201692895 0 0.013509288522398143 -0.0053099090363100329 0 0.01365776265027336 -0.0054612134201692895 0 0.01364893341451235 -0.0052459525993902075 0 0.01365776265027336 -0.0054612134201692895 0 0.01364893341451235 -0.0052459525993902075 0 0.013964266013155672 -0.0049164077521753656 0 0.014325968665176856 -0.0056750341710323322 0 0.015685421507869841 -0.0052993210134417452 0 0.015546950560785177 -0.0058915197210370222 0 0.013340448725455405 -0.0049823357689912206 0 0.013029337386541629 -0.0046421843757584813 0 0.013738983483066203 -0.0048670730412570208 0 0.01364893341451235 -0.0052459525993902075 0 0.013964266013155672 -0.0049164077521753656 0 0.013940522676961992 -0.0042003589265690528 0 0.013439866441534278 -0.0051530771966987457 0 0.013340448725455405 -0.0049823357689912206 0 0.013738983483066203 -0.0048670730412570208 0 0.014172778985893033 -0.005180930753917754 0 0.015020788430077002 -0.0050134744380637064 0 0.013439866441534278 -0.0051530771966987457 0 0.01364893341451235 -0.0052459525993902075 0 0.013738983483066203 -0.0048670730412570208 0 0.013066749192903711 -0.0051752488393177467 0 0.013340448725455405 -0.0049823357689912206 0 0.013029337386541629 -0.0046421843757584813 0 0.013439866441534278 -0.0051530771966987457 0 0.013066749192903711 -0.0051752488393177467 0 0.013340448725455405 -0.0049823357689912206 0 0.01363534656980973 -0.0050561499174886252 0 0.015020788430077002 -0.0050134744380637064 0 0.016315770121666778 -0.0058546031056605627 0 0.016847694186282826 -0.005925882349728984 0 0.015685421507869841 -0.0052993210134417452 0 0.013890494657767639 -0.0047878455243329432 0 0.012885981524643649 -0.0037367283664177342 0 0.015685421507869841 -0.0052993210134417452 0 0.014325968665176856 -0.0056750341710323322 0 0.013890494657767639 -0.0047878455243329432 0 0.015685421507869841 -0.0052993210134417452 0 0.014793211615860034 -0.0048884938839191512 0 0.015566887616188227 -0.0052026696650398184 0 0.016315770121666778 -0.0058546031056605627 0 0.01603275027939776 -0.0057894962493885097 0 0.015685421507869841 -0.0052993210134417452 0 0.014325968665176856 -0.0056750341710323322 0 0.013890494657767639 -0.0047878455243329432 0 0.012519337301034755 -0.0045159044226457815 0 0.013890494657767639 -0.0047878455243329432 0 0.012519337301034755 -0.0045159044226457815 0 0.012885981524643649 -0.0037367283664177342 0 0.012519337301034755 -0.0045159044226457815 0 0.012885981524643649 -0.0037367283664177342 0 0.01173539387360233 -0.0042084268336654088 0 0.016315770121666778 -0.0058546031056605627 0 0.016847694186282826 -0.005925882349728984 0 0.016633157911643971 -0.006037265670619742 0 0.016639129185741695 -0.0062082996979061682 0 0.016862022805375281 -0.0059772091032006432 0 0.016583196902183357 -0.0066974676782218063 0 0.016633157911643971 -0.006037265670619742 0 0.016639129185741695 -0.0062082996979061682 0 0.016327299758963586 -0.0061734695811835917 0 0.016633157911643971 -0.006037265670619742 0 0.016639129185741695 -0.0062082996979061682 0 0.016778705404350197 -0.006043911938790867 0 0.016847694186282826 -0.005925882349728984 0 0.016633157911643971 -0.006037265670619742 0 0.016778705404350197 -0.006043911938790867 0 0.016639129185741695 -0.0062082996979061682 0 0.016327299758963586 -0.0061734695811835917 0 0.016404980749670686 -0.0065561208178547244 0 0.016327299758963586 -0.0061734695811835917 0 0.016214979948044592 -0.0066271936863456053 0 0.016039523719369207 -0.0062645092389326537 0 0.016327299758963586 -0.0061734695811835917 0 0.01603275027939776 -0.0057894962493885097 0 0.016039523719369207 -0.0062645092389326537 0 0.016315770121666778 -0.0058546031056605627 0 0.016327299758963586 -0.0061734695811835917 0 0.01603275027939776 -0.0057894962493885097 0 0.016315770121666778 -0.0058546031056605627 0 0.016633157911643971 -0.006037265670619742 0 0.016327299758963586 -0.0061734695811835917 0 0.0096070815623738419 -0.0041139556195581893 0 0.010781772773406027 -0.0040895892689936627 0 0.010747932516056925 -0.0031933126291339795 0 0.014793211615860034 -0.0048884938839191512 0 0.013403776552110292 -0.0048338785678042201 0 0.012885981524643649 -0.0037367283664177342 0 0.010747932516056925 -0.0031933126291339795 0 0.01173539387360233 -0.0042084268336654088 0 0.016847694186282826 -0.005925882349728984 0 0.016147338681211716 -0.006555294318008764 0 0.016778705404350197 -0.006043911938790867 0 0.010781772773406027 -0.0040895892689936627 0 0.010747932516056925 -0.0031933126291339795 0 0.01173539387360233 -0.0042084268336654088 0 0.012125508145485265 -0.0047252464772168856 0 0.012519337301034755 -0.0045159044226457815 0 0.01173539387360233 -0.0042084268336654088 0 0.016639129185741695 -0.0062082996979061682 0 0.016778705404350197 -0.006043911938790867 0 0.016862022805375281 -0.0059772091032006432 0 0.016147338681211716 -0.006555294318008764 0 0.016778705404350197 -0.006043911938790867 0 0.016862022805375281 -0.0059772091032006432 0 0.014441731363668033 -0.0037464750076447581 0 0.016147338681211716 -0.006555294318008764 0 0.016862022805375281 -0.0059772091032006432 0 0.015971103281931825 -0.0055067148710502617 0 0.016744634770779462 -0.005895143444640788 0 0.017712829471836711 -0.0077033553460150667 0 0.017697858152913012 -0.0072607085703694559 0 0.017271239742946455 -0.0071345412309413575 0 0.017697858152913012 -0.0072607085703694559 0 0.016862022805375281 -0.0059772091032006432 0 0.017271239742946455 -0.0071345412309413575 0 0.016862022805375281 -0.0059772091032006432 0 0.017271239742946455 -0.0071345412309413575 0 0.016856240304664535 -0.0068199406868253423 0 0.016862022805375281 -0.0059772091032006432 0 0.016856240304664535 -0.0068199406868253423 0 0.016583196902183357 -0.0066974676782218063 0 0.016856240304664535 -0.0068199406868253423 0 0.016715049818920018 -0.0072113330174349601 0 0.016583196902183357 -0.0066974676782218063 0 0.017271239742946455 -0.0071345412309413575 0 0.016856240304664535 -0.0068199406868253423 0 0.017040445672767471 -0.0075587883060346441 0 0.016856240304664535 -0.0068199406868253423 0 0.016715049818920018 -0.0072113330174349601 0 0.017040445672767471 -0.0075587883060346441 0 0.016682799109426865 -0.0077133846631236352 0 0.016715049818920018 -0.0072113330174349601 0 0.017040445672767471 -0.0075587883060346441 0 0.017712829471836711 -0.0077033553460150667 0 0.017271239742946455 -0.0071345412309413575 0 0.017040445672767471 -0.0075587883060346441 0 0.016379598145470072 -0.0068644160754030561 0 0.016214979948044592 -0.0066271936863456053 0 0.016404980749670686 -0.0065561208178547244 0 0.016379598145470072 -0.0068644160754030561 0 0.016214979948044592 -0.0066271936863456053 0 0.016274000873162567 -0.00702602642249219 0 0.016214979948044592 -0.0066271936863456053 0 0.016274000873162567 -0.00702602642249219 0 0.016038715486494701 -0.0067260116929310698 0 0.016327299758963586 -0.0061734695811835917 0 0.016214979948044592 -0.0066271936863456053 0 0.016404980749670686 -0.0065561208178547244 0 0.016639129185741695 -0.0062082996979061682 0 0.016404980749670686 -0.0065561208178547244 0 0.016583196902183357 -0.0066974676782218063 0 0.016379598145470072 -0.0068644160754030561 0 0.016404980749670686 -0.0065561208178547244 0 0.016583196902183357 -0.0066974676782218063 0 0.016379598145470072 -0.0068644160754030561 0 0.016583196902183357 -0.0066974676782218063 0 0.016505568954831025 -0.0073014499420076314 0 0.016715049818920018 -0.0072113330174349601 0 0.016583196902183357 -0.0066974676782218063 0 0.016505568954831025 -0.0073014499420076314 0 0.016682799109426865 -0.0077133846631236352 0 0.016715049818920018 -0.0072113330174349601 0 0.016505568954831025 -0.0073014499420076314 0 0.016438508202239948 -0.0074950521937582944 0 0.016505568954831025 -0.0073014499420076314 0 0.016274000873162567 -0.00702602642249219 0 0.016379598145470072 -0.0068644160754030561 0 0.016505568954831025 -0.0073014499420076314 0 0.016274000873162567 -0.00702602642249219 0 0.016301641804928536 -0.0071848620824579313 0 0.016438508202239948 -0.0074950521937582944 0 0.016274000873162567 -0.00702602642249219 0 0.016135629547316774 -0.0068251982757408618 0 0.015797823111382822 -0.0066280326354095035 0 0.016370722308679073 -0.0066896008900863054 0 0.016301641804928536 -0.0071848620824579313 0 0.016274000873162567 -0.00702602642249219 0 0.016135629547316774 -0.0068251982757408618 0 0.016301641804928536 -0.0071848620824579313 0 0.016135629547316774 -0.0068251982757408618 0 0.016370722308679073 -0.0066896008900863054 0 0.016274000873162567 -0.00702602642249219 0 0.016135629547316774 -0.0068251982757408618 0 0.016038715486494701 -0.0067260116929310698 0 0.016135629547316774 -0.0068251982757408618 0 0.016038715486494701 -0.0067260116929310698 0 0.015797823111382822 -0.0066280326354095035 0 0.016214979948044592 -0.0066271936863456053 0 0.016038715486494701 -0.0067260116929310698 0 0.016039523719369207 -0.0062645092389326537 0 0.016038715486494701 -0.0067260116929310698 0 0.015797823111382822 -0.0066280326354095035 0 0.016039523719369207 -0.0062645092389326537 0 0.01728409488204043 -0.0045071420365642425 0 0.016586109683227841 -0.0054516049970473376 0 0.016370722308679073 -0.0066896008900863054 0 0.016781605606769927 -0.0044623266627129045 0 0.016586109683227841 -0.0054516049970473376 0 0.016403897367453419 -0.0049319826733668169 0 0.016494008826016853 -0.0055597109043199356 0 0.016385811017928621 -0.0065492273484529092 0 0.01728409488204043 -0.0045071420365642425 0 0.016781605606769927 -0.0044623266627129045 0 0.016586109683227841 -0.0054516049970473376 0 0.015854076261764081 -0.0065015729100871339 0 0.01655590407102495 -0.0055322166625502876 0 0.015199025817698421 -0.0072308855231666127 0 0.016586109683227841 -0.0054516049970473376 0 0.016370722308679073 -0.0066896008900863054 0 0.016465299123453795 -0.0058149341237238852 0 0.016586109683227841 -0.0054516049970473376 0 0.016403897367453419 -0.0049319826733668169 0 0.016465299123453795 -0.0058149341237238852 0 0.015712162421743357 -0.005421824632670577 0 0.016403897367453419 -0.0049319826733668169 0 0.015712162421743357 -0.005421824632670577 0 0.015823340763357074 -0.0041410640200647292 0 0.014785210481453702 -0.0050303214318434993 0 0.015712162421743357 -0.005421824632670577 0 0.016403897367453419 -0.0049319826733668169 0 0.015823340763357074 -0.0041410640200647292 0 0.016781605606769927 -0.0044623266627129045 0 0.016403897367453419 -0.0049319826733668169 0 0.016850892367140533 -0.0040106573700094648 0 0.016403897367453419 -0.0049319826733668169 0 0.016850892367140533 -0.0040106573700094648 0 0.015823340763357074 -0.0041410640200647292 0 0.016850892367140533 -0.0040106573700094648 0 0.015823340763357074 -0.0041410640200647292 0 0.017804639430374213 -0.0032992859404452671 0 0.018964692735140506 -0.00051366451574378648 0 0.017779741381499695 -0.003137219405801753 0 0.022160951774529449 0.0034392672063512028 0 0.017804639430374213 -0.0032992859404452671 0 0.022514515358989861 -0.0034170876256819482 0 0.016850892367140533 -0.0040106573700094648 0 0.017804639430374213 -0.0032992859404452671 0 0.017229973710507912 -0.0036975414390407052 0 0.016850892367140533 -0.0040106573700094648 0 0.017229973710507912 -0.0036975414390407052 0 0.016992820573151469 -0.0039253872531356242 0 0.017804639430374213 -0.0032992859404452671 0 0.017229973710507912 -0.0036975414390407052 0 0.017266872472616383 -0.0041813074020583315 0 0.017229973710507912 -0.0036975414390407052 0 0.016962214015016627 -0.0039912414742189232 0 0.017266872472616383 -0.0041813074020583315 0 0.017229973710507912 -0.0036975414390407052 0 0.016962214015016627 -0.0039912414742189232 0 0.016992820573151469 -0.0039253872531356242 0 0.016870458961622384 -0.0040064806477246367 0 0.016992820573151469 -0.0039253872531356242 0 0.016979662158034193 -0.0040972786187969644 0 0.016962214015016627 -0.0039912414742189232 0 0.016870458961622384 -0.0040064806477246367 0 0.016992820573151469 -0.0039253872531356242 0 0.016962214015016627 -0.0039912414742189232 0 0.016870458961622384 -0.0040064806477246367 0 0.01670478557318646 -0.00426995892851434 0 0.016720408711044816 -0.004146122576175925 0 0.016555509258336664 -0.0043067819415654228 0 0.01670478557318646 -0.00426995892851434 0 0.016870458961622384 -0.0040064806477246367 0 0.016720408711044816 -0.004146122576175925 0 0.01670478557318646 -0.00426995892851434 0 0.016368024176551685 -0.0047481774592590563 0 0.015020788430077002 -0.0050134744380637064 0 0.016720408711044816 -0.004146122576175925 0 0.016804011220165227 -0.0039802974554152774 0 0.016555509258336664 -0.0043067819415654228 0 0.016804011220165227 -0.0039802974554152774 0 0.016279718291585452 -0.0044729318635762638 0 0.016555509258336664 -0.0043067819415654228 0 0.015685421507869841 -0.0052993210134417452 0 0.015735502758295519 -0.0053625292896294398 0 0.015546950560785177 -0.0058915197210370222 0 0.01603275027939776 -0.0057894962493885097 0 0.015685421507869841 -0.0052993210134417452 0 0.015735502758295519 -0.0053625292896294398 0 0.016870458961622384 -0.0040064806477246367 0 0.016804011220165227 -0.0039802974554152774 0 0.016979662158034193 -0.0040972786187969644 0 0.016870458961622384 -0.0040064806477246367 0 0.016720408711044816 -0.004146122576175925 0 0.016804011220165227 -0.0039802974554152774 0 0.015797823111382822 -0.0066280326354095035 0 0.015735502758295519 -0.0053625292896294398 0 0.016039523719369207 -0.0062645092389326537 0 0.016494008826016853 -0.0055597109043199356 0 0.016368024176551685 -0.0047481774592590563 0 0.01728409488204043 -0.0045071420365642425 0 0.016804011220165227 -0.0039802974554152774 0 0.016979662158034193 -0.0040972786187969644 0 0.01603275027939776 -0.0057894962493885097 0 0.015735502758295519 -0.0053625292896294398 0 0.016039523719369207 -0.0062645092389326537 0 0.01728409488204043 -0.0045071420365642425 0 0.016781605606769927 -0.0044623266627129045 0 0.016979662158034193 -0.0040972786187969644 0 0.016781605606769927 -0.0044623266627129045 0 0.016992820573151469 -0.0039253872531356242 0 0.016979662158034193 -0.0040972786187969644 0 0.016781605606769927 -0.0044623266627129045 0 0.016850892367140533 -0.0040106573700094648 0 0.016992820573151469 -0.0039253872531356242 0 0.035293579484223701 0.0063692367091787092 0 0.037269022240046482 0.0030277079820934224 0 0.039782076693753873 0.0075824344846497013 0 0.035293579484223701 0.0063692367091787092 0 0.036526898333309021 0.010086053216917603 0 0.039782076693753873 0.0075824344846497013 0 0.034874506647911245 0.014345010376126909 0 0.033574584143623153 0.0082345316202676669 0 0.035293579484223701 0.0063692367091787092 0 0.036526898333309021 0.010086053216917603 0 0.033571340920530379 0.0087875483885503543 0 0.035383766874607252 0.011735996546124701 0 0.036526898333309021 0.010086053216917603 0 0.033571340920530379 0.0087875483885503543 0 0.035293579484223701 0.0063692367091787092 0 0.033571340920530379 0.0087875483885503543 0 0.031315757625983348 0.0055217446282882074 0 0.033571340920530379 0.0087875483885503543 0 0.031315757625983348 0.0055217446282882074 0 0.026502305261620774 0.0090153429716654434 0 0.031315757625983348 0.0055217446282882074 0 0.026502305261620774 0.0090153429716654434 0 0.02787919315842784 0.0035243660322032649 0 0.020853057073926352 0.0032442736707932705 0 0.020799405520378948 0.0021191645039737826 0 0.030308295819467923 0.014009577632583585 0 0.033571340920530379 0.0087875483885503543 0 0.026502305261620774 0.0090153429716654434 0 0.014614344235413083 -0.0065245480646241878 0 0.015712162421743357 -0.005421824632670577 0 0.014785210481453702 -0.0050303214318434993 0 0.022160951774529449 0.0034392672063512028 0 0.026502305261620774 0.0090153429716654434 0 0.02787919315842784 0.0035243660322032649 0 0.018964692735140506 -0.00051366451574378648 0 0.020799405520378948 0.0021191645039737826 0 0.022160951774529449 0.0034392672063512028 0 0.025666610672599715 -0.00012512894815293365 0 0.02787919315842784 0.0035243660322032649 0 0.022160951774529449 0.0034392672063512028 0 0.025666610672599715 -0.00012512894815293365 0 0.022514515358989861 -0.0034170876256819482 0 0.025666610672599715 -0.00012512894815293365 0 0.029663631541630868 -0.0013989974302974623 0 0.02787919315842784 0.0035243660322032649 0 0.025666610672599715 -0.00012512894815293365 0 0.029663631541630868 -0.0013989974302974623 0 0.026555216164687798 -0.0058369188878602696 0 0.031315757625983348 0.0055217446282882074 0 0.02787919315842784 0.0035243660322032649 0 0.032731170208172289 0.0020211311835105564 0 0.029663631541630868 -0.0013989974302974623 0 0.02787919315842784 0.0035243660322032649 0 0.032731170208172289 0.0020211311835105564 0 0.035293579484223701 0.0063692367091787092 0 0.031315757625983348 0.0055217446282882074 0 0.032731170208172289 0.0020211311835105564 0 0.035293579484223701 0.0063692367091787092 0 0.032731170208172289 0.0020211311835105564 0 0.037269022240046482 0.0030277079820934224 0 0.032731170208172289 0.0020211311835105564 0 0.035014521601644873 -0.00041181116746208542 0 0.037269022240046482 0.0030277079820934224 0 0.029663631541630868 -0.0013989974302974623 0 0.032731170208172289 0.0020211311835105564 0 0.032694126859866175 -0.0012989351517413055 0 0.032694126859866175 -0.0012989351517413055 0 0.035014521601644873 -0.00041181116746208542 0 0.033666902146317595 -0.0045024848195261858 0 0.029663631541630868 -0.0013989974302974623 0 0.032694126859866175 -0.0012989351517413055 0 0.033666902146317595 -0.0045024848195261858 0 0.032731170208172289 0.0020211311835105564 0 0.032694126859866175 -0.0012989351517413055 0 0.035014521601644873 -0.00041181116746208542 0 0.035014521601644873 -0.00041181116746208542 0 0.038871320360633045 -0.00081567263611655107 0 0.037269022240046482 0.0030277079820934224 0 0.035014521601644873 -0.00041181116746208542 0 0.038871320360633045 -0.00081567263611655107 0 0.033666902146317595 -0.0045024848195261858 0 0.04284534734722837 0.013112653196753858 0 0.04026715634461428 0.012754196396051624 0 0.043989645679216358 0.0098309635545036373 0 0.04284534734722837 0.013112653196753858 0 0.043989645679216358 0.0098309635545036373 0 0.045525845253062636 0.012121036456877945 0 0.043106974704623123 0.0044993677446095656 0 0.038853428626345658 0.0094915514147514198 0 0.047433025227468811 0.011503214013354978 0 0.047334152280877333 0.011544540033085473 0 0.047086414154168872 0.011580246346895966 0 0.04284534734722837 0.013112653196753858 0 0.044088081484348188 0.014604136675214487 0 0.045525845253062636 0.012121036456877945 0 0.046228476088313389 0.012973638254854265 0 0.038853428626345658 0.0094915514147514198 0 0.04284534734722837 0.013112653196753858 0 0.044088081484348188 0.014604136675214487 0 0.039727464044258191 0.016406927748097769 0 0.04284534734722837 0.013112653196753858 0 0.039727464044258191 0.016406927748097769 0 0.04026715634461428 0.012754196396051624 0 0.039727464044258191 0.016406927748097769 0 0.036581821021872338 0.016224457204869262 0 0.04026715634461428 0.012754196396051624 0 0.038853428626345658 0.0094915514147514198 0 0.039079380859587329 0.014394835835427632 0 0.04026715634461428 0.012754196396051624 0 0.036404418750111779 0.0084917905300631539 0 0.043989645679216358 0.0098309635545036373 0 0.04026715634461428 0.012754196396051624 0 0.036363006006693982 0.01265892635920164 0 0.036404418750111779 0.0084917905300631539 0 0.036581821021872338 0.016224457204869262 0 0.04026715634461428 0.012754196396051624 0 0.036363006006693982 0.01265892635920164 0 0.036581821021872338 0.016224457204869262 0 0.032133280491832818 0.013150633455509288 0 0.029840769146082538 0.017783608394537763 0 0.036363006006693982 0.01265892635920164 0 0.032133280491832818 0.013150633455509288 0 0.036404418750111779 0.0084917905300631539 0 0.036581821021872338 0.016224457204869262 0 0.036363006006693982 0.01265892635920164 0 0.032133280491832818 0.013150633455509288 0 0.038853428626345658 0.0094915514147514198 0 0.027695583086804608 0.0056312239012305271 0 0.039863451030704926 0.017754481538974628 0 0.036581821021872338 0.016224457204869262 0 0.029840769146082538 0.017783608394537763 0 0.029663631541630868 -0.0013989974302974623 0 0.033666902146317595 -0.0045024848195261858 0 0.026555216164687798 -0.0058369188878602696 0 0.027695583086804608 0.0056312239012305271 0 0.020871338320612338 0.0051385996162829793 0 0.025666610672599715 -0.00012512894815293365 0 0.026555216164687798 -0.0058369188878602696 0 0.022514515358989861 -0.0034170876256819482 0 0.029840769146082538 0.017783608394537763 0 0.026516103401153637 0.014374908065130252 0 0.022348896410353373 0.017096972509381116 0 0.032133280491832818 0.013150633455509288 0 0.029840769146082538 0.017783608394537763 0 0.026516103401153637 0.014374908065130252 0 0.032133280491832818 0.013150633455509288 0 0.026516103401153637 0.014374908065130252 0 0.027579761564989737 0.01069019665409358 0 0.027579761564989737 0.01069019665409358 0 0.026233859421800922 0.010929150587633996 0 0.025086316665016331 0.012279171786691264 0 0.026516103401153637 0.014374908065130252 0 0.027579761564989737 0.01069019665409358 0 0.025086316665016331 0.012279171786691264 0 0.02852137946942301 0.010626570846155673 0 0.028848599909398486 0.013113751485057702 0 0.027232907242673573 0.0099221013014173607 0 0.026233859421800922 0.010929150587633996 0 0.024842736301638312 0.01114047294617334 0 0.027579761564989737 0.01069019665409358 0 0.027232907242673573 0.0099221013014173607 0 0.026233859421800922 0.010929150587633996 0 0.026233859421800922 0.010929150587633996 0 0.025086316665016331 0.012279171786691264 0 0.024842736301638312 0.01114047294617334 0 0.028848599909398486 0.013113751485057702 0 0.03095691175289789 0.012799916372829472 0 0.013416766190205293 0.014555821177680919 0 0.013349582284055169 0.014622591761849263 0 0.013521731670794693 0.013970384974368635 0 0.048828463080012242 0.010289352475750659 0 0.048818454613942838 0.012394190662010118 0 0.047191717361812296 0.011672941012606679 0 0.013416766190205293 0.014555821177680919 0 0.013349582284055169 0.014622591761849263 0 0.013214004856557385 0.014821068565747404 0 0.013349582284055169 0.014622591761849263 0 0.013214004856557385 0.014821068565747404 0 0.013370940834862172 0.0151045536904347 0 0.047191717361812296 0.011672941012606679 0 0.045968154393746317 0.0096273791434429972 0 0.045298184554723113 0.011578057665418856 0 0.048828463080012242 0.010289352475750659 0 0.047191717361812296 0.011672941012606679 0 0.045968154393746317 0.0096273791434429972 0 0.048818454613942838 0.012394190662010118 0 0.047191717361812296 0.011672941012606679 0 0.047706407257027517 0.013405380251113066 0 0.047191717361812296 0.011672941012606679 0 0.045298184554723113 0.011578057665418856 0 0.046395624757538896 0.013113160482286973 0 0.032133280491832818 0.013150633455509288 0 0.027579761564989737 0.01069019665409358 0 0.036404418750111779 0.0084917905300631539 0 0.028848599909398486 0.013113751485057702 0 0.043187592408703464 0.0091071236949369621 0 0.027579761564989737 0.01069019665409358 0 0.027942938820655017 0.0078839365701202715 0 0.036404418750111779 0.0084917905300631539 0 0.045968154393746317 0.0096273791434429972 0 0.044718113142885617 0.010307771843246046 0 0.043989645679216358 0.0098309635545036373 0 0.043187592408703464 0.0091071236949369621 0 0.0431434496844521 0.0096893021174942612 0 0.045968154393746317 0.0096273791434429972 0 0.044718113142885617 0.010307771843246046 0 0.045298184554723113 0.011578057665418856 0 0.044718113142885617 0.010307771843246046 0 0.045298184554723113 0.011578057665418856 0 0.044386365543797157 0.011425832084146796 0 0.044718113142885617 0.010307771843246046 0 0.044386365543797157 0.011425832084146796 0 0.044353791660923424 0.010071147400873297 0 0.044386365543797157 0.011425832084146796 0 0.044164449432810879 0.010825597356858594 0 0.044353791660923424 0.010071147400873297 0 0.044164449432810879 0.010825597356858594 0 0.044353791660923424 0.010071147400873297 0 0.044665612904067176 0.0096854799778850389 0 0.044718113142885617 0.010307771843246046 0 0.044353791660923424 0.010071147400873297 0 0.043989645679216358 0.0098309635545036373 0 0.044353791660923424 0.010071147400873297 0 0.043989645679216358 0.0098309635545036373 0 0.045160107362696426 0.0098089269441495666 0 0.018216448365916123 0.016771279161193434 0 0.018927687518057311 0.016905954075929243 0 0.017010913512388388 0.016830602709866489 0 0.018216448365916123 0.016771279161193434 0 0.018927687518057311 0.016905954075929243 0 0.0186357006854777 0.01608196252272551 0 0.016593159696309204 3.4129546136847476e-07 0 0.017467773071422457 0.0087874353020045426 0 0.017467773071422457 0.0087874353020045426 0 0.019795033655688892 0.015305016229163027 0 0.018927687518057311 0.016905954075929243 0 0.019399427661230303 0.015395066341868432 0 0.020544184560189919 0.015789091415695986 0 0.018927687518057311 0.016905954075929243 0 0.019399427661230303 0.015395066341868432 0 0.0186357006854777 0.01608196252272551 0 0.019399427661230303 0.015395066341868432 0 0.0186357006854777 0.01608196252272551 0 0.018566227458508586 0.01531320350681812 0 0.018216448365916123 0.016771279161193434 0 0.0186357006854777 0.01608196252272551 0 0.018051719484889438 0.016112081812930574 0 0.018051719484889438 0.016112081812930574 0 0.017836517287196457 0.015688452516935646 0 0.018566227458508586 0.01531320350681812 0 0.0186357006854777 0.01608196252272551 0 0.018051719484889438 0.016112081812930574 0 0.018566227458508586 0.01531320350681812 0 0.018051719484889438 0.016112081812930574 0 0.017836517287196457 0.015688452516935646 0 0.017302618424875491 0.016183019524355882 0 0.013353370142540394 0.0080703857780682967 0 0.016593159696309204 3.4129546136847476e-07 0 0.013353370142540394 0.0080703857780682967 0 0.017467773071422457 0.0087874353020045426 0 0.013688908543173084 0.0063160287025611859 0 0.01638681498630265 0.0070667990718900724 0 0.017146618521939584 0.0067656401034623349 0 0.015572987295403965 0.017188957475803866 0 0.018927687518057311 0.016905954075929243 0 0.017010913512388388 0.016830602709866489 0 0.01365776265027336 -0.0054612134201692895 0 0.01569914678938172 -0.0048660966906924038 0 0.014427798856308642 -0.004874017103737081 0 0.017836517287196457 0.015688452516935646 0 0.017302618424875491 0.016183019524355882 0 0.017223501925197664 0.015675284124174078 0 0.017302618424875491 0.016183019524355882 0 0.017642298189834694 0.016469462280980757 0 0.017010913512388388 0.016830602709866489 0 0.018216448365916123 0.016771279161193434 0 0.018051719484889438 0.016112081812930574 0 0.017642298189834694 0.016469462280980757 0 0.018051719484889438 0.016112081812930574 0 0.017302618424875491 0.016183019524355882 0 0.017642298189834694 0.016469462280980757 0 0.016470306674086718 0.016051932429591777 0 0.01646426653462266 0.016557135297525803 0 0.015965552627909226 0.016553644502912898 0 0.015566056650055227 0.016294788566607349 0 0.016470306674086718 0.016051932429591777 0 0.015965552627909226 0.016553644502912898 0 0.017302618424875491 0.016183019524355882 0 0.016470306674086718 0.016051932429591777 0 0.017223501925197664 0.015675284124174078 0 0.017302618424875491 0.016183019524355882 0 0.016470306674086718 0.016051932429591777 0 0.01646426653462266 0.016557135297525803 0 0.017302618424875491 0.016183019524355882 0 0.01646426653462266 0.016557135297525803 0 0.017010913512388388 0.016830602709866489 0 0.015572987295403965 0.017188957475803866 0 0.01646426653462266 0.016557135297525803 0 0.015965552627909226 0.016553644502912898 0 0.015572987295403965 0.017188957475803866 0 0.01646426653462266 0.016557135297525803 0 0.017010913512388388 0.016830602709866489 0 0.01365776265027336 -0.0054612134201692895 0 0.014427798856308642 -0.004874017103737081 0 0.013964266013155672 -0.0049164077521753656 0 0.018216448365916123 0.016771279161193434 0 0.017642298189834694 0.016469462280980757 0 0.017010913512388388 0.016830602709866489 0 0.01569914678938172 -0.0048660966906924038 0 0.014427798856308642 -0.004874017103737081 0 0.013940522676961992 -0.0042003589265690528 0 0.016580446529181215 -0.0048515776332469507 0 0.016598206734653377 -0.0044984718880267654 0 0.016279718291585452 -0.0044729318635762638 0 0.016593159696309204 3.4129546136847476e-07 0 0.015020788430077002 -0.0050134744380637064 0 0.014427798856308642 -0.004874017103737081 0 0.013964266013155672 -0.0049164077521753656 0 0.013940522676961992 -0.0042003589265690528 0 0.016598206734653377 -0.0044984718880267654 0 0.016279718291585452 -0.0044729318635762638 0 0.016555509258336664 -0.0043067819415654228 0 0.016598206734653377 -0.0044984718880267654 0 0.016555509258336664 -0.0043067819415654228 0 0.01670478557318646 -0.00426995892851434 0 0.016598206734653377 -0.0044984718880267654 0 0.01670478557318646 -0.00426995892851434 0 0.016804552332600087 -0.0045053590761155865 0 0.016962214015016627 -0.0039912414742189232 0 0.01670478557318646 -0.00426995892851434 0 0.016804552332600087 -0.0045053590761155865 0 0.016580446529181215 -0.0048515776332469507 0 0.016578008982783065 -0.0050813032605488938 0 0.016598206734653377 -0.0044984718880267654 0 0.016578008982783065 -0.0050813032605488938 0 0.016598206734653377 -0.0044984718880267654 0 0.016804552332600087 -0.0045053590761155865 0 0.016578008982783065 -0.0050813032605488938 0 0.016804552332600087 -0.0045053590761155865 0 0.017362036829231358 -0.004906198003919812 0 0.016804552332600087 -0.0045053590761155865 0 0.017266872472616383 -0.0041813074020583315 0 0.017362036829231358 -0.004906198003919812 0 0.016962214015016627 -0.0039912414742189232 0 0.016804552332600087 -0.0045053590761155865 0 0.017266872472616383 -0.0041813074020583315 0 0.016578008982783065 -0.0050813032605488938 0 0.017362036829231358 -0.004906198003919812 0 0.01927775420294112 -0.0061608801620900346 0 0.017804639430374213 -0.0032992859404452671 0 0.017266872472616383 -0.0041813074020583315 0 0.01927775420294112 -0.0061608801620900346 0 0.017266872472616383 -0.0041813074020583315 0 0.017362036829231358 -0.004906198003919812 0 0.01927775420294112 -0.0061608801620900346 0 0.026555216164687798 -0.0058369188878602696 0 0.022514515358989861 -0.0034170876256819482 0 0.01927775420294112 -0.0061608801620900346 0 0.017804639430374213 -0.0032992859404452671 0 0.022514515358989861 -0.0034170876256819482 0 0.01927775420294112 -0.0061608801620900346 0 0.026516103401153637 0.014374908065130252 0 0.022348896410353373 0.017096972509381116 0 0.023012872872168699 0.013897200648660544 0 0.026516103401153637 0.014374908065130252 0 0.023012872872168699 0.013897200648660544 0 0.025086316665016331 0.012279171786691264 0 0.017467773071422457 0.0087874353020045426 0 0.020871338320612338 0.0051385996162829793 0 0.016879191386046558 0.016162722216682808 0 0.022348896410353373 0.017096972509381116 0 0.019888970542672784 0.015075012243864268 0 0.022348896410353373 0.017096972509381116 0 0.023012872872168699 0.013897200648660544 0 0.019888970542672784 0.015075012243864268 0 0.02268681508438199 0.014168263454179784 0 0.019795033655688892 0.015305016229163027 0 0.023012872872168699 0.013897200648660544 0 0.020544184560189919 0.015789091415695986 0 0.020674393780150381 0.014087930941799691 0 0.019399427661230303 0.015395066341868432 0 0.020544184560189919 0.015789091415695986 0 0.020674393780150381 0.014087930941799691 0 0.019399427661230303 0.015395066341868432 0 0.020674393780150381 0.014087930941799691 0 0.01937169294154082 0.014194417984612549 0 0.020674393780150381 0.014087930941799691 0 0.020428746885917691 0.012981425518094246 0 0.022528680299318111 0.012514759823218393 0 0.020428746885917691 0.012981425518094246 0 0.01943830560628711 0.013475849404388521 0 0.01937169294154082 0.014194417984612549 0 0.020674393780150381 0.014087930941799691 0 0.020428746885917691 0.012981425518094246 0 0.01937169294154082 0.014194417984612549 0 0.027232907242673573 0.0099221013014173607 0 0.024842736301638312 0.01114047294617334 0 0.022757603167554801 0.010801391815971704 0 0.023012872872168699 0.013897200648660544 0 0.025086316665016331 0.012279171786691264 0 0.022528680299318111 0.012514759823218393 0 0.023012872872168699 0.013897200648660544 0 0.020674393780150381 0.014087930941799691 0 0.022528680299318111 0.012514759823218393 0 0.020428746885917691 0.012981425518094246 0 0.022528680299318111 0.012514759823218393 0 0.022757603167554801 0.010801391815971704 0 0.022528680299318111 0.012514759823218393 0 0.024842736301638312 0.01114047294617334 0 0.022757603167554801 0.010801391815971704 0 0.025086316665016331 0.012279171786691264 0 0.022528680299318111 0.012514759823218393 0 0.024842736301638312 0.01114047294617334 0 0.028848599909398486 0.013113751485057702 0 0.016962215459950965 0.012153641619243837 0 0.013521731670794693 0.013970384974368635 0 0.014116871664603625 0.015487921459646609 0 0.013516955974651398 0.01488871497105783 0 0.013349582284055169 0.014622591761849263 0 0.013521731670794693 0.013970384974368635 0 0.013516955974651398 0.01488871497105783 0 0.013349582284055169 0.014622591761849263 0 0.013516955974651398 0.01488871497105783 0 0.013370940834862172 0.0151045536904347 0 0.013521731670794693 0.013970384974368635 0 0.014116871664603625 0.015487921459646609 0 0.018806048719452802 0.013601790472911351 0 0.020428746885917691 0.012981425518094246 0 0.022757603167554801 0.010801391815971704 0 0.018806048719452802 0.013601790472911351 0 0.016962215459950965 0.012153641619243837 0 0.019691553045789893 0.013558467090582928 0 0.020428746885917691 0.012981425518094246 0 0.018806048719452802 0.013601790472911351 0 0.01943830560628711 0.013475849404388521 0 0.014116871664603625 0.015487921459646609 0 0.018806048719452802 0.013601790472911351 0 0.015149388790811305 0.018858847928082293 0 0.018806048719452802 0.013601790472911351 0 0.019538083873661783 0.015524965488660669 0 0.018491854186610118 0.017823563414788045 0 0.018806048719452802 0.013601790472911351 0 0.019538083873661783 0.015524965488660669 0 0.020006145465247156 0.013775887710598018 0 0.020006145465247156 0.013775887710598018 0 0.01943830560628711 0.013475849404388521 0 0.019075093813232729 0.014010751987802996 0 0.020006145465247156 0.013775887710598018 0 0.019075093813232729 0.014010751987802996 0 0.018266297728457937 0.013660594659572365 0 0.018806048719452802 0.013601790472911351 0 0.020006145465247156 0.013775887710598018 0 0.01943830560628711 0.013475849404388521 0 0.01943830560628711 0.013475849404388521 0 0.01937169294154082 0.014194417984612549 0 0.019075093813232729 0.014010751987802996 0 0.01937169294154082 0.014194417984612549 0 0.019075093813232729 0.014010751987802996 0 0.018566799099919103 0.014628992224764013 0 0.019075093813232729 0.014010751987802996 0 0.018566799099919103 0.014628992224764013 0 0.017655240618671068 0.014434863690320741 0 0.01937169294154082 0.014194417984612549 0 0.018566799099919103 0.014628992224764013 0 0.018566227458508586 0.01531320350681812 0 0.018566799099919103 0.014628992224764013 0 0.018566227458508586 0.01531320350681812 0 0.017794835102573906 0.015183439990128203 0 0.019399427661230303 0.015395066341868432 0 0.01937169294154082 0.014194417984612549 0 0.018566227458508586 0.01531320350681812 0 0.015578926994691777 0.015714297952047297 0 0.016470306674086718 0.016051932429591777 0 0.016696390885965324 0.015273337270207391 0 0.016470306674086718 0.016051932429591777 0 0.016696390885965324 0.015273337270207391 0 0.017223501925197664 0.015675284124174078 0 0.017836517287196457 0.015688452516935646 0 0.017223501925197664 0.015675284124174078 0 0.017794835102573906 0.015183439990128203 0 0.016696390885965324 0.015273337270207391 0 0.017223501925197664 0.015675284124174078 0 0.017794835102573906 0.015183439990128203 0 0.017836517287196457 0.015688452516935646 0 0.018566227458508586 0.01531320350681812 0 0.017794835102573906 0.015183439990128203 0 0.016696390885965324 0.015273337270207391 0 0.017794835102573906 0.015183439990128203 0 0.017655240618671068 0.014434863690320741 0 0.018566799099919103 0.014628992224764013 0 0.017794835102573906 0.015183439990128203 0 0.017655240618671068 0.014434863690320741 0 0.015307044492038287 0.014404246540173894 0 0.016696390885965324 0.015273337270207391 0 0.017655240618671068 0.014434863690320741 0 0.020006145465247156 0.013775887710598018 0 0.018266297728457937 0.013660594659572365 0 0.016442869044308469 0.010955795688167331 0 0.015307044492038287 0.014404246540173894 0 0.01700000203931314 0.013540072693993037 0 0.016442869044308469 0.010955795688167331 0 0.01700000203931314 0.013540072693993037 0 0.018266297728457937 0.013660594659572365 0 0.016442869044308469 0.010955795688167331 0 0.015307044492038287 0.014404246540173894 0 0.017655240618671068 0.014434863690320741 0 0.01700000203931314 0.013540072693993037 0 0.019075093813232729 0.014010751987802996 0 0.017655240618671068 0.014434863690320741 0 0.018266297728457937 0.013660594659572365 0 0.017655240618671068 0.014434863690320741 0 0.01700000203931314 0.013540072693993037 0 0.018266297728457937 0.013660594659572365 0 0.019909215078115588 0.013812180552770233 0 0.02131359486500976 0.014019016970753537 0 0.025332989142795199 0.017662391254465795 0 0.021031444093252097 0.022104361757065417 0 0.021068904403043102 0.017846254122295863 0 0.020006145465247156 0.013775887710598018 0 0.025332989142795199 0.017662391254465795 0 0.021068904403043102 0.017846254122295863 0 0.025332989142795199 0.017662391254465795 0 0.021031444093252097 0.022104361757065417 0 0.026825326643660007 0.023677935433151828 0 0.023401656551576871 0.027509496780221129 0 0.01779864278992007 0.025223394777743761 0 0.018262018580802765 0.03486542171992596 0 0.023401656551576871 0.027509496780221129 0 0.018491854186610118 0.017823563414788045 0 0.01779864278992007 0.025223394777743761 0 0.022105287439601475 0.024660621199162895 0 0.018553340202946196 0.018304757970153272 0 0.021031444093252097 0.022104361757065417 0 0.021068904403043102 0.017846254122295863 0 0.018491854186610118 0.017823563414788045 0 0.019538083873661783 0.015524965488660669 0 0.020006145465247156 0.013775887710598018 0 0.021068904403043102 0.017846254122295863 0 0.019538083873661783 0.015524965488660669 0 0.021068904403043102 0.017846254122295863 0 0.018491854186610118 0.017823563414788045 0 0.018806048719452802 0.013601790472911351 0 0.018491854186610118 0.017823563414788045 0 0.015149388790811305 0.018858847928082293 0 0.015149388790811305 0.018858847928082293 0 0.012380431118833931 0.023242662024743625 0 0.01779864278992007 0.025223394777743761 0 0.018491854186610118 0.017823563414788045 0 0.015149388790811305 0.018858847928082293 0 0.01779864278992007 0.025223394777743761 0 0.015149388790811305 0.018858847928082293 0 0.0083797120587755913 0.019111314841125854 0 0.012380431118833931 0.023242662024743625 0 0.014116871664603625 0.015487921459646609 0 0.015149388790811305 0.018858847928082293 0 0.0083797120587755913 0.019111314841125854 0 0.014321802544244833 0.015249721318700964 0 0.0091836132591729611 0.018469140966257534 0 0.014116871664603625 0.015487921459646609 0 0.013516955974651398 0.01488871497105783 0 0.013370940834862172 0.0151045536904347 0 0.0083797120587755913 0.019111314841125854 0 0.0085194913266428748 0.024494267582012692 0 0.012380431118833931 0.023242662024743625 0 0.0085194913266428748 0.024494267582012692 0 0.012380431118833931 0.023242662024743625 0 0.012122249250340207 0.029955556139958608 0 0.0085194913266428748 0.024494267582012692 0 0.012122249250340207 0.029955556139958608 0 0.0064789386048763253 0.027690281075767181 0 0.012380431118833931 0.023242662024743625 0 0.01779864278992007 0.025223394777743761 0 0.012122249250340207 0.029955556139958608 0 0.018262018580802765 0.03486542171992596 0 0.012122249250340207 0.029955556139958608 0 0.012939569570744736 0.038295109701672034 0 0.01779864278992007 0.025223394777743761 0 0.018262018580802765 0.03486542171992596 0 0.012122249250340207 0.029955556139958608 0 0.012217030420209767 0.030523505864878765 0 0.012487511614652801 0.038167830888493189 0 0.012122249250340207 0.029955556139958608 0 0.011870181696489242 0.038580504726968286 0 0.0076814609955704266 0.034428860080881987 0 0.012122249250340207 0.029955556139958608 0 0.0067892603534797863 0.031046451180104514 0 0.0076814609955704266 0.034428860080881987 0 0.012122249250340207 0.029955556139958608 0 0.0064789386048763253 0.027690281075767181 0 0.0067892603534797863 0.031046451180104514 0 0.018262018580802765 0.03486542171992596 0 0.012939569570744736 0.038295109701672034 0 0.01706543834110948 0.039810688273788322 0 0.018262018580802765 0.03486542171992596 0 0.020340334092786568 0.040491768033031804 0 0.01706543834110948 0.039810688273788322 0 0.018262018580802765 0.03486542171992596 0 0.022923261965021778 0.038066280253141571 0 0.020340334092786568 0.040491768033031804 0 0.018262018580802765 0.03486542171992596 0 0.022923261965021778 0.038066280253141571 0 0.022559916855081776 0.033784238578517693 0 0.022923261965021778 0.038066280253141571 0 0.02501261686349741 0.040071747542998769 0 0.025981963809078471 0.035309635620807391 0 0.022923261965021778 0.038066280253141571 0 0.025981963809078471 0.035309635620807391 0 0.022559916855081776 0.033784238578517693 0 0.022105287439601475 0.024660621199162895 0 0.025014293486851875 0.031374164378632913 0 0.023401656551576871 0.027509496780221129 0 0.025981963809078471 0.035309635620807391 0 0.022559916855081776 0.033784238578517693 0 0.021031444093252097 0.022104361757065417 0 0.024471012712793675 0.027646808568088741 0 0.026825326643660007 0.023677935433151828 0 0.023401656551576871 0.027509496780221129 0 0.018262018580802765 0.03486542171992596 0 0.022559916855081776 0.033784238578517693 0 0.041478312100791566 0.018050852897918201 0 0.039402737353708805 0.024769537212518997 0 0.035436819899510287 0.019246397726839014 0 0.041478312100791566 0.018050852897918201 0 0.037978878384177975 0.013757805182566366 0 0.035436819899510287 0.019246397726839014 0 0.041478312100791566 0.018050852897918201 0 0.037978878384177975 0.013757805182566366 0 0.04423804060955952 0.013176093266890674 0 0.040225040389996469 0.013375469593437864 0 0.044091508293367235 0.013019420553623672 0 0.044386365543797157 0.011425832084146796 0 0.044164449432810879 0.010825597356858594 0 0.043955964281745835 0.012547504497305866 0 0.044386365543797157 0.011425832084146796 0 0.043955964281745835 0.012547504497305866 0 0.04423804060955952 0.013176093266890674 0 0.045298184554723113 0.011578057665418856 0 0.044386365543797157 0.011425832084146796 0 0.04423804060955952 0.013176093266890674 0 0.045298184554723113 0.011578057665418856 0 0.04423804060955952 0.013176093266890674 0 0.046395624757538896 0.013113160482286973 0 0.04423804060955952 0.013176093266890674 0 0.045582030556269394 0.015292380420010484 0 0.046395624757538896 0.013113160482286973 0 0.041478312100791566 0.018050852897918201 0 0.046092844393334192 0.018592146318764696 0 0.039402737353708805 0.024769537212518997 0 0.045582030556269394 0.015292380420010484 0 0.046092844393334192 0.018592146318764696 0 0.047029209643009703 0.014870674016363669 0 0.041478312100791566 0.018050852897918201 0 0.04423804060955952 0.013176093266890674 0 0.045582030556269394 0.015292380420010484 0 0.041478312100791566 0.018050852897918201 0 0.045582030556269394 0.015292380420010484 0 0.046092844393334192 0.018592146318764696 0 0.040804819989937749 0.019581273325814511 0 0.036382056575195207 0.032360805421346214 0 0.036730548227042067 0.019823390571170326 0 0.040545711134380706 0.017563000698284561 0 0.037649123100935288 0.032803348662948498 0 0.038145959053942725 0.02593795745343053 0 0.041851402408182775 0.023633480194810614 0 0.040244555477514363 0.029317902017752539 0 0.048015398109161951 0.015698180844240846 0 0.047029209643009703 0.014870674016363669 0 0.04866316615299808 0.015096228671594557 0 0.040804819989937749 0.019581273325814511 0 0.024674605862951362 0.018787156279724024 0 0.046092844393334192 0.018592146318764696 0 0.048015398109161951 0.015698180844240846 0 0.047029209643009703 0.014870674016363669 0 0.042479111440105452 0.022090686445254564 0 0.040804819989937749 0.019581273325814511 0 0.045582030556269394 0.015292380420010484 0 0.047029209643009703 0.014870674016363669 0 0.046395624757538896 0.013113160482286973 0 0.047029209643009703 0.014870674016363669 0 0.046395624757538896 0.013113160482286973 0 0.047706407257027517 0.013405380251113066 0 0.047191717361812296 0.011672941012606679 0 0.046395624757538896 0.013113160482286973 0 0.047706407257027517 0.013405380251113066 0 0.047029209643009703 0.014870674016363669 0 0.047706407257027517 0.013405380251113066 0 0.04866316615299808 0.015096228671594557 0 0.013214004856557385 0.014821068565747404 0 0.013370940834862172 0.0151045536904347 0 0.013236415771979385 0.015213289173776264 0 0.03095691175289789 0.012799916372829472 0 0.024674605862951362 0.018787156279724024 0 0.048818454613942838 0.012394190662010118 0 0.047706407257027517 0.013405380251113066 0 0.04866316615299808 0.015096228671594557 0 0.0083797120587755913 0.019111314841125854 0 0.0085194913266428748 0.024494267582012692 0 0.0032634726276986985 0.022515528936087336 0 0.0091836132591729611 0.018469140966257534 0 0.024674605862951362 0.018787156279724024 0 0.0085194913266428748 0.024494267582012692 0 0.0032634726276986985 0.022515528936087336 0 0.0064789386048763253 0.027690281075767181 0 0.024674605862951362 0.018787156279724024 0 0.022517288774609664 0.035197704528590709 0 0.0032634726276986985 0.022515528936087336 0 0.0064789386048763253 0.027690281075767181 0 0.0023241335673240045 0.031766183563546165 0 0.0064789386048763253 0.027690281075767181 0 0.0067892603534797863 0.031046451180104514 0 0.0023241335673240045 0.031766183563546165 0 0.0067892603534797863 0.031046451180104514 0 0.0076814609955704266 0.034428860080881987 0 0.0023241335673240045 0.031766183563546165 0 0.011870181696489242 0.038580504726968286 0 0.0076814609955704266 0.034428860080881987 0 0.0054781259811513723 0.039842643340554873 0 0.02746244624026287 0.048973948164439222 0 0.025593556707395746 0.048548303060245469 0 0.026172719919706742 0.043396921284544761 0 0.0076814609955704266 0.034428860080881987 0 0.0054781259811513723 0.039842643340554873 0 0.0023241335673240045 0.031766183563546165 0 0.015596796286802977 0.044372794634927111 0 0.022517288774609664 0.035197704528590709 0 0.036382056575195207 0.032360805421346214 0 0.03491362265351361 0.038976662193875806 0 0.034984007071723978 0.041771984528722869 0 0.032876815036564193 0.034620467649616973 0 0.037649123100935288 0.032803348662948498 0 0.034984007071723978 0.041771984528722869 0 0.032876815036564193 0.034620467649616973 0 0.031116856802795148 0.043728343293077669 0 0.030925117008212696 0.045305873144791821 0 0.022517288774609664 0.035197704528590709 0 0.036730548227042067 0.019823390571170326 0 0.032876815036564193 0.034620467649616973 0 0.037649123100935288 0.032803348662948498 0 0.042479111440105452 0.022090686445254564 0 0.036248840012262779 0.026961747835439764 0 0.03710353384479987 0.028891546024126847 0 0.036536051970406672 0.031276167887314008 0 0.033667202843577028 0.029050689057696966 0 0.038145959053942725 0.02593795745343053 0 0.03710353384479987 0.028891546024126847 0 0.033667202843577028 0.029050689057696966 0 0.040244555477514363 0.029317902017752539 0 0.03710353384479987 0.028891546024126847 0 0.036536051970406672 0.031276167887314008 0 0.038145959053942725 0.02593795745343053 0 0.040244555477514363 0.029317902017752539 0 0.03710353384479987 0.028891546024126847 0 0.040244555477514363 0.029317902017752539 0 0.036536051970406672 0.031276167887314008 0 0.038531453030000121 0.034649579601564777 0 0.036536051970406672 0.031276167887314008 0 0.035725618768958321 0.035125673601167966 0 0.038531453030000121 0.034649579601564777 0 0.036536051970406672 0.031276167887314008 0 0.033274991019881309 0.03287919796684792 0 0.033667202843577028 0.029050689057696966 0 0.036536051970406672 0.031276167887314008 0 0.033274991019881309 0.03287919796684792 0 0.035725618768958321 0.035125673601167966 0 0.033612033081592996 0.037092996944672572 0 0.036561609111534651 0.039573078071292331 0 0.033053235134448682 0.04104727860084384 0 0.033612033081592996 0.037092996944672572 0 0.033053235134448682 0.04104727860084384 0 0.031529104058618369 0.039150672909937435 0 0.033274991019881309 0.03287919796684792 0 0.033612033081592996 0.037092996944672572 0 0.035725618768958321 0.035125673601167966 0 0.033274991019881309 0.03287919796684792 0 0.033612033081592996 0.037092996944672572 0 0.030532944063521611 0.03601281807739326 0 0.035725618768958321 0.035125673601167966 0 0.036561609111534651 0.039573078071292331 0 0.038531453030000121 0.034649579601564777 0 0.033941362683100884 0.043484269963476027 0 0.03491362265351361 0.038976662193875806 0 0.033612033081592996 0.037092996944672572 0 0.035725618768958321 0.035125673601167966 0 0.036561609111534651 0.039573078071292331 0 0.029910517999549625 0.048225420703724348 0 0.030054740022272253 0.047482282100828214 0 0.031369798700059681 0.047876057483765173 0 0.032656292629147897 0.046803435059063293 0 0.030032060677913294 0.047598989070177761 0 0.031369798700059681 0.047876057483765173 0 0.032656292629147897 0.046803435059063293 0 0.031116856802795148 0.043728343293077669 0 0.027120479952630047 0.050712354753284103 0 0.026409728684307611 0.05016944484606739 0 0.030032060677913294 0.047598989070177761 0 0.030925117008212696 0.045305873144791821 0 0.029910517999549625 0.048225420703724348 0 0.034984007071723978 0.041771984528722869 0 0.032656292629147897 0.046803435059063293 0 0.031116856802795148 0.043728343293077669 0 0.025593556707395746 0.048548303060245469 0 0.027120479952630047 0.050712354753284103 0 0.026587109771028631 0.049691212845963645 0 0.027120479952630047 0.050712354753284103 0 0.026639961705233219 0.050135993822185629 0 0.026587109771028631 0.049691212845963645 0 0.02746244624026287 0.048973948164439222 0 0.026639961705233219 0.050135993822185629 0 0.026165114919490189 0.050279392878901825 0 0.015596796286802977 0.044372794634927111 0 0.017418118415113763 0.049025161344493452 0 0.0054781259811513723 0.039842643340554873 0 0.0085418810882338207 0.047565165217109837 0 0.0091496551792444626 0.04292665676357494 0 0.02746244624026287 0.048973948164439222 0 0.026639961705233219 0.050135993822185629 0 0.026587109771028631 0.049691212845963645 0 0.02746244624026287 0.048973948164439222 0 0.025593556707395746 0.048548303060245469 0 0.026587109771028631 0.049691212845963645 0 0.026639961705233219 0.050135993822185629 0 0.026165114919490189 0.050279392878901825 0 0.026409728684307611 0.05016944484606739 0 0.027120479952630047 0.050712354753284103 0 0.026639961705233219 0.050135993822185629 0 0.026409728684307611 0.05016944484606739 0 0.026165114919490189 0.050279392878901825 0 0.026409728684307611 0.05016944484606739 0 0.025606190811133245 0.049956924982523729 0 0.026092402181631943 0.049395737026965099 0 0.024971760186704241 0.049926524786667772 0 0.027336130870885621 0.049976445108112104 0 0.025606190811133245 0.049956924982523729 0 0.026092402181631943 0.049395737026965099 0 0.024971760186704241 0.049926524786667772 0 0.026409728684307611 0.05016944484606739 0 0.025606190811133245 0.049956924982523729 0 0.026092402181631943 0.049395737026965099 0 0.026409728684307611 0.05016944484606739 0 0.026092402181631943 0.049395737026965099 0 0.030032060677913294 0.047598989070177761 0 0.024971760186704241 0.049926524786667772 0 0.023941237778924658 0.051912318763012097 0 0.023248966604524385 0.052951401676415329 0 0.02505072296574962 0.050144189219016685 0 0.025345501088592789 0.051435772934729347 0 0.024971760186704241 0.049926524786667772 0 0.023941237778924658 0.051912318763012097 0 0.024219158669803429 0.051348326013616934 0 0.023941237778924658 0.051912318763012097 0 0.023436534473649667 0.052160258359706752 0 0.023430831249985958 0.052563545488320922 0 0.023941237778924658 0.051912318763012097 0 0.024219158669803429 0.051348326013616934 0 0.023436534473649667 0.052160258359706752 0 0.023941237778924658 0.051912318763012097 0 0.023248966604524385 0.052951401676415329 0 0.023430831249985958 0.052563545488320922 0 0.026092402181631943 0.049395737026965099 0 0.027336130870885621 0.049976445108112104 0 0.027685485590649296 0.050311916308070734 0 0.026092402181631943 0.049395737026965099 0 0.030032060677913294 0.047598989070177761 0 0.032237335255336279 0.044131334493231617 0 0.026494022834809949 0.049182727890447114 0 0.029868202408076347 0.047350245550603458 0 0.036561609111534651 0.039573078071292331 0 0.033487739741210998 0.043994667454514434 0 0.033053235134448682 0.04104727860084384 0 0.031369798700059681 0.047876057483765173 0 0.032237335255336279 0.044131334493231617 0 0.033487739741210998 0.043994667454514434 0 0.031369798700059681 0.047876057483765173 0 0.030032060677913294 0.047598989070177761 0 0.032237335255336279 0.044131334493231617 0 0.033941362683100884 0.043484269963476027 0 0.033616581373188709 0.043881761499025604 0 0.032237335255336279 0.044131334493231617 0 0.033196190848085734 0.044073452521780347 0 0.03319610254809837 0.044428648275478155 0 0.032237335255336279 0.044131334493231617 0 0.033487739741210998 0.043994667454514434 0 0.033196190848085734 0.044073452521780347 0 0.029868202408076347 0.047350245550603458 0 0.031330355840553589 0.047644069330325355 0 0.027336130870885621 0.049976445108112104 0 0.027685485590649296 0.050311916308070734 0 0.028657977517481063 0.050840484100448356 0 0.033487739741210998 0.043994667454514434 0 0.033196190848085734 0.044073452521780347 0 0.032436050869018192 0.043268799190061984 0 0.033196190848085734 0.044073452521780347 0 0.032436050869018192 0.043268799190061984 0 0.03319610254809837 0.044428648275478155 0 0.032436050869018192 0.043268799190061984 0 0.03127805499540004 0.044055737570942541 0 0.03319610254809837 0.044428648275478155 0 0.032436050869018192 0.043268799190061984 0 0.033053235134448682 0.04104727860084384 0 0.030849918893861714 0.041947975997664776 0 0.033487739741210998 0.043994667454514434 0 0.032436050869018192 0.043268799190061984 0 0.033053235134448682 0.04104727860084384 0 0.020355932248316541 0.044999656255964714 0 0.022301379696271651 0.044677077553557876 0 0.021054691834849322 0.043164157589376188 0 0.020355932248316541 0.044999656255964714 0 0.021054691834849322 0.043164157589376188 0 0.018398865845916754 0.042915182541183074 0 0.020355932248316541 0.044999656255964714 0 0.021762364317220173 0.046917948040715064 0 0.01998677528418711 0.046772853113704313 0 0.020355932248316541 0.044999656255964714 0 0.018564508006261218 0.045333949318402199 0 0.01998677528418711 0.046772853113704313 0 0.020355932248316541 0.044999656255964714 0 0.022301379696271651 0.044677077553557876 0 0.021762364317220173 0.046917948040715064 0 0.023171885813740561 0.045973666885972937 0 0.022301379696271651 0.044677077553557876 0 0.021762364317220173 0.046917948040715064 0 0.023171885813740561 0.045973666885972937 0 0.023220574050200744 0.047825539894922178 0 0.024542202965683012 0.045728117150588679 0 0.023171885813740561 0.045973666885972937 0 0.02378852860915498 0.044362440670580462 0 0.024542202965683012 0.045728117150588679 0 0.023171885813740561 0.045973666885972937 0 0.02378852860915498 0.044362440670580462 0 0.022301379696271651 0.044677077553557876 0 0.02378852860915498 0.044362440670580462 0 0.022301379696271651 0.044677077553557876 0 0.02342162816954349 0.042151975793978252 0 0.022301379696271651 0.044677077553557876 0 0.02342162816954349 0.042151975793978252 0 0.021054691834849322 0.043164157589376188 0 0.02378852860915498 0.044362440670580462 0 0.02342162816954349 0.042151975793978252 0 0.025401512255959657 0.043065695703449508 0 0.02501261686349741 0.040071747542998769 0 0.02342162816954349 0.042151975793978252 0 0.025401512255959657 0.043065695703449508 0 0.022923261965021778 0.038066280253141571 0 0.02501261686349741 0.040071747542998769 0 0.02342162816954349 0.042151975793978252 0 0.02342162816954349 0.042151975793978252 0 0.021054691834849322 0.043164157589376188 0 0.020340334092786568 0.040491768033031804 0 0.022923261965021778 0.038066280253141571 0 0.02342162816954349 0.042151975793978252 0 0.020340334092786568 0.040491768033031804 0 0.021054691834849322 0.043164157589376188 0 0.020340334092786568 0.040491768033031804 0 0.018398865845916754 0.042915182541183074 0 0.020340334092786568 0.040491768033031804 0 0.01706543834110948 0.039810688273788322 0 0.018398865845916754 0.042915182541183074 0 0.01706543834110948 0.039810688273788322 0 0.015926650716151281 0.041960050406485101 0 0.018398865845916754 0.042915182541183074 0 0.012939569570744736 0.038295109701672034 0 0.01706543834110948 0.039810688273788322 0 0.015926650716151281 0.041960050406485101 0 0.015926650716151281 0.041960050406485101 0 0.018398865845916754 0.042915182541183074 0 0.016494562635605933 0.044109730228853457 0 0.012487511614652801 0.038167830888493189 0 0.012692517964147075 0.045671039043318269 0 0.011870181696489242 0.038580504726968286 0 0.0054781259811513723 0.039842643340554873 0 0.0091496551792444626 0.04292665676357494 0 0.011870181696489242 0.038580504726968286 0 0.0091496551792444626 0.04292665676357494 0 0.011588202799745428 0.046975592526221514 0 0.012939569570744736 0.038295109701672034 0 0.015926650716151281 0.041960050406485101 0 0.014684763832130925 0.044329825942964009 0 0.015926650716151281 0.041960050406485101 0 0.014684763832130925 0.044329825942964009 0 0.016494562635605933 0.044109730228853457 0 0.0085418810882338207 0.047565165217109837 0 0.0091496551792444626 0.04292665676357494 0 0.011588202799745428 0.046975592526221514 0 0.012692517964147075 0.045671039043318269 0 0.018691077732366963 0.05129279880277967 0 0.014684763832130925 0.044329825942964009 0 0.017046877490016269 0.046197513510820409 0 0.016393450494167697 0.048746724033133966 0 0.0085418810882338207 0.047565165217109837 0 0.011588202799745428 0.046975592526221514 0 0.011412243480932461 0.054933714367657233 0 0.014684763832130925 0.044329825942964009 0 0.016494562635605933 0.044109730228853457 0 0.017046877490016269 0.046197513510820409 0 0.020355932248316541 0.044999656255964714 0 0.018398865845916754 0.042915182541183074 0 0.018564508006261218 0.045333949318402199 0 0.018398865845916754 0.042915182541183074 0 0.016494562635605933 0.044109730228853457 0 0.018564508006261218 0.045333949318402199 0 0.016494562635605933 0.044109730228853457 0 0.017046877490016269 0.046197513510820409 0 0.018564508006261218 0.045333949318402199 0 0.017046877490016269 0.046197513510820409 0 0.018751360545446176 0.046721109117216865 0 0.018564508006261218 0.045333949318402199 0 0.018751360545446176 0.046721109117216865 0 0.018564508006261218 0.045333949318402199 0 0.01998677528418711 0.046772853113704313 0 0.018751360545446176 0.046721109117216865 0 0.017999154810388277 0.047869939047666225 0 0.019616945893270572 0.048152827015031374 0 0.018751360545446176 0.046721109117216865 0 0.019616945893270572 0.048152827015031374 0 0.01998677528418711 0.046772853113704313 0 0.017046877490016269 0.046197513510820409 0 0.018751360545446176 0.046721109117216865 0 0.017999154810388277 0.047869939047666225 0 0.017999154810388277 0.047869939047666225 0 0.01923488272447544 0.049206145653999618 0 0.019616945893270572 0.048152827015031374 0 0.017999154810388277 0.047869939047666225 0 0.018111471594629645 0.04895241619845038 0 0.01923488272447544 0.049206145653999618 0 0.01923488272447544 0.049206145653999618 0 0.019616945893270572 0.048152827015031374 0 0.020681444843172414 0.049694942743269355 0 0.017418118415113763 0.049025161344493452 0 0.018691077732366963 0.05129279880277967 0 0.026165114919490189 0.050279392878901825 0 0.025606190811133245 0.049956924982523729 0 0.025001416106286943 0.050087472543698976 0 0.025606190811133245 0.049956924982523729 0 0.024971760186704241 0.049926524786667772 0 0.025001416106286943 0.050087472543698976 0 0.017046877490016269 0.046197513510820409 0 0.017999154810388277 0.047869939047666225 0 0.016393450494167697 0.048746724033133966 0 0.018111471594629645 0.04895241619845038 0 0.016393450494167697 0.048746724033133966 0 0.01910976275257768 0.049864938773293371 0 0.017999154810388277 0.047869939047666225 0 0.018111471594629645 0.04895241619845038 0 0.016393450494167697 0.048746724033133966 0 0.024971760186704241 0.049926524786667772 0 0.025001416106286943 0.050087472543698976 0 0.024219158669803429 0.051348326013616934 0 0.018691077732366963 0.05129279880277967 0 0.021495954860799912 0.051115560255247952 0 0.016393450494167697 0.048746724033133966 0 0.01910976275257768 0.049864938773293371 0 0.02130961990565013 0.051647921881711939 0 0.024353885123657295 0.052697669465224667 0 0.023648877717576264 0.052030903373141778 0 0.02130961990565013 0.051647921881711939 0 0.025001416106286943 0.050087472543698976 0 0.023648877717576264 0.052030903373141778 0 0.024219158669803429 0.051348326013616934 0 0.018691077732366963 0.05129279880277967 0 0.022697216654010196 0.051765385695817068 0 0.023648877717576264 0.052030903373141778 0 0.023436534473649667 0.052160258359706752 0 0.02130961990565013 0.051647921881711939 0 0.023648877717576264 0.052030903373141778 0 0.024219158669803429 0.051348326013616934 0 0.023436534473649667 0.052160258359706752 0 0.01910976275257768 0.049864938773293371 0 0.020355155928183193 0.050500952229942983 0 0.02130961990565013 0.051647921881711939 0 0.020355155928183193 0.050500952229942983 0 0.020681444843172414 0.049694942743269355 0 0.021198851507253959 0.051171908319035092 0 0.01923488272447544 0.049206145653999618 0 0.020355155928183193 0.050500952229942983 0 0.020681444843172414 0.049694942743269355 0 0.01923488272447544 0.049206145653999618 0 0.01910976275257768 0.049864938773293371 0 0.020355155928183193 0.050500952229942983 0 0.018111471594629645 0.04895241619845038 0 0.01923488272447544 0.049206145653999618 0 0.01910976275257768 0.049864938773293371 0 0.021662097743373281 0.050203517251714569 0 0.020681444843172414 0.049694942743269355 0 0.021198851507253959 0.051171908319035092 0 0.021662097743373281 0.050203517251714569 0 0.020681444843172414 0.049694942743269355 0 0.02184975519479302 0.048948244910184013 0 0.019616945893270572 0.048152827015031374 0 0.020681444843172414 0.049694942743269355 0 0.020808371777846051 0.048175063757089347 0 0.020681444843172414 0.049694942743269355 0 0.020808371777846051 0.048175063757089347 0 0.02184975519479302 0.048948244910184013 0 0.020808371777846051 0.048175063757089347 0 0.021762364317220173 0.046917948040715064 0 0.02184975519479302 0.048948244910184013 0 0.020808371777846051 0.048175063757089347 0 0.021762364317220173 0.046917948040715064 0 0.01998677528418711 0.046772853113704313 0 0.019616945893270572 0.048152827015031374 0 0.020808371777846051 0.048175063757089347 0 0.01998677528418711 0.046772853113704313 0 0.023220574050200744 0.047825539894922178 0 0.02184975519479302 0.048948244910184013 0 0.022712015410772477 0.049945718209285624 0 0.023171885813740561 0.045973666885972937 0 0.021762364317220173 0.046917948040715064 0 0.023220574050200744 0.047825539894922178 0 0.021762364317220173 0.046917948040715064 0 0.023220574050200744 0.047825539894922178 0 0.02184975519479302 0.048948244910184013 0 0.021662097743373281 0.050203517251714569 0 0.02184975519479302 0.048948244910184013 0 0.022712015410772477 0.049945718209285624 0 0.021662097743373281 0.050203517251714569 0 0.022712015410772477 0.049945718209285624 0 0.021957675217986548 0.050892916822515739 0 0.023406781779027587 0.050352879048935859 0 0.024207503806979617 0.050476603083215839 0 0.02451823867558741 0.048160398466673922 0 0.022712015410772477 0.049945718209285624 0 0.023406781779027587 0.050352879048935859 0 0.02451823867558741 0.048160398466673922 0 0.022712015410772477 0.049945718209285624 0 0.023406781779027587 0.050352879048935859 0 0.022413178980329577 0.050987744193115261 0 0.023406781779027587 0.050352879048935859 0 0.024207503806979617 0.050476603083215839 0 0.022802176387663388 0.050785770727640255 0 0.024207503806979617 0.050476603083215839 0 0.022972391777950678 0.050760653612148293 0 0.022802176387663388 0.050785770727640255 0 0.024207503806979617 0.050476603083215839 0 0.022552438853683257 0.052040697328831598 0 0.022972391777950678 0.050760653612148293 0 0.025217311757578739 0.051772901041310687 0 0.02268740812416244 0.045814297246040914 0 0.024207503806979617 0.050476603083215839 0 0.023722420207807425 0.053531828877970943 0 0.022552438853683257 0.052040697328831598 0 0.024207503806979617 0.050476603083215839 0 0.02451823867558741 0.048160398466673922 0 0.027984444589940202 0.04549281570903442 0 0.023220574050200744 0.047825539894922178 0 0.022712015410772477 0.049945718209285624 0 0.02451823867558741 0.048160398466673922 0 0.023220574050200744 0.047825539894922178 0 0.02451823867558741 0.048160398466673922 0 0.024542202965683012 0.045728117150588679 0 0.02451823867558741 0.048160398466673922 0 0.024542202965683012 0.045728117150588679 0 0.02609304245459754 0.044667415245707859 0 0.024542202965683012 0.045728117150588679 0 0.02609304245459754 0.044667415245707859 0 0.025401512255959657 0.043065695703449508 0 0.02378852860915498 0.044362440670580462 0 0.024542202965683012 0.045728117150588679 0 0.025401512255959657 0.043065695703449508 0 0.02451823867558741 0.048160398466673922 0 0.02609304245459754 0.044667415245707859 0 0.027984444589940202 0.04549281570903442 0 0.02268740812416244 0.045814297246040914 0 0.028575980513161243 0.037302262921976991 0 0.02268740812416244 0.045814297246040914 0 0.013847305002332671 0.029971826015648267 0 0.02609304245459754 0.044667415245707859 0 0.027984444589940202 0.04549281570903442 0 0.026979153544917707 0.041210883278212936 0 0.032686399102167099 0.040301794131067457 0 0.031194901559834856 0.033345198688307987 0 0.028266919709894693 0.033864877292299644 0 0.032686399102167099 0.040301794131067457 0 0.031194901559834856 0.033345198688307987 0 0.034153909632090827 0.031552716569697353 0 0.02609304245459754 0.044667415245707859 0 0.026979153544917707 0.041210883278212936 0 0.025401512255959657 0.043065695703449508 0 0.02501261686349741 0.040071747542998769 0 0.026979153544917707 0.041210883278212936 0 0.025401512255959657 0.043065695703449508 0 0.01299391331074288 0.027280076273265563 0 0.010497386273753719 0.027235553952510743 0 0.01308525677639992 0.029904686779033643 0 0.01299391331074288 0.027280076273265563 0 0.010497386273753719 0.027235553952510743 0 0.012240965761837367 0.025088274293545276 0 0.010497386273753719 0.027235553952510743 0 0.010384906497171005 0.024647846833108281 0 0.012240965761837367 0.025088274293545276 0 0.00072596877242884713 0.045736849699221191 0 0.0074912835965915926 0.041343450806138021 0 0.0023352920565101144 0.035972328101876491 0 0.0079607853144664821 0.033661867568200124 0 0.013847305002332671 0.029971826015648267 0 0.00072596877242884713 0.045736849699221191 0 0.0075181440059588827 0.047413011196808887 0 0.0044314028326346592 0.050785947572498748 0 0.00072596877242884713 0.045736849699221191 0 0.0074912835965915926 0.041343450806138021 0 0.0075181440059588827 0.047413011196808887 0 0.02268740812416244 0.045814297246040914 0 0.013198106665692601 0.051300641471788748 0 0.0074912835965915926 0.041343450806138021 0 0.0075181440059588827 0.047413011196808887 0 0.012497475283978212 0.046639966545887021 0 0.0079607853144664821 0.033661867568200124 0 0.01115191845651709 0.039984775440192161 0 0.0075181440059588827 0.047413011196808887 0 0.012497475283978212 0.046639966545887021 0 0.010631276227978163 0.049103922619729033 0 0.01115191845651709 0.039984775440192161 0 0.0091451984514041504 0.046874558530545458 0 0.010631276227978163 0.049103922619729033 0 0.010891991108935942 0.051890943511985602 0 0.013848705363347055 0.049136443662700605 0 0.010631276227978163 0.049103922619729033 0 0.0082603655769696756 0.050265142585168628 0 0.010891991108935942 0.051890943511985602 0 0.0075181440059588827 0.047413011196808887 0 0.010631276227978163 0.049103922619729033 0 0.0082603655769696756 0.050265142585168628 0 0.0076290107862863792 0.052052345449712316 0 0.010891991108935942 0.051890943511985602 0 0.0080173463713557047 0.055386658050285136 0 0.010504607393746195 0.053194294132810835 0 0.010891991108935942 0.051890943511985602 0 0.0092920981740516589 0.054197646719149492 0 0.0082603655769696756 0.050265142585168628 0 0.0076290107862863792 0.052052345449712316 0 0.010891991108935942 0.051890943511985602 0 0.01008980566859363 0.053224269113781024 0 0.012243411985149725 0.053044607006573603 0 0.010504607393746195 0.053194294132810835 0 0.010891991108935942 0.051890943511985602 0 0.013848705363347055 0.049136443662700605 0 0.0082603655769696756 0.050265142585168628 0 0.0076290107862863792 0.052052345449712316 0 0.0044314028326346592 0.050785947572498748 0 0.0075181440059588827 0.047413011196808887 0 0.0082603655769696756 0.050265142585168628 0 0.0044314028326346592 0.050785947572498748 0 0.0076290107862863792 0.052052345449712316 0 0.0044314028326346592 0.050785947572498748 0 0.0080173463713557047 0.055386658050285136 0 0.013198106665692601 0.051300641471788748 0 0.012243411985149725 0.053044607006573603 0 0.022972391777950678 0.050760653612148293 0 0.02160634834020347 0.051289145472681104 0 0.022785679740049646 0.050727579521646693 0 0.022552438853683257 0.052040697328831598 0 0.022972391777950678 0.050760653612148293 0 0.02160634834020347 0.051289145472681104 0 0.012243411985149725 0.053044607006573603 0 0.017366572765512522 0.052415153011656522 0 0.010455661955005784 0.053962722560116458 0 0.01022568473065606 0.054230452038359876 0 0.010874736518167099 0.054747368991311107 0 0.010504607393746195 0.053194294132810835 0 0.010169279507625381 0.053897648326288697 0 0.010155219250579575 0.053459815889069097 0 0.010504607393746195 0.053194294132810835 0 0.010169279507625381 0.053897648326288697 0 0.010133842861862691 0.053965088102179731 0 0.010169279507625381 0.053897648326288697 0 0.010133842861862691 0.053965088102179731 0 0.01022568473065606 0.054230452038359876 0 0.010504607393746195 0.053194294132810835 0 0.010133842861862691 0.053965088102179731 0 0.0092920981740516589 0.054197646719149492 0 0.012243411985149725 0.053044607006573603 0 0.01129307895969337 0.053164550166804124 0 0.010133842861862691 0.053965088102179731 0 0.0092920981740516589 0.054197646719149492 0 0.01022568473065606 0.054230452038359876 0 0.010169279507625381 0.053897648326288697 0 0.01022568473065606 0.054230452038359876 0 0.010065667464043589 0.054288918264721465 0 0.01022568473065606 0.054230452038359876 0 0.010065667464043589 0.054288918264721465 0 0.010158742626375923 0.054448468331967315 0 0.010169279507625381 0.053897648326288697 0 0.010065667464043589 0.054288918264721465 0 0.0099136261078188129 0.053818847527008398 0 0.010065667464043589 0.054288918264721465 0 0.0099136261078188129 0.053818847527008398 0 0.0097828522831129687 0.054413796064761828 0 0.010169279507625381 0.053897648326288697 0 0.0099136261078188129 0.053818847527008398 0 0.010155219250579575 0.053459815889069097 0 0.0099136261078188129 0.053818847527008398 0 0.010155219250579575 0.053459815889069097 0 0.0098933473784520425 0.053502637981747189 0 0.0099136261078188129 0.053818847527008398 0 0.0094732089870495292 0.053197516056487912 0 0.0098933473784520425 0.053502637981747189 0 0.0099136261078188129 0.053818847527008398 0 0.0097210851940353962 0.054076996533776393 0 0.0097828522831129687 0.054413796064761828 0 0.0097210851940353962 0.054076996533776393 0 0.0094732089870495292 0.053197516056487912 0 0.00993685227690198 0.054245087554820597 0 0.0094732089870495292 0.053197516056487912 0 0.010606265278876889 0.053758743359789293 0 0.00993685227690198 0.054245087554820597 0 0.0099136261078188129 0.053818847527008398 0 0.0097210851940353962 0.054076996533776393 0 0.0094732089870495292 0.053197516056487912 0 0.0094732089870495292 0.053197516056487912 0 0.0067538049543213107 0.050859624314637281 0 0.0092602216926912003 0.050768227061142125 0 0.0094732089870495292 0.053197516056487912 0 0.010970435540099332 0.051730103318652368 0 0.0092602216926912003 0.050768227061142125 0 0.0096565119686346478 0.054086344311083931 0 0.009353920930253291 0.048255799116848214 0 0.010608020971924677 0.053465112355462793 0 0.009353920930253291 0.048255799116848214 0 0.010155219250579575 0.053459815889069097 0 0.0098933473784520425 0.053502637981747189 0 0.0099931954472210014 0.054041874579871724 0 0.010504607393746195 0.053194294132810835 0 0.010155219250579575 0.053459815889069097 0 0.0099931954472210014 0.054041874579871724 0 0.0094732089870495292 0.053197516056487912 0 0.0098933473784520425 0.053502637981747189 0 0.0099931954472210014 0.054041874579871724 0 0.011636816739289679 0.053423813446164509 0 0.012135113130876939 0.052147921716859329 0 0.012711415173522155 0.053495197696995074 0 0.011636816739289679 0.053423813446164509 0 0.011468559745509813 0.054645357172106682 0 0.012711415173522155 0.053495197696995074 0 0.011636816739289679 0.053423813446164509 0 0.011279055244863697 0.052808886332319623 0 0.012135113130876939 0.052147921716859329 0 0.0094732089870495292 0.053197516056487912 0 0.011279055244863697 0.052808886332319623 0 0.010606265278876889 0.053758743359789293 0 0.011636816739289679 0.053423813446164509 0 0.011279055244863697 0.052808886332319623 0 0.010606265278876889 0.053758743359789293 0 0.011636816739289679 0.053423813446164509 0 0.010606265278876889 0.053758743359789293 0 0.010948395077269142 0.05410682692374242 0 0.010970435540099332 0.051730103318652368 0 0.012550116041808997 0.051215141483817617 0 0.01087443587974401 0.050154575065102965 0 0.0094732089870495292 0.053197516056487912 0 0.011279055244863697 0.052808886332319623 0 0.010970435540099332 0.051730103318652368 0 0.011279055244863697 0.052808886332319623 0 0.010970435540099332 0.051730103318652368 0 0.012135113130876939 0.052147921716859329 0 0.006249111352899921 0.047750231583036151 0 0.00068102550801069854 0.055657907001397618 0 0.012135113130876939 0.052147921716859329 0 0.012216871145441139 0.051541912937840356 0 0.012711415173522155 0.053495197696995074 0 0.010970435540099332 0.051730103318652368 0 0.012135113130876939 0.052147921716859329 0 0.012550116041808997 0.051215141483817617 0 0.0088369968317987095 0.051515867115592001 0 0.006249111352899921 0.047750231583036151 0 0.013458017602598907 0.042844548489250595 0 0.010990356670737974 0.038140710943665425 0 0.013654516862552936 0.035547742411635365 0 -0.012590970976172707 0.049042240529476158 0 -0.012784654551939476 0.042407081513004895 0 -0.0076110865648093481 0.045575242730814911 0 0.006249111352899921 0.047750231583036151 0 -0.00023329289929545686 0.038470540501444814 0 0.006249111352899921 0.047750231583036151 0 0.012146231624189093 0.044071187806515838 0 0.012550116041808997 0.051215141483817617 0 0.01087443587974401 0.050154575065102965 0 0.012123309365449357 0.04850952209972724 0 0.01087443587974401 0.050154575065102965 0 0.012123309365449357 0.04850952209972724 0 0.0088515329875788907 0.048154921000180317 0 0.010970435540099332 0.051730103318652368 0 0.01087443587974401 0.050154575065102965 0 0.0092602216926912003 0.050768227061142125 0 0.012146231624189093 0.044071187806515838 0 0.010482900040782086 0.035935665863049769 0 0.012123309365449357 0.04850952209972724 0 0.0088515329875788907 0.048154921000180317 0 0.011013508254992463 0.045259770611006563 0 0.011309528379777754 0.035010202733832652 0 0.010990356670737974 0.038140710943665425 0 0.0086962956260618427 0.033664828361959408 0 0.011309528379777754 0.035010202733832652 0 0.010990356670737974 0.038140710943665425 0 0.013654516862552936 0.035547742411635365 0 0.011309528379777754 0.035010202733832652 0 0.013654516862552936 0.035547742411635365 0 0.011871328488423667 0.032735937504971349 0 0.009353920930253291 0.048255799116848214 0 0.0084953408501246986 0.041421860840676221 0 0.01115191845651709 0.039984775440192161 0 0.011656985710560133 0.02892767444272263 0 0.0051780327951696722 0.036553650478944065 0 0.0063128657904904994 0.037706734327860342 0 0.0086090721292758059 0.034721504120478759 0 0.012049513543446362 0.047287684550837414 0 0.010631276227978163 0.049103922619729033 0 0.013848705363347055 0.049136443662700605 0 0.01115191845651709 0.039984775440192161 0 0.009353920930253291 0.048255799116848214 0 0.0067538049543213107 0.050859624314637281 0 0.0092602216926912003 0.050768227061142125 0 0.0088515329875788907 0.048154921000180317 0 0.01087443587974401 0.050154575065102965 0 0.0092602216926912003 0.050768227061142125 0 0.0088515329875788907 0.048154921000180317 0 0.0086090721292758059 0.034721504120478759 0 0.0092594017804165304 0.032449604348742493 0 0.010507385064468775 0.032052652560364693 0 0.0084953408501246986 0.041421860840676221 0 0.010482900040782086 0.035935665863049769 0 0.0086090721292758059 0.034721504120478759 0 0.0092594017804165304 0.032449604348742493 0 0.0075973900046907442 0.03321897754540111 0 0.0051780327951696722 0.036553650478944065 0 0.0086090721292758059 0.034721504120478759 0 0.0075973900046907442 0.03321897754540111 0 0.01299391331074288 0.027280076273265563 0 0.01308525677639992 0.029904686779033643 0 0.015390327464369188 0.0266665598791921 0 0.01299391331074288 0.027280076273265563 0 0.015390327464369188 0.0266665598791921 0 0.014689696321407524 0.024210160489387834 0 0.01299391331074288 0.027280076273265563 0 0.014689696321407524 0.024210160489387834 0 0.012240965761837367 0.025088274293545276 0 0.014689696321407524 0.024210160489387834 0 0.017182161030848363 0.023524010730110897 0 0.014845615585464137 0.021180848148934655 0 0.015390327464369188 0.0266665598791921 0 0.014689696321407524 0.024210160489387834 0 0.017182161030848363 0.023524010730110897 0 0.0092594017804165304 0.032449604348742493 0 0.0075973900046907442 0.03321897754540111 0 0.0096741596379663203 0.030474957773915259 0 0.011656985710560133 0.02892767444272263 0 0.013066614612579875 0.027430901671963631 0 0.0092594017804165304 0.032449604348742493 0 0.010507385064468775 0.032052652560364693 0 0.010303414114274904 0.031542566298784228 0 0.0092594017804165304 0.032449604348742493 0 0.0096741596379663203 0.030474957773915259 0 0.010303414114274904 0.031542566298784228 0 0.017182161030848363 0.023524010730110897 0 0.014845615585464137 0.021180848148934655 0 0.016650496815058678 0.020724964215892348 0 0.017182161030848363 0.023524010730110897 0 0.018600095630273431 0.020974942047886056 0 0.016650496815058678 0.020724964215892348 0 0.014689696321407524 0.024210160489387834 0 0.014845615585464137 0.021180848148934655 0 0.013359363040838814 0.021895914177348812 0 -0.00023329289929545686 0.038470540501444814 0 -0.00061757842889305912 0.032591147903190849 0 0.013654516862552936 0.035547742411635365 0 0.011871328488423667 0.032735937504971349 0 0.013468945326079243 0.02915929839328282 0 -0.012784654551939476 0.042407081513004895 0 -0.013486698315468938 0.035051536883853103 0 -0.008061293347668249 0.037286326803839066 0 0.011871328488423667 0.032735937504971349 0 0.011909656547918932 0.030061202960430227 0 0.013468945326079243 0.02915929839328282 0 0.010482900040782086 0.035935665863049769 0 0.011973923400293756 0.029700565973536954 0 0.011871328488423667 0.032735937504971349 0 0.0086962956260618427 0.033664828361959408 0 0.011909656547918932 0.030061202960430227 0 0.011309528379777754 0.035010202733832652 0 0.011871328488423667 0.032735937504971349 0 0.0086962956260618427 0.033664828361959408 0 0.010502685576010598 0.031875780855625896 0 0.010303414114274904 0.031542566298784228 0 0.010842126403198994 0.030398538663297864 0 0.010482900040782086 0.035935665863049769 0 0.010056345370775382 0.034784750627642323 0 0.0096741596379663203 0.030474957773915259 0 0.010303414114274904 0.031542566298784228 0 0.010842126403198994 0.030398538663297864 0 0.010502685576010598 0.031875780855625896 0 0.010842126403198994 0.030398538663297864 0 0.011909656547918932 0.030061202960430227 0 0.010842126403198994 0.030398538663297864 0 0.011303111296744855 0.027902513068746009 0 0.011909656547918932 0.030061202960430227 0 0.0096741596379663203 0.030474957773915259 0 0.010842126403198994 0.030398538663297864 0 0.011303111296744855 0.027902513068746009 0 0.013066614612579875 0.027430901671963631 0 0.016525442633373293 0.023504208281350334 0 0.011303111296744855 0.027902513068746009 0 0.011909656547918932 0.030061202960430227 0 0.013468945326079243 0.02915929839328282 0 0.011303111296744855 0.027902513068746009 0 0.013468945326079243 0.02915929839328282 0 0.013330597733911979 0.025042710283109115 0 -0.00061757842889305912 0.032591147903190849 0 0.0052010394163190836 0.023476211871824797 0 0.016525442633373293 0.023504208281350334 0 0.0052010394163190836 0.023476211871824797 0 -0.013486698315468938 0.035051536883853103 0 -0.014200121704315789 0.025704807360664689 0 -0.010410968877061368 0.029511369255754257 0 0.018600095630273431 0.020974942047886056 0 0.018265477220331488 0.018505679681428754 0 0.01974200491735377 0.018999151403666779 0 0.018600095630273431 0.020974942047886056 0 0.018265477220331488 0.018505679681428754 0 0.017022873409634782 0.01909306732450192 0 0.017931329554056321 0.016915363738234226 0 0.018894768896793195 0.017399756600889899 0 0.018265477220331488 0.018505679681428754 0 0.017931329554056321 0.016915363738234226 0 0.018265477220331488 0.018505679681428754 0 0.017212975813166165 0.017644778378344807 0 0.018265477220331488 0.018505679681428754 0 0.017022873409634782 0.01909306732450192 0 0.017212975813166165 0.017644778378344807 0 0.0044888041537398549 0.011446176742685204 0 0.0052010394163190836 0.023476211871824797 0 0.018894768896793195 0.017399756600889899 0 0.018265477220331488 0.018505679681428754 0 0.01974200491735377 0.018999151403666779 0 0.014845615585464137 0.021180848148934655 0 0.015535154211564581 0.019339589298339583 0 0.014263766413142056 0.019491783587730144 0 0.014845615585464137 0.021180848148934655 0 0.015535154211564581 0.019339589298339583 0 0.016650496815058678 0.020724964215892348 0 0.015535154211564581 0.019339589298339583 0 0.01454990261010719 0.017995784205400916 0 0.014263766413142056 0.019491783587730144 0 0.018600095630273431 0.020974942047886056 0 0.016650496815058678 0.020724964215892348 0 0.017022873409634782 0.01909306732450192 0 0.015535154211564581 0.019339589298339583 0 0.016650496815058678 0.020724964215892348 0 0.017022873409634782 0.01909306732450192 0 0.015535154211564581 0.019339589298339583 0 0.017022873409634782 0.01909306732450192 0 0.016043415867348219 0.017878370914606447 0 0.017022873409634782 0.01909306732450192 0 0.017212975813166165 0.017644778378344807 0 0.016043415867348219 0.017878370914606447 0 0.016587150048770937 0.017126287274134021 0 0.017212975813166165 0.017644778378344807 0 0.016043415867348219 0.017878370914606447 0 0.015535154211564581 0.019339589298339583 0 0.016043415867348219 0.017878370914606447 0 0.01454990261010719 0.017995784205400916 0 0.014958856919262156 0.016840858955492435 0 0.016043415867348219 0.017878370914606447 0 0.01454990261010719 0.017995784205400916 0 0.014200430043860216 0.01691831047552126 0 0.01454990261010719 0.017995784205400916 0 0.013793490820058795 0.017430502430004668 0 0.01454990261010719 0.017995784205400916 0 0.013793490820058795 0.017430502430004668 0 0.013379259020929672 0.018613564143409235 0 0.01454990261010719 0.017995784205400916 0 0.014263766413142056 0.019491783587730144 0 0.013379259020929672 0.018613564143409235 0 0.014263766413142056 0.019491783587730144 0 0.013297084766899274 0.020282434934416799 0 0.013379259020929672 0.018613564143409235 0 0.014845615585464137 0.021180848148934655 0 0.014263766413142056 0.019491783587730144 0 0.013297084766899274 0.020282434934416799 0 0.013297084766899274 0.020282434934416799 0 0.012588176930465924 0.019437254807890405 0 0.013379259020929672 0.018613564143409235 0 0.012778132738522664 0.019876993806771506 0 0.012762480013610208 0.021088659792914886 0 0.013297084766899274 0.020282434934416799 0 0.012588176930465924 0.019437254807890405 0 0.012310480957270671 0.020206364351294429 0 0.012588176930465924 0.019437254807890405 0 0.012769125385899593 0.01861637824441183 0 0.013379259020929672 0.018613564143409235 0 0.012588176930465924 0.019437254807890405 0 0.012769125385899593 0.01861637824441183 0 0.01230500116253296 0.018625886533099476 0 0.013233588556951996 0.017047037140634408 0 0.013793490820058795 0.017430502430004668 0 0.013379259020929672 0.018613564143409235 0 0.012769125385899593 0.01861637824441183 0 0.012804159832889997 0.017779167537595782 0 0.01230500116253296 0.018625886533099476 0 0.013233588556951996 0.017047037140634408 0 0.013379259020929672 0.018613564143409235 0 0.012804159832889997 0.017779167537595782 0 0.012769125385899593 0.01861637824441183 0 0.013379259020929672 0.018613564143409235 0 0.012804159832889997 0.017779167537595782 0 0.012469512956581863 0.013652793934777856 0 0.018261698392373966 0.018557835340814354 0 0.012804159832889997 0.017779167537595782 0 0.011920464035892633 0.017150441135345716 0 0.01230500116253296 0.018625886533099476 0 0.012800420745431203 0.016613098138845386 0 0.012804159832889997 0.017779167537595782 0 0.011920464035892633 0.017150441135345716 0 0.011920464035892633 0.017150441135345716 0 0.011628798827600524 0.018897843136712941 0 0.01230500116253296 0.018625886533099476 0 0.02131359486500976 0.014019016970753537 0 0.018261698392373966 0.018557835340814354 0 0.016442869044308469 0.010955795688167331 0 0.013390130929738986 0.011873228704205221 0 0.013277221213396757 0.0089790428258411468 0 0.025332989142795199 0.017662391254465795 0 0.026825326643660007 0.023677935433151828 0 0.03028919672054331 0.021060059953235628 0 0.018261698392373966 0.018557835340814354 0 0.012762480013610208 0.021088659792914886 0 0.012588176930465924 0.019437254807890405 0 0.011628798827600524 0.018897843136712941 0 0.01230500116253296 0.018625886533099476 0 0.012588176930465924 0.019437254807890405 0 0.011628798827600524 0.018897843136712941 0 0.012524760059721324 0.019861176863174734 0 0.016662367973753759 0.026032775601165039 0 0.018548636308750806 0.027893740139239169 0 0.019276239112422211 0.023402337317314732 0 0.016351402197156219 0.021386768835201207 0 0.016662367973753759 0.026032775601165039 0 0.019276239112422211 0.023402337317314732 0 0.03028919672054331 0.021060059953235628 0 0.029867654266425375 0.027089253065359451 0 0.030896744613884464 0.02807761252235999 0 0.018261698392373966 0.018557835340814354 0 0.027891793034735164 0.028149119443373446 0 0.028804632729548953 0.028316478664071047 0 0.027891793034735164 0.028149119443373446 0 0.026825326643660007 0.023677935433151828 0 0.03028919672054331 0.021060059953235628 0 0.029867654266425375 0.027089253065359451 0 0.026825326643660007 0.023677935433151828 0 0.029867654266425375 0.027089253065359451 0 0.027242370057354384 0.027176676584795858 0 0.029867654266425375 0.027089253065359451 0 0.027242370057354384 0.027176676584795858 0 0.02826967289367855 0.029590926302859671 0 0.024471012712793675 0.027646808568088741 0 0.026825326643660007 0.023677935433151828 0 0.027242370057354384 0.027176676584795858 0 0.024471012712793675 0.027646808568088741 0 0.027242370057354384 0.027176676584795858 0 0.02826967289367855 0.029590926302859671 0 0.025014293486851875 0.031374164378632913 0 0.028575980513161243 0.037302262921976991 0 0.02501261686349741 0.040071747542998769 0 0.025981963809078471 0.035309635620807391 0 0.026979153544917707 0.041210883278212936 0 0.024471012712793675 0.027646808568088741 0 0.028266919709894693 0.033864877292299644 0 0.02826967289367855 0.029590926302859671 0 0.028266919709894693 0.033864877292299644 0 0.02826967289367855 0.029590926302859671 0 0.029687837381987416 0.031252639182268831 0 0.031194901559834856 0.033345198688307987 0 0.030781752538537457 0.028300579362390454 0 0.034153909632090827 0.031552716569697353 0 0.031084283464665609 0.032814010706498878 0 0.027891793034735164 0.028149119443373446 0 0.031194901559834856 0.033345198688307987 0 0.031020744955622404 0.028219710955017789 0 0.029687837381987416 0.031252639182268831 0 0.027891793034735164 0.028149119443373446 0 0.013847305002332671 0.029971826015648267 0 0.031020744955622404 0.028219710955017789 0 0.02826967289367855 0.029590926302859671 0 0.029687837381987416 0.031252639182268831 0 0.029867654266425375 0.027089253065359451 0 0.031020744955622404 0.028219710955017789 0 0.02826967289367855 0.029590926302859671 0 0.031194901559834856 0.033345198688307987 0 0.028266919709894693 0.033864877292299644 0 0.029687837381987416 0.031252639182268831 0 0.0080217937082535419 0.024689423350922418 0 0.009668603654497886 0.023104805613518766 0 0.010384906497171005 0.024647846833108281 0 0.009668603654497886 0.023104805613518766 0 0.010384906497171005 0.024647846833108281 0 0.011599799753627764 0.022406002063951061 0 0.010497386273753719 0.027235553952510743 0 0.0080217937082535419 0.024689423350922418 0 0.010384906497171005 0.024647846833108281 0 0.014689696321407524 0.024210160489387834 0 0.012240965761837367 0.025088274293545276 0 0.011599799753627764 0.022406002063951061 0 0.014772422167382646 0.02411566650769436 0 0.012169894926842596 0.022013425491679742 0 0.010384906497171005 0.024647846833108281 0 0.012240965761837367 0.025088274293545276 0 0.011599799753627764 0.022406002063951061 0 0.014845615585464137 0.021180848148934655 0 0.013297084766899274 0.020282434934416799 0 0.013359363040838814 0.021895914177348812 0 0.013847305002332671 0.029971826015648267 0 0.012762480013610208 0.021088659792914886 0 0.013297084766899274 0.020282434934416799 0 0.013359363040838814 0.021895914177348812 0 0.012310480957270671 0.020206364351294429 0 0.009668603654497886 0.023104805613518766 0 0.011599799753627764 0.022406002063951061 0 0.0087459323389546782 0.020515518844878747 0 0.0080217937082535419 0.024689423350922418 0 0.009668603654497886 0.023104805613518766 0 0.0087459323389546782 0.020515518844878747 0 0.012169894926842596 0.022013425491679742 0 0.012762480013610208 0.021088659792914886 0 0.055578850395165108 0.0096690318338481917 0 0.056075861124140237 0.0087417447469247591 0 0.055637053279870473 0.0089269834900229279 0 0.055578850395165108 0.0096690318338481917 0 0.056406046341270083 0.0098432166830550449 0 0.056075861124140237 0.0087417447469247591 0 0.056331036820205141 0.010757204498429655 0 0.055000119999102336 0.010030233383342952 0 0.055000405047812659 0.011378539194900608 0 0.056928054976734338 0.012506439414987343 0 0.05720529964674901 0.011720468971253284 0 0.054999791174265782 0.011378261932240166 0 0.056891723090297663 0.012458451245445817 0 0.055578850395165108 0.0096690318338481917 0 0.055637053279870473 0.0089269834900229279 0 0.054999154378983381 0.010026785377022516 0 0.05720529964674901 0.011720468971253284 0 0.054999791174265782 0.011378261932240166 0 0.055000107167667824 0.010030459852915511 0 0.056659348066617855 0.013706826511781097 0 0.056949684939228654 0.012506780323330784 0 0.054999916359668971 0.01420709661425407 0 0.0549999093209666 0.011378645136003432 0 0.056949684939228654 0.012506780323330784 0 0.054999916359668971 0.01420709661425407 0 0.056659348066617855 0.013706826511781097 0 0.056949684939228654 0.012506780323330784 0 0.057539970263516337 0.013667954555776227 0 0.05720529964674901 0.011720468971253284 0 0.056891723090297663 0.012458451245445817 0 0.058506969400927131 0.013556052492372024 0 0.056928054976734338 0.012506439414987343 0 0.058406908511270082 0.013416556676786722 0 0.056949684939228654 0.012506780323330784 0 0.057539970263516337 0.013667954555776227 0 0.058506969400927131 0.013556052492372024 0 0.057539970263516337 0.013667954555776227 0 0.058506969400927131 0.013556052492372024 0 0.058141507951014373 0.014306954672458967 0 0.056331036820205141 0.010757204498429655 0 0.057924985171821715 0.012396228971290949 0 0.05720529964674901 0.011720468971253284 0 0.058963356991963568 0.013431319161541024 0 0.058506969400927131 0.013556052492372024 0 0.058963356991963568 0.013431319161541024 0 0.058506969400927131 0.013556052492372024 0 0.058822984509439506 0.014061559023454536 0 0.056710215715042978 0.011387734188559703 0 0.057028546208565976 0.010416340482158983 0 0.056406046341270083 0.0098432166830550449 0 0.057924985171821715 0.012396228971290949 0 0.0597671690515185 0.013748037789396407 0 0.056710215715042978 0.011387734188559703 0 0.058507856178311807 0.011940021938998659 0 0.059853887224108157 0.01382516356179366 0 0.058963356991963568 0.013431319161541024 0 0.059228000859516676 0.014022888722764401 0 0.058822984509439506 0.014061559023454536 0 0.056710215715042978 0.011387734188559703 0 0.058507856178311807 0.011940021938998659 0 0.057653995444362761 0.011033634283179612 0 0.056710215715042978 0.011387734188559703 0 0.057653995444362761 0.011033634283179612 0 0.057028546208565976 0.010416340482158983 0 0.058507856178311807 0.011940021938998659 0 0.057653995444362761 0.011033634283179612 0 0.058781963213610545 0.01112729376732874 0 0.057653995444362761 0.011033634283179612 0 0.057678661226179498 0.010163056299935348 0 0.058781963213610545 0.01112729376732874 0 0.057678661226179498 0.010163056299935348 0 0.058553424234898913 0.009544291082797968 0 0.058781963213610545 0.01112729376732874 0 0.057653995444362761 0.011033634283179612 0 0.057678661226179498 0.010163056299935348 0 0.057028546208565976 0.010416340482158983 0 0.057678661226179498 0.010163056299935348 0 0.057028546208565976 0.010416340482158983 0 0.056959433095774191 0.0096563156394864832 0 0.057678661226179498 0.010163056299935348 0 0.057305179844485035 0.0089394153847771 0 0.056959433095774191 0.0096563156394864832 0 0.057678661226179498 0.010163056299935348 0 0.057305179844485035 0.0089394153847771 0 0.058553424234898913 0.009544291082797968 0 0.055578850395165108 0.0096690318338481917 0 0.056710215715042978 0.011387734188559703 0 0.056406046341270083 0.0098432166830550449 0 0.057028546208565976 0.010416340482158983 0 0.056406046341270083 0.0098432166830550449 0 0.056959433095774191 0.0096563156394864832 0 0.056406046341270083 0.0098432166830550449 0 0.056565179924459585 0.0090058325223843425 0 0.056959433095774191 0.0096563156394864832 0 0.057305179844485035 0.0089394153847771 0 0.056565179924459585 0.0090058325223843425 0 0.056959433095774191 0.0096563156394864832 0 0.056406046341270083 0.0098432166830550449 0 0.056565179924459585 0.0090058325223843425 0 0.056075861124140237 0.0087417447469247591 0 0.056565179924459585 0.0090058325223843425 0 0.056075861124140237 0.0087417447469247591 0 0.056666581110380719 0.0076129877806037343 0 0.056075861124140237 0.0087417447469247591 0 0.056666581110380719 0.0076129877806037343 0 0.056033843274862216 0.0075074750662871203 0 0.057305179844485035 0.0089394153847771 0 0.056565179924459585 0.0090058325223843425 0 0.056666581110380719 0.0076129877806037343 0 0.057305179844485035 0.0089394153847771 0 0.057739868844814961 0.0080575955318280944 0 0.058553424234898913 0.009544291082797968 0 0.057305179844485035 0.0089394153847771 0 0.056666581110380719 0.0076129877806037343 0 0.057739868844814961 0.0080575955318280944 0 0.056666581110380719 0.0076129877806037343 0 0.056722507348044418 0.0059852894650616016 0 0.056411400085214898 0.0060613394248937727 0 0.056666581110380719 0.0076129877806037343 0 0.057739868844814961 0.0080575955318280944 0 0.056722507348044418 0.0059852894650616016 0 0.056666581110380719 0.0076129877806037343 0 0.056033843274862216 0.0075074750662871203 0 0.056411400085214898 0.0060613394248937727 0 0.056033843274862216 0.0075074750662871203 0 0.055876795258654723 0.0060295575166509578 0 0.056411400085214898 0.0060613394248937727 0 0.056033843274862216 0.0075074750662871203 0 0.05554888512228532 0.0079074165516689349 0 0.055876795258654723 0.0060295575166509578 0 0.056075861124140237 0.0087417447469247591 0 0.056033843274862216 0.0075074750662871203 0 0.055637053279870473 0.0089269834900229279 0 0.056033843274862216 0.0075074750662871203 0 0.055637053279870473 0.0089269834900229279 0 0.05554888512228532 0.0079074165516689349 0 0.055637053279870473 0.0089269834900229279 0 0.054999154378983381 0.010026785377022516 0 0.05554888512228532 0.0079074165516689349 0 0.054999154378983381 0.010026785377022516 0 0.054999229985703973 0.007229270748324087 0 0.05554888512228532 0.0079074165516689349 0 0.054999229985703973 0.007229270748324087 0 0.05554888512228532 0.0079074165516689349 0 0.055876795258654723 0.0060295575166509578 0 0.054999229985703973 0.007229270748324087 0 0.055876795258654723 0.0060295575166509578 0 0.054999313123120501 0.0044279869811578417 0 0.05572667980272334 0.004163505915007781 0 0.055986518692625671 0.0033123907862394266 0 0.056224064072646109 0.0049674367967625175 0 0.055876795258654723 0.0060295575166509578 0 0.05572667980272334 0.004163505915007781 0 0.056224064072646109 0.0049674367967625175 0 0.055876795258654723 0.0060295575166509578 0 0.05572667980272334 0.004163505915007781 0 0.054999313123120501 0.0044279869811578417 0 0.05572667980272334 0.004163505915007781 0 0.054999313123120501 0.0044279869811578417 0 0.054999391347836678 0.0016279745196931014 0 0.05572667980272334 0.004163505915007781 0 0.055986518692625671 0.0033123907862394266 0 0.054999391347836678 0.0016279745196931014 0 0.056117766108552562 0.0021770533543865964 0 0.05583565721901642 0.0015092032822689445 0 0.056064922350174302 0.0028418022716131921 0 0.055986518692625671 0.0033123907862394266 0 0.05583565721901642 0.0015092032822689445 0 0.056064922350174302 0.0028418022716131921 0 0.055986518692625671 0.0033123907862394266 0 0.05583565721901642 0.0015092032822689445 0 0.054999391347836678 0.0016279745196931014 0 0.054999398203539308 -0.0011726187105395769 0 0.05583565721901642 0.0015092032822689445 0 0.054999391347836678 0.0016279745196931014 0 0.055584000333656146 0.0046122520057600208 0 0.056014455239958301 0.003542536842173729 0 0.056099736027947156 0.0043697556714923031 0 0.055829287367666236 0.0036530518894289403 0 0.055584000333656146 0.0046122520057600208 0 0.056014455239958301 0.003542536842173729 0 0.056014455239958301 0.003542536842173729 0 0.056064922350174302 0.0028418022716131921 0 0.056099736027947156 0.0043697556714923031 0 0.056117766108552562 0.0021770533543865964 0 0.056014455239958301 0.003542536842173729 0 0.056064922350174302 0.0028418022716131921 0 0.055986518692625671 0.0033123907862394266 0 0.056064922350174302 0.0028418022716131921 0 0.056099736027947156 0.0043697556714923031 0 0.055986518692625671 0.0033123907862394266 0 0.056099736027947156 0.0043697556714923031 0 0.056224064072646109 0.0049674367967625175 0 0.055584000333656146 0.0046122520057600208 0 0.056099736027947156 0.0043697556714923031 0 0.055374359221775415 0.0055087165735949973 0 0.056099736027947156 0.0043697556714923031 0 0.056140899784349295 0.0055189743966400249 0 0.055374359221775415 0.0055087165735949973 0 0.056099736027947156 0.0043697556714923031 0 0.056140899784349295 0.0055189743966400249 0 0.056224064072646109 0.0049674367967625175 0 0.055876795258654723 0.0060295575166509578 0 0.056224064072646109 0.0049674367967625175 0 0.056411400085214898 0.0060613394248937727 0 0.056140899784349295 0.0055189743966400249 0 0.056224064072646109 0.0049674367967625175 0 0.056411400085214898 0.0060613394248937727 0 0.056722507348044418 0.0059852894650616016 0 0.056140899784349295 0.0055189743966400249 0 0.055263187767805727 0.0060020428063844982 0 0.056722507348044418 0.0059852894650616016 0 0.056140899784349295 0.0055189743966400249 0 0.056411400085214898 0.0060613394248937727 0 0.056722507348044418 0.0059852894650616016 0 0.055263187767805727 0.0060020428063844982 0 0.05414827326095676 0.0060693471049183927 0 0.055263187767805727 0.0060020428063844982 0 0.053802632471247912 0.0063412388327667261 0 0.05414827326095676 0.0060693471049183927 0 0.053802632471247912 0.0063412388327667261 0 0.052855291068211248 0.0066168870462980194 0 0.05414827326095676 0.0060693471049183927 0 0.056140899784349295 0.0055189743966400249 0 0.055263187767805727 0.0060020428063844982 0 0.055374359221775415 0.0055087165735949973 0 0.055263187767805727 0.0060020428063844982 0 0.053802632471247912 0.0063412388327667261 0 0.055374359221775415 0.0055087165735949973 0 0.055584000333656146 0.0046122520057600208 0 0.055374359221775415 0.0055087165735949973 0 0.054658681003917242 0.0056042911135588827 0 0.053802632471247912 0.0063412388327667261 0 0.055374359221775415 0.0055087165735949973 0 0.054658681003917242 0.0056042911135588827 0 0.053802632471247912 0.0063412388327667261 0 0.054658681003917242 0.0056042911135588827 0 0.053547963453373794 0.0063187055047766397 0 0.053731128127809641 0.006275583665696311 0 0.055005698547636893 0.0050237030043249345 0 0.054658681003917242 0.0056042911135588827 0 0.055005698547636893 0.0050237030043249345 0 0.055584000333656146 0.0046122520057600208 0 0.054658681003917242 0.0056042911135588827 0 0.055005698547636893 0.0050237030043249345 0 0.055829287367666236 0.0036530518894289403 0 0.055584000333656146 0.0046122520057600208 0 0.052493525516775254 0.0071567632785928953 0 0.053731128127809641 0.006275583665696311 0 0.052666416672999747 0.0068763396202398972 0 0.053731128127809641 0.006275583665696311 0 0.054658681003917242 0.0056042911135588827 0 0.053547963453373794 0.0063187055047766397 0 0.053731128127809641 0.006275583665696311 0 0.052666416672999747 0.0068763396202398972 0 0.053547963453373794 0.0063187055047766397 0 0.052666416672999747 0.0068763396202398972 0 0.052639525332970422 0.0067988381022797721 0 0.051807337620970673 0.0072990462582926035 0 0.052666416672999747 0.0068763396202398972 0 0.053547963453373794 0.0063187055047766397 0 0.052639525332970422 0.0067988381022797721 0 0.053802632471247912 0.0063412388327667261 0 0.053547963453373794 0.0063187055047766397 0 0.052639525332970422 0.0067988381022797721 0 0.053802632471247912 0.0063412388327667261 0 0.052639525332970422 0.0067988381022797721 0 0.052129804821813147 0.006947567490814704 0 0.053802632471247912 0.0063412388327667261 0 0.052129804821813147 0.006947567490814704 0 0.052855291068211248 0.0066168870462980194 0 0.052639525332970422 0.0067988381022797721 0 0.052129804821813147 0.006947567490814704 0 0.0515729009413749 0.0072919844170087128 0 0.052129804821813147 0.006947567490814704 0 0.051737417018831063 0.0071435595156499965 0 0.051213986064406469 0.0074310331831849716 0 0.051737417018831063 0.0071435595156499965 0 0.050163286956202882 0.0078334359779782363 0 0.051213986064406469 0.0074310331831849716 0 0.051737417018831063 0.0071435595156499965 0 0.050163286956202882 0.0078334359779782363 0 0.051618609681648941 0.0070332397279261293 0 0.051618609681648941 0.0070332397279261293 0 0.052569400905055387 0.006829385749654417 0 0.051885272887777369 0.0059065718218214019 0 0.051737417018831063 0.0071435595156499965 0 0.051618609681648941 0.0070332397279261293 0 0.052569400905055387 0.006829385749654417 0 0.051737417018831063 0.0071435595156499965 0 0.052855291068211248 0.0066168870462980194 0 0.052569400905055387 0.006829385749654417 0 0.052129804821813147 0.006947567490814704 0 0.051737417018831063 0.0071435595156499965 0 0.052855291068211248 0.0066168870462980194 0 0.052855291068211248 0.0066168870462980194 0 0.05414827326095676 0.0060693471049183927 0 0.052569400905055387 0.006829385749654417 0 0.05405990110957018 0.0063896049860163121 0 0.053167371376726232 0.0050960242542371003 0 0.056722507348044418 0.0059852894650616016 0 0.05414827326095676 0.0060693471049183927 0 0.054888546726725829 0.0038859851751208594 0 0.056848086819704914 0.0062947242642986817 0 0.057579807055172912 0.0055188291350018251 0 0.057739868844814961 0.0080575955318280944 0 0.059957542438947145 0.0084355091992688157 0 0.058553424234898913 0.009544291082797968 0 0.057739868844814961 0.0080575955318280944 0 0.056722507348044418 0.0059852894650616016 0 0.059957542438947145 0.0084355091992688157 0 0.05414827326095676 0.0060693471049183927 0 0.054888546726725829 0.0038859851751208594 0 0.053528600430286427 0.0043547993644643531 0 0.057579807055172912 0.0055188291350018251 0 0.056133008929661166 0.010633971278391715 0 0.054888546726725829 0.0038859851751208594 0 0.053528600430286427 0.0043547993644643531 0 0.053716140396966018 0.0023703964921187289 0 0.059957542438947145 0.0084355091992688157 0 0.059801679512748111 0.01044331390974346 0 0.062289462450751225 0.011493312558424763 0 0.059957542438947145 0.0084355091992688157 0 0.058553424234898913 0.009544291082797968 0 0.059801679512748111 0.01044331390974346 0 0.058553424234898913 0.009544291082797968 0 0.059801679512748111 0.01044331390974346 0 0.058781963213610545 0.01112729376732874 0 0.058781963213610545 0.01112729376732874 0 0.059710654370779701 0.011576528996473053 0 0.059520994528077277 0.012444105235799091 0 0.059801679512748111 0.01044331390974346 0 0.058781963213610545 0.01112729376732874 0 0.059710654370779701 0.011576528996473053 0 0.059801679512748111 0.01044331390974346 0 0.059710654370779701 0.011576528996473053 0 0.060504111567428319 0.011480021244325197 0 0.059710654370779701 0.011576528996473053 0 0.060504111567428319 0.011480021244325197 0 0.060296613057612636 0.012233133872346204 0 0.060296613057612636 0.012233133872346204 0 0.059520994528077277 0.012444105235799091 0 0.060171717378789395 0.013398419618034185 0 0.059710654370779701 0.011576528996473053 0 0.060296613057612636 0.012233133872346204 0 0.059520994528077277 0.012444105235799091 0 0.058507856178311807 0.011940021938998659 0 0.059520994528077277 0.012444105235799091 0 0.059853887224108157 0.01382516356179366 0 0.058507856178311807 0.011940021938998659 0 0.058781963213610545 0.01112729376732874 0 0.059520994528077277 0.012444105235799091 0 0.060296613057612636 0.012233133872346204 0 0.062289462450751225 0.011493312558424763 0 0.060171717378789395 0.013398419618034185 0 0.060504111567428319 0.011480021244325197 0 0.060296613057612636 0.012233133872346204 0 0.062289462450751225 0.011493312558424763 0 0.056133008929661166 0.010633971278391715 0 0.060080476085021213 0.014612410138969963 0 0.058366220853391181 0.016086235385380725 0 0.057905566463145638 0.015437680684586685 0 0.058536786012734161 0.015576975978063311 0 0.058366220853391181 0.016086235385380725 0 0.058536786012734161 0.015576975978063311 0 0.059097141935691509 0.015529622366329042 0 0.059801679512748111 0.01044331390974346 0 0.060504111567428319 0.011480021244325197 0 0.062289462450751225 0.011493312558424763 0 0.050374665223726751 0.012777294995173905 0 0.051308804842123905 0.013195228656686332 0 0.05050096662201066 0.011498955478510728 0 0.049354689621000147 0.012407272330027289 0 0.050374665223726751 0.012777294995173905 0 0.050335129070141045 0.014007515440710218 0 0.056133008929661166 0.010633971278391715 0 0.050214697772081388 0.017093008226703343 0 0.04620317222406152 0.01447403081532401 0 0.050913684339674713 0.0074711249888433371 0 0.056133008929661166 0.010633971278391715 0 0.050913684339674713 0.0074711249888433371 0 0.049354689621000147 0.012407272330027289 0 0.050374665223726751 0.012777294995173905 0 0.05050096662201066 0.011498955478510728 0 0.050374665223726751 0.012777294995173905 0 0.051308804842123905 0.013195228656686332 0 0.050335129070141045 0.014007515440710218 0 0.048549254703177967 0.011173335654399211 0 0.048900899653265342 0.0099766784279486619 0 0.04938561121477953 0.010302069629495959 0 0.042117805163913759 0.015513361267471056 0 0.04938561121477953 0.010302069629495959 0 0.047061039644666965 0.015371677888496046 0 0.048549254703177967 0.011173335654399211 0 0.048900899653265342 0.0099766784279486619 0 0.047377231283819321 0.0097813654544730844 0 0.04620317222406152 0.01447403081532401 0 0.048918784370270064 0.010296403740343641 0 0.049672646457200764 0.0080195103130376866 0 0.050913684339674713 0.0074711249888433371 0 0.050163286956202882 0.0078334359779782363 0 0.048900899653265342 0.0099766784279486619 0 0.047377231283819321 0.0097813654544730844 0 0.050163286956202882 0.0078334359779782363 0 0.048900899653265342 0.0099766784279486619 0 0.04938561121477953 0.010302069629495959 0 0.050163286956202882 0.0078334359779782363 0 0.051618609681648941 0.0070332397279261293 0 0.051885272887777369 0.0059065718218214019 0 0.053528600430286427 0.0043547993644643531 0 0.053716140396966018 0.0023703964921187289 0 0.052875214227031869 0.003012525727515905 0 0.053167371376726232 0.0050960242542371003 0 0.050913684339674713 0.0074711249888433371 0 0.052042600718363953 0.010148120903194524 0 0.051562471373838209 0.0090891629406871371 0 0.051147938838207195 0.0081642657420979946 0 0.052042600718363953 0.010148120903194524 0 0.04938561121477953 0.010302069629495959 0 0.051147938838207195 0.0081642657420979946 0 0.050163286956202882 0.0078334359779782363 0 0.04938561121477953 0.010302069629495959 0 0.051147938838207195 0.0081642657420979946 0 0.052042600718363953 0.010148120903194524 0 0.04938561121477953 0.010302069629495959 0 0.050287361800096027 0.013915674658063195 0 0.04938561121477953 0.010302069629495959 0 0.047061039644666965 0.015371677888496046 0 0.050287361800096027 0.013915674658063195 0 0.047061039644666965 0.015371677888496046 0 0.050287361800096027 0.013915674658063195 0 0.048735936326403245 0.018576530156028819 0 0.052042600718363953 0.010148120903194524 0 0.050287361800096027 0.013915674658063195 0 0.052667415057308264 0.016410073011967695 0 0.052042600718363953 0.010148120903194524 0 0.057526581092471135 0.013656204193750297 0 0.052667415057308264 0.016410073011967695 0 0.052169928794406177 0.010178565535137102 0 0.054099043251564068 0.011013513697589314 0 0.051178325814626308 0.0085583046841400563 0 0.050608752177204779 0.0088857236781543711 0 0.050113197348804032 0.0076867062700839029 0 0.054099043251564068 0.011013513697589314 0 0.056921782323488261 0.012109062490022464 0 0.052042600718363953 0.010148120903194524 0 0.051178325814626308 0.0085583046841400563 0 0.051562471373838209 0.0090891629406871371 0 0.051178325814626308 0.0085583046841400563 0 0.050608752177204779 0.0088857236781543711 0 0.051562471373838209 0.0090891629406871371 0 0.051562471373838209 0.0090891629406871371 0 0.050884440169556684 0.008949298601950555 0 0.05109753371068862 0.0080451699162796576 0 0.050608752177204779 0.0088857236781543711 0 0.051562471373838209 0.0090891629406871371 0 0.050884440169556684 0.008949298601950555 0 0.050608752177204779 0.0088857236781543711 0 0.050884440169556684 0.008949298601950555 0 0.049752585176661326 0.0093632856654581823 0 0.050884440169556684 0.008949298601950555 0 0.050481355068243972 0.0086803692745481466 0 0.049752585176661326 0.0093632856654581823 0 0.050481355068243972 0.0086803692745481466 0 0.05109753371068862 0.0080451699162796576 0 0.050570135439334377 0.0082793670813208989 0 0.050884440169556684 0.008949298601950555 0 0.050481355068243972 0.0086803692745481466 0 0.05109753371068862 0.0080451699162796576 0 0.05109753371068862 0.0080451699162796576 0 0.051147938838207195 0.0081642657420979946 0 0.051213986064406469 0.0074310331831849716 0 0.051562471373838209 0.0090891629406871371 0 0.05109753371068862 0.0080451699162796576 0 0.051147938838207195 0.0081642657420979946 0 0.050163286956202882 0.0078334359779782363 0 0.051147938838207195 0.0081642657420979946 0 0.051213986064406469 0.0074310331831849716 0 0.05109753371068862 0.0080451699162796576 0 0.051213986064406469 0.0074310331831849716 0 0.0515729009413749 0.0072919844170087128 0 0.052129804821813147 0.006947567490814704 0 0.051213986064406469 0.0074310331831849716 0 0.0515729009413749 0.0072919844170087128 0 0.05109753371068862 0.0080451699162796576 0 0.0515729009413749 0.0072919844170087128 0 0.051093384577157161 0.007732879189448272 0 0.0515729009413749 0.0072919844170087128 0 0.051093384577157161 0.007732879189448272 0 0.051807337620970673 0.0072990462582926035 0 0.051093384577157161 0.007732879189448272 0 0.051807337620970673 0.0072990462582926035 0 0.051092547872607634 0.0078328752046087496 0 0.052639525332970422 0.0067988381022797721 0 0.0515729009413749 0.0072919844170087128 0 0.051807337620970673 0.0072990462582926035 0 0.052666416672999747 0.0068763396202398972 0 0.051807337620970673 0.0072990462582926035 0 0.051762924488648193 0.0074942212678429879 0 0.051807337620970673 0.0072990462582926035 0 0.051762924488648193 0.0074942212678429879 0 0.051092547872607634 0.0078328752046087496 0 0.051762924488648193 0.0074942212678429879 0 0.051039107026706117 0.0080846725929081664 0 0.051092547872607634 0.0078328752046087496 0 0.051737405338059317 0.0078057794569805277 0 0.051762924488648193 0.0074942212678429879 0 0.051039107026706117 0.0080846725929081664 0 0.052493525516775254 0.0071567632785928953 0 0.052666416672999747 0.0068763396202398972 0 0.051762924488648193 0.0074942212678429879 0 0.050427265925508058 0.0085903926763779646 0 0.050486859410293294 0.0083131715181730022 0 0.049670833910075866 0.0093668241029963 0 0.050487308337066467 0.0085807474065814817 0 0.050427265925508058 0.0085903926763779646 0 0.049670833910075866 0.0093668241029963 0 0.050427265925508058 0.0085903926763779646 0 0.051039107026706117 0.0080846725929081664 0 0.050486859410293294 0.0083131715181730022 0 0.050487308337066467 0.0085807474065814817 0 0.050427265925508058 0.0085903926763779646 0 0.051039107026706117 0.0080846725929081664 0 0.051039107026706117 0.0080846725929081664 0 0.051092547872607634 0.0078328752046087496 0 0.050486859410293294 0.0083131715181730022 0 0.051092547872607634 0.0078328752046087496 0 0.050486859410293294 0.0083131715181730022 0 0.050380615539973139 0.0080571143123876771 0 0.050486859410293294 0.0083131715181730022 0 0.049584457771666722 0.0080851061809920268 0 0.049670833910075866 0.0093668241029963 0 0.050486859410293294 0.0083131715181730022 0 0.050380615539973139 0.0080571143123876771 0 0.049584457771666722 0.0080851061809920268 0 0.050380615539973139 0.0080571143123876771 0 0.049522947926406255 0.0090283978819987298 0 0.049584457771666722 0.0080851061809920268 0 0.051093384577157161 0.007732879189448272 0 0.051092547872607634 0.0078328752046087496 0 0.050380615539973139 0.0080571143123876771 0 0.051093384577157161 0.007732879189448272 0 0.050380615539973139 0.0080571143123876771 0 0.050570135439334377 0.0082793670813208989 0 0.05109753371068862 0.0080451699162796576 0 0.051093384577157161 0.007732879189448272 0 0.050570135439334377 0.0082793670813208989 0 0.050481355068243972 0.0086803692745481466 0 0.050570135439334377 0.0082793670813208989 0 0.049522947926406255 0.0090283978819987298 0 0.050380615539973139 0.0080571143123876771 0 0.050570135439334377 0.0082793670813208989 0 0.049522947926406255 0.0090283978819987298 0 0.049522947926406255 0.0090283978819987298 0 0.048675398377064839 0.009170737333159984 0 0.048296969368912368 0.010336120602537999 0 0.048675398377064839 0.009170737333159984 0 0.048604301515865631 0.0075891611531687065 0 0.048355178736248047 0.010041938704171674 0 0.048245122900301037 0.0074408457509107396 0 0.046027473278947989 0.0065886273241902342 0 0.048675398377064839 0.009170737333159984 0 0.049584457771666722 0.0080851061809920268 0 0.048604301515865631 0.0075891611531687065 0 0.049522947926406255 0.0090283978819987298 0 0.048675398377064839 0.009170737333159984 0 0.049584457771666722 0.0080851061809920268 0 0.049584457771666722 0.0080851061809920268 0 0.048604301515865631 0.0075891611531687065 0 0.049670833910075866 0.0093668241029963 0 0.048604301515865631 0.0075891611531687065 0 0.04736330439084524 0.010176438760359065 0 0.044929768089691999 0.0095832586365759021 0 0.045593918245671911 0.012760218365616839 0 0.04736330439084524 0.010176438760359065 0 0.044929768089691999 0.0095832586365759021 0 0.048604301515865631 0.0075891611531687065 0 0.04736330439084524 0.010176438760359065 0 0.049670833910075866 0.0093668241029963 0 0.048062363143514183 0.012901925496469086 0 0.04736330439084524 0.010176438760359065 0 0.049670833910075866 0.0093668241029963 0 0.040008730977161087 0.010985465644519578 0 0.039745343685025449 0.0078419916137449381 0 0.041745498699485503 0.012207097288468438 0 0.044929768089691999 0.0095832586365759021 0 0.039782076693753873 0.0075824344846497013 0 0.038380268144853555 0.010940068528812555 0 0.036526898333309021 0.010086053216917603 0 0.039782076693753873 0.0075824344846497013 0 0.044929768089691999 0.0095832586365759021 0 0.039782076693753873 0.0075824344846497013 0 0.04386223951899057 0.0030500946979525097 0 0.048604301515865631 0.0075891611531687065 0 0.044929768089691999 0.0095832586365759021 0 0.04386223951899057 0.0030500946979525097 0 0.037269022240046482 0.0030277079820934224 0 0.039782076693753873 0.0075824344846497013 0 0.04386223951899057 0.0030500946979525097 0 0.048675398377064839 0.009170737333159984 0 0.048355178736248047 0.010041938704171674 0 0.048296969368912368 0.010336120602537999 0 0.048355178736248047 0.010041938704171674 0 0.048296969368912368 0.010336120602537999 0 0.047178472832067594 0.011825725426622805 0 0.047433025227468811 0.011503214013354978 0 0.048355178736248047 0.010041938704171674 0 0.047178472832067594 0.011825725426622805 0 0.043106974704623123 0.0044993677446095656 0 0.046027473278947989 0.0065886273241902342 0 0.038871320360633045 -0.00081567263611655107 0 0.037269022240046482 0.0030277079820934224 0 0.04386223951899057 0.0030500946979525097 0 0.047433025227468811 0.011503214013354978 0 0.047334152280877333 0.011544540033085473 0 0.047178472832067594 0.011825725426622805 0 0.047178472832067594 0.011825725426622805 0 0.045525845253062636 0.012121036456877945 0 0.047470118339917711 0.011038460372227615 0 0.046228476088313389 0.012973638254854265 0 0.046424532187427273 0.012267956118756349 0 0.044088081484348188 0.014604136675214487 0 0.047178472832067594 0.011825725426622805 0 0.045525845253062636 0.012121036456877945 0 0.045525845253062636 0.012121036456877945 0 0.046198854221264303 0.010602894822835119 0 0.047470118339917711 0.011038460372227615 0 0.043989645679216358 0.0098309635545036373 0 0.045525845253062636 0.012121036456877945 0 0.046198854221264303 0.010602894822835119 0 0.047751697977700208 0.010270920656221025 0 0.047470118339917711 0.011038460372227615 0 0.048691031996415973 0.010038314449948006 0 0.046198854221264303 0.010602894822835119 0 0.047751697977700208 0.010270920656221025 0 0.046996728014734618 0.0098964203726721444 0 0.046198854221264303 0.010602894822835119 0 0.047751697977700208 0.010270920656221025 0 0.047470118339917711 0.011038460372227615 0 0.048296969368912368 0.010336120602537999 0 0.047470118339917711 0.011038460372227615 0 0.048691031996415973 0.010038314449948006 0 0.048296969368912368 0.010336120602537999 0 0.047178472832067594 0.011825725426622805 0 0.047470118339917711 0.011038460372227615 0 0.049522947926406255 0.0090283978819987298 0 0.048296969368912368 0.010336120602537999 0 0.048691031996415973 0.010038314449948006 0 0.050481355068243972 0.0086803692745481466 0 0.049522947926406255 0.0090283978819987298 0 0.049752585176661326 0.0093632856654581823 0 0.049522947926406255 0.0090283978819987298 0 0.048691031996415973 0.010038314449948006 0 0.049752585176661326 0.0093632856654581823 0 0.049752585176661326 0.0093632856654581823 0 0.048809402383275885 0.0095730400031269949 0 0.049532926964954795 0.0088374590568992221 0 0.047751697977700208 0.010270920656221025 0 0.048809402383275885 0.0095730400031269949 0 0.048194683532316401 0.0091594726926897182 0 0.048691031996415973 0.010038314449948006 0 0.049752585176661326 0.0093632856654581823 0 0.048809402383275885 0.0095730400031269949 0 0.047751697977700208 0.010270920656221025 0 0.048691031996415973 0.010038314449948006 0 0.048809402383275885 0.0095730400031269949 0 0.048809402383275885 0.0095730400031269949 0 0.048194683532316401 0.0091594726926897182 0 0.049532926964954795 0.0088374590568992221 0 0.048194683532316401 0.0091594726926897182 0 0.049532926964954795 0.0088374590568992221 0 0.04890867217729427 0.0080413597318419149 0 0.050608752177204779 0.0088857236781543711 0 0.049752585176661326 0.0093632856654581823 0 0.049532926964954795 0.0088374590568992221 0 0.050608752177204779 0.0088857236781543711 0 0.049532926964954795 0.0088374590568992221 0 0.050113197348804032 0.0076867062700839029 0 0.049532926964954795 0.0088374590568992221 0 0.04890867217729427 0.0080413597318419149 0 0.050113197348804032 0.0076867062700839029 0 0.048194683532316401 0.0091594726926897182 0 0.04890867217729427 0.0080413597318419149 0 0.047652660183012195 0.0077340241841679768 0 0.04890867217729427 0.0080413597318419149 0 0.047652660183012195 0.0077340241841679768 0 0.04875578333490805 0.0068592259303354077 0 0.048194683532316401 0.0091594726926897182 0 0.047652660183012195 0.0077340241841679768 0 0.047170335427534391 0.0091078779899522733 0 0.046501134617848459 0.0086920464198204928 0 0.04567026180158363 0.0089912813212185243 0 0.045822558256040501 0.0093959148082472764 0 0.047652660183012195 0.0077340241841679768 0 0.045822558256040501 0.0093959148082472764 0 0.047170335427534391 0.0091078779899522733 0 0.046787507062376631 0.0080192573352871142 0 0.045973690506074735 0.0093283358305252407 0 0.046501134617848459 0.0086920464198204928 0 0.045489603784017736 0.0083349395559475115 0 0.04567026180158363 0.0089912813212185243 0 0.044164449432810879 0.010825597356858594 0 0.043199261015784376 0.011408050301399944 0 0.044665612904067176 0.0096854799778850389 0 0.044544069162113266 0.0092569098794253717 0 0.044470962349653642 0.010016121578970158 0 0.044665612904067176 0.0096854799778850389 0 0.04567026180158363 0.0089912813212185243 0 0.045822558256040501 0.0093959148082472764 0 0.045489603784017736 0.0083349395559475115 0 0.044665612904067176 0.0096854799778850389 0 0.04567026180158363 0.0089912813212185243 0 0.043989645679216358 0.0098309635545036373 0 0.046198854221264303 0.010602894822835119 0 0.045160107362696426 0.0098089269441495666 0 0.044665612904067176 0.0096854799778850389 0 0.045822558256040501 0.0093959148082472764 0 0.045160107362696426 0.0098089269441495666 0 0.044353791660923424 0.010071147400873297 0 0.044665612904067176 0.0096854799778850389 0 0.045160107362696426 0.0098089269441495666 0 0.045822558256040501 0.0093959148082472764 0 0.045160107362696426 0.0098089269441495666 0 0.046996728014734618 0.0098964203726721444 0 0.046198854221264303 0.010602894822835119 0 0.045160107362696426 0.0098089269441495666 0 0.046996728014734618 0.0098964203726721444 0 0.047751697977700208 0.010270920656221025 0 0.048194683532316401 0.0091594726926897182 0 0.046996728014734618 0.0098964203726721444 0 0.048194683532316401 0.0091594726926897182 0 0.046996728014734618 0.0098964203726721444 0 0.047170335427534391 0.0091078779899522733 0 0.045822558256040501 0.0093959148082472764 0 0.046996728014734618 0.0098964203726721444 0 0.047170335427534391 0.0091078779899522733 0 0.063961148711260837 0.026401815881352791 0 0.065281427164930891 0.025005266122094652 0 0.064648141351539942 0.028282386738973646 0 0.064030913955609947 0.025244287529437907 0 0.063638622341520235 0.024246775560713672 0 0.065281427164930891 0.025005266122094652 0 0.054297559475761009 0.017439081680137688 0 0.043626410052914316 0.020542552310720344 0 0.050983586499208741 0.017564928149946375 0 0.044895285446365979 0.014773325504755538 0 0.043800003631461956 0.018620855134379891 0 0.064030913955609947 0.025244287529437907 0 0.063638622341520235 0.024246775560713672 0 0.062870022430332656 0.025437911606753991 0 0.062870022430332656 0.025437911606753991 0 0.063961148711260837 0.026401815881352791 0 0.062345582441258263 0.026567802488712908 0 0.064030913955609947 0.025244287529437907 0 0.062870022430332656 0.025437911606753991 0 0.063961148711260837 0.026401815881352791 0 0.064030913955609947 0.025244287529437907 0 0.063961148711260837 0.026401815881352791 0 0.065281427164930891 0.025005266122094652 0 0.032064571938182893 0.017167142285459194 0 0.043626410052914316 0.020542552310720344 0 0.035436819899510287 0.019246397726839014 0 0.030213529420845785 0.016821605439063352 0 0.031484161244013424 0.022178430309869591 0 0.037978878384177975 0.013757805182566366 0 0.035436819899510287 0.019246397726839014 0 0.034084254787298221 0.016687494205846476 0 0.035436819899510287 0.019246397726839014 0 0.034084254787298221 0.016687494205846476 0 0.031276816544546331 0.017227639262845991 0 0.034084254787298221 0.016687494205846476 0 0.031276816544546331 0.017227639262845991 0 0.031948837457206808 0.014702953140405527 0 0.043626410052914316 0.020542552310720344 0 0.042464184869848091 0.014284668281922121 0 0.037978878384177975 0.013757805182566366 0 0.034084254787298221 0.016687494205846476 0 0.031948837457206808 0.014702953140405527 0 0.040225040389996469 0.013375469593437864 0 0.042464184869848091 0.014284668281922121 0 0.043955964281745835 0.012547504497305866 0 0.043199261015784376 0.011408050301399944 0 0.04278267916251953 0.012658273444925545 0 0.044164449432810879 0.010825597356858594 0 0.043955964281745835 0.012547504497305866 0 0.043199261015784376 0.011408050301399944 0 0.045489603784017736 0.0083349395559475115 0 0.045778734930455207 0.0076085972380725356 0 0.046295550444050981 0.0080156175598025542 0 0.044544069162113266 0.0092569098794253717 0 0.042464184869848091 0.014284668281922121 0 0.046566965344591024 0.0074838456133942471 0 0.046295550444050981 0.0080156175598025542 0 0.047391579394337816 0.0078492607871455851 0 0.046501134617848459 0.0086920464198204928 0 0.046295550444050981 0.0080156175598025542 0 0.047391579394337816 0.0078492607871455851 0 0.046501134617848459 0.0086920464198204928 0 0.045489603784017736 0.0083349395559475115 0 0.046295550444050981 0.0080156175598025542 0 0.054297559475761009 0.017439081680137688 0 0.042464184869848091 0.014284668281922121 0 0.046566965344591024 0.0074838456133942471 0 0.045778734930455207 0.0076085972380725356 0 0.046295550444050981 0.0080156175598025542 0 0.046787507062376631 0.0080192573352871142 0 0.054336567216060942 0.013084461377562391 0 0.054671698641091226 0.017673941668237946 0 0.057129394537184963 0.01880341537216592 0 0.058700796639807214 0.017093427008438231 0 0.04890867217729427 0.0080413597318419149 0 0.04875578333490805 0.0068592259303354077 0 0.050113197348804032 0.0076867062700839029 0 0.054336567216060942 0.013084461377562391 0 0.061517861996348469 0.020763206232291602 0 0.054297559475761009 0.017439081680137688 0 0.054336567216060942 0.013084461377562391 0 0.054336567216060942 0.013084461377562391 0 0.056921782323488261 0.012109062490022464 0 0.067355329722653609 0.018633615243483635 0 0.062677177392217953 0.019461675782736446 0 0.0653788561666033 0.020899554704791542 0 0.067355329722653609 0.018633615243483635 0 0.062677177392217953 0.019461675782736446 0 0.062435136328113171 0.016247580306071749 0 0.060394751544063818 0.024752498778741704 0 0.060680342856326168 0.027299872827098469 0 0.058735449178976329 0.026642922156640339 0 0.061517861996348469 0.020763206232291602 0 0.059588663046674789 0.022379150438770638 0 0.062211349093207455 0.022347095040454651 0 0.059915803403085367 0.024912266400152261 0 0.058089682466138666 0.022980499958166482 0 0.062677177392217953 0.019461675782736446 0 0.0653788561666033 0.020899554704791542 0 0.060468183784526043 0.021840971195060548 0 0.061517861996348469 0.020763206232291602 0 0.058992252647989588 0.026075413156113225 0 0.054297559475761009 0.017439081680137688 0 0.061517861996348469 0.020763206232291602 0 0.060394751544063818 0.024752498778741704 0 0.062345582441258263 0.026567802488712908 0 0.060680342856326168 0.027299872827098469 0 0.063638622341520235 0.024246775560713672 0 0.062870022430332656 0.025437911606753991 0 0.060394751544063818 0.024752498778741704 0 0.062870022430332656 0.025437911606753991 0 0.060394751544063818 0.024752498778741704 0 0.062345582441258263 0.026567802488712908 0 0.062345582441258263 0.026567802488712908 0 0.060680342856326168 0.027299872827098469 0 0.063039266317563014 0.028041332910590966 0 0.06119955920821734 0.029082685542359887 0 0.062829895513588141 0.02987019219628706 0 0.063039266317563014 0.028041332910590966 0 0.060680342856326168 0.027299872827098469 0 0.06119955920821734 0.029082685542359887 0 0.063039266317563014 0.028041332910590966 0 0.058735449178976329 0.026642922156640339 0 0.059002763612340567 0.029033733003219674 0 0.057232376451649483 0.027956994894277238 0 0.060680342856326168 0.027299872827098469 0 0.058735449178976329 0.026642922156640339 0 0.059002763612340567 0.029033733003219674 0 0.060680342856326168 0.027299872827098469 0 0.06119955920821734 0.029082685542359887 0 0.059002763612340567 0.029033733003219674 0 0.060116147774595861 0.030537150671219433 0 0.061516972693500163 0.031744857824157313 0 0.058695525194171004 0.032377426614112768 0 0.059002763612340567 0.029033733003219674 0 0.058695525194171004 0.032377426614112768 0 0.056243524202424858 0.030741643458013137 0 0.059002763612340567 0.029033733003219674 0 0.060116147774595861 0.030537150671219433 0 0.058695525194171004 0.032377426614112768 0 0.06119955920821734 0.029082685542359887 0 0.059002763612340567 0.029033733003219674 0 0.060116147774595861 0.030537150671219433 0 0.06119955920821734 0.029082685542359887 0 0.062829895513588141 0.02987019219628706 0 0.061516972693500163 0.031744857824157313 0 0.06119955920821734 0.029082685542359887 0 0.060116147774595861 0.030537150671219433 0 0.061516972693500163 0.031744857824157313 0 0.062829895513588141 0.02987019219628706 0 0.061516972693500163 0.031744857824157313 0 0.063840477442182089 0.032239744072637092 0 0.045623503475423724 0.032207962019479244 0 0.04659882083220216 0.027084000429274543 0 0.062829895513588141 0.02987019219628706 0 0.063840477442182089 0.032239744072637092 0 0.064648141351539942 0.028282386738973646 0 0.027351570677862397 0.032752613202379967 0 0.027867220798501877 0.026062306370838458 0 0.030156064837573493 0.030859253009860931 0 0.043626410052914316 0.020542552310720344 0 0.04659882083220216 0.027084000429274543 0 0.062829895513588141 0.02987019219628706 0 0.063039266317563014 0.028041332910590966 0 0.064648141351539942 0.028282386738973646 0 0.063961148711260837 0.026401815881352791 0 0.062345582441258263 0.026567802488712908 0 0.063039266317563014 0.028041332910590966 0 0.063961148711260837 0.026401815881352791 0 0.063039266317563014 0.028041332910590966 0 0.064648141351539942 0.028282386738973646 0 0.030213529420845785 0.016821605439063352 0 0.027867220798501877 0.026062306370838458 0 0.031484161244013424 0.022178430309869591 0 0.039402737353708805 0.024769537212518997 0 0.032704279401369003 0.025137323093308815 0 0.030156064837573493 0.030859253009860931 0 0.039402737353708805 0.024769537212518997 0 0.035436819899510287 0.019246397726839014 0 0.032704279401369003 0.025137323093308815 0 0.035436819899510287 0.019246397726839014 0 0.031484161244013424 0.022178430309869591 0 0.032704279401369003 0.025137323093308815 0 0.027867220798501877 0.026062306370838458 0 0.031484161244013424 0.022178430309869591 0 0.032704279401369003 0.025137323093308815 0 0.027867220798501877 0.026062306370838458 0 0.032704279401369003 0.025137323093308815 0 0.030156064837573493 0.030859253009860931 0 0.036248840012262779 0.026961747835439764 0 0.030588548503900331 0.030607965083709585 0 0.033274991019881309 0.03287919796684792 0 0.033667202843577028 0.029050689057696966 0 0.030156064837573493 0.030859253009860931 0 0.033274991019881309 0.03287919796684792 0 0.030156064837573493 0.030859253009860931 0 0.030532944063521611 0.03601281807739326 0 0.045623503475423724 0.032207962019479244 0 0.043944442968512139 0.036706141120023426 0 0.027351570677862397 0.032752613202379967 0 0.030532944063521611 0.03601281807739326 0 0.026892858126663803 0.035800777827431039 0 0.027351570677862397 0.032752613202379967 0 0.030156064837573493 0.030859253009860931 0 0.030532944063521611 0.03601281807739326 0 0.023961030369267777 0.037018818489557064 0 0.043944442968512139 0.036706141120023426 0 0.030532944063521611 0.03601281807739326 0 0.02927763140645798 0.039575505580720524 0 0.027226440237037252 0.037711315361210036 0 0.02927763140645798 0.039575505580720524 0 0.026749665492804497 0.040948425593098227 0 0.027226440237037252 0.037711315361210036 0 0.030532944063521611 0.03601281807739326 0 0.02927763140645798 0.039575505580720524 0 0.031529104058618369 0.039150672909937435 0 0.033612033081592996 0.037092996944672572 0 0.030532944063521611 0.03601281807739326 0 0.031529104058618369 0.039150672909937435 0 0.02927763140645798 0.039575505580720524 0 0.031529104058618369 0.039150672909937435 0 0.030849918893861714 0.041947975997664776 0 0.033053235134448682 0.04104727860084384 0 0.031529104058618369 0.039150672909937435 0 0.030849918893861714 0.041947975997664776 0 0.02927763140645798 0.039575505580720524 0 0.030849918893861714 0.041947975997664776 0 0.028361627314508531 0.042532634506565817 0 0.02927763140645798 0.039575505580720524 0 0.028361627314508531 0.042532634506565817 0 0.026749665492804497 0.040948425593098227 0 0.030849918893861714 0.041947975997664776 0 0.028361627314508531 0.042532634506565817 0 0.029372969274101667 0.044154438564560999 0 0.028361627314508531 0.042532634506565817 0 0.029372969274101667 0.044154438564560999 0 0.027574261176132948 0.044592449423354288 0 0.030849918893861714 0.041947975997664776 0 0.029372969274101667 0.044154438564560999 0 0.03127805499540004 0.044055737570942541 0 0.032436050869018192 0.043268799190061984 0 0.030849918893861714 0.041947975997664776 0 0.03127805499540004 0.044055737570942541 0 0.052937821919182455 0.040799530663276198 0 0.05220816493767564 0.040333339384705728 0 0.052106845370982431 0.041518278127327946 0 0.052937821919182455 0.040799530663276198 0 0.052106845370982431 0.041518278127327946 0 0.052548680975616976 0.042217798739964812 0 0.053461384544424645 0.041671969635708669 0 0.052937821919182455 0.040799530663276198 0 0.052548680975616976 0.042217798739964812 0 0.051869932045283625 0.041614523724633111 0 0.052253626417272034 0.043231931157837751 0 0.028361627314508531 0.042532634506565817 0 0.026349438959891405 0.043774733665514924 0 0.026749665492804497 0.040948425593098227 0 0.053461384544424645 0.041671969635708669 0 0.053677126263966687 0.040393717055233307 0 0.052937821919182455 0.040799530663276198 0 0.028361627314508531 0.042532634506565817 0 0.026349438959891405 0.043774733665514924 0 0.027574261176132948 0.044592449423354288 0 0.039518013729664507 0.042764290947863264 0 0.039960670197214443 0.041074797658163895 0 0.053677126263966687 0.040393717055233307 0 0.052937821919182455 0.040799530663276198 0 0.052650884858383845 0.039705990444295208 0 0.052937821919182455 0.040799530663276198 0 0.052650884858383845 0.039705990444295208 0 0.05220816493767564 0.040333339384705728 0 0.058320883123449865 0.037142374224074334 0 0.062860645565897461 0.036044487442715357 0 0.058695525194171004 0.032377426614112768 0 0.039960670197214443 0.041074797658163895 0 0.043944442968512139 0.036706141120023426 0 0.053677126263966687 0.040393717055233307 0 0.052650884858383845 0.039705990444295208 0 0.053870446021071577 0.039385871813651517 0 0.058694771918123383 0.038153641431025793 0 0.043944442968512139 0.036706141120023426 0 0.061516972693500163 0.031744857824157313 0 0.063840477442182089 0.032239744072637092 0 0.062860645565897461 0.036044487442715357 0 0.061516972693500163 0.031744857824157313 0 0.062860645565897461 0.036044487442715357 0 0.058695525194171004 0.032377426614112768 0 0.058695525194171004 0.032377426614112768 0 0.055389681061065461 0.033851219321661942 0 0.056243524202424858 0.030741643458013137 0 0.058320883123449865 0.037142374224074334 0 0.058695525194171004 0.032377426614112768 0 0.055389681061065461 0.033851219321661942 0 0.055389681061065461 0.033851219321661942 0 0.053180788598921253 0.031480511396267709 0 0.056243524202424858 0.030741643458013137 0 0.055389681061065461 0.033851219321661942 0 0.051476832643192513 0.034729634443903097 0 0.053180788598921253 0.031480511396267709 0 0.051476832643192513 0.034729634443903097 0 0.050902743551981017 0.032176869174543335 0 0.053180788598921253 0.031480511396267709 0 0.055389681061065461 0.033851219321661942 0 0.051476832643192513 0.034729634443903097 0 0.051817419405117464 0.038940983090037823 0 0.058694771918123383 0.038153641431025793 0 0.050587917629205177 0.039205089307866772 0 0.058320883123449865 0.037142374224074334 0 0.055389681061065461 0.033851219321661942 0 0.051817419405117464 0.038940983090037823 0 0.052650884858383845 0.039705990444295208 0 0.05220816493767564 0.040333339384705728 0 0.051817419405117464 0.038940983090037823 0 0.05220816493767564 0.040333339384705728 0 0.051817419405117464 0.038940983090037823 0 0.051167070351364904 0.041366722257779404 0 0.051817419405117464 0.038940983090037823 0 0.051167070351364904 0.041366722257779404 0 0.049880811100950384 0.041192534396634242 0 0.051167070351364904 0.041366722257779404 0 0.049880811100950384 0.041192534396634242 0 0.050265952362800362 0.043217822269169114 0 0.051167070351364904 0.041366722257779404 0 0.052106845370982431 0.041518278127327946 0 0.050955273225190938 0.043745443533865599 0 0.05220816493767564 0.040333339384705728 0 0.051167070351364904 0.041366722257779404 0 0.052106845370982431 0.041518278127327946 0 0.049357025167892886 0.035745576450783252 0 0.047365583508426665 0.035102657580967631 0 0.047935096024013711 0.038146990504131569 0 0.047320198730464266 0.041345128440194133 0 0.049880811100950384 0.041192534396634242 0 0.048487744679963481 0.044268578654779088 0 0.051817419405117464 0.038940983090037823 0 0.049880811100950384 0.041192534396634242 0 0.048734165375182631 0.036839649641891285 0 0.047320198730464266 0.041345128440194133 0 0.049880811100950384 0.041192534396634242 0 0.048734165375182631 0.036839649641891285 0 0.047320198730464266 0.041345128440194133 0 0.045995743902103585 0.037415817627633463 0 0.048734165375182631 0.036839649641891285 0 0.049357025167892886 0.035745576450783252 0 0.047742001019883774 0.033466835338094074 0 0.047365583508426665 0.035102657580967631 0 0.048325512328939516 0.038570020855292618 0 0.046935189591347029 0.035521415488432163 0 0.045995743902103585 0.037415817627633463 0 0.048734165375182631 0.036839649641891285 0 0.046993866252171418 0.034407842249660023 0 0.048734165375182631 0.036839649641891285 0 0.046993866252171418 0.034407842249660023 0 0.048623195290052698 0.033002891332239777 0 0.051476832643192513 0.034729634443903097 0 0.051817419405117464 0.038940983090037823 0 0.048734165375182631 0.036839649641891285 0 0.051476832643192513 0.034729634443903097 0 0.048734165375182631 0.036839649641891285 0 0.048623195290052698 0.033002891332239777 0 0.051476832643192513 0.034729634443903097 0 0.050902743551981017 0.032176869174543335 0 0.048623195290052698 0.033002891332239777 0 0.050902743551981017 0.032176869174543335 0 0.048623195290052698 0.033002891332239777 0 0.049080913968563948 0.030803336459508345 0 0.046993866252171418 0.034407842249660023 0 0.048623195290052698 0.033002891332239777 0 0.046658299871903217 0.032950231258093203 0 0.048623195290052698 0.033002891332239777 0 0.046658299871903217 0.032950231258093203 0 0.047288323277208506 0.030959294083057518 0 0.050582714508584231 0.026515325759775797 0 0.050417363585529479 0.029469494273045703 0 0.047288323277208506 0.030959294083057518 0 0.048086873557577375 0.028099098032447967 0 0.045714928904491837 0.032768661610050612 0 0.047288323277208506 0.030959294083057518 0 0.048382564156651618 0.029757912624338519 0 0.049080913968563948 0.030803336459508345 0 0.048623195290052698 0.033002891332239777 0 0.047288323277208506 0.030959294083057518 0 0.049080913968563948 0.030803336459508345 0 0.047288323277208506 0.030959294083057518 0 0.048382564156651618 0.029757912624338519 0 0.048086873557577375 0.028099098032447967 0 0.048382564156651618 0.029757912624338519 0 0.048086873557577375 0.028099098032447967 0 0.049142692783476119 0.029135288917019671 0 0.050582714508584231 0.026515325759775797 0 0.051862052153679443 0.02440543171603787 0 0.049511546236348875 0.024236577448975977 0 0.04880526175298637 0.023255701147054952 0 0.048454435865284681 0.023138228620758421 0 0.049511546236348875 0.024236577448975977 0 0.049403225663858082 0.023640235497741583 0 0.050307549841845045 0.024634920793331835 0 0.049403225663858082 0.023640235497741583 0 0.050307549841845045 0.024634920793331835 0 0.049815790208180041 0.022664019819588665 0 0.049403225663858082 0.023640235497741583 0 0.04880526175298637 0.023255701147054952 0 0.048812915246813041 0.022580407417850317 0 0.049511546236348875 0.024236577448975977 0 0.049403225663858082 0.023640235497741583 0 0.04880526175298637 0.023255701147054952 0 0.050307549841845045 0.024634920793331835 0 0.051754740592586647 0.026474130913173587 0 0.052010988046761672 0.023441689471311634 0 0.047146059701042901 0.027605049757269986 0 0.050307549841845045 0.024634920793331835 0 0.049790871532241432 0.027595953429708074 0 0.050582714508584231 0.026515325759775797 0 0.050109085987564923 0.02530415615609127 0 0.050307549841845045 0.024634920793331835 0 0.049790871532241432 0.027595953429708074 0 0.051754740592586647 0.026474130913173587 0 0.050582714508584231 0.026515325759775797 0 0.049318909158217981 0.026977681144637101 0 0.048086873557577375 0.028099098032447967 0 0.049790871532241432 0.027595953429708074 0 0.049142692783476119 0.029135288917019671 0 0.049790871532241432 0.027595953429708074 0 0.051754740592586647 0.026474130913173587 0 0.051168435945089401 0.029336460349352236 0 0.049790871532241432 0.027595953429708074 0 0.051168435945089401 0.029336460349352236 0 0.049142692783476119 0.029135288917019671 0 0.051168435945089401 0.029336460349352236 0 0.049142692783476119 0.029135288917019671 0 0.049080913968563948 0.030803336459508345 0 0.048382564156651618 0.029757912624338519 0 0.049142692783476119 0.029135288917019671 0 0.049080913968563948 0.030803336459508345 0 0.050902743551981017 0.032176869174543335 0 0.051168435945089401 0.029336460349352236 0 0.049080913968563948 0.030803336459508345 0 0.050902743551981017 0.032176869174543335 0 0.051168435945089401 0.029336460349352236 0 0.053180788598921253 0.031480511396267709 0 0.051168435945089401 0.029336460349352236 0 0.053180788598921253 0.031480511396267709 0 0.054197001900653172 0.027225524787406898 0 0.053180788598921253 0.031480511396267709 0 0.056243524202424858 0.030741643458013137 0 0.054197001900653172 0.027225524787406898 0 0.059002763612340567 0.029033733003219674 0 0.056243524202424858 0.030741643458013137 0 0.057232376451649483 0.027956994894277238 0 0.056243524202424858 0.030741643458013137 0 0.057232376451649483 0.027956994894277238 0 0.054197001900653172 0.027225524787406898 0 0.056367769311419326 0.024904706027713466 0 0.057232376451649483 0.027956994894277238 0 0.054197001900653172 0.027225524787406898 0 0.059915803403085367 0.024912266400152261 0 0.056367769311419326 0.024904706027713466 0 0.057232376451649483 0.027956994894277238 0 0.058992252647989588 0.026075413156113225 0 0.057576863294929621 0.027623081511733111 0 0.054197001900653172 0.027225524787406898 0 0.054666840326197209 0.022933290171792374 0 0.052010988046761672 0.023441689471311634 0 0.056367769311419326 0.024904706027713466 0 0.054197001900653172 0.027225524787406898 0 0.054666840326197209 0.022933290171792374 0 0.051754740592586647 0.026474130913173587 0 0.051168435945089401 0.029336460349352236 0 0.054197001900653172 0.027225524787406898 0 0.051754740592586647 0.026474130913173587 0 0.054197001900653172 0.027225524787406898 0 0.052010988046761672 0.023441689471311634 0 0.054666840326197209 0.022933290171792374 0 0.057410252514335021 0.018426896344134171 0 0.053281682533910239 0.020254769035429873 0 0.054666840326197209 0.022933290171792374 0 0.053281682533910239 0.020254769035429873 0 0.052010988046761672 0.023441689471311634 0 0.059915803403085367 0.024912266400152261 0 0.056367769311419326 0.024904706027713466 0 0.058089682466138666 0.022980499958166482 0 0.054886244713302994 0.02294379253809763 0 0.059588663046674789 0.022379150438770638 0 0.056367769311419326 0.024904706027713466 0 0.054666840326197209 0.022933290171792374 0 0.058089682466138666 0.022980499958166482 0 0.054666840326197209 0.022933290171792374 0 0.060468183784526043 0.021840971195060548 0 0.057410252514335021 0.018426896344134171 0 0.062677177392217953 0.019461675782736446 0 0.062435136328113171 0.016247580306071749 0 0.057410252514335021 0.018426896344134171 0 0.057526581092471135 0.013656204193750297 0 0.062435136328113171 0.016247580306071749 0 0.057410252514335021 0.018426896344134171 0 0.062677177392217953 0.019461675782736446 0 0.060468183784526043 0.021840971195060548 0 0.057410252514335021 0.018426896344134171 0 0.057526581092471135 0.013656204193750297 0 0.057410252514335021 0.018426896344134171 0 0.052667415057308264 0.016410073011967695 0 0.057410252514335021 0.018426896344134171 0 0.052667415057308264 0.016410073011967695 0 0.053281682533910239 0.020254769035429873 0 0.050287361800096027 0.013915674658063195 0 0.052667415057308264 0.016410073011967695 0 0.048735936326403245 0.018576530156028819 0 0.052667415057308264 0.016410073011967695 0 0.050759080961258043 0.020400449401632867 0 0.048735936326403245 0.018576530156028819 0 0.052667415057308264 0.016410073011967695 0 0.053281682533910239 0.020254769035429873 0 0.050759080961258043 0.020400449401632867 0 0.048735936326403245 0.018576530156028819 0 0.049149153838827009 0.02128711242720897 0 0.048442724376325193 0.021653184464770926 0 0.050759080961258043 0.020400449401632867 0 0.048735936326403245 0.018576530156028819 0 0.049149153838827009 0.02128711242720897 0 0.050759080961258043 0.020400449401632867 0 0.049149153838827009 0.02128711242720897 0 0.049815790208180041 0.022664019819588665 0 0.049149153838827009 0.02128711242720897 0 0.048812915246813041 0.022580407417850317 0 0.048442724376325193 0.021653184464770926 0 0.049403225663858082 0.023640235497741583 0 0.048812915246813041 0.022580407417850317 0 0.049815790208180041 0.022664019819588665 0 0.049149153838827009 0.02128711242720897 0 0.048812915246813041 0.022580407417850317 0 0.049815790208180041 0.022664019819588665 0 0.050307549841845045 0.024634920793331835 0 0.049815790208180041 0.022664019819588665 0 0.052010988046761672 0.023441689471311634 0 0.050759080961258043 0.020400449401632867 0 0.049815790208180041 0.022664019819588665 0 0.052010988046761672 0.023441689471311634 0 0.053281682533910239 0.020254769035429873 0 0.050759080961258043 0.020400449401632867 0 0.052010988046761672 0.023441689471311634 0 0.048943760403413826 0.023407348605342319 0 0.04838578312922942 0.022891039529262792 0 0.048246650427381875 0.022995198606524055 0 0.048943760403413826 0.023407348605342319 0 0.048246650427381875 0.022995198606524055 0 0.049648256886346921 0.024062356170507091 0 0.048943760403413826 0.023407348605342319 0 0.050366093715318798 0.023768679165477393 0 0.049073302940813933 0.023223010150581133 0 0.048943760403413826 0.023407348605342319 0 0.04838578312922942 0.022891039529262792 0 0.049073302940813933 0.023223010150581133 0 0.04838578312922942 0.022891039529262792 0 0.048442724376325193 0.021653184464770926 0 0.048246650427381875 0.022995198606524055 0 0.04880526175298637 0.023255701147054952 0 0.048812915246813041 0.022580407417850317 0 0.04838578312922942 0.022891039529262792 0 0.048812915246813041 0.022580407417850317 0 0.04838578312922942 0.022891039529262792 0 0.048442724376325193 0.021653184464770926 0 0.043789072768643675 0.018538980197760017 0 0.041481986043763387 0.018299428887993841 0 0.040330431854027182 0.020305417225407938 0 0.048735936326403245 0.018576530156028819 0 0.048442724376325193 0.021653184464770926 0 0.048246650427381875 0.022995198606524055 0 0.048735936326403245 0.018576530156028819 0 0.043789072768643675 0.018538980197760017 0 0.040330431854027182 0.020305417225407938 0 0.04796452476341212 0.01954576773881378 0 0.046212330446316716 0.019381940328255392 0 0.047061039644666965 0.015371677888496046 0 0.048735936326403245 0.018576530156028819 0 0.043789072768643675 0.018538980197760017 0 0.042117805163913759 0.015513361267471056 0 0.047061039644666965 0.015371677888496046 0 0.043789072768643675 0.018538980197760017 0 0.042465124814812204 0.015855661688129311 0 0.043789072768643675 0.018538980197760017 0 0.041481986043763387 0.018299428887993841 0 0.04620317222406152 0.01447403081532401 0 0.044882063783799837 0.016856252552847336 0 0.042465124814812204 0.015855661688129311 0 0.039216731473018081 0.018516048346548783 0 0.041481986043763387 0.018299428887993841 0 0.04620317222406152 0.01447403081532401 0 0.050214697772081388 0.017093008226703343 0 0.050214697772081388 0.017093008226703343 0 0.046212330446316716 0.019381940328255392 0 0.039216731473018081 0.018516048346548783 0 0.041481986043763387 0.018299428887993841 0 0.040330431854027182 0.020305417225407938 0 0.049955190385634736 0.020387872795252268 0 0.048829265701213119 0.018665350131776625 0 0.053375526478503084 0.017624205995605505 0 0.046212330446316716 0.019381940328255392 0 0.055013085207421174 0.018757145284519966 0 0.050214697772081388 0.017093008226703343 0 0.055013085207421174 0.018757145284519966 0 0.058536786012734161 0.015576975978063311 0 0.058826837353849991 0.015419118262340643 0 0.059097141935691509 0.015529622366329042 0 0.058536786012734161 0.015576975978063311 0 0.058826837353849991 0.015419118262340643 0 0.058411758641378562 0.015083797068133844 0 0.058826837353849991 0.015419118262340643 0 0.058875241458664219 0.015219519733853241 0 0.058411758641378562 0.015083797068133844 0 0.057905566463145638 0.015437680684586685 0 0.058536786012734161 0.015576975978063311 0 0.058411758641378562 0.015083797068133844 0 0.059097141935691509 0.015529622366329042 0 0.059172531399318808 0.015284869768863122 0 0.059347484572327969 0.01510439621533261 0 0.060080476085021213 0.014612410138969963 0 0.059154895922420431 0.015083243200933702 0 0.059853887224108157 0.01382516356179366 0 0.060171717378789395 0.013398419618034185 0 0.059347484572327969 0.01510439621533261 0 0.059520994528077277 0.012444105235799091 0 0.059853887224108157 0.01382516356179366 0 0.060171717378789395 0.013398419618034185 0 0.058826837353849991 0.015419118262340643 0 0.059097141935691509 0.015529622366329042 0 0.059172531399318808 0.015284869768863122 0 0.058875241458664219 0.015219519733853241 0 0.059172531399318808 0.015284869768863122 0 0.059250046646820861 0.015036892353479785 0 0.058826837353849991 0.015419118262340643 0 0.058875241458664219 0.015219519733853241 0 0.059172531399318808 0.015284869768863122 0 0.059172531399318808 0.015284869768863122 0 0.059302520186131934 0.01513244665492376 0 0.059347484572327969 0.01510439621533261 0 0.059409156378547733 0.018147274164387071 0 0.058285251347832627 0.018467810982368191 0 0.059402384292892213 0.017819421788185012 0 0.059172531399318808 0.015284869768863122 0 0.059250046646820861 0.015036892353479785 0 0.059302520186131934 0.01513244665492376 0 0.059409156378547733 0.018147274164387071 0 0.059402384292892213 0.017819421788185012 0 0.059469424855723929 0.017902689219665913 0 0.058875241458664219 0.015219519733853241 0 0.059250046646820861 0.015036892353479785 0 0.058411758641378562 0.015083797068133844 0 0.055013085207421174 0.018757145284519966 0 0.05553382961044389 0.02153656981099742 0 0.049648256886346921 0.024062356170507091 0 0.050366093715318798 0.023768679165477393 0 0.052187284307583806 0.024432478940563059 0 0.059967004513529001 0.016368457923509976 0 0.055013085207421174 0.018757145284519966 0 0.048943760403413826 0.023407348605342319 0 0.049648256886346921 0.024062356170507091 0 0.050366093715318798 0.023768679165477393 0 0.050366093715318798 0.023768679165477393 0 0.050097603068819281 0.022740056466788113 0 0.049073302940813933 0.023223010150581133 0 0.050366093715318798 0.023768679165477393 0 0.050097603068819281 0.022740056466788113 0 0.052187284307583806 0.024432478940563059 0 0.050097603068819281 0.022740056466788113 0 0.052187284307583806 0.024432478940563059 0 0.053177130595827793 0.024758222855004487 0 0.052006415143527253 0.024303472825079019 0 0.052962856083895206 0.024618930135888496 0 0.054187040191487429 0.025623966371628015 0 0.053177130595827793 0.024758222855004487 0 0.053803057718502863 0.025665830425996065 0 0.053177130595827793 0.024758222855004487 0 0.053803057718502863 0.025665830425996065 0 0.053733864249531811 0.02553467526630325 0 0.053803057718502863 0.025665830425996065 0 0.054050173120706944 0.026134956706904494 0 0.053947037615655502 0.025980263843679019 0 0.053803057718502863 0.025665830425996065 0 0.053947037615655502 0.025980263843679019 0 0.053733864249531811 0.02553467526630325 0 0.054187040191487429 0.025623966371628015 0 0.053803057718502863 0.025665830425996065 0 0.054050173120706944 0.026134956706904494 0 0.054187040191487429 0.025623966371628015 0 0.05426781003730214 0.026085418331967748 0 0.054050173120706944 0.026134956706904494 0 0.054187040191487429 0.025623966371628015 0 0.05426781003730214 0.026085418331967748 0 0.054416473172493318 0.02594132496689169 0 0.05426781003730214 0.026085418331967748 0 0.054399028547031769 0.026123015612146083 0 0.054332841998495113 0.026266750868888456 0 0.05426781003730214 0.026085418331967748 0 0.054416473172493318 0.02594132496689169 0 0.054399028547031769 0.026123015612146083 0 0.050097603068819281 0.022740056466788113 0 0.049073302940813933 0.023223010150581133 0 0.048454435865284681 0.023138228620758421 0 0.052006415143527253 0.024303472825079019 0 0.051862052153679443 0.02440543171603787 0 0.04838578312922942 0.022891039529262792 0 0.049073302940813933 0.023223010150581133 0 0.048454435865284681 0.023138228620758421 0 0.04880526175298637 0.023255701147054952 0 0.04838578312922942 0.022891039529262792 0 0.048454435865284681 0.023138228620758421 0 0.054718094915742893 0.025962534792377357 0 0.054399028547031769 0.026123015612146083 0 0.054503285342863125 0.026351630432207122 0 0.054718094915742893 0.025962534792377357 0 0.054416473172493318 0.02594132496689169 0 0.054399028547031769 0.026123015612146083 0 0.054399028547031769 0.026123015612146083 0 0.054503285342863125 0.026351630432207122 0 0.054332841998495113 0.026266750868888456 0 0.046658299871903217 0.032950231258093203 0 0.047288323277208506 0.030959294083057518 0 0.045714928904491837 0.032768661610050612 0 0.046658299871903217 0.032950231258093203 0 0.045714928904491837 0.032768661610050612 0 0.045858681992975506 0.032906042344280774 0 0.046993866252171418 0.034407842249660023 0 0.046658299871903217 0.032950231258093203 0 0.045858681992975506 0.032906042344280774 0 0.05426781003730214 0.026085418331967748 0 0.054135760965097632 0.026564257979212406 0 0.054050173120706944 0.026134956706904494 0 0.054503285342863125 0.026351630432207122 0 0.054135760965097632 0.026564257979212406 0 0.053909536153055521 0.027185304440196442 0 0.054503285342863125 0.026351630432207122 0 0.054332841998495113 0.026266750868888456 0 0.054135760965097632 0.026564257979212406 0 0.045714928904491837 0.032768661610050612 0 0.045858681992975506 0.032906042344280774 0 0.046451826302257956 0.032872584821708607 0 0.050417363585529479 0.029469494273045703 0 0.049470391745139605 0.03015685026262371 0 0.05426781003730214 0.026085418331967748 0 0.054332841998495113 0.026266750868888456 0 0.054135760965097632 0.026564257979212406 0 0.045858681992975506 0.032906042344280774 0 0.046451826302257956 0.032872584821708607 0 0.046699865163446798 0.033411856877942153 0 0.054135760965097632 0.026564257979212406 0 0.053909536153055521 0.027185304440196442 0 0.054032786926795411 0.026654669125283862 0 0.047742001019883774 0.033466835338094074 0 0.045858681992975506 0.032906042344280774 0 0.046699865163446798 0.033411856877942153 0 0.046935189591347029 0.035521415488432163 0 0.045975210477503838 0.033255658776314326 0 0.045995743902103585 0.037415817627633463 0 0.046993866252171418 0.034407842249660023 0 0.045858681992975506 0.032906042344280774 0 0.047742001019883774 0.033466835338094074 0 0.046699865163446798 0.033411856877942153 0 0.047365583508426665 0.035102657580967631 0 0.046451826302257956 0.032872584821708607 0 0.046699865163446798 0.033411856877942153 0 0.046141816987344979 0.034171736651393711 0 0.046699865163446798 0.033411856877942153 0 0.046141816987344979 0.034171736651393711 0 0.047365583508426665 0.035102657580967631 0 0.046141816987344979 0.034171736651393711 0 0.047365583508426665 0.035102657580967631 0 0.045205717664928112 0.037056761017582845 0 0.056308091742121723 0.028868618181533707 0 0.055134755998624531 0.028881570810590555 0 0.055055020597444257 0.031604310873971177 0 0.052957880411884935 0.030929300360765771 0 0.056189677935066497 0.030928751743171331 0 0.056084273237945077 0.031012991223192735 0 0.055055020597444257 0.031604310873971177 0 0.056064251992875791 0.03233364968725428 0 0.056084273237945077 0.031012991223192735 0 0.056064251992875791 0.03233364968725428 0 0.057135719802766397 0.03283932005299442 0 0.046141816987344979 0.034171736651393711 0 0.045020198461801483 0.033921580813419609 0 0.045205717664928112 0.037056761017582845 0 0.052957880411884935 0.030929300360765771 0 0.050844269751952623 0.035214615927785402 0 0.046451826302257956 0.032872584821708607 0 0.046141816987344979 0.034171736651393711 0 0.045020198461801483 0.033921580813419609 0 0.049470391745139605 0.03015685026262371 0 0.052957880411884935 0.030929300360765771 0 0.053909536153055521 0.027185304440196442 0 0.053886574854830616 0.02758029077620312 0 0.054110283454324011 0.026880464542461371 0 0.053886574854830616 0.02758029077620312 0 0.054316624878954105 0.026938469011900442 0 0.054110283454324011 0.026880464542461371 0 0.054545845265441942 0.027030539200157078 0 0.053886574854830616 0.02758029077620312 0 0.054816141978214467 0.027174876296452048 0 0.054545845265441942 0.027030539200157078 0 0.053886574854830616 0.02758029077620312 0 0.054316624878954105 0.026938469011900442 0 0.052957880411884935 0.030929300360765771 0 0.054030147279706141 0.028033532998843685 0 0.055134755998624531 0.028881570810590555 0 0.054573833321150393 0.026813192115942668 0 0.054655530588634635 0.029076191637993978 0 0.056308091742121723 0.028868618181533707 0 0.055134755998624531 0.028881570810590555 0 0.054816141978214467 0.027174876296452048 0 0.055134755998624531 0.028881570810590555 0 0.054816141978214467 0.027174876296452048 0 0.054573833321150393 0.026813192115942668 0 0.054545845265441942 0.027030539200157078 0 0.054573833321150393 0.026813192115942668 0 0.054393914784092494 0.026644114261105491 0 0.054545845265441942 0.027030539200157078 0 0.054816141978214467 0.027174876296452048 0 0.054573833321150393 0.026813192115942668 0 0.054573833321150393 0.026813192115942668 0 0.054447929894072052 0.026304629963381662 0 0.054393914784092494 0.026644114261105491 0 0.054447929894072052 0.026304629963381662 0 0.054393914784092494 0.026644114261105491 0 0.054288132648005069 0.026331964260047344 0 0.054545845265441942 0.027030539200157078 0 0.054393914784092494 0.026644114261105491 0 0.054316624878954105 0.026938469011900442 0 0.054316624878954105 0.026938469011900442 0 0.054212897001866191 0.026555017715753696 0 0.054110283454324011 0.026880464542461371 0 0.054393914784092494 0.026644114261105491 0 0.054316624878954105 0.026938469011900442 0 0.054212897001866191 0.026555017715753696 0 0.054212897001866191 0.026555017715753696 0 0.054128628591532064 0.026192287452573675 0 0.054064196284849451 0.026401392413901326 0 0.054212897001866191 0.026555017715753696 0 0.054110283454324011 0.026880464542461371 0 0.054064196284849451 0.026401392413901326 0 0.054288132648005069 0.026331964260047344 0 0.054128628591532064 0.026192287452573675 0 0.054341553685939938 0.025915882377847699 0 0.054212897001866191 0.026555017715753696 0 0.054288132648005069 0.026331964260047344 0 0.054128628591532064 0.026192287452573675 0 0.054393914784092494 0.026644114261105491 0 0.054212897001866191 0.026555017715753696 0 0.054288132648005069 0.026331964260047344 0 0.053909536153055521 0.027185304440196442 0 0.054110283454324011 0.026880464542461371 0 0.054032786926795411 0.026654669125283862 0 0.054110283454324011 0.026880464542461371 0 0.054032786926795411 0.026654669125283862 0 0.054064196284849451 0.026401392413901326 0 0.054135760965097632 0.026564257979212406 0 0.054032786926795411 0.026654669125283862 0 0.054050173120706944 0.026134956706904494 0 0.054032786926795411 0.026654669125283862 0 0.054050173120706944 0.026134956706904494 0 0.054064196284849451 0.026401392413901326 0 0.054073990801367891 0.02593760958361643 0 0.054128628591532064 0.026192287452573675 0 0.054341553685939938 0.025915882377847699 0 0.054073990801367891 0.02593760958361643 0 0.054128628591532064 0.026192287452573675 0 0.053947037615655502 0.025980263843679019 0 0.054128628591532064 0.026192287452573675 0 0.054064196284849451 0.026401392413901326 0 0.053947037615655502 0.025980263843679019 0 0.054050173120706944 0.026134956706904494 0 0.054064196284849451 0.026401392413901326 0 0.053947037615655502 0.025980263843679019 0 0.054073990801367891 0.02593760958361643 0 0.053947037615655502 0.025980263843679019 0 0.053733864249531811 0.02553467526630325 0 0.054090961647325783 0.0257218704623438 0 0.054349973664308375 0.025580439832038917 0 0.053733864249531811 0.02553467526630325 0 0.054073990801367891 0.02593760958361643 0 0.054090961647325783 0.0257218704623438 0 0.053733864249531811 0.02553467526630325 0 0.054349973664308375 0.025580439832038917 0 0.055024880629060795 0.025415178071966343 0 0.054341553685939938 0.025915882377847699 0 0.054090961647325783 0.0257218704623438 0 0.054349973664308375 0.025580439832038917 0 0.054341553685939938 0.025915882377847699 0 0.054073990801367891 0.02593760958361643 0 0.054090961647325783 0.0257218704623438 0 0.054341553685939938 0.025915882377847699 0 0.054349973664308375 0.025580439832038917 0 0.055024880629060795 0.025415178071966343 0 0.055427919792744418 0.024654299326918053 0 0.054349973664308375 0.025580439832038917 0 0.055081643493345885 0.025608842397215722 0 0.055427919792744418 0.024654299326918053 0 0.055024880629060795 0.025415178071966343 0 0.055803973031753121 0.024841658362432378 0 0.055427919792744418 0.024654299326918053 0 0.054447929894072052 0.026304629963381662 0 0.054288132648005069 0.026331964260047344 0 0.054341553685939938 0.025915882377847699 0 0.055024880629060795 0.025415178071966343 0 0.054341553685939938 0.025915882377847699 0 0.054728376392490188 0.025970561351563427 0 0.054447929894072052 0.026304629963381662 0 0.054341553685939938 0.025915882377847699 0 0.054728376392490188 0.025970561351563427 0 0.054573833321150393 0.026813192115942668 0 0.054447929894072052 0.026304629963381662 0 0.054728376392490188 0.025970561351563427 0 0.055024880629060795 0.025415178071966343 0 0.054728376392490188 0.025970561351563427 0 0.055453432945748435 0.025258249301965328 0 0.054573833321150393 0.026813192115942668 0 0.054655530588634635 0.029076191637993978 0 0.054145915551915946 0.029959357577461512 0 0.05481029465099034 0.02685663018907497 0 0.054905235790158484 0.027560294321901751 0 0.054573833321150393 0.026813192115942668 0 0.054728376392490188 0.025970561351563427 0 0.055453432945748435 0.025258249301965328 0 0.055024880629060795 0.025415178071966343 0 0.055453432945748435 0.025258249301965328 0 0.055803973031753121 0.024841658362432378 0 0.054145915551915946 0.029959357577461512 0 0.055055020597444257 0.031604310873971177 0 0.054687553877745348 0.031455903040480022 0 0.054145915551915946 0.029959357577461512 0 0.054594964472183517 0.030625128969036422 0 0.054687553877745348 0.031455903040480022 0 0.054905235790158484 0.027560294321901751 0 0.055180496852400757 0.02834960318289937 0 0.054655530588634635 0.029076191637993978 0 0.054145915551915946 0.029959357577461512 0 0.055055020597444257 0.031604310873971177 0 0.055134755998624531 0.028881570810590555 0 0.054655530588634635 0.029076191637993978 0 0.055055020597444257 0.031604310873971177 0 0.056149993128914083 0.026111034086656101 0 0.05499967169237361 0.025522296391934107 0 0.054999566868596035 0.028349833678323347 0 0.055453432945748435 0.025258249301965328 0 0.056149993128914083 0.026111034086656101 0 0.055803973031753121 0.024841658362432378 0 0.056149993128914083 0.026111034086656101 0 0.055803973031753121 0.024841658362432378 0 0.055685488223275459 0.024539649879815481 0 0.055685488223275459 0.024539649879815481 0 0.05499967169237361 0.025522296391934107 0 0.054999376324351618 0.022695954587284659 0 0.056149993128914083 0.026111034086656101 0 0.055685488223275459 0.024539649879815481 0 0.05499967169237361 0.025522296391934107 0 0.055685488223275459 0.024539649879815481 0 0.05608053770613676 0.023321348267009087 0 0.054999376324351618 0.022695954587284659 0 0.055803973031753121 0.024841658362432378 0 0.05608053770613676 0.023321348267009087 0 0.055427919792744418 0.024654299326918053 0 0.055803973031753121 0.024841658362432378 0 0.055685488223275459 0.024539649879815481 0 0.05608053770613676 0.023321348267009087 0 0.056598169618825071 0.023058735464333551 0 0.056075995120797154 0.023415691925200214 0 0.058367845010407392 0.020597287106784521 0 0.05608053770613676 0.023321348267009087 0 0.056191362406504734 0.020950271576707487 0 0.055081643493345885 0.025608842397215722 0 0.05608053770613676 0.023321348267009087 0 0.055427919792744418 0.024654299326918053 0 0.054999376324351618 0.022695954587284659 0 0.056191362406504734 0.020950271576707487 0 0.054999724487136213 0.019864645803574044 0 0.05608053770613676 0.023321348267009087 0 0.054999376324351618 0.022695954587284659 0 0.056191362406504734 0.020950271576707487 0 0.056191362406504734 0.020950271576707487 0 0.054999724487136213 0.019864645803574044 0 0.056742704851794529 0.018493952320056305 0 0.054999724487136213 0.019864645803574044 0 0.056742704851794529 0.018493952320056305 0 0.054999823229392203 0.01703590473671281 0 0.056742704851794529 0.018493952320056305 0 0.056416583077995547 0.015945489913176694 0 0.054999823229392203 0.01703590473671281 0 0.056742704851794529 0.018493952320056305 0 0.058435446045497628 0.018581124240659132 0 0.057898790511924418 0.017018724087063505 0 0.056742704851794529 0.018493952320056305 0 0.056416583077995547 0.015945489913176694 0 0.057898790511924418 0.017018724087063505 0 0.058367845010407392 0.020597287106784521 0 0.056191362406504734 0.020950271576707487 0 0.056742704851794529 0.018493952320056305 0 0.058367845010407392 0.020597287106784521 0 0.056742704851794529 0.018493952320056305 0 0.058435446045497628 0.018581124240659132 0 0.058367845010407392 0.020597287106784521 0 0.059571684623915939 0.018570789820461963 0 0.058435446045497628 0.018581124240659132 0 0.056598169618825071 0.023058735464333551 0 0.05678558225545937 0.021854524540780632 0 0.054349973664308375 0.025580439832038917 0 0.055081643493345885 0.025608842397215722 0 0.053846547861390842 0.025358347577134354 0 0.054349973664308375 0.025580439832038917 0 0.053733864249531811 0.02553467526630325 0 0.053846547861390842 0.025358347577134354 0 0.053177130595827793 0.024758222855004487 0 0.053733864249531811 0.02553467526630325 0 0.053846547861390842 0.025358347577134354 0 0.05553382961044389 0.02153656981099742 0 0.05678558225545937 0.021854524540780632 0 0.052187284307583806 0.024432478940563059 0 0.053177130595827793 0.024758222855004487 0 0.053846547861390842 0.025358347577134354 0 0.059402384292892213 0.017819421788185012 0 0.059571684623915939 0.018570789820461963 0 0.059469424855723929 0.017902689219665913 0 0.059469424855723929 0.017902689219665913 0 0.059126103657831011 0.01798444193202756 0 0.059363666196817773 0.017613779137755154 0 0.059571684623915939 0.018570789820461963 0 0.059469424855723929 0.017902689219665913 0 0.059126103657831011 0.01798444193202756 0 0.059571684623915939 0.018570789820461963 0 0.058435446045497628 0.018581124240659132 0 0.059126103657831011 0.01798444193202756 0 0.058435446045497628 0.018581124240659132 0 0.059126103657831011 0.01798444193202756 0 0.057898790511924418 0.017018724087063505 0 0.059126103657831011 0.01798444193202756 0 0.059363666196817773 0.017613779137755154 0 0.057898790511924418 0.017018724087063505 0 0.058999513608217001 0.016698888541994084 0 0.05797088080147253 0.016982038714024063 0 0.058499718408655026 0.015601577161446735 0 0.05926803897635427 0.015609288215527831 0 0.057898790511924418 0.017018724087063505 0 0.058499718408655026 0.015601577161446735 0 0.059014777900528753 0.015152005906181322 0 0.058653112991664459 0.014796659562051558 0 0.058499718408655026 0.015601577161446735 0 0.05926803897635427 0.015609288215527831 0 0.059014777900528753 0.015152005906181322 0 0.058499718408655026 0.015601577161446735 0 0.057898790511924418 0.017018724087063505 0 0.057801158812363515 0.015407809525687568 0 0.058499718408655026 0.015601577161446735 0 0.058653112991664459 0.014796659562051558 0 0.057801158812363515 0.015407809525687568 0 0.059967004513529001 0.016368457923509976 0 0.058999513608217001 0.016698888541994084 0 0.059409156378547733 0.018147274164387071 0 0.059469424855723929 0.017902689219665913 0 0.059363666196817773 0.017613779137755154 0 0.059250046646820861 0.015036892353479785 0 0.059302520186131934 0.01513244665492376 0 0.05926803897635427 0.015609288215527831 0 0.05926803897635427 0.015609288215527831 0 0.059014777900528753 0.015152005906181322 0 0.059347484572327969 0.01510439621533261 0 0.059302520186131934 0.01513244665492376 0 0.05926803897635427 0.015609288215527831 0 0.059347484572327969 0.01510439621533261 0 0.058963356991963568 0.013431319161541024 0 0.059853887224108157 0.01382516356179366 0 0.059228000859516676 0.014022888722764401 0 0.059853887224108157 0.01382516356179366 0 0.059347484572327969 0.01510439621533261 0 0.05935004199241984 0.014432926628742699 0 0.059014777900528753 0.015152005906181322 0 0.059347484572327969 0.01510439621533261 0 0.059077282834181885 0.014595884565759085 0 0.05935004199241984 0.014432926628742699 0 0.059077282834181885 0.014595884565759085 0 0.059228000859516676 0.014022888722764401 0 0.059347484572327969 0.01510439621533261 0 0.05935004199241984 0.014432926628742699 0 0.059077282834181885 0.014595884565759085 0 0.059077282834181885 0.014595884565759085 0 0.059228000859516676 0.014022888722764401 0 0.058822984509439506 0.014061559023454536 0 0.059853887224108157 0.01382516356179366 0 0.05935004199241984 0.014432926628742699 0 0.059228000859516676 0.014022888722764401 0 0.058653112991664459 0.014796659562051558 0 0.058141507951014373 0.014306954672458967 0 0.057801158812363515 0.015407809525687568 0 0.059014777900528753 0.015152005906181322 0 0.059077282834181885 0.014595884565759085 0 0.058653112991664459 0.014796659562051558 0 0.059077282834181885 0.014595884565759085 0 0.058653112991664459 0.014796659562051558 0 0.058822984509439506 0.014061559023454536 0 0.058506969400927131 0.013556052492372024 0 0.058822984509439506 0.014061559023454536 0 0.058141507951014373 0.014306954672458967 0 0.058653112991664459 0.014796659562051558 0 0.058822984509439506 0.014061559023454536 0 0.058141507951014373 0.014306954672458967 0 0.057539970263516337 0.013667954555776227 0 0.058141507951014373 0.014306954672458967 0 0.057081482718621929 0.014450445367887215 0 0.058141507951014373 0.014306954672458967 0 0.057081482718621929 0.014450445367887215 0 0.057801158812363515 0.015407809525687568 0 0.057081482718621929 0.014450445367887215 0 0.056416583077995547 0.015945489913176694 0 0.057801158812363515 0.015407809525687568 0 0.056659348066617855 0.013706826511781097 0 0.057539970263516337 0.013667954555776227 0 0.057081482718621929 0.014450445367887215 0 0.056659348066617855 0.013706826511781097 0 0.057081482718621929 0.014450445367887215 0 0.054999916359668971 0.01420709661425407 0 0.057081482718621929 0.014450445367887215 0 0.054999916359668971 0.01420709661425407 0 0.056416583077995547 0.015945489913176694 0 0.054999916359668971 0.01420709661425407 0 0.056416583077995547 0.015945489913176694 0 0.054999823229392203 0.01703590473671281 0 0.056416583077995547 0.015945489913176694 0 0.057898790511924418 0.017018724087063505 0 0.057801158812363515 0.015407809525687568 0 0.055109930047475872 0.04167601614510303 0 0.054997887942412282 0.037421221112045128 0 0.054993531402831808 0.044772173148412191 0 0.055109930047475872 0.04167601614510303 0 0.055627167550442086 0.039108053399677802 0 0.054997887942412282 0.037421221112045128 0 0.055109930047475872 0.04167601614510303 0 0.055447110764053113 0.041284525649964529 0 0.055627167550442086 0.039108053399677802 0 0.055109930047475872 0.04167601614510303 0 0.055447110764053113 0.041284525649964529 0 0.05519346824383943 0.042914052393027965 0 0.055447110764053113 0.041284525649964529 0 0.055627167550442086 0.039108053399677802 0 0.05596989644789644 0.041355938957275962 0 0.055627167550442086 0.039108053399677802 0 0.055326450953775898 0.035541689260225141 0 0.055616483736920838 0.036040224436423733 0 0.054997887942412282 0.037421221112045128 0 0.055326450953775898 0.035541689260225141 0 0.054997922528565217 0.032142765512750124 0 0.055627167550442086 0.039108053399677802 0 0.054997887942412282 0.037421221112045128 0 0.055326450953775898 0.035541689260225141 0 0.055326450953775898 0.035541689260225141 0 0.054997922528565217 0.032142765512750124 0 0.055166716894165066 0.033040180785876359 0 0.054997922528565217 0.032142765512750124 0 0.055018601944663383 0.030772586626454972 0 0.055166716894165066 0.033040180785876359 0 0.054997922528565217 0.032142765512750124 0 0.055018601944663383 0.030772586626454972 0 0.054998572973659177 0.028359127900948484 0 0.055018601944663383 0.030772586626454972 0 0.054687553877745348 0.031455903040480022 0 0.055166716894165066 0.033040180785876359 0 0.054594964472183517 0.030625128969036422 0 0.055018601944663383 0.030772586626454972 0 0.054687553877745348 0.031455903040480022 0 0.055180496852400757 0.02834960318289937 0 0.054999614172008722 0.028351827469543404 0 0.054594964472183517 0.030625128969036422 0 0.055018601944663383 0.030772586626454972 0 0.054998572973659177 0.028359127900948484 0 0.055055020597444257 0.031604310873971177 0 0.054687553877745348 0.031455903040480022 0 0.055235678598905449 0.03321062322056316 0 0.054687553877745348 0.031455903040480022 0 0.055235678598905449 0.03321062322056316 0 0.055166716894165066 0.033040180785876359 0 0.055055020597444257 0.031604310873971177 0 0.055235678598905449 0.03321062322056316 0 0.055945708885134234 0.034282322304961046 0 0.055326450953775898 0.035541689260225141 0 0.055166716894165066 0.033040180785876359 0 0.055616483736920838 0.036040224436423733 0 0.055235678598905449 0.03321062322056316 0 0.055166716894165066 0.033040180785876359 0 0.055616483736920838 0.036040224436423733 0 0.055235678598905449 0.03321062322056316 0 0.055616483736920838 0.036040224436423733 0 0.055945708885134234 0.034282322304961046 0 0.055616483736920838 0.036040224436423733 0 0.056297790768186279 0.037652440320555827 0 0.055974768459608443 0.039741462194137177 0 0.056297790768186279 0.037652440320555827 0 0.055945708885134234 0.034282322304961046 0 0.05681188065217363 0.035273616055709944 0 0.055616483736920838 0.036040224436423733 0 0.056297790768186279 0.037652440320555827 0 0.055945708885134234 0.034282322304961046 0 0.055945708885134234 0.034282322304961046 0 0.05681188065217363 0.035273616055709944 0 0.057135719802766397 0.03283932005299442 0 0.055945708885134234 0.034282322304961046 0 0.056064251992875791 0.03233364968725428 0 0.057135719802766397 0.03283932005299442 0 0.055055020597444257 0.031604310873971177 0 0.055945708885134234 0.034282322304961046 0 0.056064251992875791 0.03233364968725428 0 0.047365583508426665 0.035102657580967631 0 0.047935096024013711 0.038146990504131569 0 0.045205717664928112 0.037056761017582845 0 0.047935096024013711 0.038146990504131569 0 0.045205717664928112 0.037056761017582845 0 0.046527669984694882 0.04083200187461683 0 0.05681188065217363 0.035273616055709944 0 0.057135719802766397 0.03283932005299442 0 0.057975352229820469 0.035600584419773915 0 0.050844269751952623 0.035214615927785402 0 0.052327386915789538 0.038181131401079677 0 0.047935096024013711 0.038146990504131569 0 0.046527669984694882 0.04083200187461683 0 0.049188578323707134 0.041611246205333463 0 0.057975352229820469 0.035600584419773915 0 0.057261710470249548 0.037732921912298746 0 0.058781861020794406 0.038818521385696116 0 0.052327386915789538 0.038181131401079677 0 0.053566982847303449 0.041393203581066393 0 0.05681188065217363 0.035273616055709944 0 0.057975352229820469 0.035600584419773915 0 0.057261710470249548 0.037732921912298746 0 0.056297790768186279 0.037652440320555827 0 0.05681188065217363 0.035273616055709944 0 0.057261710470249548 0.037732921912298746 0 0.056297790768186279 0.037652440320555827 0 0.057261710470249548 0.037732921912298746 0 0.056735199536292254 0.040337772338267214 0 0.057261710470249548 0.037732921912298746 0 0.056735199536292254 0.040337772338267214 0 0.058781861020794406 0.038818521385696116 0 0.056735199536292254 0.040337772338267214 0 0.054928318116103755 0.042487130583982971 0 0.056024429510947452 0.040675145277681908 0 0.056735199536292254 0.040337772338267214 0 0.054928318116103755 0.042487130583982971 0 0.052161125188776157 0.044853378926704386 0 0.054928318116103755 0.042487130583982971 0 0.056024429510947452 0.040675145277681908 0 0.055681016396427009 0.041702796161865556 0 0.056297790768186279 0.037652440320555827 0 0.056735199536292254 0.040337772338267214 0 0.056024429510947452 0.040675145277681908 0 0.055627167550442086 0.039108053399677802 0 0.055616483736920838 0.036040224436423733 0 0.055974768459608443 0.039741462194137177 0 0.056297790768186279 0.037652440320555827 0 0.056024429510947452 0.040675145277681908 0 0.055974768459608443 0.039741462194137177 0 0.055627167550442086 0.039108053399677802 0 0.055974768459608443 0.039741462194137177 0 0.05596989644789644 0.041355938957275962 0 0.056024429510947452 0.040675145277681908 0 0.055974768459608443 0.039741462194137177 0 0.055681016396427009 0.041702796161865556 0 0.055974768459608443 0.039741462194137177 0 0.05596989644789644 0.041355938957275962 0 0.055681016396427009 0.041702796161865556 0 0.055447110764053113 0.041284525649964529 0 0.05596989644789644 0.041355938957275962 0 0.05519346824383943 0.042914052393027965 0 0.05596989644789644 0.041355938957275962 0 0.055559474847063126 0.041898183425081476 0 0.056000752405126399 0.042949107726034864 0 0.05596989644789644 0.041355938957275962 0 0.055559474847063126 0.041898183425081476 0 0.055681016396427009 0.041702796161865556 0 0.055559474847063126 0.041898183425081476 0 0.05398978218248654 0.042283050888861182 0 0.055681016396427009 0.041702796161865556 0 0.05398978218248654 0.042283050888861182 0 0.051013916584761093 0.041196374655144877 0 0.053959118003159959 0.041291922499640664 0 0.055559474847063126 0.041898183425081476 0 0.05398978218248654 0.042283050888861182 0 0.053959118003159959 0.041291922499640664 0 0.054928318116103755 0.042487130583982971 0 0.05398978218248654 0.042283050888861182 0 0.052777330082148972 0.043439848904305384 0 0.054928318116103755 0.042487130583982971 0 0.05398978218248654 0.042283050888861182 0 0.055681016396427009 0.041702796161865556 0 0.049210155479164797 0.044074330558558507 0 0.0498284159053363 0.044466278113774224 0 0.044510421840129079 0.045645321949393525 0 0.046248708422281064 0.043947229208977527 0 0.049210155479164797 0.044074330558558507 0 0.044510421840129079 0.045645321949393525 0 0.046248708422281064 0.043947229208977527 0 0.049210155479164797 0.044074330558558507 0 0.050167432873459067 0.042810320259305416 0 0.049210155479164797 0.044074330558558507 0 0.0498284159053363 0.044466278113774224 0 0.052777330082148972 0.043439848904305384 0 0.049210155479164797 0.044074330558558507 0 0.052777330082148972 0.043439848904305384 0 0.050167432873459067 0.042810320259305416 0 0.05398978218248654 0.042283050888861182 0 0.052777330082148972 0.043439848904305384 0 0.050167432873459067 0.042810320259305416 0 0.05398978218248654 0.042283050888861182 0 0.050167432873459067 0.042810320259305416 0 0.051013916584761093 0.041196374655144877 0 0.050167432873459067 0.042810320259305416 0 0.048616950122000936 0.041152843816276402 0 0.051013916584761093 0.041196374655144877 0 0.050167432873459067 0.042810320259305416 0 0.048616950122000936 0.041152843816276402 0 0.045929672134532085 0.042726626788801 0 0.046248708422281064 0.043947229208977527 0 0.050167432873459067 0.042810320259305416 0 0.045929672134532085 0.042726626788801 0 0.046248708422281064 0.043947229208977527 0 0.045929672134532085 0.042726626788801 0 0.043681455184072876 0.043347777420684526 0 0.045929672134532085 0.042726626788801 0 0.043681455184072876 0.043347777420684526 0 0.042509609725408931 0.043436274680243664 0 0.043681455184072876 0.043347777420684526 0 0.042406216238604799 0.043516059277683948 0 0.042509609725408931 0.043436274680243664 0 0.042406216238604799 0.043516059277683948 0 0.042052629776155682 0.043815878148046633 0 0.041287332780375587 0.043772893956866732 0 0.043681455184072876 0.043347777420684526 0 0.042406216238604799 0.043516059277683948 0 0.042052629776155682 0.043815878148046633 0 0.043681455184072876 0.043347777420684526 0 0.0440501316351549 0.044126425868434252 0 0.042052629776155682 0.043815878148046633 0 0.046248708422281064 0.043947229208977527 0 0.043681455184072876 0.043347777420684526 0 0.0440501316351549 0.044126425868434252 0 0.042052629776155682 0.043815878148046633 0 0.043763174186489402 0.045514043565607544 0 0.039785985261760255 0.044024819420237712 0 0.041018013827392105 0.043936284994735404 0 0.042052629776155682 0.043815878148046633 0 0.040629572683707732 0.044402776320602286 0 0.041018013827392105 0.043936284994735404 0 0.040629572683707732 0.044402776320602286 0 0.040551016344331135 0.044088185872046506 0 0.041018013827392105 0.043936284994735404 0 0.042052629776155682 0.043815878148046633 0 0.041287332780375587 0.043772893956866732 0 0.041107976721163744 0.043965082497978369 0 0.042397329616493652 0.043874466436634646 0 0.048954392110338023 0.043638336947717939 0 0.049919039164367157 0.043761962006603802 0 0.048611410068019695 0.042838483159958231 0 0.048954392110338023 0.043638336947717939 0 0.04926738834912666 0.044242895530404905 0 0.048300635296009781 0.044149721848217985 0 0.048954392110338023 0.043638336947717939 0 0.049448312444474306 0.043992776406192903 0 0.049919039164367157 0.043761962006603802 0 0.050948761768304283 0.043133488571237805 0 0.042397329616493652 0.043874466436634646 0 0.048954392110338023 0.043638336947717939 0 0.049448312444474306 0.043992776406192903 0 0.04926738834912666 0.044242895530404905 0 0.042052629776155682 0.043815878148046633 0 0.043763174186489402 0.045514043565607544 0 0.044510421840129079 0.045645321949393525 0 0.0440501316351549 0.044126425868434252 0 0.042052629776155682 0.043815878148046633 0 0.044510421840129079 0.045645321949393525 0 0.046248708422281064 0.043947229208977527 0 0.0440501316351549 0.044126425868434252 0 0.044510421840129079 0.045645321949393525 0 0.050948761768304283 0.043133488571237805 0 0.051627325020651642 0.043256983388566157 0 0.049448312444474306 0.043992776406192903 0 0.049919039164367157 0.043761962006603802 0 0.049665098398076118 0.044292158792919763 0 0.049919039164367157 0.043761962006603802 0 0.049949003652272193 0.044591702127410621 0 0.050194766281265568 0.045205367395598495 0 0.059020242429427432 0.041118049803409558 0 0.059069321493188984 0.041101326514941028 0 0.059341322400489123 0.040989960064550475 0 0.050948761768304283 0.043133488571237805 0 0.055290392072614672 0.043018355759436896 0 0.049919039164367157 0.043761962006603802 0 0.049949003652272193 0.044591702127410621 0 0.049665098398076118 0.044292158792919763 0 0.049949003652272193 0.044591702127410621 0 0.049730902280577242 0.044797740612996073 0 0.050056314572650397 0.044927467615865885 0 0.049949003652272193 0.044591702127410621 0 0.049665098398076118 0.044292158792919763 0 0.049730902280577242 0.044797740612996073 0 0.049949003652272193 0.044591702127410621 0 0.050056314572650397 0.044927467615865885 0 0.050194766281265568 0.045205367395598495 0 0.04926738834912666 0.044242895530404905 0 0.048936979689750644 0.044639951679759995 0 0.048300635296009781 0.044149721848217985 0 0.049665098398076118 0.044292158792919763 0 0.049730902280577242 0.044797740612996073 0 0.04926738834912666 0.044242895530404905 0 0.049448312444474306 0.043992776406192903 0 0.049665098398076118 0.044292158792919763 0 0.04926738834912666 0.044242895530404905 0 0.049730902280577242 0.044797740612996073 0 0.04926738834912666 0.044242895530404905 0 0.048936979689750644 0.044639951679759995 0 0.049730902280577242 0.044797740612996073 0 0.050272413722006012 0.045563879365769076 0 0.04848532668579799 0.045295114755588201 0 0.049730902280577242 0.044797740612996073 0 0.048936979689750644 0.044639951679759995 0 0.04848532668579799 0.045295114755588201 0 0.049730902280577242 0.044797740612996073 0 0.050210532764716605 0.045093382907687392 0 0.050272413722006012 0.045563879365769076 0 0.049730902280577242 0.044797740612996073 0 0.050056314572650397 0.044927467615865885 0 0.050210532764716605 0.045093382907687392 0 0.050210532764716605 0.045093382907687392 0 0.050194766281265568 0.045205367395598495 0 0.05004452730995259 0.044530797425430146 0 0.050056314572650397 0.044927467615865885 0 0.050210532764716605 0.045093382907687392 0 0.050194766281265568 0.045205367395598495 0 0.051627325020651642 0.043256983388566157 0 0.055371683054231714 0.042787155392465061 0 0.0498284159053363 0.044466278113774224 0 0.044510421840129079 0.045645321949393525 0 0.052161125188776157 0.044853378926704386 0 0.059069321493188984 0.041101326514941028 0 0.059341322400489123 0.040989960064550475 0 0.059017962666447363 0.041247899688487091 0 0.054928318116103755 0.042487130583982971 0 0.052777330082148972 0.043439848904305384 0 0.052161125188776157 0.044853378926704386 0 0.0498284159053363 0.044466278113774224 0 0.052777330082148972 0.043439848904305384 0 0.052161125188776157 0.044853378926704386 0 0.056291165391499469 0.040574134607427974 0 0.055371683054231714 0.042787155392465061 0 0.055290392072614672 0.043018355759436896 0 0.053566982847303449 0.041393203581066393 0 0.059341322400489123 0.040989960064550475 0 0.059017962666447363 0.041247899688487091 0 0.058781861020794406 0.038818521385696116 0 0.056735199536292254 0.040337772338267214 0 0.059017962666447363 0.041247899688487091 0 0.058781861020794406 0.038818521385696116 0 0.048588215360932621 0.04420494764320694 0 0.05004452730995259 0.044530797425430146 0 0.049188578323707134 0.041611246205333463 0 0.050194766281265568 0.045205367395598495 0 0.048588215360932621 0.04420494764320694 0 0.05004452730995259 0.044530797425430146 0 0.05004452730995259 0.044530797425430146 0 0.049188578323707134 0.041611246205333463 0 0.051123942508494856 0.042298736410311746 0 0.046527669984694882 0.04083200187461683 0 0.048588215360932621 0.04420494764320694 0 0.049188578323707134 0.041611246205333463 0 0.047935096024013711 0.038146990504131569 0 0.049188578323707134 0.041611246205333463 0 0.050588891456163632 0.0388816862351321 0 0.048487744679963481 0.044268578654779088 0 0.049830839367305771 0.045036848789006489 0 0.049672740125727102 0.046108729622580898 0 0.049188578323707134 0.041611246205333463 0 0.050588891456163632 0.0388816862351321 0 0.051123942508494856 0.042298736410311746 0 0.049516825218525462 0.04154532802028605 0 0.050289656671235555 0.044090708336051963 0 0.049880811100950384 0.041192534396634242 0 0.048487744679963481 0.044268578654779088 0 0.050265952362800362 0.043217822269169114 0 0.048325512328939516 0.038570020855292618 0 0.049516825218525462 0.04154532802028605 0 0.049357025167892886 0.035745576450783252 0 0.047935096024013711 0.038146990504131569 0 0.050588891456163632 0.0388816862351321 0 0.052106845370982431 0.041518278127327946 0 0.050955273225190938 0.043745443533865599 0 0.052013154330685582 0.043387027050323122 0 0.050955273225190938 0.043745443533865599 0 0.050203271953093077 0.045537749285965302 0 0.051263289484079745 0.044670734446784911 0 0.050955273225190938 0.043745443533865599 0 0.052013154330685582 0.043387027050323122 0 0.051263289484079745 0.044670734446784911 0 0.048487744679963481 0.044268578654779088 0 0.050265952362800362 0.043217822269169114 0 0.049830839367305771 0.045036848789006489 0 0.051167070351364904 0.041366722257779404 0 0.050955273225190938 0.043745443533865599 0 0.050265952362800362 0.043217822269169114 0 0.050955273225190938 0.043745443533865599 0 0.050265952362800362 0.043217822269169114 0 0.049830839367305771 0.045036848789006489 0 0.049830839367305771 0.045036848789006489 0 0.050203271953093077 0.045537749285965302 0 0.049672740125727102 0.046108729622580898 0 0.050203271953093077 0.045537749285965302 0 0.049797458735156154 0.046631434091564526 0 0.049672740125727102 0.046108729622580898 0 0.050955273225190938 0.043745443533865599 0 0.049830839367305771 0.045036848789006489 0 0.050203271953093077 0.045537749285965302 0 0.050203271953093077 0.045537749285965302 0 0.05038651339101035 0.045994612710402678 0 0.051263289484079745 0.044670734446784911 0 0.050203271953093077 0.045537749285965302 0 0.049797458735156154 0.046631434091564526 0 0.05038651339101035 0.045994612710402678 0 0.049797458735156154 0.046631434091564526 0 0.049426728349843067 0.046475766820993407 0 0.04913109842770421 0.047112083340114616 0 0.049797458735156154 0.046631434091564526 0 0.049672740125727102 0.046108729622580898 0 0.050272413722006012 0.045563879365769076 0 0.050289656671235555 0.044090708336051963 0 0.050309805208076104 0.045290406313118717 0 0.050210532764716605 0.045093382907687392 0 0.05004452730995259 0.044530797425430146 0 0.050272413722006012 0.045563879365769076 0 0.05004452730995259 0.044530797425430146 0 0.051123942508494856 0.042298736410311746 0 0.050272413722006012 0.045563879365769076 0 0.049797458735156154 0.046631434091564526 0 0.050272413722006012 0.045563879365769076 0 0.049426728349843067 0.046475766820993407 0 0.050272413722006012 0.045563879365769076 0 0.049426728349843067 0.046475766820993407 0 0.04848532668579799 0.045295114755588201 0 0.048217882360450152 0.046500692062095138 0 0.045477085983140514 0.046593182461007986 0 0.048508834381738475 0.047818133869123682 0 0.049426728349843067 0.046475766820993407 0 0.048217882360450152 0.046500692062095138 0 0.04848532668579799 0.045295114755588201 0 0.048217882360450152 0.046500692062095138 0 0.045477085983140514 0.046593182461007986 0 0.04848532668579799 0.045295114755588201 0 0.048217882360450152 0.046500692062095138 0 0.04913109842770421 0.047112083340114616 0 0.048508834381738475 0.047818133869123682 0 0.049426728349843067 0.046475766820993407 0 0.048217882360450152 0.046500692062095138 0 0.04913109842770421 0.047112083340114616 0 0.045477085983140514 0.046593182461007986 0 0.04514193984798142 0.048308093860721282 0 0.041911647568519811 0.048250005159684313 0 0.045477085983140514 0.046593182461007986 0 0.041911647568519811 0.048250005159684313 0 0.04252282192535526 0.045878989697680388 0 0.045477085983140514 0.046593182461007986 0 0.04514193984798142 0.048308093860721282 0 0.048508834381738475 0.047818133869123682 0 0.04514193984798142 0.048308093860721282 0 0.044701511816962657 0.051143901915772311 0 0.041911647568519811 0.048250005159684313 0 0.04514193984798142 0.048308093860721282 0 0.044701511816962657 0.051143901915772311 0 0.048508834381738475 0.047818133869123682 0 0.036750401365520498 0.049365303458343397 0 0.050673963967769589 0.046634037997900633 0 0.048354178909039626 0.047686301436128439 0 0.048508834381738475 0.047818133869123682 0 0.04922035208838587 0.047452913440506214 0 0.049797458735156154 0.046631434091564526 0 0.04913109842770421 0.047112083340114616 0 0.04922035208838587 0.047452913440506214 0 0.04913109842770421 0.047112083340114616 0 0.048508834381738475 0.047818133869123682 0 0.04922035208838587 0.047452913440506214 0 0.049797458735156154 0.046631434091564526 0 0.04922035208838587 0.047452913440506214 0 0.05038651339101035 0.045994612710402678 0 0.050317775790724925 0.047571998092645437 0 0.045767043609018551 0.045152184236011514 0 0.04922035208838587 0.047452913440506214 0 0.05038651339101035 0.045994612710402678 0 0.052265575014960826 0.044930654671537874 0 0.05038651339101035 0.045994612710402678 0 0.052265575014960826 0.044930654671537874 0 0.051263289484079745 0.044670734446784911 0 0.048354178909039626 0.047686301436128439 0 0.04922035208838587 0.047452913440506214 0 0.048866147630345573 0.048430836530989417 0 0.027335375223821047 0.048631801523258848 0 0.02581130200216776 0.046375926466932005 0 0.028060813105504023 0.046078063290552702 0 0.036750401365520498 0.049365303458343397 0 0.045767043609018551 0.045152184236011514 0 0.026349438959891405 0.043774733665514924 0 0.02581130200216776 0.046375926466932005 0 0.027574261176132948 0.044592449423354288 0 0.039518013729664507 0.042764290947863264 0 0.045767043609018551 0.045152184236011514 0 0.02581130200216776 0.046375926466932005 0 0.027574261176132948 0.044592449423354288 0 0.028060813105504023 0.046078063290552702 0 0.053461384544424645 0.041671969635708669 0 0.053048198313163167 0.043082032130463653 0 0.052548680975616976 0.042217798739964812 0 0.052265575014960826 0.044930654671537874 0 0.052013154330685582 0.043387027050323122 0 0.051263289484079745 0.044670734446784911 0 0.045767043609018551 0.045152184236011514 0 0.052253626417272034 0.043231931157837751 0 0.03127805499540004 0.044055737570942541 0 0.030141309132185119 0.046740386146614868 0 0.03319610254809837 0.044428648275478155 0 0.030444387297293367 0.051757864294417422 0 0.029490174767053647 0.051296701213864648 0 0.02893399081870484 0.051162846775748651 0 0.029002435841891487 0.049562919035381035 0 0.031330355840553589 0.047644069330325355 0 0.029372969274101667 0.044154438564560999 0 0.03127805499540004 0.044055737570942541 0 0.030141309132185119 0.046740386146614868 0 0.029372969274101667 0.044154438564560999 0 0.028060813105504023 0.046078063290552702 0 0.030141309132185119 0.046740386146614868 0 0.029372969274101667 0.044154438564560999 0 0.027574261176132948 0.044592449423354288 0 0.028060813105504023 0.046078063290552702 0 0.027335375223821047 0.048631801523258848 0 0.028060813105504023 0.046078063290552702 0 0.030141309132185119 0.046740386146614868 0 0.036750401365520498 0.049365303458343397 0 0.029002435841891487 0.049562919035381035 0 0.032566699440956241 0.051017794868910706 0 0.030444387297293367 0.051757864294417422 0 0.03110416030722632 0.050815058679199707 0 0.030444387297293367 0.051757864294417422 0 0.029793598394191136 0.051315954285231488 0 0.03110416030722632 0.050815058679199707 0 0.030444387297293367 0.051757864294417422 0 0.029793598394191136 0.051315954285231488 0 0.029490174767053647 0.051296701213864648 0 0.029793598394191136 0.051315954285231488 0 0.03110416030722632 0.050815058679199707 0 0.030850248702633993 0.049926057593448758 0 0.029793598394191136 0.051315954285231488 0 0.030850248702633993 0.049926057593448758 0 0.02925655685031989 0.049745285704799462 0 0.036750401365520498 0.049365303458343397 0 0.037158833040313664 0.049271883223735949 0 0.032566699440956241 0.051017794868910706 0 0.03110416030722632 0.050815058679199707 0 0.031952788421372828 0.049601111558828764 0 0.03110416030722632 0.050815058679199707 0 0.031952788421372828 0.049601111558828764 0 0.030850248702633993 0.049926057593448758 0 0.037158833040313664 0.049271883223735949 0 0.034796187772571999 0.046821700591088068 0 0.031952788421372828 0.049601111558828764 0 0.030850248702633993 0.049926057593448758 0 0.0320458919643061 0.047650562786070903 0 0.030850248702633993 0.049926057593448758 0 0.0320458919643061 0.047650562786070903 0 0.02925655685031989 0.049745285704799462 0 0.0320458919643061 0.047650562786070903 0 0.032604719186757357 0.044299475256791267 0 0.028991665873731788 0.048262584805421546 0 0.038062077979882626 0.04683371246273775 0 0.037086392548316617 0.041073468878619387 0 0.032604719186757357 0.044299475256791267 0 0.034796187772571999 0.046821700591088068 0 0.032698246126346558 0.044280080630605678 0 0.038062077979882626 0.04683371246273775 0 0.041805495174982034 0.042870933393892113 0 0.037086392548316617 0.041073468878619387 0 0.041911647568519811 0.048250005159684313 0 0.038062077979882626 0.04683371246273775 0 0.04252282192535526 0.045878989697680388 0 0.038062077979882626 0.04683371246273775 0 0.041805495174982034 0.042870933393892113 0 0.04252282192535526 0.045878989697680388 0 0.045477085983140514 0.046593182461007986 0 0.04252282192535526 0.045878989697680388 0 0.045136035013111635 0.044149558211044819 0 0.045477085983140514 0.046593182461007986 0 0.04848532668579799 0.045295114755588201 0 0.045136035013111635 0.044149558211044819 0 0.048936979689750644 0.044639951679759995 0 0.04848532668579799 0.045295114755588201 0 0.048300635296009781 0.044149721848217985 0 0.04848532668579799 0.045295114755588201 0 0.047149780517183604 0.041768353842665501 0 0.045136035013111635 0.044149558211044819 0 0.048355975455645066 0.045304013694484051 0 0.04804622367853225 0.042658353753104422 0 0.047149780517183604 0.041768353842665501 0 0.045136035013111635 0.044149558211044819 0 0.044115430546035624 0.040071503848679822 0 0.041805495174982034 0.042870933393892113 0 0.045136035013111635 0.044149558211044819 0 0.044115430546035624 0.040071503848679822 0 0.041805495174982034 0.042870933393892113 0 0.04252282192535526 0.045878989697680388 0 0.045136035013111635 0.044149558211044819 0 0.041805495174982034 0.042870933393892113 0 0.044115430546035624 0.040071503848679822 0 0.040398114403751337 0.037454184805832423 0 0.04804622367853225 0.042658353753104422 0 0.043480135800734732 0.041922476598859996 0 0.047149780517183604 0.041768353842665501 0 0.044115430546035624 0.040071503848679822 0 0.046247584883618638 0.037117232883212677 0 0.048954392110338023 0.043638336947717939 0 0.048300635296009781 0.044149721848217985 0 0.047964380175111697 0.04287662269431107 0 0.043480135800734732 0.041922476598859996 0 0.040297123724948619 0.044127649616252547 0 0.040389519916575245 0.044070775617478082 0 0.040381519876266987 0.044140877716670107 0 0.040402038080216258 0.044222065350857834 0 0.048954392110338023 0.043638336947717939 0 0.048611410068019695 0.042838483159958231 0 0.047964380175111697 0.04287662269431107 0 0.042397329616493652 0.043874466436634646 0 0.043480135800734732 0.041922476598859996 0 0.040337203465000741 0.044076774201406765 0 0.040389519916575245 0.044070775617478082 0 0.040381519876266987 0.044140877716670107 0 0.042397329616493652 0.043874466436634646 0 0.040238487455230842 0.043788949261336703 0 0.040629572683707732 0.044402776320602286 0 0.040381519876266987 0.044140877716670107 0 0.040551016344331135 0.044088185872046506 0 0.040538564178496696 0.043954925019616634 0 0.039977661997710995 0.043532507593393784 0 0.040101434123995514 0.043366719376014461 0 0.044115430546035624 0.040071503848679822 0 0.046247584883618638 0.037117232883212677 0 0.040398114403751337 0.037454184805832423 0 0.040538564178496696 0.043954925019616634 0 0.03934251982283337 0.04438090440207685 0 0.039977661997710995 0.043532507593393784 0 0.043480135800734732 0.041922476598859996 0 0.039803284128672498 0.040788527254459285 0 0.03934251982283337 0.04438090440207685 0 0.037450436647757587 0.043383221694412777 0 0.039312177209624898 0.043013327960305443 0 0.03934251982283337 0.04438090440207685 0 0.039312177209624898 0.043013327960305443 0 0.039977661997710995 0.043532507593393784 0 0.037450436647757587 0.043383221694412777 0 0.034953080965208841 0.044369490984787312 0 0.031768821637050151 0.041536963658175247 0 0.039803284128672498 0.040788527254459285 0 0.034168132312451478 0.041535308589133305 0 0.03934251982283337 0.04438090440207685 0 0.037450436647757587 0.043383221694412777 0 0.034953080965208841 0.044369490984787312 0 0.037086392548316617 0.041073468878619387 0 0.032604719186757357 0.044299475256791267 0 0.031340973842829668 0.041936997042995638 0 0.040398114403751337 0.037454184805832423 0 0.033170993223843655 0.038763371141226216 0 0.037086392548316617 0.041073468878619387 0 0.033170993223843655 0.038763371141226216 0 0.037086392548316617 0.041073468878619387 0 0.031340973842829668 0.041936997042995638 0 0.041805495174982034 0.042870933393892113 0 0.040398114403751337 0.037454184805832423 0 0.037086392548316617 0.041073468878619387 0 0.037124951411717996 0.052079379230100802 0 0.036681079151361116 0.05298696901115333 0 0.038058492923272451 0.052080739251188252 0 0.037124951411717996 0.052079379230100802 0 0.038058492923272451 0.052080739251188252 0 0.037749448573579696 0.051244661479431873 0 0.036914106043555654 0.047485336722880876 0 0.039125159982804331 0.047963161582139667 0 0.037124951411717996 0.052079379230100802 0 0.036681079151361116 0.05298696901115333 0 0.03624184913487366 0.052295673211151771 0 0.036681079151361116 0.05298696901115333 0 0.035906180626505163 0.052899527706701831 0 0.03624184913487366 0.052295673211151771 0 0.037450436647757587 0.043383221694412777 0 0.037555840842631055 0.041757774739523017 0 0.031768821637050151 0.041536963658175247 0 0.037450436647757587 0.043383221694412777 0 0.037555840842631055 0.041757774739523017 0 0.039312177209624898 0.043013327960305443 0 0.037555840842631055 0.041757774739523017 0 0.039312177209624898 0.043013327960305443 0 0.040713192698213142 0.043779820853546869 0 0.039312177209624898 0.043013327960305443 0 0.040153719744601593 0.043425591867871954 0 0.040713192698213142 0.043779820853546869 0 0.040153719744601593 0.043425591867871954 0 0.040101434123995514 0.043366719376014461 0 0.040201851177431337 0.044423142575196466 0 0.039312177209624898 0.043013327960305443 0 0.039977661997710995 0.043532507593393784 0 0.040153719744601593 0.043425591867871954 0 0.039977661997710995 0.043532507593393784 0 0.040153719744601593 0.043425591867871954 0 0.040101434123995514 0.043366719376014461 0 0.040551016344331135 0.044088185872046506 0 0.040377432005689155 0.044146641245361579 0 0.040519648212139527 0.044022761140520228 0 0.040381519876266987 0.044140877716670107 0 0.040551016344331135 0.044088185872046506 0 0.040377432005689155 0.044146641245361579 0 0.040381519876266987 0.044140877716670107 0 0.040377432005689155 0.044146641245361579 0 0.040402038080216258 0.044222065350857834 0 0.040377432005689155 0.044146641245361579 0 0.040402038080216258 0.044222065350857834 0 0.040120753571035395 0.04455218247882993 0 0.040377432005689155 0.044146641245361579 0 0.040120753571035395 0.04455218247882993 0 0.040519648212139527 0.044022761140520228 0 0.040402038080216258 0.044222065350857834 0 0.040120753571035395 0.04455218247882993 0 0.040201851177431337 0.044423142575196466 0 0.040120753571035395 0.04455218247882993 0 0.039620948326017945 0.045852683246122482 0 0.040201851177431337 0.044423142575196466 0 0.040201851177431337 0.044423142575196466 0 0.040713192698213142 0.043779820853546869 0 0.039118585257475295 0.048404797418184389 0 0.040297123724948619 0.044127649616252547 0 0.040219574120070517 0.044224554655137097 0 0.040153719744601593 0.043425591867871954 0 0.040201851177431337 0.044423142575196466 0 0.040713192698213142 0.043779820853546869 0 0.038058492923272451 0.052080739251188252 0 0.038354203498714948 0.050389262218458686 0 0.037749448573579696 0.051244661479431873 0 0.038058492923272451 0.052080739251188252 0 0.038354203498714948 0.050389262218458686 0 0.039118585257475295 0.048404797418184389 0 0.039125159982804331 0.047963161582139667 0 0.038920355192763816 0.048521235613696811 0 0.038354203498714948 0.050389262218458686 0 0.03853279924290378 0.049859892485290422 0 0.038221429859681112 0.050502052169666939 0 0.038354203498714948 0.050389262218458686 0 0.038221429859681112 0.050502052169666939 0 0.037749448573579696 0.051244661479431873 0 0.039620948326017945 0.045852683246122482 0 0.040201851177431337 0.044423142575196466 0 0.039118585257475295 0.048404797418184389 0 0.038354203498714948 0.050389262218458686 0 0.03853279924290378 0.049859892485290422 0 0.039118585257475295 0.048404797418184389 0 0.039118585257475295 0.048404797418184389 0 0.038321197350951478 0.050406892169268025 0 0.03771188509643672 0.050010750422885171 0 0.03853279924290378 0.049859892485290422 0 0.039118585257475295 0.048404797418184389 0 0.038321197350951478 0.050406892169268025 0 0.038321197350951478 0.050406892169268025 0 0.038221429859681112 0.050502052169666939 0 0.037982946693328933 0.051003779000940407 0 0.038321197350951478 0.050406892169268025 0 0.037982946693328933 0.051003779000940407 0 0.037962451321454246 0.051441180977724758 0 0.03853279924290378 0.049859892485290422 0 0.038321197350951478 0.050406892169268025 0 0.038221429859681112 0.050502052169666939 0 0.03754523171664529 0.051302384182007353 0 0.037595513611141079 0.051205789486708272 0 0.036797800566085635 0.051701530638156391 0 0.037982946693328933 0.051003779000940407 0 0.03754523171664529 0.051302384182007353 0 0.037595513611141079 0.051205789486708272 0 0.038221429859681112 0.050502052169666939 0 0.037982946693328933 0.051003779000940407 0 0.037595513611141079 0.051205789486708272 0 0.038221429859681112 0.050502052169666939 0 0.037595513611141079 0.051205789486708272 0 0.037749448573579696 0.051244661479431873 0 0.037595513611141079 0.051205789486708272 0 0.037113353227586431 0.051693148070837323 0 0.037749448573579696 0.051244661479431873 0 0.037124951411717996 0.052079379230100802 0 0.037113353227586431 0.051693148070837323 0 0.037749448573579696 0.051244661479431873 0 0.037113353227586431 0.051693148070837323 0 0.036797800566085635 0.051701530638156391 0 0.03624184913487366 0.052295673211151771 0 0.037124951411717996 0.052079379230100802 0 0.037113353227586431 0.051693148070837323 0 0.03624184913487366 0.052295673211151771 0 0.036797800566085635 0.051701530638156391 0 0.0365644679430569 0.051508351132771156 0 0.035982588569881319 0.052071873721197093 0 0.037595513611141079 0.051205789486708272 0 0.037113353227586431 0.051693148070837323 0 0.036797800566085635 0.051701530638156391 0 0.03754523171664529 0.051302384182007353 0 0.036797800566085635 0.051701530638156391 0 0.037058582327405928 0.051485568993026677 0 0.036797800566085635 0.051701530638156391 0 0.037058582327405928 0.051485568993026677 0 0.0365644679430569 0.051508351132771156 0 0.03754523171664529 0.051302384182007353 0 0.037058582327405928 0.051485568993026677 0 0.037390025764557577 0.051428135789594799 0 0.037058582327405928 0.051485568993026677 0 0.0365644679430569 0.051508351132771156 0 0.037390025764557577 0.051428135789594799 0 0.037390025764557577 0.051428135789594799 0 0.037713249097185417 0.051626950679164986 0 0.0370685642116532 0.051311837953058471 0 0.0365644679430569 0.051508351132771156 0 0.037390025764557577 0.051428135789594799 0 0.0370685642116532 0.051311837953058471 0 0.0365644679430569 0.051508351132771156 0 0.0370685642116532 0.051311837953058471 0 0.036074193279347716 0.051128860534035411 0 0.037982946693328933 0.051003779000940407 0 0.03754523171664529 0.051302384182007353 0 0.037815794008182552 0.051413033835229521 0 0.03754523171664529 0.051302384182007353 0 0.037390025764557577 0.051428135789594799 0 0.037815794008182552 0.051413033835229521 0 0.037390025764557577 0.051428135789594799 0 0.037815794008182552 0.051413033835229521 0 0.037713249097185417 0.051626950679164986 0 0.037815794008182552 0.051413033835229521 0 0.037713249097185417 0.051626950679164986 0 0.037717541867318988 0.052072767628641665 0 0.037758264162633164 0.051932253652076009 0 0.037546728478845923 0.051339433123805754 0 0.037776498535002645 0.052855109993820183 0 0.037713249097185417 0.051626950679164986 0 0.037758264162633164 0.051932253652076009 0 0.037717541867318988 0.052072767628641665 0 0.037713249097185417 0.051626950679164986 0 0.037758264162633164 0.051932253652076009 0 0.037384040466576084 0.051393957331854152 0 0.037758264162633164 0.051932253652076009 0 0.037384040466576084 0.051393957331854152 0 0.037546728478845923 0.051339433123805754 0 0.037758264162633164 0.051932253652076009 0 0.037776498535002645 0.052855109993820183 0 0.037717541867318988 0.052072767628641665 0 0.0370685642116532 0.051311837953058471 0 0.037384040466576084 0.051393957331854152 0 0.036421550661322591 0.050586133242208682 0 0.037384040466576084 0.051393957331854152 0 0.037546728478845923 0.051339433123805754 0 0.036421550661322591 0.050586133242208682 0 0.034453163235505159 0.054702833670701528 0 0.032849562379037113 0.053759716410527833 0 0.037713249097185417 0.051626950679164986 0 0.0370685642116532 0.051311837953058471 0 0.037384040466576084 0.051393957331854152 0 0.032278967035892968 0.055934736462936265 0 0.029332082627292467 0.056967396796755776 0 0.029116082355603017 0.055578698481486402 0 0.029306366766175332 0.05806180274019198 0 0.029865878396080982 0.05655602224026228 0 0.02825049477271846 0.056264935708993116 0 0.034453163235505159 0.054702833670701528 0 0.027358667876813958 0.056693762979093558 0 0.029306366766175332 0.05806180274019198 0 0.02825049477271846 0.056264935708993116 0 0.026911204802971066 0.057663313844508228 0 0.040837619611079845 0.053285531603198343 0 0.038002960632144145 0.054394378981731654 0 0.037776498535002645 0.052855109993820183 0 0.034453163235505159 0.054702833670701528 0 0.03474359188680741 0.055847172240432723 0 0.034453163235505159 0.054702833670701528 0 0.039264990646218093 0.052801776214629378 0 0.029306366766175332 0.05806180274019198 0 0.029865878396080982 0.05655602224026228 0 0.031402142389590493 0.057437112963705614 0 0.029865878396080982 0.05655602224026228 0 0.030745161162513145 0.056047723153314417 0 0.031402142389590493 0.057437112963705614 0 0.029802695389246837 0.05499959431783738 0 0.030745161162513145 0.056047723153314417 0 0.032018943954454968 0.055450802378369829 0 0.029865878396080982 0.05655602224026228 0 0.029802695389246837 0.05499959431783738 0 0.030745161162513145 0.056047723153314417 0 0.029865878396080982 0.05655602224026228 0 0.029802695389246837 0.05499959431783738 0 0.02825049477271846 0.056264935708993116 0 0.029802695389246837 0.05499959431783738 0 0.02825049477271846 0.056264935708993116 0 0.026724132811024932 0.054999874275292182 0 0.032884664771549152 0.054998995576282982 0 0.034751839002999614 0.05560685584710745 0 0.035640689259652539 0.055281419270599735 0 0.029802695389246837 0.05499959431783738 0 0.032884664771549152 0.054998995576282982 0 0.032018943954454968 0.055450802378369829 0 0.032884664771549152 0.054998995576282982 0 0.032018943954454968 0.055450802378369829 0 0.034751839002999614 0.05560685584710745 0 0.030745161162513145 0.056047723153314417 0 0.032018943954454968 0.055450802378369829 0 0.031402142389590493 0.057437112963705614 0 0.03474359188680741 0.055847172240432723 0 0.034689245149926135 0.055723592415941034 0 0.032018943954454968 0.055450802378369829 0 0.031402142389590493 0.057437112963705614 0 0.034751839002999614 0.05560685584710745 0 0.038002960632144145 0.054394378981731654 0 0.036889991281347102 0.053869265471004714 0 0.034751839002999614 0.05560685584710745 0 0.038002960632144145 0.054394378981731654 0 0.037776498535002645 0.052855109993820183 0 0.036889991281347102 0.053869265471004714 0 0.036889991281347102 0.053869265471004714 0 0.036509345348510212 0.0536137904382177 0 0.034751839002999614 0.05560685584710745 0 0.037776498535002645 0.052855109993820183 0 0.036889991281347102 0.053869265471004714 0 0.036509345348510212 0.0536137904382177 0 0.034751839002999614 0.05560685584710745 0 0.036264056363074074 0.05421906493560983 0 0.035640689259652539 0.055281419270599735 0 0.036509345348510212 0.0536137904382177 0 0.034751839002999614 0.05560685584710745 0 0.036264056363074074 0.05421906493560983 0 0.036264056363074074 0.05421906493560983 0 0.037087292952260334 0.052871371398124811 0 0.037622503478853077 0.05333765983679313 0 0.036509345348510212 0.0536137904382177 0 0.036264056363074074 0.05421906493560983 0 0.037087292952260334 0.052871371398124811 0 0.036509345348510212 0.0536137904382177 0 0.037087292952260334 0.052871371398124811 0 0.037717541867318988 0.052072767628641665 0 0.037776498535002645 0.052855109993820183 0 0.036509345348510212 0.0536137904382177 0 0.037717541867318988 0.052072767628641665 0 0.038321197350951478 0.050406892169268025 0 0.037087292952260334 0.052871371398124811 0 0.037962451321454246 0.051441180977724758 0 0.037087292952260334 0.052871371398124811 0 0.037717541867318988 0.052072767628641665 0 0.037962451321454246 0.051441180977724758 0 0.037815794008182552 0.051413033835229521 0 0.037717541867318988 0.052072767628641665 0 0.037962451321454246 0.051441180977724758 0 0.037982946693328933 0.051003779000940407 0 0.037815794008182552 0.051413033835229521 0 0.037962451321454246 0.051441180977724758 0 0.037323492419646796 0.052711057790085884 0 0.038367648724063765 0.051018829425181697 0 0.038321197350951478 0.050406892169268025 0 0.037087292952260334 0.052871371398124811 0 0.03771188509643672 0.050010750422885171 0 0.037087292952260334 0.052871371398124811 0 0.037622503478853077 0.05333765983679313 0 0.039025572753283097 0.052122988898120108 0 0.037622503478853077 0.05333765983679313 0 0.036958086925721383 0.054230754745541482 0 0.036654283572197882 0.053059639995049243 0 0.037622503478853077 0.05333765983679313 0 0.036654283572197882 0.053059639995049243 0 0.038148194625384768 0.051851436193019018 0 0.037622503478853077 0.05333765983679313 0 0.036958086925721383 0.054230754745541482 0 0.03660856185494072 0.054625709862180426 0 0.036264056363074074 0.05421906493560983 0 0.037622503478853077 0.05333765983679313 0 0.03660856185494072 0.054625709862180426 0 0.03660856185494072 0.054625709862180426 0 0.03704163047456515 0.055239114776476986 0 0.035640689259652539 0.055281419270599735 0 0.036264056363074074 0.05421906493560983 0 0.03660856185494072 0.054625709862180426 0 0.035640689259652539 0.055281419270599735 0 0.036958086925721383 0.054230754745541482 0 0.03660856185494072 0.054625709862180426 0 0.03704163047456515 0.055239114776476986 0 0.03704163047456515 0.055239114776476986 0 0.035961419803727655 0.054998885125885071 0 0.039034759306690779 0.054999450687037904 0 0.032884664771549152 0.054998995576282982 0 0.035640689259652539 0.055281419270599735 0 0.035961419803727655 0.054998885125885071 0 0.03704163047456515 0.055239114776476986 0 0.035640689259652539 0.055281419270599735 0 0.035961419803727655 0.054998885125885071 0 0.03704163047456515 0.055239114776476986 0 0.039034759306690779 0.054999450687037904 0 0.036744551487247229 0.054904891648110715 0 0.039039437277749382 0.054998629977360602 0 0.040104059605386815 0.053989165186367427 0 0.036958086925721383 0.054230754745541482 0 0.03704163047456515 0.055239114776476986 0 0.036744551487247229 0.054904891648110715 0 0.039055196830745563 0.054991837226980554 0 0.04346228305495576 0.053566851960057608 0 0.044800442926196941 0.053385856317298558 0 0.04346228305495576 0.053566851960057608 0 0.045507117028570271 0.052874100437551391 0 0.044800442926196941 0.053385856317298558 0 0.036958086925721383 0.054230754745541482 0 0.036744551487247229 0.054904891648110715 0 0.036654283572197882 0.053059639995049243 0 0.04346228305495576 0.053566851960057608 0 0.045452968120707336 0.052816945320934373 0 0.045507117028570271 0.052874100437551391 0 0.040104059605386815 0.053989165186367427 0 0.041080003812893132 0.052758506832890566 0 0.045452968120707336 0.052816945320934373 0 0.045507117028570271 0.052874100437551391 0 0.04670794799946236 0.052767633489175743 0 0.045452968120707336 0.052816945320934373 0 0.045956344187711516 0.053164850957321742 0 0.04670794799946236 0.052767633489175743 0 0.046765422985417721 0.05336018780497432 0 0.045956344187711516 0.053164850957321742 0 0.04670794799946236 0.052767633489175743 0 0.046765422985417721 0.05336018780497432 0 0.045956344187711516 0.053164850957321742 0 0.046419534854137683 0.053669683021306383 0 0.041080003812893132 0.052758506832890566 0 0.041418384623439872 0.05240998574183954 0 0.036654283572197882 0.053059639995049243 0 0.037505035144493618 0.050090274178833619 0 0.038148194625384768 0.051851436193019018 0 0.037622503478853077 0.05333765983679313 0 0.038148194625384768 0.051851436193019018 0 0.039025572753283097 0.052122988898120108 0 0.039118585257475295 0.048404797418184389 0 0.03771188509643672 0.050010750422885171 0 0.038846245087988174 0.045275372006834971 0 0.039620948326017945 0.045852683246122482 0 0.039118585257475295 0.048404797418184389 0 0.038846245087988174 0.045275372006834971 0 0.038148194625384768 0.051851436193019018 0 0.039025572753283097 0.052122988898120108 0 0.040652850088287867 0.048632943228028407 0 0.038367648724063765 0.051018829425181697 0 0.039903071484714406 0.046906195955536988 0 0.037505035144493618 0.050090274178833619 0 0.038148194625384768 0.051851436193019018 0 0.040652850088287867 0.048632943228028407 0 0.037505035144493618 0.050090274178833619 0 0.039755048941358964 0.047154567597035797 0 0.040652850088287867 0.048632943228028407 0 0.039755048941358964 0.047154567597035797 0 0.040652850088287867 0.048632943228028407 0 0.041111338238608207 0.044509409827185251 0 0.040120753571035395 0.04455218247882993 0 0.038846245087988174 0.045275372006834971 0 0.040519648212139527 0.044022761140520228 0 0.040120753571035395 0.04455218247882993 0 0.039620948326017945 0.045852683246122482 0 0.038846245087988174 0.045275372006834971 0 0.038846245087988174 0.045275372006834971 0 0.040519648212139527 0.044022761140520228 0 0.041287332780375587 0.043772893956866732 0 0.041018013827392105 0.043936284994735404 0 0.040551016344331135 0.044088185872046506 0 0.040519648212139527 0.044022761140520228 0 0.041018013827392105 0.043936284994735404 0 0.040519648212139527 0.044022761140520228 0 0.041287332780375587 0.043772893956866732 0 0.038846245087988174 0.045275372006834971 0 0.041287332780375587 0.043772893956866732 0 0.042509609725408931 0.043436274680243664 0 0.040652850088287867 0.048632943228028407 0 0.042509609725408931 0.043436274680243664 0 0.041111338238608207 0.044509409827185251 0 0.039903071484714406 0.046906195955536988 0 0.041968522866462021 0.043788592082713872 0 0.042406216238604799 0.043516059277683948 0 0.041287332780375587 0.043772893956866732 0 0.042509609725408931 0.043436274680243664 0 0.045439448371171948 0.041701475372783695 0 0.045216350253336458 0.046482405231812539 0 0.045929672134532085 0.042726626788801 0 0.041111338238608207 0.044509409827185251 0 0.040731789863611347 0.044615156296536757 0 0.048616950122000936 0.041152843816276402 0 0.045929672134532085 0.042726626788801 0 0.047957346977976614 0.039220422376204565 0 0.045929672134532085 0.042726626788801 0 0.042509609725408931 0.043436274680243664 0 0.041111338238608207 0.044509409827185251 0 0.039755048941358964 0.047154567597035797 0 0.041111338238608207 0.044509409827185251 0 0.039704936608987787 0.045002671647758535 0 0.043407773328378807 0.046554418755029588 0 0.045216350253336458 0.046482405231812539 0 0.048616950122000936 0.041152843816276402 0 0.047957346977976614 0.039220422376204565 0 0.051013916584761093 0.041196374655144877 0 0.045216350253336458 0.046482405231812539 0 0.0498450942357457 0.046907963866143682 0 0.051013916584761093 0.041196374655144877 0 0.052258517386534628 0.039696529100037521 0 0.053959118003159959 0.041291922499640664 0 0.047957346977976614 0.039220422376204565 0 0.051013916584761093 0.041196374655144877 0 0.052258517386534628 0.039696529100037521 0 0.045952136711593733 0.054250900175292167 0 0.04704180589224604 0.054013758945866061 0 0.046419534854137683 0.053669683021306383 0 0.046765422985417721 0.05336018780497432 0 0.04704180589224604 0.054013758945866061 0 0.046419534854137683 0.053669683021306383 0 0.037505035144493618 0.050090274178833619 0 0.039755048941358964 0.047154567597035797 0 0.039704936608987787 0.045002671647758535 0 0.045956344187711516 0.053164850957321742 0 0.045952136711593733 0.054250900175292167 0 0.046419534854137683 0.053669683021306383 0 0.041418384623439872 0.05240998574183954 0 0.045216350253336458 0.046482405231812539 0 0.051525348906104051 0.047706048672820245 0 0.052925675802987342 0.048539669374069179 0 0.046765422985417721 0.05336018780497432 0 0.04704180589224604 0.054013758945866061 0 0.048310295186496918 0.053671821279915662 0 0.052258517386534628 0.039696529100037521 0 0.055204864174271881 0.041577826055575216 0 0.053959118003159959 0.041291922499640664 0 0.0498450942357457 0.046907963866143682 0 0.051525348906104051 0.047706048672820245 0 0.055559474847063126 0.041898183425081476 0 0.055204864174271881 0.041577826055575216 0 0.053959118003159959 0.041291922499640664 0 0.055559474847063126 0.041898183425081476 0 0.055204864174271881 0.041577826055575216 0 0.056000752405126399 0.042949107726034864 0 0.056000752405126399 0.042949107726034864 0 0.054049262024465597 0.048365227030795238 0 0.05519346824383943 0.042914052393027965 0 0.05596989644789644 0.041355938957275962 0 0.056000752405126399 0.042949107726034864 0 0.05519346824383943 0.042914052393027965 0 0.056000752405126399 0.042949107726034864 0 0.055938019069823632 0.04462545390201883 0 0.054049262024465597 0.048365227030795238 0 0.055204864174271881 0.041577826055575216 0 0.056000752405126399 0.042949107726034864 0 0.055938019069823632 0.04462545390201883 0 0.05044299070732762 0.052596405907133832 0 0.050944420656777976 0.050952793493782698 0 0.04868253299757834 0.05229870116729568 0 0.05044299070732762 0.052596405907133832 0 0.054049262024465597 0.048365227030795238 0 0.050944420656777976 0.050952793493782698 0 0.052925675802987342 0.048539669374069179 0 0.053663799269992145 0.048512614018799638 0 0.054049262024465597 0.048365227030795238 0 0.052902133309918664 0.0501338700921731 0 0.050944420656777976 0.050952793493782698 0 0.04868253299757834 0.05229870116729568 0 0.04670794799946236 0.052767633489175743 0 0.047798236058951678 0.052223629505756514 0 0.050944420656777976 0.050952793493782698 0 0.04868253299757834 0.05229870116729568 0 0.047798236058951678 0.052223629505756514 0 0.048310295186496918 0.053671821279915662 0 0.05044299070732762 0.052596405907133832 0 0.04868253299757834 0.05229870116729568 0 0.046765422985417721 0.05336018780497432 0 0.048310295186496918 0.053671821279915662 0 0.04670794799946236 0.052767633489175743 0 0.048310295186496918 0.053671821279915662 0 0.04868253299757834 0.05229870116729568 0 0.04670794799946236 0.052767633489175743 0 0.039055196830745563 0.054991837226980554 0 0.044019241022761106 0.054308197649750263 0 0.047888083786736674 0.054998045641649493 0 0.045507117028570271 0.052874100437551391 0 0.04670794799946236 0.052767633489175743 0 0.047798236058951678 0.052223629505756514 0 0.047798236058951678 0.052223629505756514 0 0.044800442926196941 0.053385856317298558 0 0.048137339022047365 0.052364242573305422 0 0.045507117028570271 0.052874100437551391 0 0.047798236058951678 0.052223629505756514 0 0.044800442926196941 0.053385856317298558 0 0.039055196830745563 0.054991837226980554 0 0.044800442926196941 0.053385856317298558 0 0.044019241022761106 0.054308197649750263 0 0.044800442926196941 0.053385856317298558 0 0.046703477490909195 0.05285323443759226 0 0.048137339022047365 0.052364242573305422 0 0.044800442926196941 0.053385856317298558 0 0.044019241022761106 0.054308197649750263 0 0.046703477490909195 0.05285323443759226 0 0.044019241022761106 0.054308197649750263 0 0.047888083786736674 0.054998045641649493 0 0.046664934059063447 0.055404015395735556 0 0.049693267253898728 0.050302717511154484 0 0.051727853626302479 0.051592542308340927 0 0.053156392863311142 0.051230231862066343 0 0.047888083786736674 0.054998045641649493 0 0.046664934059063447 0.055404015395735556 0 0.04970116625228211 0.055484051238246269 0 0.048216232850660012 0.053045845361448456 0 0.051289043568413233 0.05338235765696453 0 0.044019241022761106 0.054308197649750263 0 0.049693267253898728 0.050302717511154484 0 0.046703477490909195 0.05285323443759226 0 0.044523341527481983 0.054022670286108361 0 0.048216232850660012 0.053045845361448456 0 0.049693267253898728 0.050302717511154484 0 0.046703477490909195 0.05285323443759226 0 0.0494395079477657 0.051995070462374213 0 0.046703477490909195 0.05285323443759226 0 0.0494395079477657 0.051995070462374213 0 0.048137339022047365 0.052364242573305422 0 0.049693267253898728 0.050302717511154484 0 0.0494395079477657 0.051995070462374213 0 0.051727853626302479 0.051592542308340927 0 0.0494395079477657 0.051995070462374213 0 0.051727853626302479 0.051592542308340927 0 0.050654414867800118 0.051802604521865261 0 0.051727853626302479 0.051592542308340927 0 0.050654414867800118 0.051802604521865261 0 0.052723092965823996 0.051268224630652927 0 0.050654414867800118 0.051802604521865261 0 0.050557228655190509 0.051548754835739091 0 0.052723092965823996 0.051268224630652927 0 0.0494395079477657 0.051995070462374213 0 0.050654414867800118 0.051802604521865261 0 0.048137339022047365 0.052364242573305422 0 0.050654414867800118 0.051802604521865261 0 0.048137339022047365 0.052364242573305422 0 0.050557228655190509 0.051548754835739091 0 0.050944420656777976 0.050952793493782698 0 0.047798236058951678 0.052223629505756514 0 0.050557228655190509 0.051548754835739091 0 0.047798236058951678 0.052223629505756514 0 0.048137339022047365 0.052364242573305422 0 0.050557228655190509 0.051548754835739091 0 0.052902133309918664 0.0501338700921731 0 0.050557228655190509 0.051548754835739091 0 0.052723092965823996 0.051268224630652927 0 0.052902133309918664 0.0501338700921731 0 0.050944420656777976 0.050952793493782698 0 0.050557228655190509 0.051548754835739091 0 0.054997998539162408 0.054996189172188237 0 0.054099094578953934 0.051096123181205717 0 0.054993531402831808 0.044772173148412191 0 0.052723092965823996 0.051268224630652927 0 0.054099094578953934 0.051096123181205717 0 0.054030099849989084 0.04869045478673191 0 0.052902133309918664 0.0501338700921731 0 0.052723092965823996 0.051268224630652927 0 0.054030099849989084 0.04869045478673191 0 0.047888083786736674 0.054998045641649493 0 0.054997998539162408 0.054996189172188237 0 0.053287581782471477 0.054241827107757497 0 0.052723092965823996 0.051268224630652927 0 0.053478178339787602 0.051704757405664346 0 0.054099094578953934 0.051096123181205717 0 0.047888083786736674 0.054998045641649493 0 0.04970116625228211 0.055484051238246269 0 0.053287581782471477 0.054241827107757497 0 0.051727853626302479 0.051592542308340927 0 0.052723092965823996 0.051268224630652927 0 0.053478178339787602 0.051704757405664346 0 0.051727853626302479 0.051592542308340927 0 0.053478178339787602 0.051704757405664346 0 0.053156392863311142 0.051230231862066343 0 0.053478178339787602 0.051704757405664346 0 0.053287581782471477 0.054241827107757497 0 0.054099094578953934 0.051096123181205717 0 0.051289043568413233 0.05338235765696453 0 0.052988688868159536 0.05409196444177615 0 0.053478178339787602 0.051704757405664346 0 0.053156392863311142 0.051230231862066343 0 0.053287581782471477 0.054241827107757497 0 0.054997998539162408 0.054996189172188237 0 0.053287581782471477 0.054241827107757497 0 0.054099094578953934 0.051096123181205717 0 0.054993531402831808 0.044772173148412191 0 0.054030099849989084 0.04869045478673191 0 0.054509258954055104 0.045325155111135176 0 0.054099094578953934 0.051096123181205717 0 0.054993531402831808 0.044772173148412191 0 0.054030099849989084 0.04869045478673191 0 0.054049262024465597 0.048365227030795238 0 0.052902133309918664 0.0501338700921731 0 0.054030099849989084 0.04869045478673191 0 0.054049262024465597 0.048365227030795238 0 0.054030099849989084 0.04869045478673191 0 0.054509258954055104 0.045325155111135176 0 0.054049262024465597 0.048365227030795238 0 0.054509258954055104 0.045325155111135176 0 0.05519346824383943 0.042914052393027965 0 0.055109930047475872 0.04167601614510303 0 0.054509258954055104 0.045325155111135176 0 0.05519346824383943 0.042914052393027965 0 0.055109930047475872 0.04167601614510303 0 0.054993531402831808 0.044772173148412191 0 0.054509258954055104 0.045325155111135176 0 0.010367909107654788 0.053571115609720339 0 0.011161962114530889 0.053258594808650833 0 0.010633787195881051 0.053140917818280967 0 0.010367909107654788 0.053571115609720339 0 0.010633787195881051 0.053140917818280967 0 0.009898074104975535 0.053526020390838445 0 0.010633787195881051 0.053140917818280967 0 0.011587106145123973 0.052645412183505998 0 0.010646816644693939 0.052746671934591205 0 0.011161962114530889 0.053258594808650833 0 0.010633787195881051 0.053140917818280967 0 0.011587106145123973 0.052645412183505998 0 0.010633787195881051 0.053140917818280967 0 0.009898074104975535 0.053526020390838445 0 0.010115822056284135 0.053092937152479126 0 0.009898074104975535 0.053526020390838445 0 0.0095048248290108724 0.053414193431890751 0 0.010115822056284135 0.053092937152479126 0 0.009898074104975535 0.053526020390838445 0 0.0095048248290108724 0.053414193431890751 0 0.0090149107605720161 0.053919688929547946 0 0.009898074104975535 0.053526020390838445 0 0.00972029091813526 0.054008699803650646 0 0.0090149107605720161 0.053919688929547946 0 0.010367909107654788 0.053571115609720339 0 0.009898074104975535 0.053526020390838445 0 0.00972029091813526 0.054008699803650646 0 0.010367909107654788 0.053571115609720339 0 0.00972029091813526 0.054008699803650646 0 0.010463738311704883 0.053919894978325909 0 0.00972029091813526 0.054008699803650646 0 0.0095300448605717975 0.054550237121249838 0 0.010463738311704883 0.053919894978325909 0 0.00972029091813526 0.054008699803650646 0 0.0095300448605717975 0.054550237121249838 0 0.0088687194783621717 0.054534815787481906 0 0.0095300448605717975 0.054550237121249838 0 0.010463738311704883 0.053919894978325909 0 0.010208439434442969 0.054550563699042223 0 0.010463738311704883 0.053919894978325909 0 0.010984640512948445 0.053974924381984465 0 0.010208439434442969 0.054550563699042223 0 0.010367909107654788 0.053571115609720339 0 0.011161962114530889 0.053258594808650833 0 0.010463738311704883 0.053919894978325909 0 0.011161962114530889 0.053258594808650833 0 0.010463738311704883 0.053919894978325909 0 0.011637202942322698 0.053477157282274958 0 0.010463738311704883 0.053919894978325909 0 0.010984640512948445 0.053974924381984465 0 0.011637202942322698 0.053477157282274958 0 0.010984640512948445 0.053974924381984465 0 0.011637202942322698 0.053477157282274958 0 0.011917050701657998 0.053888374640147257 0 0.011637202942322698 0.053477157282274958 0 0.013219496994845358 0.053086090772799598 0 0.012319142236258801 0.0528765865873006 0 0.011637202942322698 0.053477157282274958 0 0.013219496994845358 0.053086090772799598 0 0.011917050701657998 0.053888374640147257 0 0.011161962114530889 0.053258594808650833 0 0.011637202942322698 0.053477157282274958 0 0.012319142236258801 0.0528765865873006 0 0.013219496994845358 0.053086090772799598 0 0.013483849565432027 0.05257224565917986 0 0.014540901028838239 0.052513525511531912 0 0.013219496994845358 0.053086090772799598 0 0.01488171393170205 0.053128518866687305 0 0.014540901028838239 0.052513525511531912 0 0.013219496994845358 0.053086090772799598 0 0.013483849565432027 0.05257224565917986 0 0.012319142236258801 0.0528765865873006 0 0.013483849565432027 0.05257224565917986 0 0.014452327264620446 0.052126361443287805 0 0.014540901028838239 0.052513525511531912 0 0.01140344700913213 0.05142164954521037 0 0.013285942012410585 0.051076017284364797 0 0.013483849565432027 0.05257224565917986 0 0.012835560964355924 0.052451966106118193 0 0.014452327264620446 0.052126361443287805 0 0.012835560964355924 0.052451966106118193 0 0.012375041074219556 0.052076915317418579 0 0.014452327264620446 0.052126361443287805 0 0.010504586176144413 0.050733363521227696 0 0.011323089282049234 0.050149606535070612 0 0.011972296859669253 0.050013669428494362 0 0.013483849565432027 0.05257224565917986 0 0.012835560964355924 0.052451966106118193 0 0.012319142236258801 0.0528765865873006 0 0.011161962114530889 0.053258594808650833 0 0.012319142236258801 0.0528765865873006 0 0.011587106145123973 0.052645412183505998 0 0.012835560964355924 0.052451966106118193 0 0.012319142236258801 0.0528765865873006 0 0.011587106145123973 0.052645412183505998 0 0.012835560964355924 0.052451966106118193 0 0.011587106145123973 0.052645412183505998 0 0.012375041074219556 0.052076915317418579 0 0.012375041074219556 0.052076915317418579 0 0.010532276392888798 0.052115716024895578 0 0.011086338565433236 0.052184641033893142 0 0.010504586176144413 0.050733363521227696 0 0.010230909345748664 0.052030105993353649 0 0.010760677019331791 0.052533520018804999 0 0.011587106145123973 0.052645412183505998 0 0.012375041074219556 0.052076915317418579 0 0.011221843967278954 0.052456565169225769 0 0.01140344700913213 0.05142164954521037 0 0.010951300565960264 0.052117795893731424 0 0.012375041074219556 0.052076915317418579 0 0.011086338565433236 0.052184641033893142 0 0.011221843967278954 0.052456565169225769 0 0.010504586176144413 0.050733363521227696 0 0.011323089282049234 0.050149606535070612 0 0.010501636021920143 0.050759632077497119 0 0.010504586176144413 0.050733363521227696 0 0.010501636021920143 0.050759632077497119 0 0.010230909345748664 0.052030105993353649 0 0.011361947252057386 0.056308913832568017 0 0.014505108924649625 0.056054416899797149 0 0.012717419557053355 0.05289930255116488 0 0.014084795258756336 0.05411908281625695 0 0.01197945298622536 0.053695454728868899 0 0.011716286405465074 0.051872951551742687 0 0.011361947252057386 0.056308913832568017 0 0.010501636021920143 0.050759632077497119 0 0.010230909345748664 0.052030105993353649 0 0.0098399841095036678 0.053165690093368995 0 0.010230909345748664 0.052030105993353649 0 0.010179452434530927 0.052999301689496056 0 0.010760677019331791 0.052533520018804999 0 0.010230909345748664 0.052030105993353649 0 0.0098399841095036678 0.053165690093368995 0 0.010179452434530927 0.052999301689496056 0 0.0098399841095036678 0.053165690093368995 0 0.010179452434530927 0.052999301689496056 0 0.0099256912346072628 0.054659498221951881 0 0.010470672613458881 0.053783395255724835 0 0.010760677019331791 0.052533520018804999 0 0.01128789385558712 0.055132569828294155 0 0.010267166773424955 0.05227841212604744 0 0.010533453981435814 0.052401161190342757 0 0.009220509082658564 0.051516156978303924 0 0.010179452434530927 0.052999301689496056 0 0.010470672613458881 0.053783395255724835 0 0.010760677019331791 0.052533520018804999 0 0.010179452434530927 0.052999301689496056 0 0.010470672613458881 0.053783395255724835 0 0.0099256912346072628 0.054659498221951881 0 0.010267166773424955 0.05227841212604744 0 0.010255682789112154 0.052391360141208605 0 0.0097699896829165946 0.052446733643672451 0 0.010267166773424955 0.05227841212604744 0 0.010255682789112154 0.052391360141208605 0 0.01052874404720262 0.052234812260575005 0 0.010714270008242923 0.052080538151026999 0 0.010951300565960264 0.052117795893731424 0 0.010255682789112154 0.052391360141208605 0 0.01052874404720262 0.052234812260575005 0 0.01058673560663481 0.052412965424503542 0 0.010255682789112154 0.052391360141208605 0 0.01058673560663481 0.052412965424503542 0 0.010079654055346828 0.052597843264636443 0 0.010951300565960264 0.052117795893731424 0 0.01093601081646807 0.05216752520870635 0 0.01052874404720262 0.052234812260575005 0 0.011086338565433236 0.052184641033893142 0 0.01058673560663481 0.052412965424503542 0 0.011086338565433236 0.052184641033893142 0 0.01058673560663481 0.052412965424503542 0 0.011221843967278954 0.052456565169225769 0 0.01058673560663481 0.052412965424503542 0 0.010646816644693939 0.052746671934591205 0 0.011221843967278954 0.052456565169225769 0 0.01058673560663481 0.052412965424503542 0 0.010232045182135371 0.052759742601600289 0 0.010646816644693939 0.052746671934591205 0 0.01058673560663481 0.052412965424503542 0 0.010232045182135371 0.052759742601600289 0 0.010079654055346828 0.052597843264636443 0 0.010232045182135371 0.052759742601600289 0 0.010646816644693939 0.052746671934591205 0 0.010115822056284135 0.053092937152479126 0 0.010633787195881051 0.053140917818280967 0 0.010646816644693939 0.052746671934591205 0 0.010115822056284135 0.053092937152479126 0 0.011587106145123973 0.052645412183505998 0 0.010646816644693939 0.052746671934591205 0 0.011221843967278954 0.052456565169225769 0 0.0095048248290108724 0.053414193431890751 0 0.0089721001521954804 0.053357031028157226 0 0.0090149107605720161 0.053919688929547946 0 0.0095048248290108724 0.053414193431890751 0 0.0097667318016997195 0.05298867373175075 0 0.0089721001521954804 0.053357031028157226 0 0.0095048248290108724 0.053414193431890751 0 0.010115822056284135 0.053092937152479126 0 0.0097667318016997195 0.05298867373175075 0 0.010232045182135371 0.052759742601600289 0 0.010115822056284135 0.053092937152479126 0 0.0097667318016997195 0.05298867373175075 0 0.0097667318016997195 0.05298867373175075 0 0.010079654055346828 0.052597843264636443 0 0.0094001888696294486 0.052818239360855661 0 0.010232045182135371 0.052759742601600289 0 0.0097667318016997195 0.05298867373175075 0 0.010079654055346828 0.052597843264636443 0 0.0097667318016997195 0.05298867373175075 0 0.0094001888696294486 0.052818239360855661 0 0.0089721001521954804 0.053357031028157226 0 0.0094001888696294486 0.052818239360855661 0 0.0091395298168818126 0.052516905290476666 0 0.0085847438918748922 0.052990641477786406 0 0.0094001888696294486 0.052818239360855661 0 0.0097699896829165946 0.052446733643672451 0 0.0091395298168818126 0.052516905290476666 0 0.010079654055346828 0.052597843264636443 0 0.0094001888696294486 0.052818239360855661 0 0.0097699896829165946 0.052446733643672451 0 0.010255682789112154 0.052391360141208605 0 0.010079654055346828 0.052597843264636443 0 0.0097699896829165946 0.052446733643672451 0 0.010267166773424955 0.05227841212604744 0 0.0097699896829165946 0.052446733643672451 0 0.0093962331433440141 0.052228121624170891 0 0.0091395298168818126 0.052516905290476666 0 0.0093962331433440141 0.052228121624170891 0 0.0084859223580174975 0.052359620620867464 0 0.0097699896829165946 0.052446733643672451 0 0.0091395298168818126 0.052516905290476666 0 0.0093962331433440141 0.052228121624170891 0 0.0085847438918748922 0.052990641477786406 0 0.0076135551393191007 0.052970112773579908 0 0.0077924850732288995 0.053792541534441116 0 0.0091395298168818126 0.052516905290476666 0 0.0085847438918748922 0.052990641477786406 0 0.0084859223580174975 0.052359620620867464 0 0.0085847438918748922 0.052990641477786406 0 0.0076135551393191007 0.052970112773579908 0 0.0084859223580174975 0.052359620620867464 0 0.0076135551393191007 0.052970112773579908 0 0.0064145881739778709 0.053649448170976756 0 0.0077924850732288995 0.053792541534441116 0 0.0064145881739778709 0.053649448170976756 0 0.0077924850732288995 0.053792541534441116 0 0.0063719708178850403 0.054514377151834055 0 0.0077924850732288995 0.053792541534441116 0 0.0089721001521954804 0.053357031028157226 0 0.0090149107605720161 0.053919688929547946 0 0.0085847438918748922 0.052990641477786406 0 0.0077924850732288995 0.053792541534441116 0 0.0089721001521954804 0.053357031028157226 0 0.0094001888696294486 0.052818239360855661 0 0.0085847438918748922 0.052990641477786406 0 0.0089721001521954804 0.053357031028157226 0 0.0050879373043369045 0.054503337522396542 0 0.0045426773442854059 0.05347750518948944 0 0.0035226057901494427 0.055109641311859407 0 0.0064145881739778709 0.053649448170976756 0 0.0050879373043369045 0.054503337522396542 0 0.0045426773442854059 0.05347750518948944 0 0.0064145881739778709 0.053649448170976756 0 0.0050879373043369045 0.054503337522396542 0 0.0063719708178850403 0.054514377151834055 0 0.0050879373043369045 0.054503337522396542 0 0.0063719708178850403 0.054514377151834055 0 0.0046916127033463486 0.055147211370714884 0 0.0050879373043369045 0.054503337522396542 0 0.0046916127033463486 0.055147211370714884 0 0.0035226057901494427 0.055109641311859407 0 0.0046916127033463486 0.055147211370714884 0 0.0049304828274749747 0.056089344000692237 0 0.0036698149990833312 0.055768326350150235 0 0.0063719708178850403 0.054514377151834055 0 0.0046916127033463486 0.055147211370714884 0 0.0064330731737087003 0.055197612310662864 0 0.0064330731737087003 0.055197612310662864 0 0.0049304828274749747 0.056089344000692237 0 0.0080685001643247684 0.056009159390259827 0 0.0046916127033463486 0.055147211370714884 0 0.0064330731737087003 0.055197612310662864 0 0.0049304828274749747 0.056089344000692237 0 0.0090149107605720161 0.053919688929547946 0 0.0077830050707336949 0.054515596822819479 0 0.0088687194783621717 0.054534815787481906 0 0.0077924850732288995 0.053792541534441116 0 0.0090149107605720161 0.053919688929547946 0 0.0077830050707336949 0.054515596822819479 0 0.00972029091813526 0.054008699803650646 0 0.0090149107605720161 0.053919688929547946 0 0.0088687194783621717 0.054534815787481906 0 0.0077924850732288995 0.053792541534441116 0 0.0063719708178850403 0.054514377151834055 0 0.0077830050707336949 0.054515596822819479 0 0.0063719708178850403 0.054514377151834055 0 0.0064330731737087003 0.055197612310662864 0 0.0077830050707336949 0.054515596822819479 0 0.0064330731737087003 0.055197612310662864 0 0.0077830050707336949 0.054515596822819479 0 0.0080485303183325113 0.055082231778027332 0 0.0064330731737087003 0.055197612310662864 0 0.0080485303183325113 0.055082231778027332 0 0.0080685001643247684 0.056009159390259827 0 0.0080485303183325113 0.055082231778027332 0 0.0088687194783621717 0.054534815787481906 0 0.0088454439889870898 0.055125102744107667 0 0.0077830050707336949 0.054515596822819479 0 0.0080485303183325113 0.055082231778027332 0 0.0088687194783621717 0.054534815787481906 0 0.0095300448605717975 0.054550237121249838 0 0.0088687194783621717 0.054534815787481906 0 0.0088454439889870898 0.055125102744107667 0 0.0094935964004079932 0.054944405518284382 0 0.0088454439889870898 0.055125102744107667 0 0.0091585933430207728 0.055327554711585111 0 0.0095300448605717975 0.054550237121249838 0 0.0094935964004079932 0.054944405518284382 0 0.0088454439889870898 0.055125102744107667 0 0.0080485303183325113 0.055082231778027332 0 0.0088454439889870898 0.055125102744107667 0 0.0080685001643247684 0.056009159390259827 0 0.0088454439889870898 0.055125102744107667 0 0.0080685001643247684 0.056009159390259827 0 0.0091585933430207728 0.055327554711585111 0 0.0080685001643247684 0.056009159390259827 0 0.0091585933430207728 0.055327554711585111 0 0.0091822012563941482 0.055242614937597731 0 0.0091585933430207728 0.055327554711585111 0 0.0093969659219617068 0.055158226096121296 0 0.0091822012563941482 0.055242614937597731 0 0.0097105187586932571 0.05510901234482489 0 0.0091585933430207728 0.055327554711585111 0 0.0093969659219617068 0.055158226096121296 0 0.0097105187586932571 0.05510901234482489 0 0.0091585933430207728 0.055327554711585111 0 0.0098374626468789722 0.05502734736985939 0 0.0094935964004079932 0.054944405518284382 0 0.0091585933430207728 0.055327554711585111 0 0.0098374626468789722 0.05502734736985939 0 0.0049304828274749747 0.056089344000692237 0 0.0044250646238045092 0.057403725606364128 0 0.0034580886880628027 0.056908326472240638 0 0.0049304828274749747 0.056089344000692237 0 0.0080685001643247684 0.056009159390259827 0 0.0044250646238045092 0.057403725606364128 0 0.0080520735808420306 0.056029362361670568 0 0.007006533745033368 0.056622089971657935 0 0.0080685001643247684 0.056009159390259827 0 0.0051653476784355515 0.05857665876903731 0 0.0044250646238045092 0.057403725606364128 0 0.0080685001643247684 0.056009159390259827 0 0.0091467787329810157 0.054767319588608407 0 0.0091822012563941482 0.055242614937597731 0 0.0051653476784355515 0.05857665876903731 0 0.0044250646238045092 0.057403725606364128 0 0.0035730713092526267 0.058369665553920938 0 0.0051653476784355515 0.05857665876903731 0 0.0029443824715448658 0.058968291480014465 0 0.0035730713092526267 0.058369665553920938 0 0.0091467787329810157 0.054767319588608407 0 0.0068756753651894069 0.057112752622177222 0 0.0047012249978536464 0.056381823098838053 0 0.0091467787329810157 0.054767319588608407 0 0.0095364675530865174 0.055303636757008369 0 0.0068756753651894069 0.057112752622177222 0 0.007006533745033368 0.056622089971657935 0 0.0038922959015068688 0.057715985637451894 0 0.009399992770657362 0.055485702541591297 0 0.0099195277681006777 0.055228327817868857 0 0.0095364675530865174 0.055303636757008369 0 0.0091822012563941482 0.055242614937597731 0 0.0096134940651650697 0.054949290068103583 0 0.0091467787329810157 0.054767319588608407 0 0.0095364675530865174 0.055303636757008369 0 0.0091822012563941482 0.055242614937597731 0 0.0095364675530865174 0.055303636757008369 0 0.010158041593756282 0.054621258975572531 0 0.0096134940651650697 0.054949290068103583 0 0.010158041593756282 0.054621258975572531 0 0.0096134940651650697 0.054949290068103583 0 0.00993685227690198 0.054245087554820597 0 0.010606265278876889 0.053758743359789293 0 0.010158041593756282 0.054621258975572531 0 0.00993685227690198 0.054245087554820597 0 0.010948395077269142 0.05410682692374242 0 0.010158041593756282 0.054621258975572531 0 0.011468559745509813 0.054645357172106682 0 0.010606265278876889 0.053758743359789293 0 0.010948395077269142 0.05410682692374242 0 0.010158041593756282 0.054621258975572531 0 0.0095364675530865174 0.055303636757008369 0 0.010158041593756282 0.054621258975572531 0 0.011468559745509813 0.054645357172106682 0 0.011636816739289679 0.053423813446164509 0 0.010948395077269142 0.05410682692374242 0 0.011468559745509813 0.054645357172106682 0 0.0099195277681006777 0.055228327817868857 0 0.00068102550801069854 0.055657907001397618 0 0.0096153106323880137 0.054923503606741482 0 0.010000097466706591 0.05461670899938656 0 0.010041602498953509 0.054927540036242103 0 0.0097105187586932571 0.05510901234482489 0 0.0096153106323880137 0.054923503606741482 0 0.010041602498953509 0.054927540036242103 0 0.0097105187586932571 0.05510901234482489 0 0.0096153106323880137 0.054923503606741482 0 0.0093969659219617068 0.055158226096121296 0 0.0096153106323880137 0.054923503606741482 0 0.0093969659219617068 0.055158226096121296 0 0.0091822012563941482 0.055242614937597731 0 0.0096153106323880137 0.054923503606741482 0 0.0091822012563941482 0.055242614937597731 0 0.009619361095618905 0.054720432007871321 0 0.0091822012563941482 0.055242614937597731 0 0.0096134940651650697 0.054949290068103583 0 0.009619361095618905 0.054720432007871321 0 0.0096134940651650697 0.054949290068103583 0 0.009619361095618905 0.054720432007871321 0 0.00993685227690198 0.054245087554820597 0 0.0097210851940353962 0.054076996533776393 0 0.009619361095618905 0.054720432007871321 0 0.00993685227690198 0.054245087554820597 0 0.0097210851940353962 0.054076996533776393 0 0.009619361095618905 0.054720432007871321 0 0.0097828522831129687 0.054413796064761828 0 0.0096153106323880137 0.054923503606741482 0 0.009619361095618905 0.054720432007871321 0 0.0097828522831129687 0.054413796064761828 0 0.0096153106323880137 0.054923503606741482 0 0.0097828522831129687 0.054413796064761828 0 0.010000097466706591 0.05461670899938656 0 0.010065667464043589 0.054288918264721465 0 0.0097828522831129687 0.054413796064761828 0 0.010000097466706591 0.05461670899938656 0 0.010158742626375923 0.054448468331967315 0 0.010347106878131552 0.05464110575272562 0 0.010000097466706591 0.05461670899938656 0 0.010065667464043589 0.054288918264721465 0 0.010158742626375923 0.054448468331967315 0 0.010000097466706591 0.05461670899938656 0 0.01022568473065606 0.054230452038359876 0 0.010158742626375923 0.054448468331967315 0 0.010347106878131552 0.05464110575272562 0 0.010347106878131552 0.05464110575272562 0 0.010041602498953509 0.054927540036242103 0 0.010424550959817317 0.05499894814725783 0 0.010347106878131552 0.05464110575272562 0 0.010000097466706591 0.05461670899938656 0 0.010041602498953509 0.054927540036242103 0 0.01022568473065606 0.054230452038359876 0 0.010347106878131552 0.05464110575272562 0 0.010874736518167099 0.054747368991311107 0 0.010347106878131552 0.05464110575272562 0 0.010874736518167099 0.054747368991311107 0 0.010696910816786847 0.054987307479836253 0 0.010347106878131552 0.05464110575272562 0 0.010696910816786847 0.054987307479836253 0 0.010424550959817317 0.05499894814725783 0 0.010874736518167099 0.054747368991311107 0 0.011081757478650979 0.055212375720539171 0 0.010696910816786847 0.054987307479836253 0 0.010874736518167099 0.054747368991311107 0 0.011081757478650979 0.055212375720539171 0 0.011513995070605101 0.055441471964430472 0 0.011081757478650979 0.055212375720539171 0 0.010696910816786847 0.054987307479836253 0 0.010732860137809844 0.055113397012715955 0 0.010696910816786847 0.054987307479836253 0 0.010732860137809844 0.055113397012715955 0 0.010424550959817317 0.05499894814725783 0 0.010732860137809844 0.055113397012715955 0 0.010271428873576035 0.055064125609055707 0 0.010801086352661844 0.055016548926758932 0 0.010732860137809844 0.055113397012715955 0 0.010424550959817317 0.05499894814725783 0 0.010271428873576035 0.055064125609055707 0 0.011081757478650979 0.055212375720539171 0 0.010732860137809844 0.055113397012715955 0 0.011168757074289767 0.055177362449667887 0 0.010732860137809844 0.055113397012715955 0 0.011168757074289767 0.055177362449667887 0 0.010801086352661844 0.055016548926758932 0 0.011081757478650979 0.055212375720539171 0 0.011168757074289767 0.055177362449667887 0 0.011513995070605101 0.055441471964430472 0 0.010041602498953509 0.054927540036242103 0 0.010424550959817317 0.05499894814725783 0 0.010271428873576035 0.055064125609055707 0 0.0097105187586932571 0.05510901234482489 0 0.010041602498953509 0.054927540036242103 0 0.010271428873576035 0.055064125609055707 0 0.0097105187586932571 0.05510901234482489 0 0.010271428873576035 0.055064125609055707 0 0.0098374626468789722 0.05502734736985939 0 0.010271428873576035 0.055064125609055707 0 0.0098374626468789722 0.05502734736985939 0 0.010606436051021807 0.0548102140316905 0 0.010271428873576035 0.055064125609055707 0 0.010801086352661844 0.055016548926758932 0 0.010606436051021807 0.0548102140316905 0 0.010801086352661844 0.055016548926758932 0 0.01128584007430619 0.054876229858477732 0 0.010606436051021807 0.0548102140316905 0 0.011168757074289767 0.055177362449667887 0 0.010801086352661844 0.055016548926758932 0 0.01128584007430619 0.054876229858477732 0 0.011168757074289767 0.055177362449667887 0 0.01128584007430619 0.054876229858477732 0 0.011736258104544903 0.05515476056889692 0 0.01128584007430619 0.054876229858477732 0 0.011358558895225905 0.054490254323872889 0 0.010606436051021807 0.0548102140316905 0 0.010606436051021807 0.0548102140316905 0 0.010904501419995154 0.054345891513524348 0 0.010208439434442969 0.054550563699042223 0 0.011358558895225905 0.054490254323872889 0 0.010606436051021807 0.0548102140316905 0 0.010904501419995154 0.054345891513524348 0 0.011358558895225905 0.054490254323872889 0 0.010904501419995154 0.054345891513524348 0 0.011917050701657998 0.053888374640147257 0 0.010984640512948445 0.053974924381984465 0 0.010904501419995154 0.054345891513524348 0 0.011917050701657998 0.053888374640147257 0 0.010984640512948445 0.053974924381984465 0 0.010904501419995154 0.054345891513524348 0 0.010208439434442969 0.054550563699042223 0 0.0095300448605717975 0.054550237121249838 0 0.0094935964004079932 0.054944405518284382 0 0.010208439434442969 0.054550563699042223 0 0.0094935964004079932 0.054944405518284382 0 0.0098374626468789722 0.05502734736985939 0 0.010208439434442969 0.054550563699042223 0 0.0098374626468789722 0.05502734736985939 0 0.010606436051021807 0.0548102140316905 0 0.010208439434442969 0.054550563699042223 0 0.013219496994845358 0.053086090772799598 0 0.013623142550378635 0.053647469665211181 0 0.01488171393170205 0.053128518866687305 0 0.013623142550378635 0.053647469665211181 0 0.015476964891228814 0.054382446548054547 0 0.01488171393170205 0.053128518866687305 0 0.013219496994845358 0.053086090772799598 0 0.013623142550378635 0.053647469665211181 0 0.011917050701657998 0.053888374640147257 0 0.011358558895225905 0.054490254323872889 0 0.011917050701657998 0.053888374640147257 0 0.012293156462409742 0.054499152232479295 0 0.013623142550378635 0.053647469665211181 0 0.011917050701657998 0.053888374640147257 0 0.012293156462409742 0.054499152232479295 0 0.012293156462409742 0.054499152232479295 0 0.01262154265373416 0.055080702358355271 0 0.015476964891228814 0.054382446548054547 0 0.01128584007430619 0.054876229858477732 0 0.011358558895225905 0.054490254323872889 0 0.012293156462409742 0.054499152232479295 0 0.01128584007430619 0.054876229858477732 0 0.012293156462409742 0.054499152232479295 0 0.011736258104544903 0.05515476056889692 0 0.012293156462409742 0.054499152232479295 0 0.011736258104544903 0.05515476056889692 0 0.01262154265373416 0.055080702358355271 0 0.011736258104544903 0.05515476056889692 0 0.01262154265373416 0.055080702358355271 0 0.011946965401497041 0.055419109936246769 0 0.013623142550378635 0.053647469665211181 0 0.012293156462409742 0.054499152232479295 0 0.015476964891228814 0.054382446548054547 0 0.01262154265373416 0.055080702358355271 0 0.015476964891228814 0.054382446548054547 0 0.012095398000843477 0.055828590622644413 0 0.015832752277765282 0.054166042165713982 0 0.01655456945107401 0.05364082314719678 0 0.02145117152388817 0.051306965524278575 0 0.022091081624424379 0.051209858773826701 0 0.022095492587915294 0.051384074106169381 0 0.021315894396320399 0.051408293911065522 0 0.018709766690363876 0.052233885017406431 0 0.02145117152388817 0.051306965524278575 0 0.021169655128074092 0.051701032961050365 0 0.014994664689167235 0.053126310005679855 0 0.015476964891228814 0.054382446548054547 0 0.021169655128074092 0.051701032961050365 0 0.014994664689167235 0.053126310005679855 0 0.022785679740049646 0.050727579521646693 0 0.02145117152388817 0.051306965524278575 0 0.021169655128074092 0.051701032961050365 0 0.010874736518167099 0.054747368991311107 0 0.011513995070605101 0.055441471964430472 0 0.012095398000843477 0.055828590622644413 0 0.011168757074289767 0.055177362449667887 0 0.011736258104544903 0.05515476056889692 0 0.011513995070605101 0.055441471964430472 0 0.011736258104544903 0.05515476056889692 0 0.011513995070605101 0.055441471964430472 0 0.011946965401497041 0.055419109936246769 0 0.011513995070605101 0.055441471964430472 0 0.011946965401497041 0.055419109936246769 0 0.012095398000843477 0.055828590622644413 0 0.01262154265373416 0.055080702358355271 0 0.011946965401497041 0.055419109936246769 0 0.012095398000843477 0.055828590622644413 0 0.017366572765512522 0.052415153011656522 0 0.01655456945107401 0.05364082314719678 0 0.022785679740049646 0.050727579521646693 0 0.02145117152388817 0.051306965524278575 0 0.022802176387663388 0.050785770727640255 0 0.02145117152388817 0.051306965524278575 0 0.022802176387663388 0.050785770727640255 0 0.022091081624424379 0.051209858773826701 0 0.022972391777950678 0.050760653612148293 0 0.022785679740049646 0.050727579521646693 0 0.022802176387663388 0.050785770727640255 0 0.022802176387663388 0.050785770727640255 0 0.022091081624424379 0.051209858773826701 0 0.022413178980329577 0.050987744193115261 0 0.023406781779027587 0.050352879048935859 0 0.022802176387663388 0.050785770727640255 0 0.022413178980329577 0.050987744193115261 0 0.022091081624424379 0.051209858773826701 0 0.022413178980329577 0.050987744193115261 0 0.022095492587915294 0.051384074106169381 0 0.022712015410772477 0.049945718209285624 0 0.022413178980329577 0.050987744193115261 0 0.021957675217986548 0.050892916822515739 0 0.022413178980329577 0.050987744193115261 0 0.021957675217986548 0.050892916822515739 0 0.022095492587915294 0.051384074106169381 0 0.022095492587915294 0.051384074106169381 0 0.021198851507253959 0.051171908319035092 0 0.021374008886785437 0.051512184897954845 0 0.018709766690363876 0.052233885017406431 0 0.019562458987726655 0.052706749672864546 0 0.021662097743373281 0.050203517251714569 0 0.021957675217986548 0.050892916822515739 0 0.021198851507253959 0.051171908319035092 0 0.021957675217986548 0.050892916822515739 0 0.022095492587915294 0.051384074106169381 0 0.021198851507253959 0.051171908319035092 0 0.021198851507253959 0.051171908319035092 0 0.02130961990565013 0.051647921881711939 0 0.021374008886785437 0.051512184897954845 0 0.020355155928183193 0.050500952229942983 0 0.021198851507253959 0.051171908319035092 0 0.02130961990565013 0.051647921881711939 0 0.02130961990565013 0.051647921881711939 0 0.021374008886785437 0.051512184897954845 0 0.022708946963177597 0.052088452656345312 0 0.023436534473649667 0.052160258359706752 0 0.02130961990565013 0.051647921881711939 0 0.022708946963177597 0.052088452656345312 0 0.021374008886785437 0.051512184897954845 0 0.022708946963177597 0.052088452656345312 0 0.022412567420560144 0.052363573165858338 0 0.019562458987726655 0.052706749672864546 0 0.022159100349357745 0.052414186156543079 0 0.017691540993542944 0.054010641748209562 0 0.020632421009584418 0.051220103979745434 0 0.01779061949920166 0.051783104364644686 0 0.017691540993542944 0.054010641748209562 0 0.01779061949920166 0.051783104364644686 0 0.015632691853712383 0.053072016074773139 0 0.017691540993542944 0.054010641748209562 0 0.020632421009584418 0.051220103979745434 0 0.022412567420560144 0.052363573165858338 0 0.020632421009584418 0.051220103979745434 0 0.021860284213226965 0.049237463394877987 0 0.019444192041779624 0.049910049531729547 0 0.020632421009584418 0.051220103979745434 0 0.01779061949920166 0.051783104364644686 0 0.019444192041779624 0.049910049531729547 0 0.01779061949920166 0.051783104364644686 0 0.016054897290256141 0.051508744290143745 0 0.017659159576026904 0.050214542904146994 0 0.01779061949920166 0.051783104364644686 0 0.015632691853712383 0.053072016074773139 0 0.016054897290256141 0.051508744290143745 0 0.015476964891228814 0.054382446548054547 0 0.01488171393170205 0.053128518866687305 0 0.015632691853712383 0.053072016074773139 0 0.01488171393170205 0.053128518866687305 0 0.015632691853712383 0.053072016074773139 0 0.016054897290256141 0.051508744290143745 0 0.015476964891228814 0.054382446548054547 0 0.014994664689167235 0.053126310005679855 0 0.015632691853712383 0.053072016074773139 0 0.014994664689167235 0.053126310005679855 0 0.017691540993542944 0.054010641748209562 0 0.015632691853712383 0.053072016074773139 0 0.029793598394191136 0.051315954285231488 0 0.029490174767053647 0.051296701213864648 0 0.028657977517481063 0.050840484100448356 0 0.029592732180679478 0.051307038383658458 0 0.027393262251892578 0.052011428677343902 0 0.029793598394191136 0.051315954285231488 0 0.02611254825361338 0.053334820869946571 0 0.027002059574915478 0.051319645739254287 0 0.029490174767053647 0.051296701213864648 0 0.02893399081870484 0.051162846775748651 0 0.028657977517481063 0.050840484100448356 0 0.025345501088592789 0.051435772934729347 0 0.027393262251892578 0.052011428677343902 0 0.027685485590649296 0.050311916308070734 0 0.02893399081870484 0.051162846775748651 0 0.028657977517481063 0.050840484100448356 0 0.02611254825361338 0.053334820869946571 0 0.025345971228865352 0.052221006901999094 0 0.027002059574915478 0.051319645739254287 0 0.02611254825361338 0.053334820869946571 0 0.025345971228865352 0.052221006901999094 0 0.023753179250839831 0.052641655289537799 0 0.023753179250839831 0.052641655289537799 0 0.022412567420560144 0.052363573165858338 0 0.024813015224441785 0.051249903292179877 0 0.025345971228865352 0.052221006901999094 0 0.023753179250839831 0.052641655289537799 0 0.024813015224441785 0.051249903292179877 0 0.023248966604524385 0.052951401676415329 0 0.02611254825361338 0.053334820869946571 0 0.023753179250839831 0.052641655289537799 0 0.023248966604524385 0.052951401676415329 0 0.023753179250839831 0.052641655289537799 0 0.023430831249985958 0.052563545488320922 0 0.023753179250839831 0.052641655289537799 0 0.023430831249985958 0.052563545488320922 0 0.022708946963177597 0.052088452656345312 0 0.023436534473649667 0.052160258359706752 0 0.023430831249985958 0.052563545488320922 0 0.022708946963177597 0.052088452656345312 0 0.023753179250839831 0.052641655289537799 0 0.022708946963177597 0.052088452656345312 0 0.022412567420560144 0.052363573165858338 0 0.022412567420560144 0.052363573165858338 0 0.022823185832298112 0.050805473609665426 0 0.024813015224441785 0.051249903292179877 0 0.020632421009584418 0.051220103979745434 0 0.022412567420560144 0.052363573165858338 0 0.022823185832298112 0.050805473609665426 0 0.022823185832298112 0.050805473609665426 0 0.024314557272057353 0.049464047032840894 0 0.021860284213226965 0.049237463394877987 0 0.020632421009584418 0.051220103979745434 0 0.022823185832298112 0.050805473609665426 0 0.021860284213226965 0.049237463394877987 0 0.024314557272057353 0.049464047032840894 0 0.024813015224441785 0.051249903292179877 0 0.026236482790710485 0.049482591268542188 0 0.022823185832298112 0.050805473609665426 0 0.024314557272057353 0.049464047032840894 0 0.024813015224441785 0.051249903292179877 0 0.024813015224441785 0.051249903292179877 0 0.027002059574915478 0.051319645739254287 0 0.02740002992449727 0.050165900588089625 0 0.025345971228865352 0.052221006901999094 0 0.024813015224441785 0.051249903292179877 0 0.027002059574915478 0.051319645739254287 0 0.024813015224441785 0.051249903292179877 0 0.02740002992449727 0.050165900588089625 0 0.026236482790710485 0.049482591268542188 0 0.02740002992449727 0.050165900588089625 0 0.026236482790710485 0.049482591268542188 0 0.028991665873731788 0.048262584805421546 0 0.02740002992449727 0.050165900588089625 0 0.02925655685031989 0.049745285704799462 0 0.028991665873731788 0.048262584805421546 0 0.027002059574915478 0.051319645739254287 0 0.02740002992449727 0.050165900588089625 0 0.02925655685031989 0.049745285704799462 0 0.029793598394191136 0.051315954285231488 0 0.027002059574915478 0.051319645739254287 0 0.02925655685031989 0.049745285704799462 0 0.032604719186757357 0.044299475256791267 0 0.028435367141708752 0.046159287055342842 0 0.028655791780938737 0.043583985670262407 0 0.032604719186757357 0.044299475256791267 0 0.028991665873731788 0.048262584805421546 0 0.028435367141708752 0.046159287055342842 0 0.0320458919643061 0.047650562786070903 0 0.02925655685031989 0.049745285704799462 0 0.028991665873731788 0.048262584805421546 0 0.028991665873731788 0.048262584805421546 0 0.026250629872189075 0.047935190821604044 0 0.028435367141708752 0.046159287055342842 0 0.026236482790710485 0.049482591268542188 0 0.028991665873731788 0.048262584805421546 0 0.026250629872189075 0.047935190821604044 0 0.024314557272057353 0.049464047032840894 0 0.026236482790710485 0.049482591268542188 0 0.026250629872189075 0.047935190821604044 0 0.026250629872189075 0.047935190821604044 0 0.028435367141708752 0.046159287055342842 0 0.026019229029872679 0.045849303052701754 0 0.028435367141708752 0.046159287055342842 0 0.026019229029872679 0.045849303052701754 0 0.028655791780938737 0.043583985670262407 0 0.026019229029872679 0.045849303052701754 0 0.02346803652288949 0.04634831124972727 0 0.025103624553808178 0.044659275248823724 0 0.02346803652288949 0.04634831124972727 0 0.021741797578741607 0.045477962446241672 0 0.025103624553808178 0.044659275248823724 0 0.026019229029872679 0.045849303052701754 0 0.02346803652288949 0.04634831124972727 0 0.02373785853776254 0.04784246344777008 0 0.026250629872189075 0.047935190821604044 0 0.026019229029872679 0.045849303052701754 0 0.02373785853776254 0.04784246344777008 0 0.024314557272057353 0.049464047032840894 0 0.02373785853776254 0.04784246344777008 0 0.021860284213226965 0.049237463394877987 0 0.024314557272057353 0.049464047032840894 0 0.026250629872189075 0.047935190821604044 0 0.02373785853776254 0.04784246344777008 0 0.021860284213226965 0.049237463394877987 0 0.021438510064567234 0.047262734303443472 0 0.020189537681518183 0.04834512821251355 0 0.02373785853776254 0.04784246344777008 0 0.021860284213226965 0.049237463394877987 0 0.021438510064567234 0.047262734303443472 0 0.02346803652288949 0.04634831124972727 0 0.02373785853776254 0.04784246344777008 0 0.021438510064567234 0.047262734303443472 0 0.02346803652288949 0.04634831124972727 0 0.021438510064567234 0.047262734303443472 0 0.021741797578741607 0.045477962446241672 0 0.021438510064567234 0.047262734303443472 0 0.020779056166998131 0.046264455995282283 0 0.021741797578741607 0.045477962446241672 0 0.020779056166998131 0.046264455995282283 0 0.021741797578741607 0.045477962446241672 0 0.020820570848224959 0.046171360760623031 0 0.021741797578741607 0.045477962446241672 0 0.020820570848224959 0.046171360760623031 0 0.021125874457811371 0.046017050352808869 0 0.020820570848224959 0.046171360760623031 0 0.019821832461596068 0.04625118287700157 0 0.020558200134285554 0.046210972168527327 0 0.020820570848224959 0.046171360760623031 0 0.020859000250526987 0.046180927562913886 0 0.020558200134285554 0.046210972168527327 0 0.020820570848224959 0.046171360760623031 0 0.020859000250526987 0.046180927562913886 0 0.021125874457811371 0.046017050352808869 0 0.027835688525563881 0.047302234934307658 0 0.027966301442181936 0.049308507832429793 0 0.020859000250526987 0.046180927562913886 0 0.020748911032098513 0.046029718932839248 0 0.021125874457811371 0.046017050352808869 0 0.035032134036337863 0.053616959680726405 0 0.035320462992369336 0.053266124125032802 0 0.03506373596304671 0.053040094107520024 0 0.020859000250526987 0.046180927562913886 0 0.020748911032098513 0.046029718932839248 0 0.020822884233321345 0.04622849697707327 0 0.021741797578741607 0.045477962446241672 0 0.020748911032098513 0.046029718932839248 0 0.021125874457811371 0.046017050352808869 0 0.02130739153292583 0.045789335162009191 0 0.027835688525563881 0.047302234934307658 0 0.021741797578741607 0.045477962446241672 0 0.024945075765124166 0.042466206853587055 0 0.025103624553808178 0.044659275248823724 0 0.025178335237575029 0.041818631827017033 0 0.025103624553808178 0.044659275248823724 0 0.027180231843540948 0.043095303222458886 0 0.027835688525563881 0.047302234934307658 0 0.02594103037278549 0.043324591436569131 0 0.028655791780938737 0.043583985670262407 0 0.028132695135742097 0.04182807261034964 0 0.031340973842829668 0.041936997042995638 0 0.026019229029872679 0.045849303052701754 0 0.025103624553808178 0.044659275248823724 0 0.027180231843540948 0.043095303222458886 0 0.026019229029872679 0.045849303052701754 0 0.027180231843540948 0.043095303222458886 0 0.028655791780938737 0.043583985670262407 0 0.027180231843540948 0.043095303222458886 0 0.028655791780938737 0.043583985670262407 0 0.028132695135742097 0.04182807261034964 0 0.025178335237575029 0.041818631827017033 0 0.027180231843540948 0.043095303222458886 0 0.028132695135742097 0.04182807261034964 0 0.027835688525563881 0.047302234934307658 0 0.034028988886873508 0.047511481974764416 0 0.025178335237575029 0.041818631827017033 0 0.028132695135742097 0.04182807261034964 0 0.031768821637050151 0.041536963658175247 0 0.035032134036337863 0.053616959680726405 0 0.035320462992369336 0.053266124125032802 0 0.035734804618120321 0.053356364998330075 0 0.035320462992369336 0.053266124125032802 0 0.035734804618120321 0.053356364998330075 0 0.035479762091578951 0.053067416149235276 0 0.034953080965208841 0.044369490984787312 0 0.028132695135742097 0.04182807261034964 0 0.031768821637050151 0.041536963658175247 0 0.034168132312451478 0.041535308589133305 0 0.028817507225773746 0.041808198965306173 0 0.033170993223843655 0.038763371141226216 0 0.028132695135742097 0.04182807261034964 0 0.031340973842829668 0.041936997042995638 0 0.032604719186757357 0.044299475256791267 0 0.028655791780938737 0.043583985670262407 0 0.031340973842829668 0.041936997042995638 0 0.016361108520024575 0.049043129573726515 0 0.01607883991857122 0.046957025433515466 0 0.014675231517545954 0.047133486103830516 0 0.016361108520024575 0.049043129573726515 0 0.01349164314091889 0.049124096054229363 0 0.012832015526281947 0.048107967400404496 0 0.016390762973907336 0.049111179275487971 0 0.012714502792801995 0.048267192975950619 0 0.016361108520024575 0.049043129573726515 0 0.017495335917687111 0.04710300382751937 0 0.01607883991857122 0.046957025433515466 0 0.01349164314091889 0.049124096054229363 0 0.011972296859669253 0.050013669428494362 0 0.012594258732494992 0.049275695948125239 0 0.013116737052092464 0.049078205927030903 0 0.012714502792801995 0.048267192975950619 0 0.011323089282049234 0.050149606535070612 0 0.011972296859669253 0.050013669428494362 0 0.012594258732494992 0.049275695948125239 0 0.014452327264620446 0.052126361443287805 0 0.014540901028838239 0.052513525511531912 0 0.016054897290256141 0.051508744290143745 0 0.01349164314091889 0.049124096054229363 0 0.011972296859669253 0.050013669428494362 0 0.016054897290256141 0.051508744290143745 0 0.013285942012410585 0.051076017284364797 0 0.015788375705415535 0.051617253255479098 0 0.01488171393170205 0.053128518866687305 0 0.014540901028838239 0.052513525511531912 0 0.016054897290256141 0.051508744290143745 0 0.016361108520024575 0.049043129573726515 0 0.01349164314091889 0.049124096054229363 0 0.016054897290256141 0.051508744290143745 0 0.016361108520024575 0.049043129573726515 0 0.016054897290256141 0.051508744290143745 0 0.017659159576026904 0.050214542904146994 0 0.01779061949920166 0.051783104364644686 0 0.017659159576026904 0.050214542904146994 0 0.019444192041779624 0.049910049531729547 0 0.017659159576026904 0.050214542904146994 0 0.019444192041779624 0.049910049531729547 0 0.0184749054874534 0.048328581969788009 0 0.016361108520024575 0.049043129573726515 0 0.017659159576026904 0.050214542904146994 0 0.0184749054874534 0.048328581969788009 0 0.019444192041779624 0.049910049531729547 0 0.020189537681518183 0.04834512821251355 0 0.0184749054874534 0.048328581969788009 0 0.021860284213226965 0.049237463394877987 0 0.019444192041779624 0.049910049531729547 0 0.020189537681518183 0.04834512821251355 0 0.021438510064567234 0.047262734303443472 0 0.020189537681518183 0.04834512821251355 0 0.0197843621599273 0.047165664420963774 0 0.020189537681518183 0.04834512821251355 0 0.0197843621599273 0.047165664420963774 0 0.0184749054874534 0.048328581969788009 0 0.0197843621599273 0.047165664420963774 0 0.0184749054874534 0.048328581969788009 0 0.018796320263124257 0.046698785665152176 0 0.021438510064567234 0.047262734303443472 0 0.020779056166998131 0.046264455995282283 0 0.0197843621599273 0.047165664420963774 0 0.016361108520024575 0.049043129573726515 0 0.0184749054874534 0.048328581969788009 0 0.017495335917687111 0.04710300382751937 0 0.0184749054874534 0.048328581969788009 0 0.017495335917687111 0.04710300382751937 0 0.018796320263124257 0.046698785665152176 0 0.017495335917687111 0.04710300382751937 0 0.018182648847826499 0.045978559331856857 0 0.016835125700249996 0.045996585406055307 0 0.017495335917687111 0.04710300382751937 0 0.018796320263124257 0.046698785665152176 0 0.018182648847826499 0.045978559331856857 0 0.018796320263124257 0.046698785665152176 0 0.018182648847826499 0.045978559331856857 0 0.018973814145182927 0.045592931427421483 0 0.018182648847826499 0.045978559331856857 0 0.018591785362523001 0.045364288495515361 0 0.018219814431482708 0.04517548140510682 0 0.018182648847826499 0.045978559331856857 0 0.018973814145182927 0.045592931427421483 0 0.018591785362523001 0.045364288495515361 0 0.018182648847826499 0.045978559331856857 0 0.018219814431482708 0.04517548140510682 0 0.016835125700249996 0.045996585406055307 0 0.020820570848224959 0.046171360760623031 0 0.018973814145182927 0.045592931427421483 0 0.018627905234660423 0.044927295889440763 0 0.020820570848224959 0.046171360760623031 0 0.018973814145182927 0.045592931427421483 0 0.019908079833297444 0.046266278090027028 0 0.020779056166998131 0.046264455995282283 0 0.020820570848224959 0.046171360760623031 0 0.019908079833297444 0.046266278090027028 0 0.020779056166998131 0.046264455995282283 0 0.0197843621599273 0.047165664420963774 0 0.019908079833297444 0.046266278090027028 0 0.0197843621599273 0.047165664420963774 0 0.018796320263124257 0.046698785665152176 0 0.019908079833297444 0.046266278090027028 0 0.018796320263124257 0.046698785665152176 0 0.018973814145182927 0.045592931427421483 0 0.019908079833297444 0.046266278090027028 0 0.020820570848224959 0.046171360760623031 0 0.018363581106609267 0.047450397969400336 0 0.019821832461596068 0.04625118287700157 0 0.020359393848816416 0.045411545761925777 0 0.018417993658058133 0.050186772048290786 0 0.018417993658058133 0.050186772048290786 0 0.020268081236969337 0.054615224981773576 0 0.020115264086819164 0.063147333175121348 0 0.019973545650031611 0.062323941820759274 0 0.021077728898932245 0.061902309817228204 0 0.018417993658058133 0.050186772048290786 0 0.017234276908422001 0.054055317746095857 0 0.020115264086819164 0.063147333175121348 0 0.019127543522625672 0.062715932739859301 0 0.017937274791179347 0.063483187597288437 0 0.018219814431482708 0.04517548140510682 0 0.018543574169447588 0.044856798907103576 0 0.016006596520420933 0.044506376992960339 0 0.018591785362523001 0.045364288495515361 0 0.018219814431482708 0.04517548140510682 0 0.018627905234660423 0.044927295889440763 0 0.019033733312602431 0.048998090090008259 0 0.018417993658058133 0.050186772048290786 0 0.018973814145182927 0.045592931427421483 0 0.018591785362523001 0.045364288495515361 0 0.018627905234660423 0.044927295889440763 0 0.020115264086819164 0.063147333175121348 0 0.019127543522625672 0.062715932739859301 0 0.019973545650031611 0.062323941820759274 0 0.019127543522625672 0.062715932739859301 0 0.017937274791179347 0.063483187597288437 0 0.018360218847195398 0.0626095188147274 0 0.018219814431482708 0.04517548140510682 0 0.016006596520420933 0.044506376992960339 0 0.016835125700249996 0.045996585406055307 0 0.016835125700249996 0.045996585406055307 0 0.015447873449633834 0.045753135303440405 0 0.01607883991857122 0.046957025433515466 0 0.016006596520420933 0.044506376992960339 0 0.016835125700249996 0.045996585406055307 0 0.015447873449633834 0.045753135303440405 0 0.015447873449633834 0.045753135303440405 0 0.01607883991857122 0.046957025433515466 0 0.014675231517545954 0.047133486103830516 0 0.017495335917687111 0.04710300382751937 0 0.016835125700249996 0.045996585406055307 0 0.01607883991857122 0.046957025433515466 0 0.011323089282049234 0.050149606535070612 0 0.010501636021920143 0.050759632077497119 0 0.012594258732494992 0.049275695948125239 0 0.011716286405465074 0.051872951551742687 0 0.012714502792801995 0.048267192975950619 0 0.015447873449633834 0.045753135303440405 0 0.014675231517545954 0.047133486103830516 0 0.013756692787558774 0.044209958804009943 0 0.012714502792801995 0.048267192975950619 0 0.014505108924649625 0.056054416899797149 0 0.012717419557053355 0.05289930255116488 0 0.011312407629885958 0.051645175741952216 0 0.01197945298622536 0.053695454728868899 0 0.016006596520420933 0.044506376992960339 0 0.015447873449633834 0.045753135303440405 0 0.013756692787558774 0.044209958804009943 0 0.017234276908422001 0.054055317746095857 0 0.014505108924649625 0.056054416899797149 0 0.017937274791179347 0.063483187597288437 0 0.016082732699709203 0.06338358567697791 0 0.017399377554662556 0.06215292968251511 0 0.016082732699709203 0.06338358567697791 0 0.017399377554662556 0.06215292968251511 0 0.014983910038597956 0.061671588813217486 0 0.014505108924649625 0.056054416899797149 0 0.014464692987912271 0.063103420836135349 0 0.016814849998670875 0.060914596789735292 0 0.017399377554662556 0.06215292968251511 0 0.014983910038597956 0.061671588813217486 0 0.016814849998670875 0.060914596789735292 0 0.015020984783406298 0.059585749919812636 0 0.014983910038597956 0.061671588813217486 0 0.016814849998670875 0.060914596789735292 0 0.018686033426451469 0.061072050913030189 0 0.017902215722597443 0.059717949449774696 0 0.016814849998670875 0.060914596789735292 0 0.017399377554662556 0.06215292968251511 0 0.018686033426451469 0.061072050913030189 0 0.017937274791179347 0.063483187597288437 0 0.017399377554662556 0.06215292968251511 0 0.018360218847195398 0.0626095188147274 0 0.017399377554662556 0.06215292968251511 0 0.019193120056908052 0.062094715980008167 0 0.018686033426451469 0.061072050913030189 0 0.017399377554662556 0.06215292968251511 0 0.018360218847195398 0.0626095188147274 0 0.019193120056908052 0.062094715980008167 0 0.019127543522625672 0.062715932739859301 0 0.018360218847195398 0.0626095188147274 0 0.019193120056908052 0.062094715980008167 0 0.019127543522625672 0.062715932739859301 0 0.019193120056908052 0.062094715980008167 0 0.019973545650031611 0.062323941820759274 0 0.019193120056908052 0.062094715980008167 0 0.020075819019789817 0.061705657332497693 0 0.018686033426451469 0.061072050913030189 0 0.019193120056908052 0.062094715980008167 0 0.019973545650031611 0.062323941820759274 0 0.020075819019789817 0.061705657332497693 0 0.021077728898932245 0.061902309817228204 0 0.02030360061572881 0.060988057763552414 0 0.021707672079835993 0.061144535475679877 0 0.020075819019789817 0.061705657332497693 0 0.021077728898932245 0.061902309817228204 0 0.02030360061572881 0.060988057763552414 0 0.019973545650031611 0.062323941820759274 0 0.020075819019789817 0.061705657332497693 0 0.021077728898932245 0.061902309817228204 0 0.02030360061572881 0.060988057763552414 0 0.020569350815311402 0.059885416740071161 0 0.021707672079835993 0.061144535475679877 0 0.02030360061572881 0.060988057763552414 0 0.018686033426451469 0.061072050913030189 0 0.019284871067660633 0.059959268134627972 0 0.020075819019789817 0.061705657332497693 0 0.02030360061572881 0.060988057763552414 0 0.018686033426451469 0.061072050913030189 0 0.019284871067660633 0.059959268134627972 0 0.019375496867048474 0.058533375443055681 0 0.017902215722597443 0.059717949449774696 0 0.018686033426451469 0.061072050913030189 0 0.019284871067660633 0.059959268134627972 0 0.017902215722597443 0.059717949449774696 0 0.019284871067660633 0.059959268134627972 0 0.020569350815311402 0.059885416740071161 0 0.019375496867048474 0.058533375443055681 0 0.02030360061572881 0.060988057763552414 0 0.019284871067660633 0.059959268134627972 0 0.020569350815311402 0.059885416740071161 0 0.020569350815311402 0.059885416740071161 0 0.019375496867048474 0.058533375443055681 0 0.020817232881204399 0.058306722671098377 0 0.020569350815311402 0.059885416740071161 0 0.021645400243614128 0.059587190578903659 0 0.020817232881204399 0.058306722671098377 0 0.019375496867048474 0.058533375443055681 0 0.017902215722597443 0.059717949449774696 0 0.017447463970309291 0.05788479420682268 0 0.015020984783406298 0.059585749919812636 0 0.017902215722597443 0.059717949449774696 0 0.017447463970309291 0.05788479420682268 0 0.015105229322400607 0.0595885900947511 0 0.016357574404954212 0.058423613073055151 0 0.015020984783406298 0.059585749919812636 0 0.015314905976548334 0.0588356958487843 0 0.013838493330288783 0.059025395101355731 0 0.016814849998670875 0.060914596789735292 0 0.015020984783406298 0.059585749919812636 0 0.017902215722597443 0.059717949449774696 0 0.035483814974672317 0.052720368651168435 0 0.035531769388672446 0.052419608469698051 0 0.03624184913487366 0.052295673211151771 0 0.035906180626505163 0.052899527706701831 0 0.035483814974672317 0.052720368651168435 0 0.03624184913487366 0.052295673211151771 0 0.035734804618120321 0.053356364998330075 0 0.035906180626505163 0.052899527706701831 0 0.035479762091578951 0.053067416149235276 0 0.036914106043555654 0.047485336722880876 0 0.034028988886873508 0.047511481974764416 0 0.036681079151361116 0.05298696901115333 0 0.035734804618120321 0.053356364998330075 0 0.035906180626505163 0.052899527706701831 0 0.035906180626505163 0.052899527706701831 0 0.035479762091578951 0.053067416149235276 0 0.035483814974672317 0.052720368651168435 0 0.035479762091578951 0.053067416149235276 0 0.035483814974672317 0.052720368651168435 0 0.03506373596304671 0.053040094107520024 0 0.035320462992369336 0.053266124125032802 0 0.035479762091578951 0.053067416149235276 0 0.03506373596304671 0.053040094107520024 0 0.035483814974672317 0.052720368651168435 0 0.035110592610287844 0.052485369036567947 0 0.035531769388672446 0.052419608469698051 0 0.035483814974672317 0.052720368651168435 0 0.035110592610287844 0.052485369036567947 0 0.03506373596304671 0.053040094107520024 0 0.020826090095126568 0.045981457064856734 0 0.020822884233321345 0.04622849697707327 0 0.020565990008573714 0.046059592738677199 0 0.027698512190553377 0.053317248653466855 0 0.027966301442181936 0.049308507832429793 0 0.027698512190553377 0.053317248653466855 0 0.020451300855147903 0.053925967198235947 0 0.020859000250526987 0.046180927562913886 0 0.020822884233321345 0.04622849697707327 0 0.020558200134285554 0.046210972168527327 0 0.020822884233321345 0.04622849697707327 0 0.020558200134285554 0.046210972168527327 0 0.020565990008573714 0.046059592738677199 0 0.019821832461596068 0.04625118287700157 0 0.020558200134285554 0.046210972168527327 0 0.020565990008573714 0.046059592738677199 0 0.020268081236969337 0.054615224981773576 0 0.020451300855147903 0.053925967198235947 0 0.022527473244569145 0.060284424452281063 0 0.021707672079835993 0.061144535475679877 0 0.021645400243614128 0.059587190578903659 0 0.020569350815311402 0.059885416740071161 0 0.021707672079835993 0.061144535475679877 0 0.021645400243614128 0.059587190578903659 0 0.021645400243614128 0.059587190578903659 0 0.021796767016823471 0.058611030300069297 0 0.020817232881204399 0.058306722671098377 0 0.021645400243614128 0.059587190578903659 0 0.021796767016823471 0.058611030300069297 0 0.022429122064084189 0.059015375415661209 0 0.027698512190553377 0.053317248653466855 0 0.027891669384213242 0.056385094901554897 0 0.033191427776834495 0.054651497072282118 0 0.033098095750312771 0.052454392808390975 0 0.035314771874545244 0.052334659415075743 0 0.022527473244569145 0.060284424452281063 0 0.021645400243614128 0.059587190578903659 0 0.022429122064084189 0.059015375415661209 0 0.035110592610287844 0.052485369036567947 0 0.035531769388672446 0.052419608469698051 0 0.035314771874545244 0.052334659415075743 0 0.027698512190553377 0.053317248653466855 0 0.037501170516968538 0.051949401841714468 0 0.033098095750312771 0.052454392808390975 0 0.035314771874545244 0.052334659415075743 0 0.034164772894682574 0.051616246837345857 0 0.035314771874545244 0.052334659415075743 0 0.035506358027711141 0.05160685875156968 0 0.034164772894682574 0.051616246837345857 0 0.0365644679430569 0.051508351132771156 0 0.035982588569881319 0.052071873721197093 0 0.035506358027711141 0.05160685875156968 0 0.035314771874545244 0.052334659415075743 0 0.035982588569881319 0.052071873721197093 0 0.035506358027711141 0.05160685875156968 0 0.035531769388672446 0.052419608469698051 0 0.035982588569881319 0.052071873721197093 0 0.03624184913487366 0.052295673211151771 0 0.035531769388672446 0.052419608469698051 0 0.035314771874545244 0.052334659415075743 0 0.035982588569881319 0.052071873721197093 0 0.036797800566085635 0.051701530638156391 0 0.035982588569881319 0.052071873721197093 0 0.03624184913487366 0.052295673211151771 0 0.036421550661322591 0.050586133242208682 0 0.036074193279347716 0.051128860534035411 0 0.034370241913617199 0.05056668342550056 0 0.029332082627292467 0.056967396796755776 0 0.027645297993862724 0.056555854047098154 0 0.026745142901435988 0.057809158364654244 0 0.032849562379037113 0.053759716410527833 0 0.030984481050035702 0.054080040939120409 0 0.029332082627292467 0.056967396796755776 0 0.027645297993862724 0.056555854047098154 0 0.029116082355603017 0.055578698481486402 0 0.0370685642116532 0.051311837953058471 0 0.036421550661322591 0.050586133242208682 0 0.036074193279347716 0.051128860534035411 0 0.036074193279347716 0.051128860534035411 0 0.035506358027711141 0.05160685875156968 0 0.034370241913617199 0.05056668342550056 0 0.0365644679430569 0.051508351132771156 0 0.036074193279347716 0.051128860534035411 0 0.035506358027711141 0.05160685875156968 0 0.034164772894682574 0.051616246837345857 0 0.034370241913617199 0.05056668342550056 0 0.032450165641399409 0.051011106505480491 0 0.035506358027711141 0.05160685875156968 0 0.034164772894682574 0.051616246837345857 0 0.034370241913617199 0.05056668342550056 0 0.026745142901435988 0.057809158364654244 0 0.025185064668178533 0.057582253145968203 0 0.026016420255127664 0.055384443121110107 0 0.027645297993862724 0.056555854047098154 0 0.026745142901435988 0.057809158364654244 0 0.026016420255127664 0.055384443121110107 0 0.026745142901435988 0.057809158364654244 0 0.025185064668178533 0.057582253145968203 0 0.024094278149909033 0.058505313505855056 0 0.030984481050035702 0.054080040939120409 0 0.025840455325710131 0.055236594883939047 0 0.023974193512001387 0.056755039657790066 0 0.025185064668178533 0.057582253145968203 0 0.026016420255127664 0.055384443121110107 0 0.023974193512001387 0.056755039657790066 0 0.023757575874736363 0.057900424440544697 0 0.022542056572991194 0.056837693384782541 0 0.023757575874736363 0.057900424440544697 0 0.02366327907643517 0.058379953748771016 0 0.022173663839961857 0.057754998362526989 0 0.025502359037899238 0.056714987886636974 0 0.025840455325710131 0.055236594883939047 0 0.023757575874736363 0.057900424440544697 0 0.025185064668178533 0.057582253145968203 0 0.024094278149909033 0.058505313505855056 0 0.023974193512001387 0.056755039657790066 0 0.023757575874736363 0.057900424440544697 0 0.025185064668178533 0.057582253145968203 0 0.021796767016823471 0.058611030300069297 0 0.022429122064084189 0.059015375415661209 0 0.022368612716502145 0.057676852503958931 0 0.033098095750312771 0.052454392808390975 0 0.034164772894682574 0.051616246837345857 0 0.032450165641399409 0.051011106505480491 0 0.027891669384213242 0.056385094901554897 0 0.025840455325710131 0.055236594883939047 0 0.021796767016823471 0.058611030300069297 0 0.022368612716502145 0.057676852503958931 0 0.020817232881204399 0.058306722671098377 0 0.02366327907643517 0.058379953748771016 0 0.022173663839961857 0.057754998362526989 0 0.020817232881204399 0.058306722671098377 0 0.025840455325710131 0.055236594883939047 0 0.019707513191289393 0.059220425469224285 0 0.023757575874736363 0.057900424440544697 0 0.022173663839961857 0.057754998362526989 0 0.022542056572991194 0.056837693384782541 0 0.022173663839961857 0.057754998362526989 0 0.022542056572991194 0.056837693384782541 0 0.021260048951654703 0.056781600427857709 0 0.022542056572991194 0.056837693384782541 0 0.021239818492509725 0.056015653753908906 0 0.021260048951654703 0.056781600427857709 0 0.022542056572991194 0.056837693384782541 0 0.021239818492509725 0.056015653753908906 0 0.022729758691570297 0.0560975992283348 0 0.023644559819546936 0.054999614446951395 0 0.022729758691570297 0.0560975992283348 0 0.020569501366270792 0.054999013862175122 0 0.021239818492509725 0.056015653753908906 0 0.022729758691570297 0.0560975992283348 0 0.020569501366270792 0.054999013862175122 0 0.023644559819546936 0.054999614446951395 0 0.022729758691570297 0.0560975992283348 0 0.024622531884855987 0.057012018545445603 0 0.023019757970172756 0.056073178164293094 0 0.025484141566434578 0.056252481852765115 0 0.023974193512001387 0.056755039657790066 0 0.022729758691570297 0.0560975992283348 0 0.026016420255127664 0.055384443121110107 0 0.023974193512001387 0.056755039657790066 0 0.022542056572991194 0.056837693384782541 0 0.022729758691570297 0.0560975992283348 0 0.023644559819546936 0.054999614446951395 0 0.026724132811024932 0.054999874275292182 0 0.025904377784493036 0.056275422482119059 0 0.023644559819546936 0.054999614446951395 0 0.024622531884855987 0.057012018545445603 0 0.025904377784493036 0.056275422482119059 0 0.02825049477271846 0.056264935708993116 0 0.026724132811024932 0.054999874275292182 0 0.025904377784493036 0.056275422482119059 0 0.027645297993862724 0.056555854047098154 0 0.026016420255127664 0.055384443121110107 0 0.029116082355603017 0.055578698481486402 0 0.025484141566434578 0.056252481852765115 0 0.027358667876813958 0.056693762979093558 0 0.024622531884855987 0.057012018545445603 0 0.025904377784493036 0.056275422482119059 0 0.026911204802971066 0.057663313844508228 0 0.02825049477271846 0.056264935708993116 0 0.025904377784493036 0.056275422482119059 0 0.026911204802971066 0.057663313844508228 0 0.014574873481011939 0.057873475064915837 0 0.016666567505175242 0.057970233040444435 0 0.01572644103174042 0.056596095593719288 0 0.014574873481011939 0.057873475064915837 0 0.013918186117483545 0.056907749921397237 0 0.013042257595122838 0.057506982293302103 0 0.015314905976548334 0.0588356958487843 0 0.013124140625831567 0.058262540251589556 0 0.013838493330288783 0.059025395101355731 0 0.014574873481011939 0.057873475064915837 0 0.015314905976548334 0.0588356958487843 0 0.013124140625831567 0.058262540251589556 0 0.016357574404954212 0.058423613073055151 0 0.017848287323430322 0.057422407899832877 0 0.014574873481011939 0.057873475064915837 0 0.015314905976548334 0.0588356958487843 0 0.016666567505175242 0.057970233040444435 0 0.019375496867048474 0.058533375443055681 0 0.017447463970309291 0.05788479420682268 0 0.019006214912595656 0.056913173009311604 0 0.019375496867048474 0.058533375443055681 0 0.020256418500668401 0.057353766194219662 0 0.019006214912595656 0.056913173009311604 0 0.022173663839961857 0.057754998362526989 0 0.020817232881204399 0.058306722671098377 0 0.020256418500668401 0.057353766194219662 0 0.019375496867048474 0.058533375443055681 0 0.020817232881204399 0.058306722671098377 0 0.020256418500668401 0.057353766194219662 0 0.020256418500668401 0.057353766194219662 0 0.021260048951654703 0.056781600427857709 0 0.020259158704606373 0.055883627940553841 0 0.022173663839961857 0.057754998362526989 0 0.020256418500668401 0.057353766194219662 0 0.021260048951654703 0.056781600427857709 0 0.020256418500668401 0.057353766194219662 0 0.019006214912595656 0.056913173009311604 0 0.020259158704606373 0.055883627940553841 0 0.017848287323430322 0.057422407899832877 0 0.019394818798650789 0.056242319481124806 0 0.016666567505175242 0.057970233040444435 0 0.018552433097154694 0.056709269252189116 0 0.01572644103174042 0.056596095593719288 0 0.021239818492509725 0.056015653753908906 0 0.021260048951654703 0.056781600427857709 0 0.020259158704606373 0.055883627940553841 0 0.021239818492509725 0.056015653753908906 0 0.020259158704606373 0.055883627940553841 0 0.020569501366270792 0.054999013862175122 0 0.019394818798650789 0.056242319481124806 0 0.020566442822140971 0.055000112327969509 0 0.018552433097154694 0.056709269252189116 0 0.020566193536457347 0.054999975567735768 0 0.017862806578283076 0.05499967421020522 0 0.018552433097154694 0.056709269252189116 0 0.017862806578283076 0.05499967421020522 0 0.01572644103174042 0.056596095593719288 0 0.017862806578283076 0.05499967421020522 0 0.01572644103174042 0.056596095593719288 0 0.015159916039045951 0.054999589052158883 0 0.014574873481011939 0.057873475064915837 0 0.01572644103174042 0.056596095593719288 0 0.013918186117483545 0.056907749921397237 0 0.01572644103174042 0.056596095593719288 0 0.013918186117483545 0.056907749921397237 0 0.01380754525189244 0.055891696947361222 0 0.01572644103174042 0.056596095593719288 0 0.01380754525189244 0.055891696947361222 0 0.015159916039045951 0.054999589052158883 0 0.01380754525189244 0.055891696947361222 0 0.015159916039045951 0.054999589052158883 0 0.012457083515754221 0.054999560833734945 0 0.01380754525189244 0.055891696947361222 0 0.012457083515754221 0.054999560833734945 0 0.01197999291647886 0.056333271614362281 0 0.012457083515754221 0.054999560833734945 0 0.01197999291647886 0.056333271614362281 0 0.0097534955222541957 0.054999374359398251 0 0.01197999291647886 0.056333271614362281 0 0.00953467295284126 0.056298771810183793 0 0.011370974001566111 0.057344569061718344 0 0.013918186117483545 0.056907749921397237 0 0.01380754525189244 0.055891696947361222 0 0.01197999291647886 0.056333271614362281 0 0.013918186117483545 0.056907749921397237 0 0.01197999291647886 0.056333271614362281 0 0.013042257595122838 0.057506982293302103 0 0.0070530319860333873 0.054999751023566405 0 0.00953467295284126 0.056298771810183793 0 0.007795338840999747 0.056202179514155924 0 0.01197999291647886 0.056333271614362281 0 0.0097534955222541957 0.054999374359398251 0 0.00953467295284126 0.056298771810183793 0 0.0070530319860333873 0.054999751023566405 0 0.0097534955222541957 0.054999374359398251 0 0.00953467295284126 0.056298771810183793 0 0.00953467295284126 0.056298771810183793 0 0.0093183841755117604 0.057243227337658124 0 0.007795338840999747 0.056202179514155924 0 0.0093183841755117604 0.057243227337658124 0 0.0078228645127995412 0.057087498256839307 0 0.007795338840999747 0.056202179514155924 0 0.0093183841755117604 0.057243227337658124 0 0.011370974001566111 0.057344569061718344 0 0.011107848891239031 0.058098653968708662 0 0.00953467295284126 0.056298771810183793 0 0.0093183841755117604 0.057243227337658124 0 0.011370974001566111 0.057344569061718344 0 0.0093183841755117604 0.057243227337658124 0 0.0098870823231458644 0.05832233027895619 0 0.011107848891239031 0.058098653968708662 0 0.0093183841755117604 0.057243227337658124 0 0.0084637218169973764 0.057733562888128365 0 0.0078228645127995412 0.057087498256839307 0 0.0093183841755117604 0.057243227337658124 0 0.0098870823231458644 0.05832233027895619 0 0.0084637218169973764 0.057733562888128365 0 0.014574873481011939 0.057873475064915837 0 0.013042257595122838 0.057506982293302103 0 0.013124140625831567 0.058262540251589556 0 0.013042257595122838 0.057506982293302103 0 0.011370974001566111 0.057344569061718344 0 0.013124140625831567 0.058262540251589556 0 0.01197999291647886 0.056333271614362281 0 0.013042257595122838 0.057506982293302103 0 0.011370974001566111 0.057344569061718344 0 0.011370974001566111 0.057344569061718344 0 0.011107848891239031 0.058098653968708662 0 0.013124140625831567 0.058262540251589556 0 0.011107848891239031 0.058098653968708662 0 0.013124140625831567 0.058262540251589556 0 0.01179625290583548 0.059120244269784954 0 0.013124140625831567 0.058262540251589556 0 0.013838493330288783 0.059025395101355731 0 0.01179625290583548 0.059120244269784954 0 0.013838493330288783 0.059025395101355731 0 0.013178673418023222 0.059805463192289028 0 0.01179625290583548 0.059120244269784954 0 0.015020984783406298 0.059585749919812636 0 0.013838493330288783 0.059025395101355731 0 0.013178673418023222 0.059805463192289028 0 0.015020984783406298 0.059585749919812636 0 0.013178673418023222 0.059805463192289028 0 0.014983910038597956 0.061671588813217486 0 0.013178673418023222 0.059805463192289028 0 0.012174709688257889 0.06053165204288858 0 0.013399819922582054 0.061502626454653896 0 0.013178673418023222 0.059805463192289028 0 0.012174709688257889 0.06053165204288858 0 0.01179625290583548 0.059120244269784954 0 0.012174709688257889 0.06053165204288858 0 0.01179625290583548 0.059120244269784954 0 0.010821014629431355 0.060083508900523053 0 0.012174709688257889 0.06053165204288858 0 0.010821014629431355 0.060083508900523053 0 0.011270056481017629 0.061030315629617748 0 0.0098870823231458644 0.05832233027895619 0 0.01179625290583548 0.059120244269784954 0 0.010427201978059325 0.05924909440431949 0 0.0098870823231458644 0.05832233027895619 0 0.011107848891239031 0.058098653968708662 0 0.01179625290583548 0.059120244269784954 0 0.0098870823231458644 0.05832233027895619 0 0.010427201978059325 0.05924909440431949 0 0.0090019360958770792 0.058938220743006267 0 0.0098870823231458644 0.05832233027895619 0 0.0084637218169973764 0.057733562888128365 0 0.0090019360958770792 0.058938220743006267 0 0.0084637218169973764 0.057733562888128365 0 0.0090019360958770792 0.058938220743006267 0 0.0066788932656184023 0.057963975411004967 0 0.0090019360958770792 0.058938220743006267 0 0.0096036624909226678 0.059794339341087563 0 0.0080483645035237476 0.059472370269611885 0 0.0096036624909226678 0.059794339341087563 0 0.0091636429439527229 0.060200433455165889 0 0.0080483645035237476 0.059472370269611885 0 0.010427201978059325 0.05924909440431949 0 0.0090019360958770792 0.058938220743006267 0 0.0096036624909226678 0.059794339341087563 0 0.0096036624909226678 0.059794339341087563 0 0.010208398610043082 0.060625071200482807 0 0.0091636429439527229 0.060200433455165889 0 0.01179625290583548 0.059120244269784954 0 0.010427201978059325 0.05924909440431949 0 0.010821014629431355 0.060083508900523053 0 0.010427201978059325 0.05924909440431949 0 0.0096036624909226678 0.059794339341087563 0 0.010821014629431355 0.060083508900523053 0 0.0096036624909226678 0.059794339341087563 0 0.010821014629431355 0.060083508900523053 0 0.010208398610043082 0.060625071200482807 0 0.010821014629431355 0.060083508900523053 0 0.010208398610043082 0.060625071200482807 0 0.011270056481017629 0.061030315629617748 0 0.010208398610043082 0.060625071200482807 0 0.0091636429439527229 0.060200433455165889 0 0.010510315446175795 0.061850667628817246 0 0.010208398610043082 0.060625071200482807 0 0.010510315446175795 0.061850667628817246 0 0.011270056481017629 0.061030315629617748 0 0.010510315446175795 0.061850667628817246 0 0.011680843017541786 0.061895946107466362 0 0.011270056481017629 0.061030315629617748 0 0.0091636429439527229 0.060200433455165889 0 0.0096497873216515612 0.059961116397118729 0 0.0076597662502007049 0.060496372549981428 0 0.0091636429439527229 0.060200433455165889 0 0.011046981381613587 0.058374178894637155 0 0.011093892093736393 0.058559634715166883 0 0.0096098621163534965 0.060178365923139687 0 0.010611270988918451 0.060315403035328091 0 0.0091636429439527229 0.060200433455165889 0 0.0096497873216515612 0.059961116397118729 0 0.011093892093736393 0.058559634715166883 0 0.010267166773424955 0.05227841212604744 0 0.0093962331433440141 0.052228121624170891 0 0.009220509082658564 0.051516156978303924 0 0.010951300565960264 0.052117795893731424 0 0.0090724222416629936 0.057136408940093808 0 0.014543331786230381 0.058165949278005467 0 0.01128789385558712 0.055132569828294155 0 0.011449036463911851 0.056683616086602516 0 0.0090724222416629936 0.057136408940093808 0 0.011750687942053606 0.058400311374257004 0 0.014543331786230381 0.058165949278005467 0 0.011093892093736393 0.058559634715166883 0 0.011449036463911851 0.056683616086602516 0 0.0093962331433440141 0.052228121624170891 0 0.009220509082658564 0.051516156978303924 0 0.0084859223580174975 0.052359620620867464 0 0.011361947252057386 0.056308913832568017 0 0.010611270988918451 0.060315403035328091 0 0.0075129627785432973 0.053973942140793228 0 0.011046981381613587 0.058374178894637155 0 0.0099256912346072628 0.054659498221951881 0 0.010760677019331791 0.052533520018804999 0 0.014543331786230381 0.058165949278005467 0 0.01128789385558712 0.055132569828294155 0 0.011046981381613587 0.058374178894637155 0 0.011120098158305629 0.057433298290854112 0 0.0099256912346072628 0.054659498221951881 0 0.011046981381613587 0.058374178894637155 0 0.011093892093736393 0.058559634715166883 0 0.011120098158305629 0.057433298290854112 0 0.011093892093736393 0.058559634715166883 0 0.011120098158305629 0.057433298290854112 0 0.011449036463911851 0.056683616086602516 0 0.011120098158305629 0.057433298290854112 0 0.011449036463911851 0.056683616086602516 0 0.0099256912346072628 0.054659498221951881 0 0.01128789385558712 0.055132569828294155 0 0.011449036463911851 0.056683616086602516 0 0.0099256912346072628 0.054659498221951881 0 0.010470672613458881 0.053783395255724835 0 0.01128789385558712 0.055132569828294155 0 0.0099256912346072628 0.054659498221951881 0 0.011938100745969146 0.062873050701953898 0 0.010510315446175795 0.061850667628817246 0 0.011680843017541786 0.061895946107466362 0 0.011361947252057386 0.056308913832568017 0 0.0093372943450118293 0.054909812361630436 0 0.011938100745969146 0.062873050701953898 0 0.011680843017541786 0.061895946107466362 0 0.012612871972221364 0.062109261373707293 0 0.011680843017541786 0.061895946107466362 0 0.012612871972221364 0.062109261373707293 0 0.012179743162958678 0.061434213402615838 0 0.011938100745969146 0.062873050701953898 0 0.013957415021764698 0.063140213487173635 0 0.012612871972221364 0.062109261373707293 0 0.013957415021764698 0.063140213487173635 0 0.012612871972221364 0.062109261373707293 0 0.013399819922582054 0.061502626454653896 0 0.012174709688257889 0.06053165204288858 0 0.013399819922582054 0.061502626454653896 0 0.012179743162958678 0.061434213402615838 0 0.012612871972221364 0.062109261373707293 0 0.013399819922582054 0.061502626454653896 0 0.012179743162958678 0.061434213402615838 0 0.013093613034628859 0.059170218068558676 0 0.014464692987912271 0.063103420836135349 0 0.012174709688257889 0.06053165204288858 0 0.011270056481017629 0.061030315629617748 0 0.012179743162958678 0.061434213402615838 0 0.011680843017541786 0.061895946107466362 0 0.011270056481017629 0.061030315629617748 0 0.012179743162958678 0.061434213402615838 0 0.0028550842029330965 0.058592914646542156 0 0.0041080939528273831 0.058735189241284083 0 0.0033404187479397977 0.05845285982949841 0 0.0028550842029330965 0.058592914646542156 0 0.0043602166918122335 0.059214208875493002 0 0.0041080939528273831 0.058735189241284083 0 0.0028550842029330965 0.058592914646542156 0 0.0033404187479397977 0.05845285982949841 0 0.0020479309539870997 0.058161235826968687 0 0.0045426773442854059 0.05347750518948944 0 0.0022048924417342598 0.056586179046949903 0 0.0035226057901494427 0.055109641311859407 0 0.0039691336885675377 0.056082783546603544 0 0.0025083225909670924 0.056478601015255356 0 0.0064145881739778709 0.053649448170976756 0 0.0045426773442854059 0.05347750518948944 0 0.0071161814187681478 0.052002087533182889 0 0.0039691336885675377 0.056082783546603544 0 0.0053648856514435421 0.055409216734609419 0 0.0076135551393191007 0.052970112773579908 0 0.0064145881739778709 0.053649448170976756 0 0.0071161814187681478 0.052002087533182889 0 0.0076135551393191007 0.052970112773579908 0 0.0071161814187681478 0.052002087533182889 0 0.0084859223580174975 0.052359620620867464 0 0.0090724222416629936 0.057136408940093808 0 0.0053648856514435421 0.055409216734609419 0 0.009220509082658564 0.051516156978303924 0 0.0071161814187681478 0.052002087533182889 0 0.0084859223580174975 0.052359620620867464 0 0.0052579385249044569 0.059223654888763119 0 0.0043602166918122335 0.059214208875493002 0 0.0047684164812734917 0.058729604602161763 0 0.0090724222416629936 0.057136408940093808 0 0.006124138587554122 0.059699947092079972 0 0.0043602166918122335 0.059214208875493002 0 0.0047684164812734917 0.058729604602161763 0 0.0041080939528273831 0.058735189241284083 0 0.0047684164812734917 0.058729604602161763 0 0.0041080939528273831 0.058735189241284083 0 0.0048878090465130572 0.058692057084219894 0 0.006124138587554122 0.059699947092079972 0 0.0049967479758043021 0.058637890480112163 0 0.0076597662502007049 0.060496372549981428 0 0.0048878090465130572 0.058692057084219894 0 0.0080483645035237476 0.059472370269611885 0 0.0091636429439527229 0.060200433455165889 0 0.0076597662502007049 0.060496372549981428 0 0.0080483645035237476 0.059472370269611885 0 0.0048878090465130572 0.058692057084219894 0 0.0080483645035237476 0.059472370269611885 0 0.0066788932656184023 0.057963975411004967 0 0.0090019360958770792 0.058938220743006267 0 0.0080483645035237476 0.059472370269611885 0 0.0066788932656184023 0.057963975411004967 0 0.0048878090465130572 0.058692057084219894 0 0.0066788932656184023 0.057963975411004967 0 0.0047532910653184275 0.057292604740654375 0 0.0048878090465130572 0.058692057084219894 0 0.0032306936974993363 0.057892146229672481 0 0.0047532910653184275 0.057292604740654375 0 0.0048878090465130572 0.058692057084219894 0 0.0032306936974993363 0.057892146229672481 0 0.0033404187479397977 0.05845285982949841 0 0.0041080939528273831 0.058735189241284083 0 0.0048878090465130572 0.058692057084219894 0 0.0033404187479397977 0.05845285982949841 0 0.0032306936974993363 0.057892146229672481 0 0.0033404187479397977 0.05845285982949841 0 0.0020479309539870997 0.058161235826968687 0 0.0032306936974993363 0.057892146229672481 0 0.0020479309539870997 0.058161235826968687 0 0.0018947847637874624 0.057601055092182961 0 0.0032306936974993363 0.057892146229672481 0 0.0032870376512923712 0.056323195241539836 0 0.0047532910653184275 0.057292604740654375 0 0.0032306936974993363 0.057892146229672481 0 0.0032870376512923712 0.056323195241539836 0 0.0018947847637874624 0.057601055092182961 0 0.0032870376512923712 0.056323195241539836 0 0.0047532910653184275 0.057292604740654375 0 0.0046114221694824138 0.056938966391997713 0 0.0023404760843248745 0.057211980447149507 0 0.0044110404024012475 0.056949840814740478 0 0.0066788932656184023 0.057963975411004967 0 0.0047532910653184275 0.057292604740654375 0 0.0058232345566659712 0.057149332040460007 0 0.0066701754869799863 0.058026939705426141 0 0.0068095055903825462 0.057194530251874084 0 0.0084637218169973764 0.057733562888128365 0 0.0066788932656184023 0.057963975411004967 0 0.0078228645127995412 0.057087498256839307 0 0.0047532910653184275 0.057292604740654375 0 0.0046114221694824138 0.056938966391997713 0 0.0058232345566659712 0.057149332040460007 0 0.0068095055903825462 0.057194530251874084 0 0.0069486019119963964 0.056221028121284447 0 0.0046114221694824138 0.056938966391997713 0 0.0058232345566659712 0.057149332040460007 0 0.0060884608077458359 0.05646634717131109 0 0.0046114221694824138 0.056938966391997713 0 0.0060884608077458359 0.05646634717131109 0 0.0048878742503227204 0.056116871501764108 0 0.0046114221694824138 0.056938966391997713 0 0.0048878742503227204 0.056116871501764108 0 0.0027486036158417301 0.056252315973089453 0 0.0041605655011994714 0.054999465766390053 0 0.0048878742503227204 0.056116871501764108 0 0.0027486036158417301 0.056252315973089453 0 0.0070489412452507437 0.054999869068115388 0 0.0041605655011994714 0.054999465766390053 0 0.0048878742503227204 0.056116871501764108 0 0.0070504633129951609 0.055000039668804228 0 0.0069486019119963964 0.056221028121284447 0 0.0070489412452507437 0.054999869068115388 0 0.0060884608077458359 0.05646634717131109 0 0.0048878742503227204 0.056116871501764108 0 0.0014068844760783436 0.058153987542770062 0 0.0027486036158417301 0.056252315973089453 0 -0.00027809543290603823 0.056638416360444019 0 0.0014068844760783436 0.058153987542770062 0 0.0046114221694824138 0.056938966391997713 0 0.0027486036158417301 0.056252315973089453 0 0.0041605655011994714 0.054999465766390053 0 0.0027486036158417301 0.056252315973089453 0 0.0012699682484519561 0.05499942153566989 0 0.0027486036158417301 0.056252315973089453 0 0.0012699682484519561 0.05499942153566989 0 -0.00027809543290603823 0.056638416360444019 0 -0.0016201674577522765 0.054999740803962686 0 -0.00027809543290603823 0.056638416360444019 0 -0.0026248203242884194 0.0567743132296658 0 0.0012699682484519561 0.05499942153566989 0 -0.0016201674577522765 0.054999740803962686 0 -0.00027809543290603823 0.056638416360444019 0 -0.00027809543290603823 0.056638416360444019 0 -0.0026248203242884194 0.0567743132296658 0 -0.0013154198113069179 0.058169560932617825 0 -0.0016201674577522765 0.054999740803962686 0 -0.0026248203242884194 0.0567743132296658 0 -0.004509788251360081 0.054999638617215657 0 -0.0026248203242884194 0.0567743132296658 0 -0.004509788251360081 0.054999638617215657 0 -0.0050665543897921543 0.05650224152100037 0 -0.004509788251360081 0.054999638617215657 0 -0.0050665543897921543 0.05650224152100037 0 -0.0073996720841212884 0.054999290683279689 0 -0.0026248203242884194 0.0567743132296658 0 -0.0050665543897921543 0.05650224152100037 0 -0.0020882030492143464 0.057678581701353371 0 -0.0050665543897921543 0.05650224152100037 0 -0.0020882030492143464 0.057678581701353371 0 -0.005906131070691786 0.0578623992887441 0 -0.0020882030492143464 0.057678581701353371 0 -0.005906131070691786 0.0578623992887441 0 -0.0024514117861441516 0.058352051612241926 0 -0.0020882030492143464 0.057678581701353371 0 0.00029219608289599914 0.057781653233274832 0 0.0012397002795236898 0.056321047383898745 0 -0.0019191364853675156 0.057639241796818799 0 -1.5717184913967333e-05 0.057286147844159606 0 0.0032870376512923712 0.056323195241539836 0 0.0012397002795236898 0.056321047383898745 0 0.0018947847637874624 0.057601055092182961 0 0.00029219608289599914 0.057781653233274832 0 0.0012397002795236898 0.056321047383898745 0 0.0018947847637874624 0.057601055092182961 0 0.0023404760843248745 0.057211980447149507 0 -1.5717184913967333e-05 0.057286147844159606 0 0.0014068844760783436 0.058153987542770062 0 -0.00027809543290603823 0.056638416360444019 0 -0.0013154198113069179 0.058169560932617825 0 -0.0026248203242884194 0.0567743132296658 0 -0.0020882030492143464 0.057678581701353371 0 -0.0013154198113069179 0.058169560932617825 0 -0.01227375665381571 0.056974297633368684 0 -0.011653611638214092 0.05602784812688516 0 -0.011051874423956488 0.057519374101789943 0 -0.01227375665381571 0.056974297633368684 0 -0.011653611638214092 0.05602784812688516 0 -0.013179497766515627 0.054999598157843617 0 -0.013472730248066578 0.056825085597780038 0 -0.013181384204679975 0.054999925981158215 0 -0.011653611638214092 0.05602784812688516 0 -0.0097990684627158701 0.056699749648620817 0 -0.010290691979575396 0.054999393546703024 0 -0.011653611638214092 0.05602784812688516 0 -0.013179497766515627 0.054999598157843617 0 -0.010290691979575396 0.054999393546703024 0 -0.011653611638214092 0.05602784812688516 0 -0.0097990684627158701 0.056699749648620817 0 -0.011051874423956488 0.057519374101789943 0 -0.0097990684627158701 0.056699749648620817 0 -0.0077010740716437695 0.056181400520333137 0 -0.005906131070691786 0.0578623992887441 0 -0.0097990684627158701 0.056699749648620817 0 -0.010290691979575396 0.054999393546703024 0 -0.0077010740716437695 0.056181400520333137 0 -0.010290691979575396 0.054999393546703024 0 -0.0073996720841212884 0.054999290683279689 0 -0.0077010740716437695 0.056181400520333137 0 -0.0050665543897921543 0.05650224152100037 0 -0.0073996720841212884 0.054999290683279689 0 -0.0077010740716437695 0.056181400520333137 0 -0.0050665543897921543 0.05650224152100037 0 -0.0077010740716437695 0.056181400520333137 0 -0.005906131070691786 0.0578623992887441 0 -0.005906131070691786 0.0578623992887441 0 -0.0072791249748149116 0.059670800713970629 0 -0.0060477173003584605 0.060698118493101541 0 -0.0057081532189229732 0.057535799377569787 0 -0.0044984609552743424 0.059839315887942481 0 -0.005906131070691786 0.0578623992887441 0 -0.0072791249748149116 0.059670800713970629 0 -0.009259746143709403 0.058695230992440672 0 -0.0072791249748149116 0.059670800713970629 0 -0.009259746143709403 0.058695230992440672 0 -0.0087871117681961857 0.060413434484991965 0 -0.0097990684627158701 0.056699749648620817 0 -0.005906131070691786 0.0578623992887441 0 -0.009259746143709403 0.058695230992440672 0 -0.0097990684627158701 0.056699749648620817 0 -0.009259746143709403 0.058695230992440672 0 -0.011051874423956488 0.057519374101789943 0 -0.009259746143709403 0.058695230992440672 0 -0.011051874423956488 0.057519374101789943 0 -0.010832203703516157 0.05884650486607277 0 -0.009259746143709403 0.058695230992440672 0 -0.010076771992142587 0.059912751782323741 0 -0.0087871117681961857 0.060413434484991965 0 -0.009259746143709403 0.058695230992440672 0 -0.010832203703516157 0.05884650486607277 0 -0.010076771992142587 0.059912751782323741 0 -0.010832203703516157 0.05884650486607277 0 -0.011632808664596905 0.059878087062511541 0 -0.010076771992142587 0.059912751782323741 0 -0.012229518210701984 0.058338343968080249 0 -0.012989573063510959 0.058696647254766254 0 -0.014295545405967384 0.05892575695383432 0 -0.012229518210701984 0.058338343968080249 0 -0.011967704641203759 0.059967832605175728 0 -0.011632808664596905 0.059878087062511541 0 -0.012384462437588568 0.058288106145230348 0 -0.013145284771900722 0.059264643394751876 0 -0.010832203703516157 0.05884650486607277 0 -0.012229518210701984 0.058338343968080249 0 -0.011632808664596905 0.059878087062511541 0 -0.01227375665381571 0.056974297633368684 0 -0.012229518210701984 0.058338343968080249 0 -0.012989573063510959 0.058696647254766254 0 -0.014618665250476493 0.05687991621311897 0 -0.015409645411153333 0.058128906939675574 0 -0.015546784867669134 0.057657210638206467 0 -0.011051874423956488 0.057519374101789943 0 -0.010832203703516157 0.05884650486607277 0 -0.012229518210701984 0.058338343968080249 0 -0.01227375665381571 0.056974297633368684 0 -0.011051874423956488 0.057519374101789943 0 -0.012229518210701984 0.058338343968080249 0 -0.013472730248066578 0.056825085597780038 0 -0.014276280035580707 0.05846598981526388 0 -0.013145284771900722 0.059264643394751876 0 -0.014147099205461105 0.058985995604378449 0 -0.015511558238323144 0.059069419786735418 0 -0.014295545405967384 0.05892575695383432 0 -0.016118960330258631 0.059186989772158548 0 -0.012378164336450434 0.059415316418883091 0 -0.011967704641203759 0.059967832605175728 0 -0.012351797639395168 0.058780619540315285 0 -0.012728444518788892 0.058844276119629599 0 -0.012378164336450434 0.059415316418883091 0 -0.012985620880103908 0.059208754317392975 0 -0.012728444518788892 0.058844276119629599 0 -0.012378164336450434 0.059415316418883091 0 -0.012351797639395168 0.058780619540315285 0 -0.012378164336450434 0.059415316418883091 0 -0.011632808664596905 0.059878087062511541 0 -0.012985620880103908 0.059208754317392975 0 -0.012378164336450434 0.059415316418883091 0 -0.011967704641203759 0.059967832605175728 0 -0.011632808664596905 0.059878087062511541 0 -0.012989573063510959 0.058696647254766254 0 -0.015511558238323144 0.059069419786735418 0 -0.014295545405967384 0.05892575695383432 0 -0.014276280035580707 0.05846598981526388 0 -0.015291688428950087 0.059180440683081779 0 -0.011662009369577283 0.059863362035250854 0 -0.01139243093970538 0.060306709533649562 0 -0.011632808664596905 0.059878087062511541 0 -0.010076771992142587 0.059912751782323741 0 -0.0097902682226592673 0.061795768362564327 0 -0.010076771992142587 0.059912751782323741 0 -0.0097902682226592673 0.061795768362564327 0 -0.0087871117681961857 0.060413434484991965 0 -0.0097902682226592673 0.061795768362564327 0 -0.0074108380697009016 0.061862462755626429 0 -0.0084868378240584366 0.062991131321833774 0 -0.0097902682226592673 0.061795768362564327 0 -0.0074108380697009016 0.061862462755626429 0 -0.0087871117681961857 0.060413434484991965 0 -0.0072791249748149116 0.059670800713970629 0 -0.0074108380697009016 0.061862462755626429 0 -0.0087871117681961857 0.060413434484991965 0 -0.0072791249748149116 0.059670800713970629 0 -0.0074108380697009016 0.061862462755626429 0 -0.0060477173003584605 0.060698118493101541 0 -0.0074108380697009016 0.061862462755626429 0 -0.0060477173003584605 0.060698118493101541 0 -0.0056541175920782278 0.062616545200761167 0 -0.0074108380697009016 0.061862462755626429 0 -0.0066377015989870164 0.063296374718963336 0 -0.0056541175920782278 0.062616545200761167 0 -0.0043067679567840881 0.05837994301232307 0 -0.0016687040386577079 0.058739765796184805 0 -0.00178809297092856 0.053284570036485873 0 -0.0009193959739367348 0.053789119000043177 0 -0.001438359075956493 0.054096332529603747 0 -0.00178809297092856 0.053284570036485873 0 -0.001438359075956493 0.054096332529603747 0 -0.0027528044415449354 0.053940317425494509 0 -0.011094272991726894 0.061190471666580024 0 -0.00645261994596263 0.057003373817136785 0 -0.0066377015989870164 0.063296374718963336 0 -0.0084868378240584366 0.062991131321833774 0 -0.0075125235774478874 0.063880814156832777 0 -0.0043067679567840881 0.05837994301232307 0 -0.00645261994596263 0.057003373817136785 0 -0.0074108380697009016 0.061862462755626429 0 -0.0066377015989870164 0.063296374718963336 0 -0.0084868378240584366 0.062991131321833774 0 -0.012728444518788892 0.058844276119629599 0 -0.012985620880103908 0.059208754317392975 0 -0.013320629680684343 0.058358195583614145 0 -0.01139243093970538 0.060306709533649562 0 -0.011094272991726894 0.061190471666580024 0 -0.012728444518788892 0.058844276119629599 0 -0.013320629680684343 0.058358195583614145 0 -0.012960421377713409 0.058308939111157969 0 -0.013320629680684343 0.058358195583614145 0 -0.013195813938996903 0.0581356491245138 0 -0.012960421377713409 0.058308939111157969 0 -0.013320629680684343 0.058358195583614145 0 -0.013195813938996903 0.0581356491245138 0 -0.013270985686051518 0.058111767793782861 0 -0.013195813938996903 0.0581356491245138 0 -0.012960421377713409 0.058308939111157969 0 -0.013288367965008617 0.058077741424769513 0 -0.012960421377713409 0.058308939111157969 0 -0.013288367965008617 0.058077741424769513 0 -0.013111623280230824 0.058019301259350196 0 -0.012960421377713409 0.058308939111157969 0 -0.012351797639395168 0.058780619540315285 0 -0.013111623280230824 0.058019301259350196 0 -0.014147099205461105 0.058985995604378449 0 -0.014503179966498711 0.058515833517651376 0 -0.012728444518788892 0.058844276119629599 0 -0.012960421377713409 0.058308939111157969 0 -0.012351797639395168 0.058780619540315285 0 0.0020479309539870997 0.058161235826968687 0 0.0010052620064341488 0.058079303344812538 0 0.001232654623347942 0.057946233897342068 0 0.0010052620064341488 0.058079303344812538 0 -0.000415632660015615 0.058203864345566916 0 0.001232654623347942 0.057946233897342068 0 0.0020479309539870997 0.058161235826968687 0 0.0018947847637874624 0.057601055092182961 0 0.0010052620064341488 0.058079303344812538 0 0.00029219608289599914 0.057781653233274832 0 0.0018947847637874624 0.057601055092182961 0 0.0010052620064341488 0.058079303344812538 0 0.00029219608289599914 0.057781653233274832 0 0.0010052620064341488 0.058079303344812538 0 -0.000415632660015615 0.058203864345566916 0 -0.0020882030492143464 0.057678581701353371 0 -0.0024514117861441516 0.058352051612241926 0 -0.000415632660015615 0.058203864345566916 0 -0.0020882030492143464 0.057678581701353371 0 0.00029219608289599914 0.057781653233274832 0 -0.000415632660015615 0.058203864345566916 0 -0.0024514117861441516 0.058352051612241926 0 -0.000415632660015615 0.058203864345566916 0 -0.00078166637012199542 0.058368270363126307 0 -0.00078166637012199542 0.058368270363126307 0 0.00042966874308145874 0.058452101881134817 0 -0.00038641654874301424 0.059049197174514151 0 -0.0044984609552743424 0.059839315887942481 0 -0.0016687040386577079 0.058739765796184805 0 -0.0024514117861441516 0.058352051612241926 0 -0.00078166637012199542 0.058368270363126307 0 -0.00038641654874301424 0.059049197174514151 0 -0.000415632660015615 0.058203864345566916 0 0.00042966874308145874 0.058452101881134817 0 0.001232654623347942 0.057946233897342068 0 -0.000415632660015615 0.058203864345566916 0 -0.00078166637012199542 0.058368270363126307 0 0.00042966874308145874 0.058452101881134817 0 0.00042966874308145874 0.058452101881134817 0 0.0013943688132603111 0.057339195094364859 0 0.001232654623347942 0.057946233897342068 0 0.0013943688132603111 0.057339195094364859 0 0.0017139756729703526 0.057082895202951567 0 0.001232654623347942 0.057946233897342068 0 0.00042966874308145874 0.058452101881134817 0 0.0013943688132603111 0.057339195094364859 0 0.0018861344954390952 0.057721319186841806 0 0.00076498243951744782 0.057945380422428548 0 -0.0016687040386577079 0.058739765796184805 0 -0.0016687040386577079 0.058739765796184805 0 0.00055134318117555788 0.054740759904385684 0 0.0013943688132603111 0.057339195094364859 0 0.0018861344954390952 0.057721319186841806 0 0.0021489292858616442 0.056803502695930611 0 -0.00178809297092856 0.053284570036485873 0 -0.00090795898840610343 0.052659245364000663 0 -0.00057707046768398751 0.053386535146618952 0 -0.00178809297092856 0.053284570036485873 0 -0.00057707046768398751 0.053386535146618952 0 -0.0009193959739367348 0.053789119000043177 0 0.0021489292858616442 0.056803502695930611 0 0.0019979732660757236 0.056560844024103676 0 0.0022496421991061864 0.056230684954819365 0 0.00055134318117555788 0.054740759904385684 0 0.0008371923668052349 0.054998722135449013 0 -0.00057707046768398751 0.053386535146618952 0 -0.0009193959739367348 0.053789119000043177 0 -0.0002787290156455006 0.054014312043790348 0 0.0013943688132603111 0.057339195094364859 0 0.0020336933609495489 0.056516557761805065 0 0.0017139756729703526 0.057082895202951567 0 0.0013943688132603111 0.057339195094364859 0 0.0019979732660757236 0.056560844024103676 0 0.0020336933609495489 0.056516557761805065 0 0.0013943688132603111 0.057339195094364859 0 0.0021489292858616442 0.056803502695930611 0 0.0019979732660757236 0.056560844024103676 0 0.0019979732660757236 0.056560844024103676 0 0.0020336933609495489 0.056516557761805065 0 0.0021561529349227778 0.056335892662640913 0 0.0020336933609495489 0.056516557761805065 0 0.0022048924417342598 0.056586179046949903 0 0.0026581765805986724 0.055762246829622573 0 0.0020336933609495489 0.056516557761805065 0 0.0017139756729703526 0.057082895202951567 0 0.0022048924417342598 0.056586179046949903 0 0.0017139756729703526 0.057082895202951567 0 0.001232654623347942 0.057946233897342068 0 0.0022048924417342598 0.056586179046949903 0 0.0028550842029330965 0.058592914646542156 0 0.0020479309539870997 0.058161235826968687 0 0.0022048924417342598 0.056586179046949903 0 0.0020479309539870997 0.058161235826968687 0 0.001232654623347942 0.057946233897342068 0 0.0022048924417342598 0.056586179046949903 0 0.0022048924417342598 0.056586179046949903 0 0.0035226057901494427 0.055109641311859407 0 0.0026581765805986724 0.055762246829622573 0 0.0035226057901494427 0.055109641311859407 0 0.0026581765805986724 0.055762246829622573 0 0.0033412080273428602 0.055473113741668176 0 0.0026581765805986724 0.055762246829622573 0 0.0026203675304254602 0.055771688324630982 0 0.0023614734430989297 0.056023161933600719 0 0.0020336933609495489 0.056516557761805065 0 0.0026581765805986724 0.055762246829622573 0 0.0023614734430989297 0.056023161933600719 0 0.0026581765805986724 0.055762246829622573 0 0.0026203675304254602 0.055771688324630982 0 0.0033412080273428602 0.055473113741668176 0 0.0046916127033463486 0.055147211370714884 0 0.0035226057901494427 0.055109641311859407 0 0.0033412080273428602 0.055473113741668176 0 0.0046916127033463486 0.055147211370714884 0 0.0033412080273428602 0.055473113741668176 0 0.0036698149990833312 0.055768326350150235 0 0.0026203675304254602 0.055771688324630982 0 0.0033412080273428602 0.055473113741668176 0 0.0036698149990833312 0.055768326350150235 0 0.0022693607116135114 0.055588747454473321 0 0.0033659357687258235 0.055812024314093579 0 0.0017721405236841054 0.055361707965636359 0 0.0029846300221926438 0.055908050309635089 0 0.0017645357642008493 0.056469435921235052 0 0.0029846300221926438 0.055908050309635089 0 0.0017645357642008493 0.056469435921235052 0 0.0023388266679239323 0.057211546208949977 0 0.0017645357642008493 0.056469435921235052 0 0.0014639015877521905 0.057322587665457045 0 0.0023388266679239323 0.057211546208949977 0 0.0049304828274749747 0.056089344000692237 0 0.0029846300221926438 0.055908050309635089 0 0.0034580886880628027 0.056908326472240638 0 0.0047901542761933438 0.056190231166986626 0 0.0033659357687258235 0.055812024314093579 0 0.0029846300221926438 0.055908050309635089 0 0.0034580886880628027 0.056908326472240638 0 0.0023388266679239323 0.057211546208949977 0 -0.000275187441401174 0.057173931250206783 0 -0.00053398679850378476 0.058377213882029488 0 0.00068577953145735455 0.057857099872668523 0 0.00078732455662722668 0.056800439337301688 0 -0.000275187441401174 0.057173931250206783 0 0.00068577953145735455 0.057857099872668523 0 0.0014639015877521905 0.057322587665457045 0 0.00078732455662722668 0.056800439337301688 0 0.00068577953145735455 0.057857099872668523 0 0.0017645357642008493 0.056469435921235052 0 0.0014639015877521905 0.057322587665457045 0 0.00078732455662722668 0.056800439337301688 0 0.0017721405236841054 0.055361707965636359 0 0.0017645357642008493 0.056469435921235052 0 0.0010133421269264563 0.055863501493256959 0 0.0017645357642008493 0.056469435921235052 0 0.00078732455662722668 0.056800439337301688 0 0.0010133421269264563 0.055863501493256959 0 0.00078732455662722668 0.056800439337301688 0 -0.000275187441401174 0.057173931250206783 0 -9.5201157998627404e-05 0.055764563229632726 0 0.00078732455662722668 0.056800439337301688 0 0.0010133421269264563 0.055863501493256959 0 -9.5201157998627404e-05 0.055764563229632726 0 -0.000275187441401174 0.057173931250206783 0 -9.5201157998627404e-05 0.055764563229632726 0 -0.0012471444992297157 0.056183515606138282 0 0.0010133421269264563 0.055863501493256959 0 -9.5201157998627404e-05 0.055764563229632726 0 0.00049977612190042319 0.054906593593856551 0 -9.5201157998627404e-05 0.055764563229632726 0 0.00049977612190042319 0.054906593593856551 0 -0.00067035844956547634 0.054700936156529392 0 -9.5201157998627404e-05 0.055764563229632726 0 -0.00067035844956547634 0.054700936156529392 0 -0.0012990929964376906 0.055113745460518074 0 0.0022693607116135114 0.055588747454473321 0 0.0008371923668052349 0.054998722135449013 0 0.0017721405236841054 0.055361707965636359 0 0.00049977612190042319 0.054906593593856551 0 0.0002916554960904596 0.054124349198136162 0 0.0017721405236841054 0.055361707965636359 0 0.0010133421269264563 0.055863501493256959 0 0.00049977612190042319 0.054906593593856551 0 0.0026203675304254602 0.055771688324630982 0 0.0023614734430989297 0.056023161933600719 0 0.0022496421991061864 0.056230684954819365 0 0.0023614734430989297 0.056023161933600719 0 0.0021561529349227778 0.056335892662640913 0 0.0022496421991061864 0.056230684954819365 0 0.0019979732660757236 0.056560844024103676 0 0.0021561529349227778 0.056335892662640913 0 0.0022496421991061864 0.056230684954819365 0 0.0020336933609495489 0.056516557761805065 0 0.0023614734430989297 0.056023161933600719 0 0.0021561529349227778 0.056335892662640913 0 -0.00067035844956547634 0.054700936156529392 0 -0.00043102470010535808 0.054303827085875028 0 -0.001438359075956493 0.054096332529603747 0 0.00049977612190042319 0.054906593593856551 0 -0.00043102470010535808 0.054303827085875028 0 -7.2176337199504609e-06 0.054141208081600521 0 0.00047613435552887649 0.054586509978308988 0 0.0008371923668052349 0.054998722135449013 0 0.00049977612190042319 0.054906593593856551 0 -0.00067035844956547634 0.054700936156529392 0 -0.00043102470010535808 0.054303827085875028 0 -0.00043102470010535808 0.054303827085875028 0 -0.0002787290156455006 0.054014312043790348 0 -7.2176337199504609e-06 0.054141208081600521 0 -0.00057707046768398751 0.053386535146618952 0 -0.0002787290156455006 0.054014312043790348 0 -0.00010240639768161599 0.054131895803559753 0 0.0004872204815476639 0.054669344921312299 0 0.0008371923668052349 0.054998722135449013 0 -0.0009193959739367348 0.053789119000043177 0 -0.00043102470010535808 0.054303827085875028 0 -0.001438359075956493 0.054096332529603747 0 -0.0009193959739367348 0.053789119000043177 0 -0.00043102470010535808 0.054303827085875028 0 -0.0002787290156455006 0.054014312043790348 0 -0.001438359075956493 0.054096332529603747 0 -0.0027528044415449354 0.053940317425494509 0 -0.0022646428659930233 0.054552201436679847 0 -0.00067035844956547634 0.054700936156529392 0 -0.001438359075956493 0.054096332529603747 0 -0.0012990929964376906 0.055113745460518074 0 -0.001438359075956493 0.054096332529603747 0 -0.0022646428659930233 0.054552201436679847 0 -0.0012990929964376906 0.055113745460518074 0 -0.00645261994596263 0.057003373817136785 0 -0.010276198514327029 0.055797945589974189 0 -0.0035070207899652226 0.051216878086147957 0 -0.004367662415585157 0.054401467502234256 0 -0.0069668761690795137 0.053396892231029822 0 -0.00645261994596263 0.057003373817136785 0 -0.0027698705892619836 0.053512213666154412 0 -0.0035070207899652226 0.051216878086147957 0 -0.0022646428659930233 0.054552201436679847 0 -0.004367662415585157 0.054401467502234256 0 -0.0022646428659930233 0.054552201436679847 0 -0.004367662415585157 0.054401467502234256 0 -0.0041272977657773264 0.056255933894127128 0 -0.004367662415585157 0.054401467502234256 0 -0.0041272977657773264 0.056255933894127128 0 -0.0064916974715862399 0.056120958305393445 0 -0.0022646428659930233 0.054552201436679847 0 -0.0041272977657773264 0.056255933894127128 0 -0.002289895463817256 0.055864267231885471 0 -0.002289895463817256 0.055864267231885471 0 -0.0012990929964376906 0.055113745460518074 0 -0.0012471444992297157 0.056183515606138282 0 -9.5201157998627404e-05 0.055764563229632726 0 -0.0012990929964376906 0.055113745460518074 0 -0.0012471444992297157 0.056183515606138282 0 -0.0022646428659930233 0.054552201436679847 0 -0.002289895463817256 0.055864267231885471 0 -0.0012990929964376906 0.055113745460518074 0 -0.013288367965008617 0.058077741424769513 0 -0.013173588654092549 0.058103639998838316 0 -0.01300037439059042 0.05820255177738512 0 -0.013288367965008617 0.058077741424769513 0 -0.014582311798800951 0.058458741415655512 0 -0.013111623280230824 0.058019301259350196 0 -0.013288367965008617 0.058077741424769513 0 -0.01300037439059042 0.05820255177738512 0 -0.014582311798800951 0.058458741415655512 0 -0.013195813938996903 0.0581356491245138 0 -0.013288367965008617 0.058077741424769513 0 -0.013173588654092549 0.058103639998838316 0 -0.013195813938996903 0.0581356491245138 0 -0.013270985686051518 0.058111767793782861 0 -0.013173588654092549 0.058103639998838316 0 -0.004367662415585157 0.054401467502234256 0 -0.0069668761690795137 0.053396892231029822 0 -0.0064916974715862399 0.056120958305393445 0 -0.0041272977657773264 0.056255933894127128 0 -0.0064916974715862399 0.056120958305393445 0 -0.0046620899109260207 0.057137698913401459 0 -0.010276198514327029 0.055797945589974189 0 -0.012709803901113845 0.057953373115544833 0 -0.0069668761690795137 0.053396892231029822 0 -0.0064916974715862399 0.056120958305393445 0 -0.0098904713949671749 0.058119625601564848 0 -0.0069668761690795137 0.053396892231029822 0 -0.0098904713949671749 0.058119625601564848 0 -0.01300037439059042 0.05820255177738512 0 -0.0098904713949671749 0.058119625601564848 0 -0.01300037439059042 0.05820255177738512 0 -0.012039741920754432 0.059853517397408726 0 -0.0098904713949671749 0.058119625601564848 0 -0.012039741920754432 0.059853517397408726 0 -0.011271043283636952 0.062127759961825124 0 -0.01300037439059042 0.05820255177738512 0 -0.013752391713727394 0.060774295166839673 0 -0.012039741920754432 0.059853517397408726 0 -0.01300037439059042 0.05820255177738512 0 -0.013752391713727394 0.060774295166839673 0 -0.0149250726394516 0.059536716960741545 0 -0.013752391713727394 0.060774295166839673 0 -0.011271043283636952 0.062127759961825124 0 -0.012958279293233824 0.062741943302395117 0 -0.013752391713727394 0.060774295166839673 0 -0.012039741920754432 0.059853517397408726 0 -0.011271043283636952 0.062127759961825124 0 -0.0064916974715862399 0.056120958305393445 0 -0.0058758592212901891 0.057786878184279918 0 -0.0046620899109260207 0.057137698913401459 0 -0.0064916974715862399 0.056120958305393445 0 -0.0098904713949671749 0.058119625601564848 0 -0.011271043283636952 0.062127759961825124 0 -0.0067019322061058623 0.056170487965232788 0 -0.0082959558339588766 0.059725692409595792 0 -0.0058758592212901891 0.057786878184279918 0 -0.0046620899109260207 0.057137698913401459 0 -0.0040660066529238934 0.058257137690459759 0 -0.0058758592212901891 0.057786878184279918 0 -0.0053515118483993358 0.059210578586854024 0 -0.0069483022050127689 0.060535502806335836 0 -0.0053515118483993358 0.059210578586854024 0 -0.0040660066529238934 0.058257137690459759 0 -0.0041250667266754084 0.06041119810242114 0 -0.0058758592212901891 0.057786878184279918 0 -0.0053515118483993358 0.059210578586854024 0 -0.0040660066529238934 0.058257137690459759 0 -0.013752391713727394 0.060774295166839673 0 -0.012958279293233824 0.062741943302395117 0 -0.015011966605759139 0.062071990284680217 0 -0.011271043283636952 0.062127759961825124 0 -0.012958279293233824 0.062741943302395117 0 -0.013136735958475977 0.06438907727083637 0 -0.012958279293233824 0.062741943302395117 0 -0.013924707998231336 0.063205332671872297 0 -0.015011966605759139 0.062071990284680217 0 -0.0082959558339588766 0.059725692409595792 0 -0.01163594086966298 0.062306100706841804 0 -0.012911420308611674 0.063348407998847431 0 -0.01163594086966298 0.062306100706841804 0 -0.012958279293233824 0.062741943302395117 0 -0.013924707998231336 0.063205332671872297 0 -0.013457690679513652 0.063671837590343214 0 -0.000275187441401174 0.057173931250206783 0 -0.0012471444992297157 0.056183515606138282 0 -0.0024778619505483848 0.057049839587487869 0 -0.002289895463817256 0.055864267231885471 0 -0.0012471444992297157 0.056183515606138282 0 -0.0024778619505483848 0.057049839587487869 0 -0.0041272977657773264 0.056255933894127128 0 -0.002289895463817256 0.055864267231885471 0 -0.0024778619505483848 0.057049839587487869 0 -0.0041272977657773264 0.056255933894127128 0 -0.0046620899109260207 0.057137698913401459 0 -0.0024778619505483848 0.057049839587487869 0 -0.0046620899109260207 0.057137698913401459 0 -0.0024778619505483848 0.057049839587487869 0 -0.0040660066529238934 0.058257137690459759 0 -0.0010807798718708479 0.05870416376815385 0 -0.00032955036006114736 0.059018661073354246 0 -0.0040660066529238934 0.058257137690459759 0 -0.00053398679850378476 0.058377213882029488 0 -0.0041250667266754084 0.06041119810242114 0 -0.0024778619505483848 0.057049839587487869 0 -0.0040660066529238934 0.058257137690459759 0 -0.00053398679850378476 0.058377213882029488 0 -0.000275187441401174 0.057173931250206783 0 -0.0024778619505483848 0.057049839587487869 0 -0.00053398679850378476 0.058377213882029488 0 -0.00053398679850378476 0.058377213882029488 0 0.00049693826393024836 0.058155950808007922 0 0.00062651043575474136 0.058136080063034459 0 -0.00053398679850378476 0.058377213882029488 0 0.0008659744202125047 0.058434990364676982 0 0.00049693826393024836 0.058155950808007922 0 0.0008659744202125047 0.058434990364676982 0 0.00049693826393024836 0.058155950808007922 0 0.00086774176841568286 0.058197582084022308 0 0.00049693826393024836 0.058155950808007922 0 0.00086774176841568286 0.058197582084022308 0 0.00097878149040011436 0.058123554830996849 0 0.00049693826393024836 0.058155950808007922 0 0.00097878149040011436 0.058123554830996849 0 0.00092149006927653803 0.058169196150345701 0 0.00049693826393024836 0.058155950808007922 0 0.00092149006927653803 0.058169196150345701 0 0.00062651043575474136 0.058136080063034459 0 -0.013775513858938203 0.064457933056755151 0 -0.013966398525951124 0.063719901049588287 0 -0.014716462611451292 0.063666868483313488 0 -0.016539954665544261 0.063756299783127274 0 -0.01163594086966298 0.062306100706841804 0 -0.013775513858938203 0.064457933056755151 0 -0.013966398525951124 0.063719901049588287 0 -0.013457690679513652 0.063671837590343214 0 -0.013924707998231336 0.063205332671872297 0 -0.013966398525951124 0.063719901049588287 0 -0.014716462611451292 0.063666868483313488 0 -0.013924707998231336 0.063205332671872297 0 -0.013966398525951124 0.063719901049588287 0 -0.013457690679513652 0.063671837590343214 0 -0.012359593676766319 0.061031628986642703 0 -0.012676295280394923 0.062024794602962452 0 -0.012751348505970088 0.061198734374929883 0 -0.01163594086966298 0.062306100706841804 0 -0.0092191241533944816 0.06022908299808153 0 -0.016539954665544261 0.063756299783127274 0 -0.0092191241533944816 0.06022908299808153 0 -0.0041250667266754084 0.06041119810242114 0 -0.0069483022050127689 0.060535502806335836 0 -0.006879908376807708 0.061493526258261752 0 -0.00032955036006114736 0.059018661073354246 0 -0.0092191241533944816 0.06022908299808153 0 0.0008659744202125047 0.058434990364676982 0 0.0011677211661310419 0.058312072581461892 0 0.0010906398654793779 0.058179592888772239 0 -0.0053515118483993358 0.059210578586854024 0 -0.0041250667266754084 0.06041119810242114 0 -0.0069483022050127689 0.060535502806335836 0 0.0008659744202125047 0.058434990364676982 0 0.00086774176841568286 0.058197582084022308 0 0.0010906398654793779 0.058179592888772239 0 0.00086774176841568286 0.058197582084022308 0 0.00097878149040011436 0.058123554830996849 0 0.0010906398654793779 0.058179592888772239 0 0.00097878149040011436 0.058123554830996849 0 0.0010906398654793779 0.058179592888772239 0 0.0011858313955836525 0.058105856369295571 0 -0.021190871982405383 0.064670204794279193 0 -0.022106925073536954 0.061680209313939464 0 -0.020031263624564893 0.061119578677865133 0 -0.02060704476302419 0.064560979712547525 0 -0.020288162824172791 0.064030262925507481 0 -0.020031263624564893 0.061119578677865133 0 -0.016539954665544261 0.063756299783127274 0 -0.021164077849613359 0.061884811421171089 0 -0.021190871982405383 0.064670204794279193 0 -0.021710111273766687 0.064891787451488755 0 -0.022106925073536954 0.061680209313939464 0 -0.0092191241533944816 0.06022908299808153 0 -0.010476990348062962 0.060160487741537205 0 0.0011677211661310419 0.058312072581461892 0 0.0010906398654793779 0.058179592888772239 0 0.0012327291815510456 0.058102867875275785 0 -0.022106925073536954 0.061680209313939464 0 -0.020661821759174318 0.059339700912416776 0 -0.020031263624564893 0.061119578677865133 0 0.0012327291815510456 0.058102867875275785 0 0.0011858313955836525 0.058105856369295571 0 0.0013292342658796155 0.058059390574148453 0 0.0010906398654793779 0.058179592888772239 0 0.0012327291815510456 0.058102867875275785 0 0.0011858313955836525 0.058105856369295571 0 0.0011858313955836525 0.058105856369295571 0 0.0013292342658796155 0.058059390574148453 0 0.0012284582097149578 0.05808883027168172 0 0.0012327291815510456 0.058102867875275785 0 0.0013292342658796155 0.058059390574148453 0 0.0015215418669350508 0.057986812167875677 0 0.0013292342658796155 0.058059390574148453 0 0.0015170131351200013 0.057997945791028051 0 0.0013825231925515451 0.058051988761424839 0 0.0013292342658796155 0.058059390574148453 0 0.0015170131351200013 0.057997945791028051 0 0.0015215418669350508 0.057986812167875677 0 0.0015170131351200013 0.057997945791028051 0 0.0015215418669350508 0.057986812167875677 0 0.0016739679183035939 0.057938185199271158 0 -0.010476990348062962 0.060160487741537205 0 -0.01074976339098445 0.057795883700325713 0 -0.022106925073536954 0.061680209313939464 0 -0.022554914526108909 0.058017536181416994 0 -0.020661821759174318 0.059339700912416776 0 -0.022554914526108909 0.058017536181416994 0 -0.020787229291014467 0.05772591271622185 0 -0.020661821759174318 0.059339700912416776 0 0.00092149006927653803 0.058169196150345701 0 0.0011379498974192852 0.058128428301319007 0 0.0012237968969317757 0.058200922611458601 0 0.00092149006927653803 0.058169196150345701 0 0.0012237968969317757 0.058200922611458601 0 0.0011802571258874262 0.058246737325567552 0 0.00097878149040011436 0.058123554830996849 0 0.00092149006927653803 0.058169196150345701 0 0.0011379498974192852 0.058128428301319007 0 0.00097878149040011436 0.058123554830996849 0 0.0011858313955836525 0.058105856369295571 0 0.0012284582097149578 0.05808883027168172 0 0.00097878149040011436 0.058123554830996849 0 0.0012284582097149578 0.05808883027168172 0 0.0011379498974192852 0.058128428301319007 0 0.0011379498974192852 0.058128428301319007 0 0.0013825231925515451 0.058051988761424839 0 0.0014120833329252479 0.058091455904593615 0 0.0013292342658796155 0.058059390574148453 0 0.0012284582097149578 0.05808883027168172 0 0.0013825231925515451 0.058051988761424839 0 0.0012284582097149578 0.05808883027168172 0 0.0011379498974192852 0.058128428301319007 0 0.0013825231925515451 0.058051988761424839 0 0.0015170131351200013 0.057997945791028051 0 0.0013825231925515451 0.058051988761424839 0 0.0015677379058479902 0.057967366084682614 0 0.0013825231925515451 0.058051988761424839 0 0.0014120833329252479 0.058091455904593615 0 0.0015677379058479902 0.057967366084682614 0 0.0011379498974192852 0.058128428301319007 0 0.0012237968969317757 0.058200922611458601 0 0.0014120833329252479 0.058091455904593615 0 0.0012237968969317757 0.058200922611458601 0 0.0014112331602134367 0.058175063938929683 0 0.0014120833329252479 0.058091455904593615 0 0.0012237968969317757 0.058200922611458601 0 0.0014225227666565319 0.058287813296904335 0 0.0014112331602134367 0.058175063938929683 0 0.0012237968969317757 0.058200922611458601 0 0.0014225227666565319 0.058287813296904335 0 0.0011802571258874262 0.058246737325567552 0 0.0014225227666565319 0.058287813296904335 0 0.0011802571258874262 0.058246737325567552 0 0.0015829054324544797 0.058368180713278449 0 0.0011802571258874262 0.058246737325567552 0 0.0016882752968195576 0.058275177631376254 0 0.0011193496849485401 0.058115907738840226 0 0.0011802571258874262 0.058246737325567552 0 0.0016882752968195576 0.058275177631376254 0 0.0015829054324544797 0.058368180713278449 0 0.0016882752968195576 0.058275177631376254 0 0.0015829054324544797 0.058368180713278449 0 0.0019533355975397044 0.058492572402588684 0 0.0015829054324544797 0.058368180713278449 0 0.0016694692168474144 0.058357290655585266 0 0.0019533355975397044 0.058492572402588684 0 0.0014225227666565319 0.058287813296904335 0 0.0015829054324544797 0.058368180713278449 0 0.0016694692168474144 0.058357290655585266 0 0.0023456254450297848 0.058637749439941274 0 0.0019533355975397044 0.058492572402588684 0 0.0020063127126299317 0.05836912930475481 0 0.0016694692168474144 0.058357290655585266 0 0.0019533355975397044 0.058492572402588684 0 0.0020063127126299317 0.05836912930475481 0 0.0038922959015068688 0.057715985637451894 0 0.0021828138838472706 0.05836686805162266 0 0.0047012249978536464 0.056381823098838053 0 0.0020063127126299317 0.05836912930475481 0 0.0038680497351938708 0.058133479452420117 0 0.0023456254450297848 0.058637749439941274 0 0.0029443824715448658 0.058968291480014465 0 0.0020063127126299317 0.05836912930475481 0 0.0068756753651894069 0.057112752622177222 0 0.0038680497351938708 0.058133479452420117 0 0.0043460143734376051 0.059000450151138042 0 0.0068756753651894069 0.057112752622177222 0 0.0047012249978536464 0.056381823098838053 0 0.0038680497351938708 0.058133479452420117 0 0.0029443824715448658 0.058968291480014465 0 0.0027020706940711564 0.058449483903274611 0 0.0035730713092526267 0.058369665553920938 0 0.0023456254450297848 0.058637749439941274 0 0.0029443824715448658 0.058968291480014465 0 0.0027020706940711564 0.058449483903274611 0 0.0016882752968195576 0.058275177631376254 0 0.0019533355975397044 0.058492572402588684 0 0.0022187156687574617 0.05845051303401546 0 0.0023456254450297848 0.058637749439941274 0 0.0019533355975397044 0.058492572402588684 0 0.0022187156687574617 0.05845051303401546 0 0.0023456254450297848 0.058637749439941274 0 0.0027020706940711564 0.058449483903274611 0 0.0022187156687574617 0.05845051303401546 0 0.0027020706940711564 0.058449483903274611 0 0.0022187156687574617 0.05845051303401546 0 0.0021880771542087509 0.058063037589033389 0 0.0016882752968195576 0.058275177631376254 0 0.0022187156687574617 0.05845051303401546 0 0.0021880771542087509 0.058063037589033389 0 0.0021880771542087509 0.058063037589033389 0 0.0023388266679239323 0.057211546208949977 0 0.0015681630640374145 0.057858273178247058 0 0.0016882752968195576 0.058275177631376254 0 0.0021880771542087509 0.058063037589033389 0 0.0015681630640374145 0.057858273178247058 0 0.0021880771542087509 0.058063037589033389 0 0.0030169540131762471 0.057825957093424175 0 0.0023388266679239323 0.057211546208949977 0 0.0044250646238045092 0.057403725606364128 0 0.0035730713092526267 0.058369665553920938 0 0.0030169540131762471 0.057825957093424175 0 0.0027020706940711564 0.058449483903274611 0 0.0035730713092526267 0.058369665553920938 0 0.0030169540131762471 0.057825957093424175 0 0.0027020706940711564 0.058449483903274611 0 0.0021880771542087509 0.058063037589033389 0 0.0030169540131762471 0.057825957093424175 0 0.0044250646238045092 0.057403725606364128 0 0.0030169540131762471 0.057825957093424175 0 0.0034580886880628027 0.056908326472240638 0 0.0030169540131762471 0.057825957093424175 0 0.0034580886880628027 0.056908326472240638 0 0.0023388266679239323 0.057211546208949977 0 0.0014639015877521905 0.057322587665457045 0 0.0023388266679239323 0.057211546208949977 0 0.0015681630640374145 0.057858273178247058 0 0.00068577953145735455 0.057857099872668523 0 0.0011193496849485401 0.058115907738840226 0 0.0015681630640374145 0.057858273178247058 0 0.0014639015877521905 0.057322587665457045 0 0.00068577953145735455 0.057857099872668523 0 0.0015681630640374145 0.057858273178247058 0 -0.00053398679850378476 0.058377213882029488 0 0.00068577953145735455 0.057857099872668523 0 0.00062651043575474136 0.058136080063034459 0 0.00068577953145735455 0.057857099872668523 0 0.0011193496849485401 0.058115907738840226 0 0.00062651043575474136 0.058136080063034459 0 0.00092149006927653803 0.058169196150345701 0 0.0011802571258874262 0.058246737325567552 0 0.00062651043575474136 0.058136080063034459 0 0.0011802571258874262 0.058246737325567552 0 0.0011193496849485401 0.058115907738840226 0 0.00062651043575474136 0.058136080063034459 0 0.0016882752968195576 0.058275177631376254 0 0.0011193496849485401 0.058115907738840226 0 0.0015681630640374145 0.057858273178247058 0 -0.021037457327474467 0.063827683048843231 0 -0.020551326937967389 0.063612844541254127 0 -0.020579023025851628 0.064290819929664858 0 -0.021196322462461573 0.063298029339801429 0 -0.020551326937967389 0.063612844541254127 0 -0.02101726206328014 0.062881056090752063 0 -0.021196322462461573 0.063298029339801429 0 -0.021751472209084764 0.062737041208731859 0 -0.021624445477588839 0.063521116450482834 0 -0.021196322462461573 0.063298029339801429 0 -0.021037457327474467 0.063827683048843231 0 -0.021624445477588839 0.063521116450482834 0 -0.021196322462461573 0.063298029339801429 0 -0.021037457327474467 0.063827683048843231 0 -0.020551326937967389 0.063612844541254127 0 -0.020551326937967389 0.063612844541254127 0 -0.019935092515074044 0.064262438002826119 0 -0.019848932840904925 0.063680925726919385 0 -0.020551326937967389 0.063612844541254127 0 -0.020283013503040171 0.063022065863913068 0 -0.019848932840904925 0.063680925726919385 0 -0.020551326937967389 0.063612844541254127 0 -0.020283013503040171 0.063022065863913068 0 -0.02101726206328014 0.062881056090752063 0 -0.020283013503040171 0.063022065863913068 0 -0.019848932840904925 0.063680925726919385 0 -0.019600397588536413 0.063107000917361503 0 -0.020283013503040171 0.063022065863913068 0 -0.020707208797643765 0.062388410060188935 0 -0.019943326473364217 0.062438862110851263 0 -0.020283013503040171 0.063022065863913068 0 -0.019600397588536413 0.063107000917361503 0 -0.019943326473364217 0.062438862110851263 0 -0.020283013503040171 0.063022065863913068 0 -0.02101726206328014 0.062881056090752063 0 -0.020707208797643765 0.062388410060188935 0 -0.02101726206328014 0.062881056090752063 0 -0.021393859736405216 0.062380287750361647 0 -0.020707208797643765 0.062388410060188935 0 -0.021196322462461573 0.063298029339801429 0 -0.02101726206328014 0.062881056090752063 0 -0.021751472209084764 0.062737041208731859 0 -0.02101726206328014 0.062881056090752063 0 -0.021751472209084764 0.062737041208731859 0 -0.021393859736405216 0.062380287750361647 0 -0.021751472209084764 0.062737041208731859 0 -0.021393859736405216 0.062380287750361647 0 -0.022083487940686864 0.062043469822997362 0 -0.021751472209084764 0.062737041208731859 0 -0.022572629040714734 0.062174862414422029 0 -0.022083487940686864 0.062043469822997362 0 -0.021751472209084764 0.062737041208731859 0 -0.022572629040714734 0.062174862414422029 0 -0.022375649939250113 0.06294748582450474 0 -0.022572629040714734 0.062174862414422029 0 -0.022975883990365514 0.061731252003166759 0 -0.023509012870445198 0.061627975925808813 0 -0.022572629040714734 0.062174862414422029 0 -0.022375649939250113 0.06294748582450474 0 -0.023509012870445198 0.061627975925808813 0 -0.023433717643760215 0.062147321711285605 0 -0.023603634069890685 0.061617397638901998 0 -0.022375649939250113 0.06294748582450474 0 -0.022777763071785105 0.063874263851213794 0 -0.023509012870445198 0.061627975925808813 0 -0.022375649939250113 0.06294748582450474 0 -0.021978684999436369 0.064013781964540994 0 -0.022777763071785105 0.063874263851213794 0 -0.022375649939250113 0.06294748582450474 0 -0.021624445477588839 0.063521116450482834 0 -0.021978684999436369 0.064013781964540994 0 -0.021751472209084764 0.062737041208731859 0 -0.022375649939250113 0.06294748582450474 0 -0.021624445477588839 0.063521116450482834 0 -0.023433717643760215 0.062147321711285605 0 -0.02433970398514422 0.061486224774633967 0 -0.021978684999436369 0.064013781964540994 0 -0.022777763071785105 0.063874263851213794 0 -0.02180451691307873 0.065105895223507654 0 -0.021978684999436369 0.064013781964540994 0 -0.02180451691307873 0.065105895223507654 0 -0.021347633981156466 0.06438556833328557 0 -0.021624445477588839 0.063521116450482834 0 -0.021978684999436369 0.064013781964540994 0 -0.021347633981156466 0.06438556833328557 0 -0.024504847524093019 0.060127220825689699 0 -0.024179527572425932 0.059382132607939231 0 -0.023623770107475624 0.060354285421272566 0 -0.024504847524093019 0.060127220825689699 0 -0.024179527572425932 0.059382132607939231 0 -0.025108567475291946 0.059077532996836268 0 -0.024546197367830702 0.058859534978644115 0 -0.02411321607759577 0.056795771452892711 0 -0.025743264942252223 0.057187188855767443 0 -0.024546197367830702 0.058859534978644115 0 -0.028024688556965882 0.058547360982612887 0 -0.025743264942252223 0.057187188855767443 0 -0.024988192086579274 0.058769871438462622 0 -0.02433970398514422 0.061486224774633967 0 -0.02180451691307873 0.065105895223507654 0 -0.021163331044880197 0.064856044140616784 0 -0.021347633981156466 0.06438556833328557 0 -0.02180451691307873 0.065105895223507654 0 -0.021163331044880197 0.064856044140616784 0 -0.020984894821697377 0.06522313284615637 0 -0.02433970398514422 0.061486224774633967 0 -0.020442399833983837 0.065211687703546739 0 -0.021163331044880197 0.064856044140616784 0 -0.020635259390768379 0.06477974057518858 0 -0.020984894821697377 0.06522313284615637 0 -0.021163331044880197 0.064856044140616784 0 -0.021347633981156466 0.06438556833328557 0 -0.020635259390768379 0.06477974057518858 0 -0.021037457327474467 0.063827683048843231 0 -0.021347633981156466 0.06438556833328557 0 -0.020579023025851628 0.064290819929664858 0 -0.021037457327474467 0.063827683048843231 0 -0.021624445477588839 0.063521116450482834 0 -0.021347633981156466 0.06438556833328557 0 -0.021347633981156466 0.06438556833328557 0 -0.020579023025851628 0.064290819929664858 0 -0.020635259390768379 0.06477974057518858 0 -0.019935092515074044 0.064262438002826119 0 -0.020579023025851628 0.064290819929664858 0 -0.020040224011646571 0.064751825987528933 0 -0.020551326937967389 0.063612844541254127 0 -0.019935092515074044 0.064262438002826119 0 -0.020579023025851628 0.064290819929664858 0 -0.020040224011646571 0.064751825987528933 0 -0.019874082205051501 0.065016810528111896 0 -0.02039806865809422 0.065213932296521809 0 -0.020040224011646571 0.064751825987528933 0 -0.020635259390768379 0.06477974057518858 0 -0.02039806865809422 0.065213932296521809 0 -0.020635259390768379 0.06477974057518858 0 -0.02039806865809422 0.065213932296521809 0 -0.020984894821697377 0.06522313284615637 0 -0.020579023025851628 0.064290819929664858 0 -0.020040224011646571 0.064751825987528933 0 -0.020635259390768379 0.06477974057518858 0 -0.020040224011646571 0.064751825987528933 0 -0.01957244149015783 0.064711084256618936 0 -0.019874082205051501 0.065016810528111896 0 -0.01957244149015783 0.064711084256618936 0 -0.019302718861169178 0.064931735930770201 0 -0.019874082205051501 0.065016810528111896 0 -0.020040224011646571 0.064751825987528933 0 -0.01957244149015783 0.064711084256618936 0 -0.019336705316250771 0.06449872557965379 0 -0.01957244149015783 0.064711084256618936 0 -0.019302718861169178 0.064931735930770201 0 -0.019210720264958719 0.064301211682495529 0 -0.024344419208494134 0.059106333651179309 0 -0.019184672091060898 0.065991332170069555 0 -0.019089132278009381 0.064469999347193857 0 -0.018074074937820626 0.064604577284711751 0 -0.01957244149015783 0.064711084256618936 0 -0.019210720264958719 0.064301211682495529 0 -0.019336705316250771 0.06449872557965379 0 -0.019210720264958719 0.064301211682495529 0 -0.019336705316250771 0.06449872557965379 0 -0.01909764272152931 0.064045600233927621 0 -0.019935092515074044 0.064262438002826119 0 -0.020040224011646571 0.064751825987528933 0 -0.019336705316250771 0.06449872557965379 0 -0.019935092515074044 0.064262438002826119 0 -0.019336705316250771 0.06449872557965379 0 -0.019340799229622684 0.064107803464500318 0 -0.020661821759174318 0.059339700912416776 0 -0.019240657492154846 0.057565866858244441 0 -0.018964377832926281 0.059637814975264054 0 -0.020787229291014467 0.05772591271622185 0 -0.020661821759174318 0.059339700912416776 0 -0.019240657492154846 0.057565866858244441 0 -0.019240657492154846 0.057565866858244441 0 -0.018964377832926281 0.059637814975264054 0 -0.017436546867720368 0.05835033387431296 0 -0.014038904916047193 0.057663676692304419 0 -0.017436546867720368 0.05835033387431296 0 -0.017581672548075074 0.061005715337342246 0 -0.024344419208494134 0.059106333651179309 0 -0.017048431241045159 0.062510278227410024 0 -0.019263308670869266 0.064390559187424298 0 -0.019210720264958719 0.064301211682495529 0 -0.019130523406880671 0.064022767690692026 0 -0.018964377832926281 0.059637814975264054 0 -0.017436546867720368 0.05835033387431296 0 -0.017581672548075074 0.061005715337342246 0 -0.014038904916047193 0.057663676692304419 0 -0.017436546867720368 0.05835033387431296 0 -0.017090988375160238 0.055813567708599472 0 -0.019240657492154846 0.057565866858244441 0 -0.017436546867720368 0.05835033387431296 0 -0.017090988375160238 0.055813567708599472 0 -0.019210720264958719 0.064301211682495529 0 -0.019130523406880671 0.064022767690692026 0 -0.01909764272152931 0.064045600233927621 0 -0.020288162824172791 0.064030262925507481 0 -0.017581672548075074 0.061005715337342246 0 -0.020031263624564893 0.061119578677865133 0 -0.018964377832926281 0.059637814975264054 0 -0.017581672548075074 0.061005715337342246 0 -0.020031263624564893 0.061119578677865133 0 -0.020661821759174318 0.059339700912416776 0 -0.018964377832926281 0.059637814975264054 0 -0.020031263624564893 0.061119578677865133 0 -0.020288162824172791 0.064030262925507481 0 -0.019130523406880671 0.064022767690692026 0 -0.01909764272152931 0.064045600233927621 0 -0.02060704476302419 0.064560979712547525 0 -0.020288162824172791 0.064030262925507481 0 -0.01909764272152931 0.064045600233927621 0 -0.016539954665544261 0.063756299783127274 0 -0.018074074937820626 0.064604577284711751 0 -0.013775513858938203 0.064457933056755151 0 -0.016735746168416853 0.064957111761252795 0 -0.01550955054970214 0.064013488307628791 0 -0.020685971265594617 0.064143501260814501 0 -0.017048431241045159 0.062510278227410024 0 -0.016735746168416853 0.064957111761252795 0 -0.017443028167445161 0.064110657419109748 0 -0.018296058041981349 0.064237911230805828 0 -0.016735746168416853 0.064957111761252795 0 -0.016662133213027421 0.063815654329730034 0 -0.01550955054970214 0.064013488307628791 0 -0.016735746168416853 0.064957111761252795 0 -0.017443028167445161 0.064110657419109748 0 -0.016662133213027421 0.063815654329730034 0 -0.017443028167445161 0.064110657419109748 0 -0.017401975918143991 0.063543572548466778 0 -0.016662133213027421 0.063815654329730034 0 -0.017401975918143991 0.063543572548466778 0 -0.016936318722145207 0.063034189360037962 0 -0.016662133213027421 0.063815654329730034 0 -0.017401975918143991 0.063543572548466778 0 -0.016936318722145207 0.063034189360037962 0 -0.017987745656834132 0.063007685338336533 0 -0.016936318722145207 0.063034189360037962 0 -0.016662133213027421 0.063815654329730034 0 -0.015868634159018149 0.063294078325280403 0 -0.016662133213027421 0.063815654329730034 0 -0.01550955054970214 0.064013488307628791 0 -0.015868634159018149 0.063294078325280403 0 -0.013775513858938203 0.064457933056755151 0 -0.01550955054970214 0.064013488307628791 0 -0.014716462611451292 0.063666868483313488 0 -0.01550955054970214 0.064013488307628791 0 -0.015868634159018149 0.063294078325280403 0 -0.014716462611451292 0.063666868483313488 0 -0.015868634159018149 0.063294078325280403 0 -0.014716462611451292 0.063666868483313488 0 -0.015049666862891354 0.062928673054077108 0 -0.013924707998231336 0.063205332671872297 0 -0.014716462611451292 0.063666868483313488 0 -0.015049666862891354 0.062928673054077108 0 -0.019089174845252299 0.063728367816710457 0 -0.019340799229622684 0.064107803464500318 0 -0.018296058041981349 0.064237911230805828 0 -0.019089174845252299 0.063728367816710457 0 -0.019848932840904925 0.063680925726919385 0 -0.019600397588536413 0.063107000917361503 0 -0.019089174845252299 0.063728367816710457 0 -0.019848932840904925 0.063680925726919385 0 -0.019340799229622684 0.064107803464500318 0 -0.019935092515074044 0.064262438002826119 0 -0.019848932840904925 0.063680925726919385 0 -0.019340799229622684 0.064107803464500318 0 -0.019336705316250771 0.06449872557965379 0 -0.016735746168416853 0.064957111761252795 0 -0.018296058041981349 0.064237911230805828 0 -0.019336705316250771 0.06449872557965379 0 -0.019340799229622684 0.064107803464500318 0 -0.018296058041981349 0.064237911230805828 0 -0.017443028167445161 0.064110657419109748 0 -0.018296058041981349 0.064237911230805828 0 -0.018196838703374345 0.063656069639139848 0 -0.019089174845252299 0.063728367816710457 0 -0.018296058041981349 0.064237911230805828 0 -0.018196838703374345 0.063656069639139848 0 -0.019089174845252299 0.063728367816710457 0 -0.018196838703374345 0.063656069639139848 0 -0.018856969033805814 0.063104084889544845 0 -0.018196838703374345 0.063656069639139848 0 -0.017987745656834132 0.063007685338336533 0 -0.018856969033805814 0.063104084889544845 0 -0.017443028167445161 0.064110657419109748 0 -0.017401975918143991 0.063543572548466778 0 -0.018196838703374345 0.063656069639139848 0 -0.017401975918143991 0.063543572548466778 0 -0.018196838703374345 0.063656069639139848 0 -0.017987745656834132 0.063007685338336533 0 -0.017987745656834132 0.063007685338336533 0 -0.018856969033805814 0.063104084889544845 0 -0.018871979518734028 0.062277324863074621 0 -0.018856969033805814 0.063104084889544845 0 -0.019600397588536413 0.063107000917361503 0 -0.019352233680571422 0.062650580473642192 0 -0.019089174845252299 0.063728367816710457 0 -0.018856969033805814 0.063104084889544845 0 -0.019600397588536413 0.063107000917361503 0 -0.019600397588536413 0.063107000917361503 0 -0.019352233680571422 0.062650580473642192 0 -0.019943326473364217 0.062438862110851263 0 -0.019352233680571422 0.062650580473642192 0 -0.019516247828066678 0.061957177865910436 0 -0.019943326473364217 0.062438862110851263 0 -0.019516247828066678 0.061957177865910436 0 -0.018871979518734028 0.062277324863074621 0 -0.018689491271237483 0.061315261751912258 0 -0.018856969033805814 0.063104084889544845 0 -0.019352233680571422 0.062650580473642192 0 -0.018871979518734028 0.062277324863074621 0 -0.019352233680571422 0.062650580473642192 0 -0.019516247828066678 0.061957177865910436 0 -0.018871979518734028 0.062277324863074621 0 -0.017987745656834132 0.063007685338336533 0 -0.018871979518734028 0.062277324863074621 0 -0.017545355555353446 0.062354671464732482 0 -0.016936318722145207 0.063034189360037962 0 -0.017987745656834132 0.063007685338336533 0 -0.017545355555353446 0.062354671464732482 0 -0.017545355555353446 0.062354671464732482 0 -0.018227340233649796 0.061887259865018085 0 -0.017363707059212294 0.061422898214763433 0 -0.018871979518734028 0.062277324863074621 0 -0.017545355555353446 0.062354671464732482 0 -0.018227340233649796 0.061887259865018085 0 -0.018871979518734028 0.062277324863074621 0 -0.018227340233649796 0.061887259865018085 0 -0.018689491271237483 0.061315261751912258 0 -0.018227340233649796 0.061887259865018085 0 -0.018689491271237483 0.061315261751912258 0 -0.017363707059212294 0.061422898214763433 0 -0.018689491271237483 0.061315261751912258 0 -0.017363707059212294 0.061422898214763433 0 -0.017128563644282727 0.060250636505374794 0 -0.019516247828066678 0.061957177865910436 0 -0.019374691510456996 0.061478853243778685 0 -0.020354193584196628 0.061861894451746634 0 -0.019516247828066678 0.061957177865910436 0 -0.018689491271237483 0.061315261751912258 0 -0.019374691510456996 0.061478853243778685 0 -0.015011966605759139 0.062071990284680217 0 -0.016282438705720641 0.062274297848378353 0 -0.015976795022599435 0.060723216264258958 0 -0.013924707998231336 0.063205332671872297 0 -0.015011966605759139 0.062071990284680217 0 -0.015049666862891354 0.062928673054077108 0 -0.015011966605759139 0.062071990284680217 0 -0.015049666862891354 0.062928673054077108 0 -0.016282438705720641 0.062274297848378353 0 -0.015868634159018149 0.063294078325280403 0 -0.015049666862891354 0.062928673054077108 0 -0.016282438705720641 0.062274297848378353 0 -0.016936318722145207 0.063034189360037962 0 -0.015868634159018149 0.063294078325280403 0 -0.016282438705720641 0.062274297848378353 0 -0.016936318722145207 0.063034189360037962 0 -0.017545355555353446 0.062354671464732482 0 -0.016282438705720641 0.062274297848378353 0 -0.017545355555353446 0.062354671464732482 0 -0.017363707059212294 0.061422898214763433 0 -0.016282438705720641 0.062274297848378353 0 -0.017363707059212294 0.061422898214763433 0 -0.016282438705720641 0.062274297848378353 0 -0.015976795022599435 0.060723216264258958 0 -0.017363707059212294 0.061422898214763433 0 -0.015976795022599435 0.060723216264258958 0 -0.017128563644282727 0.060250636505374794 0 -0.015011966605759139 0.062071990284680217 0 -0.015976795022599435 0.060723216264258958 0 -0.014932269545238921 0.060790640195688334 0 -0.015976795022599435 0.060723216264258958 0 -0.014932269545238921 0.060790640195688334 0 -0.0149250726394516 0.059536716960741545 0 -0.013752391713727394 0.060774295166839673 0 -0.014932269545238921 0.060790640195688334 0 -0.0149250726394516 0.059536716960741545 0 -0.013752391713727394 0.060774295166839673 0 -0.015011966605759139 0.062071990284680217 0 -0.014932269545238921 0.060790640195688334 0 -0.015976795022599435 0.060723216264258958 0 -0.0149250726394516 0.059536716960741545 0 -0.016218543755125166 0.059203792065381171 0 -0.0149250726394516 0.059536716960741545 0 -0.016218543755125166 0.059203792065381171 0 -0.014582311798800951 0.058458741415655512 0 -0.01300037439059042 0.05820255177738512 0 -0.0149250726394516 0.059536716960741545 0 -0.014582311798800951 0.058458741415655512 0 -0.015976795022599435 0.060723216264258958 0 -0.016218543755125166 0.059203792065381171 0 -0.017128563644282727 0.060250636505374794 0 -0.016218543755125166 0.059203792065381171 0 -0.017324117892791049 0.058930737307371923 0 -0.01623913417074082 0.058665910624045386 0 -0.016218543755125166 0.059203792065381171 0 -0.014582311798800951 0.058458741415655512 0 -0.01623913417074082 0.058665910624045386 0 -0.014582311798800951 0.058458741415655512 0 -0.015906442409698636 0.058745652695453746 0 -0.01623913417074082 0.058665910624045386 0 -0.014588313390947686 0.05860218703122981 0 -0.014503179966498711 0.058515833517651376 0 -0.019374691510456996 0.061478853243778685 0 -0.019133598255997426 0.061320613783242668 0 -0.019794325565567327 0.06149366835945725 0 -0.018689491271237483 0.061315261751912258 0 -0.019374691510456996 0.061478853243778685 0 -0.019133598255997426 0.061320613783242668 0 -0.018624750557109417 0.061333494541194085 0 -0.01823123313998596 0.060214088024374911 0 -0.018689491271237483 0.061315261751912258 0 -0.017128563644282727 0.060250636505374794 0 -0.017324117892791049 0.058930737307371923 0 -0.016218543755125166 0.059203792065381171 0 -0.017128563644282727 0.060250636505374794 0 -0.017324117892791049 0.058930737307371923 0 -0.019133598255997426 0.061320613783242668 0 -0.019794325565567327 0.06149366835945725 0 -0.01951006600119248 0.06102810438884379 0 -0.019794325565567327 0.06149366835945725 0 -0.020433575786479804 0.060913728275426599 0 -0.01951006600119248 0.06102810438884379 0 -0.019794325565567327 0.06149366835945725 0 -0.020874699593529469 0.061597175560532146 0 -0.020433575786479804 0.060913728275426599 0 -0.020874699593529469 0.061597175560532146 0 -0.021671613992827698 0.061140489675897927 0 -0.020433575786479804 0.060913728275426599 0 -0.020874699593529469 0.061597175560532146 0 -0.020550229971635851 0.062186055996500123 0 -0.022302568948759448 0.062359129284352353 0 -0.019794325565567327 0.06149366835945725 0 -0.020874699593529469 0.061597175560532146 0 -0.020550229971635851 0.062186055996500123 0 -0.019374691510456996 0.061478853243778685 0 -0.019794325565567327 0.06149366835945725 0 -0.020550229971635851 0.062186055996500123 0 -0.019520169527728132 0.061530912641589143 0 -0.020905176411666948 0.061565683115060381 0 -0.019374691510456996 0.061478853243778685 0 -0.021244849540552013 0.060963573619013112 0 -0.020354193584196628 0.061861894451746634 0 -0.021244849540552013 0.060963573619013112 0 -0.021386775078635966 0.061880235616717551 0 -0.022214993370954172 0.061567331955328271 0 -0.021244849540552013 0.060963573619013112 0 -0.021386775078635966 0.061880235616717551 0 -0.020354193584196628 0.061861894451746634 0 -0.021386775078635966 0.061880235616717551 0 -0.021393859736405216 0.062380287750361647 0 -0.022083487940686864 0.062043469822997362 0 -0.021386775078635966 0.061880235616717551 0 -0.021393859736405216 0.062380287750361647 0 -0.020707208797643765 0.062388410060188935 0 -0.021386775078635966 0.061880235616717551 0 -0.020707208797643765 0.062388410060188935 0 -0.020354193584196628 0.061861894451746634 0 -0.020707208797643765 0.062388410060188935 0 -0.019943326473364217 0.062438862110851263 0 -0.020354193584196628 0.061861894451746634 0 -0.019516247828066678 0.061957177865910436 0 -0.019943326473364217 0.062438862110851263 0 -0.020354193584196628 0.061861894451746634 0 -0.022572629040714734 0.062174862414422029 0 -0.022975883990365514 0.061731252003166759 0 -0.022083487940686864 0.062043469822997362 0 -0.022975883990365514 0.061731252003166759 0 -0.022083487940686864 0.062043469822997362 0 -0.022214993370954172 0.061567331955328271 0 -0.021386775078635966 0.061880235616717551 0 -0.022083487940686864 0.062043469822997362 0 -0.022214993370954172 0.061567331955328271 0 -0.022975883990365514 0.061731252003166759 0 -0.022214993370954172 0.061567331955328271 0 -0.02307913724477989 0.061763529081936684 0 -0.022461257091497006 0.06174750502295856 0 -0.024388074294033474 0.061829610459405084 0 -0.022214993370954172 0.061567331955328271 0 -0.02307913724477989 0.061763529081936684 0 -0.02263075977523183 0.061123845287494941 0 -0.02307913724477989 0.061763529081936684 0 -0.02263075977523183 0.061123845287494941 0 -0.024308343049246974 0.061499452371349558 0 -0.021244849540552013 0.060963573619013112 0 -0.022214993370954172 0.061567331955328271 0 -0.02263075977523183 0.061123845287494941 0 -0.020905176411666948 0.061565683115060381 0 -0.022461257091497006 0.06174750502295856 0 -0.022302568948759448 0.062359129284352353 0 -0.021671613992827698 0.061140489675897927 0 -0.022926692485444256 0.061344178853487141 0 -0.020874699593529469 0.061597175560532146 0 -0.022302568948759448 0.062359129284352353 0 -0.021671613992827698 0.061140489675897927 0 -0.022302568948759448 0.062359129284352353 0 -0.022926692485444256 0.061344178853487141 0 -0.024428704763705195 0.062172723325079705 0 -0.022926692485444256 0.061344178853487141 0 -0.022560416537860895 0.060476275682628783 0 -0.023903262096175847 0.060668210216610778 0 -0.022560416537860895 0.060476275682628783 0 -0.023442928885607856 0.059853306283191368 0 -0.023903262096175847 0.060668210216610778 0 -0.022560416537860895 0.060476275682628783 0 -0.023442928885607856 0.059853306283191368 0 -0.022307268009291607 0.05945457872603635 0 -0.023442928885607856 0.059853306283191368 0 -0.022307268009291607 0.05945457872603635 0 -0.023784533065657618 0.058770910560495319 0 -0.022560416537860895 0.060476275682628783 0 -0.022307268009291607 0.05945457872603635 0 -0.021315009701361156 0.060210171601477319 0 -0.022307268009291607 0.05945457872603635 0 -0.021315009701361156 0.060210171601477319 0 -0.021308953849347761 0.059541362974371063 0 -0.021671613992827698 0.061140489675897927 0 -0.022926692485444256 0.061344178853487141 0 -0.022560416537860895 0.060476275682628783 0 -0.021671613992827698 0.061140489675897927 0 -0.022560416537860895 0.060476275682628783 0 -0.021315009701361156 0.060210171601477319 0 -0.021671613992827698 0.061140489675897927 0 -0.020433575786479804 0.060913728275426599 0 -0.021315009701361156 0.060210171601477319 0 -0.020433575786479804 0.060913728275426599 0 -0.019858427690939762 0.06012128756748563 0 -0.01951006600119248 0.06102810438884379 0 -0.020433575786479804 0.060913728275426599 0 -0.019858427690939762 0.06012128756748563 0 -0.021315009701361156 0.060210171601477319 0 -0.019858427690939762 0.06012128756748563 0 -0.021315009701361156 0.060210171601477319 0 -0.021308953849347761 0.059541362974371063 0 -0.019858427690939762 0.06012128756748563 0 -0.021308953849347761 0.059541362974371063 0 -0.020088532076516747 0.058924615974769487 0 -0.021308953849347761 0.059541362974371063 0 -0.020088532076516747 0.058924615974769487 0 -0.022085762126148292 0.058529853208237656 0 -0.021308953849347761 0.059541362974371063 0 -0.023237022580041088 0.059063268404340792 0 -0.022085762126148292 0.058529853208237656 0 -0.021308953849347761 0.059541362974371063 0 -0.023237022580041088 0.059063268404340792 0 -0.024082920640797756 0.059997259376397688 0 -0.023237022580041088 0.059063268404340792 0 -0.024563142729328948 0.059009253945223578 0 -0.024082920640797756 0.059997259376397688 0 -0.024563142729328948 0.059009253945223578 0 -0.024082920640797756 0.059997259376397688 0 -0.026199284471432101 0.059575620375390145 0 -0.023092719359939562 0.059025676538281793 0 -0.026720441969152867 0.058841660054420569 0 -0.022588180531880022 0.058187923664960089 0 -0.023784533065657618 0.058770910560495319 0 -0.024641830343875588 0.057113984623911408 0 -0.022307268009291607 0.05945457872603635 0 -0.022588180531880022 0.058187923664960089 0 -0.023784533065657618 0.058770910560495319 0 -0.022307268009291607 0.05945457872603635 0 -0.021308953849347761 0.059541362974371063 0 -0.022588180531880022 0.058187923664960089 0 -0.02164760110555515 0.059495201922495966 0 -0.023092719359939562 0.059025676538281793 0 -0.016118960330258631 0.059186989772158548 0 -0.016191162702827954 0.058986035989091579 0 -0.015906442409698636 0.058745652695453746 0 -0.016118960330258631 0.059186989772158548 0 -0.016191162702827954 0.058986035989091579 0 -0.016133996896956559 0.059174630796699559 0 -0.016191162702827954 0.058986035989091579 0 -0.016675505177775534 0.059185656919296774 0 -0.016133996896956559 0.059174630796699559 0 -0.016191162702827954 0.058986035989091579 0 -0.015906442409698636 0.058745652695453746 0 -0.01623913417074082 0.058665910624045386 0 -0.016191162702827954 0.058986035989091579 0 -0.01623913417074082 0.058665910624045386 0 -0.016802152767559409 0.058890309350733382 0 -0.016191162702827954 0.058986035989091579 0 -0.016802152767559409 0.058890309350733382 0 -0.016675505177775534 0.059185656919296774 0 -0.017802960063523828 0.059711428569105524 0 -0.017793941002753035 0.059182025501905738 0 -0.01823123313998596 0.060214088024374911 0 -0.017802960063523828 0.059711428569105524 0 -0.017324117892791049 0.058930737307371923 0 -0.01623913417074082 0.058665910624045386 0 -0.016802152767559409 0.058890309350733382 0 -0.019133598255997426 0.061320613783242668 0 -0.018714048648671891 0.060662742917009793 0 -0.01951006600119248 0.06102810438884379 0 -0.019858427690939762 0.06012128756748563 0 -0.018714048648671891 0.060662742917009793 0 -0.01951006600119248 0.06102810438884379 0 -0.019858427690939762 0.06012128756748563 0 -0.018714048648671891 0.060662742917009793 0 -0.017823669130624768 0.059246888119790682 0 -0.019858427690939762 0.06012128756748563 0 -0.020088532076516747 0.058924615974769487 0 -0.017823669130624768 0.059246888119790682 0 -0.020088532076516747 0.058924615974769487 0 -0.017823669130624768 0.059246888119790682 0 -0.018713738885135146 0.058141893148377331 0 -0.017823669130624768 0.059246888119790682 0 -0.017026108776356359 0.058059287531521155 0 -0.018713738885135146 0.058141893148377331 0 -0.016802152767559409 0.058890309350733382 0 -0.017823669130624768 0.059246888119790682 0 -0.016675505177775534 0.059185656919296774 0 -0.017823669130624768 0.059246888119790682 0 -0.016675505177775534 0.059185656919296774 0 -0.016549268363861523 0.058663011934753984 0 -0.016675505177775534 0.059185656919296774 0 -0.016549268363861523 0.058663011934753984 0 -0.016183272142726943 0.058951603147433536 0 -0.017823669130624768 0.059246888119790682 0 -0.016549268363861523 0.058663011934753984 0 -0.017026108776356359 0.058059287531521155 0 -0.015409645411153333 0.058128906939675574 0 -0.015511558238323144 0.059069419786735418 0 -0.015945624296086199 0.058593217931697118 0 -0.016549268363861523 0.058663011934753984 0 -0.015945624296086199 0.058593217931697118 0 -0.016183272142726943 0.058951603147433536 0 -0.016549268363861523 0.058663011934753984 0 -0.015945624296086199 0.058593217931697118 0 -0.016065862539491105 0.058135597089332601 0 -0.015511558238323144 0.059069419786735418 0 -0.015945624296086199 0.058593217931697118 0 -0.016183272142726943 0.058951603147433536 0 -0.015511558238323144 0.059069419786735418 0 -0.016183272142726943 0.058951603147433536 0 -0.016133996896956559 0.059174630796699559 0 -0.016675505177775534 0.059185656919296774 0 -0.016183272142726943 0.058951603147433536 0 -0.016133996896956559 0.059174630796699559 0 -0.015511558238323144 0.059069419786735418 0 -0.016118960330258631 0.059186989772158548 0 -0.016133996896956559 0.059174630796699559 0 -0.016026031578347248 0.057394925080744806 0 -0.015546784867669134 0.057657210638206467 0 -0.016065862539491105 0.058135597089332601 0 -0.014618665250476493 0.05687991621311897 0 -0.016026031578347248 0.057394925080744806 0 -0.015546784867669134 0.057657210638206467 0 -0.015409645411153333 0.058128906939675574 0 -0.015546784867669134 0.057657210638206467 0 -0.016065862539491105 0.058135597089332601 0 -0.015409645411153333 0.058128906939675574 0 -0.015945624296086199 0.058593217931697118 0 -0.016065862539491105 0.058135597089332601 0 -0.016549268363861523 0.058663011934753984 0 -0.016065862539491105 0.058135597089332601 0 -0.017026108776356359 0.058059287531521155 0 -0.016026031578347248 0.057394925080744806 0 -0.016065862539491105 0.058135597089332601 0 -0.017026108776356359 0.058059287531521155 0 -0.016026031578347248 0.057394925080744806 0 -0.017026108776356359 0.058059287531521155 0 -0.017573887931277728 0.057322781780036018 0 -0.016026031578347248 0.057394925080744806 0 -0.017573887931277728 0.057322781780036018 0 -0.016848803559409445 0.056243305036828499 0 -0.017573887931277728 0.057322781780036018 0 -0.018925523297216116 0.057177717236339402 0 -0.01863601054481601 0.056168987988996548 0 -0.017573887931277728 0.057322781780036018 0 -0.018713738885135146 0.058141893148377331 0 -0.018925523297216116 0.057177717236339402 0 -0.017026108776356359 0.058059287531521155 0 -0.017573887931277728 0.057322781780036018 0 -0.018713738885135146 0.058141893148377331 0 -0.020088532076516747 0.058924615974769487 0 -0.018713738885135146 0.058141893148377331 0 -0.020672838464878527 0.057667260009578024 0 -0.018925523297216116 0.057177717236339402 0 -0.020672838464878527 0.057667260009578024 0 -0.019920998922355906 0.056475450000998732 0 -0.018713738885135146 0.058141893148377331 0 -0.018925523297216116 0.057177717236339402 0 -0.020672838464878527 0.057667260009578024 0 -0.01863601054481601 0.056168987988996548 0 -0.019920998922355906 0.056475450000998732 0 -0.020318078439727431 0.055118050266328385 0 -0.018925523297216116 0.057177717236339402 0 -0.01863601054481601 0.056168987988996548 0 -0.019920998922355906 0.056475450000998732 0 -0.01863601054481601 0.056168987988996548 0 -0.018171421728211203 0.054998788734541421 0 -0.020318078439727431 0.055118050266328385 0 -0.018173100084873738 0.05500005561046846 0 -0.020845073162518296 0.055612854787916728 0 -0.018172402830487561 0.055000103990284578 0 -0.021289507284684962 0.056080212173674933 0 -0.020968903216629736 0.054999815944177764 0 -0.01863601054481601 0.056168987988996548 0 -0.018171421728211203 0.054998788734541421 0 -0.016848803559409445 0.056243305036828499 0 -0.017573887931277728 0.057322781780036018 0 -0.01863601054481601 0.056168987988996548 0 -0.016848803559409445 0.056243305036828499 0 -0.016026031578347248 0.057394925080744806 0 -0.016848803559409445 0.056243305036828499 0 -0.015318570678239321 0.056211487113670688 0 -0.016848803559409445 0.056243305036828499 0 -0.015677500446399244 0.054999807116951425 0 -0.015318570678239321 0.056211487113670688 0 -0.018171421728211203 0.054998788734541421 0 -0.016848803559409445 0.056243305036828499 0 -0.015677500446399244 0.054999807116951425 0 -0.014618665250476493 0.05687991621311897 0 -0.013183022983073209 0.05499971887791516 0 -0.015318570678239321 0.056211487113670688 0 -0.013183022983073209 0.05499971887791516 0 -0.015677500446399244 0.054999807116951425 0 -0.015318570678239321 0.056211487113670688 0 -0.014618665250476493 0.05687991621311897 0 -0.016026031578347248 0.057394925080744806 0 -0.015318570678239321 0.056211487113670688 0 -0.024215554948419416 0.057403617917262922 0 -0.022671035006649135 0.057523834420010175 0 -0.023678385775117407 0.05636616051020852 0 -0.024215554948419416 0.057403617917262922 0 -0.023647413003585738 0.058217561180881762 0 -0.022671035006649135 0.057523834420010175 0 -0.024215554948419416 0.057403617917262922 0 -0.025096703787900704 0.057859672146613722 0 -0.025293960303952621 0.056810467817027983 0 -0.025096703787900704 0.057859672146613722 0 -0.025293960303952621 0.056810467817027983 0 -0.026253102728355161 0.057408296629821901 0 -0.024215554948419416 0.057403617917262922 0 -0.025096703787900704 0.057859672146613722 0 -0.023647413003585738 0.058217561180881762 0 -0.024563142729328948 0.059009253945223578 0 -0.025096703787900704 0.057859672146613722 0 -0.026237138011092027 0.058432379421173901 0 -0.024563142729328948 0.059009253945223578 0 -0.025096703787900704 0.057859672146613722 0 -0.023647413003585738 0.058217561180881762 0 -0.023647413003585738 0.058217561180881762 0 -0.022085762126148292 0.058529853208237656 0 -0.022671035006649135 0.057523834420010175 0 -0.023237022580041088 0.059063268404340792 0 -0.024563142729328948 0.059009253945223578 0 -0.023647413003585738 0.058217561180881762 0 -0.023237022580041088 0.059063268404340792 0 -0.023647413003585738 0.058217561180881762 0 -0.022085762126148292 0.058529853208237656 0 -0.022085762126148292 0.058529853208237656 0 -0.020672838464878527 0.057667260009578024 0 -0.022671035006649135 0.057523834420010175 0 -0.020088532076516747 0.058924615974769487 0 -0.022085762126148292 0.058529853208237656 0 -0.020672838464878527 0.057667260009578024 0 -0.020672838464878527 0.057667260009578024 0 -0.02139410632896048 0.056663514668211117 0 -0.019920998922355906 0.056475450000998732 0 -0.020672838464878527 0.057667260009578024 0 -0.022671035006649135 0.057523834420010175 0 -0.02139410632896048 0.056663514668211117 0 -0.022671035006649135 0.057523834420010175 0 -0.02139410632896048 0.056663514668211117 0 -0.023678385775117407 0.05636616051020852 0 -0.020845073162518296 0.055612854787916728 0 -0.023498748666620713 0.056350580284234987 0 -0.02139410632896048 0.056663514668211117 0 -0.020318078439727431 0.055118050266328385 0 -0.023678385775117407 0.05636616051020852 0 -0.02139410632896048 0.056663514668211117 0 -0.019920998922355906 0.056475450000998732 0 -0.020318078439727431 0.055118050266328385 0 -0.021289507284684962 0.056080212173674933 0 -0.020968903216629736 0.054999815944177764 0 -0.023763687805965342 0.054999763428466429 0 -0.021289507284684962 0.056080212173674933 0 -0.023763687805965342 0.054999763428466429 0 -0.023678385775117407 0.05636616051020852 0 -0.023763687805965342 0.054999763428466429 0 -0.025033465358912245 0.055903691842818681 0 -0.023678385775117407 0.05636616051020852 0 -0.023763687805965342 0.054999763428466429 0 -0.025033465358912245 0.055903691842818681 0 -0.026558677755087436 0.054999451219554338 0 -0.025033465358912245 0.055903691842818681 0 -0.023678385775117407 0.05636616051020852 0 -0.025293960303952621 0.056810467817027983 0 -0.024215554948419416 0.057403617917262922 0 -0.023678385775117407 0.05636616051020852 0 -0.025293960303952621 0.056810467817027983 0 -0.025033465358912245 0.055903691842818681 0 -0.025293960303952621 0.056810467817027983 0 -0.026017793897210754 0.056268994786638278 0 -0.025293960303952621 0.056810467817027983 0 -0.026017793897210754 0.056268994786638278 0 -0.02615810578803587 0.056547979363114571 0 -0.026017793897210754 0.056268994786638278 0 -0.026558677755087436 0.054999451219554338 0 -0.028189202550744287 0.056121741557643837 0 -0.025033465358912245 0.055903691842818681 0 -0.026017793897210754 0.056268994786638278 0 -0.026558677755087436 0.054999451219554338 0 -0.026558677755087436 0.054999451219554338 0 -0.028189202550744287 0.056121741557643837 0 -0.029355855201554041 0.054999972626624961 0 -0.027172282169496725 0.056060469923281578 0 -0.02939131166116667 0.055522340503468826 0 -0.026300342813890269 0.056241436521694235 0 -0.027172282169496725 0.056060469923281578 0 -0.026378863863370818 0.055966245852806941 0 -0.027191000382907716 0.055638227478321277 0 -0.026958266282105233 0.056587337050896067 0 -0.029991701821999558 0.055803717594198644 0 -0.029355881668323494 0.054999997994826792 0 -0.031061577006243939 0.05499999716729894 0 -0.028189202550744287 0.056121741557643837 0 -0.02995317883914184 0.055775576711032587 0 -0.029355855201554041 0.054999972626624961 0 -0.02939131166116667 0.055522340503468826 0 -0.029356064203404676 0.055000596798967183 0 -0.02939131166116667 0.055522340503468826 0 -0.029969047171862207 0.05690873867820137 0 -0.027191000382907716 0.055638227478321277 0 -0.026958266282105233 0.056587337050896067 0 -0.028075468509946824 0.056554884171577544 0 -0.025293960303952621 0.056810467817027983 0 -0.02615810578803587 0.056547979363114571 0 -0.026253102728355161 0.057408296629821901 0 -0.026017793897210754 0.056268994786638278 0 -0.026378863863370818 0.055966245852806941 0 -0.02615810578803587 0.056547979363114571 0 -0.026378863863370818 0.055966245852806941 0 -0.026958266282105233 0.056587337050896067 0 -0.02615810578803587 0.056547979363114571 0 -0.026958266282105233 0.056587337050896067 0 -0.02615810578803587 0.056547979363114571 0 -0.026253102728355161 0.057408296629821901 0 -0.026958266282105233 0.056587337050896067 0 -0.0276333117649347 0.057891441073978284 0 -0.028075468509946824 0.056554884171577544 0 -0.026958266282105233 0.056587337050896067 0 -0.026253102728355161 0.057408296629821901 0 -0.0276333117649347 0.057891441073978284 0 -0.026253102728355161 0.057408296629821901 0 -0.0276333117649347 0.057891441073978284 0 -0.026237138011092027 0.058432379421173901 0 -0.0276333117649347 0.057891441073978284 0 -0.027187282617080172 0.058885285804717434 0 -0.026237138011092027 0.058432379421173901 0 -0.0276333117649347 0.057891441073978284 0 -0.027187282617080172 0.058885285804717434 0 -0.028482836826287477 0.058344177345757461 0 -0.027187282617080172 0.058885285804717434 0 -0.026237138011092027 0.058432379421173901 0 -0.026374647159580662 0.059704805616463741 0 -0.025096703787900704 0.057859672146613722 0 -0.026253102728355161 0.057408296629821901 0 -0.026237138011092027 0.058432379421173901 0 -0.028482836826287477 0.058344177345757461 0 -0.029089407763847507 0.057648534819061605 0 -0.030114970831849674 0.058859016058230955 0 -0.031028008137795569 0.058151554549400006 0 -0.034003633124429243 0.05922798649601841 0 -0.033343212380700503 0.058772362519154457 0 -0.035271742092371036 0.05854660335169809 0 -0.03466725667673707 0.060157153211664739 0 -0.028482836826287477 0.058344177345757461 0 -0.030114970831849674 0.058859016058230955 0 -0.028253600336723195 0.059256795568315507 0 -0.0276333117649347 0.057891441073978284 0 -0.028482836826287477 0.058344177345757461 0 -0.029089407763847507 0.057648534819061605 0 -0.027187282617080172 0.058885285804717434 0 -0.028482836826287477 0.058344177345757461 0 -0.028253600336723195 0.059256795568315507 0 -0.031028008137795569 0.058151554549400006 0 -0.029969047171862207 0.05690873867820137 0 -0.0276333117649347 0.057891441073978284 0 -0.029089407763847507 0.057648534819061605 0 -0.028075468509946824 0.056554884171577544 0 -0.033343212380700503 0.058772362519154457 0 -0.034163967338525794 0.056892765085046218 0 -0.035271742092371036 0.05854660335169809 0 -0.033343212380700503 0.058772362519154457 0 -0.034163967338525794 0.056892765085046218 0 -0.031893106101511748 0.057240978104941782 0 -0.029991701821999558 0.055803717594198644 0 -0.031061577006243939 0.05499999716729894 0 -0.032767279784371099 0.054999998486067868 0 -0.030610102303021816 0.05567740147512347 0 -0.031893106101511748 0.057240978104941782 0 -0.032768381848091645 0.054999796329982628 0 -0.02939131166116667 0.055522340503468826 0 -0.032768105756865215 0.055000007792110499 0 -0.034163967338525794 0.056892765085046218 0 -0.031893106101511748 0.057240978104941782 0 -0.032768381848091645 0.054999796329982628 0 -0.034163967338525794 0.056892765085046218 0 -0.032768381848091645 0.054999796329982628 0 -0.03612838606285005 0.054999766080294304 0 -0.034163967338525794 0.056892765085046218 0 -0.03612838606285005 0.054999766080294304 0 -0.037449084101542761 0.057270585549383995 0 -0.034163967338525794 0.056892765085046218 0 -0.037449084101542761 0.057270585549383995 0 -0.035271742092371036 0.05854660335169809 0 -0.03612838606285005 0.054999766080294304 0 -0.037449084101542761 0.057270585549383995 0 -0.040658556378111464 0.054999836890848364 0 -0.037449084101542761 0.057270585549383995 0 -0.040658556378111464 0.054999836890848364 0 -0.040554974366988975 0.056368636452421628 0 -0.037449084101542761 0.057270585549383995 0 -0.040554974366988975 0.056368636452421628 0 -0.039003488711962533 0.058588009025426054 0 -0.040554974366988975 0.056368636452421628 0 -0.040876655632449868 0.058275600016269413 0 -0.042066610593825979 0.057372658058476141 0 -0.040496228189231022 0.056399899891605154 0 -0.039938842878450259 0.058315658776432716 0 -0.037449084101542761 0.057270585549383995 0 -0.039003488711962533 0.058588009025426054 0 -0.036623656546071304 0.059489678102531328 0 -0.039003488711962533 0.058588009025426054 0 -0.036623656546071304 0.059489678102531328 0 -0.037639368704463647 0.05975421910253903 0 -0.040876655632449868 0.058275600016269413 0 -0.040650313720013868 0.060298366211362836 0 -0.042283793932065966 0.05889289312255961 0 -0.039938842878450259 0.058315658776432716 0 -0.039159320270039967 0.059964846377064826 0 -0.037449084101542761 0.057270585549383995 0 -0.035271742092371036 0.05854660335169809 0 -0.036623656546071304 0.059489678102531328 0 -0.035271742092371036 0.05854660335169809 0 -0.036623656546071304 0.059489678102531328 0 -0.03466725667673707 0.060157153211664739 0 -0.03706652707772088 0.059577987804134626 0 -0.034003633124429243 0.05922798649601841 0 -0.03514005062505305 0.057933184980773815 0 -0.035113783358742712 0.059272809953746682 0 -0.036304604873460232 0.059745925743139902 0 -0.036623656546071304 0.059489678102531328 0 -0.036195878872741068 0.059520885768954548 0 -0.036304604873460232 0.059745925743139902 0 -0.034003633124429243 0.05922798649601841 0 -0.036712473086261549 0.05966406560132189 0 -0.036623656546071304 0.059489678102531328 0 -0.036304604873460232 0.059745925743139902 0 -0.036752258059500102 0.059827064629981892 0 -0.036304604873460232 0.059745925743139902 0 -0.03636783223829549 0.059992937229104981 0 -0.036752258059500102 0.059827064629981892 0 -0.036304604873460232 0.059745925743139902 0 -0.03636783223829549 0.059992937229104981 0 -0.036223565631065165 0.060285586593780527 0 -0.034186257848695611 0.059341412386057633 0 -0.031884397729868084 0.058956516908006885 0 -0.035113783358742712 0.059272809953746682 0 -0.036304604873460232 0.059745925743139902 0 -0.034602636179562531 0.060251547599070122 0 -0.036304604873460232 0.059745925743139902 0 -0.036223565631065165 0.060285586593780527 0 -0.034602636179562531 0.060251547599070122 0 -0.039159320270039967 0.059964846377064826 0 -0.038441432199162802 0.060956160644630858 0 -0.040650313720013868 0.060298366211362836 0 -0.041214910827695433 0.061385943245907348 0 -0.042738706049358942 0.060578944284015536 0 -0.036623656546071304 0.059489678102531328 0 -0.037639368704463647 0.05975421910253903 0 -0.036752258059500102 0.059827064629981892 0 -0.037639368704463647 0.05975421910253903 0 -0.036752258059500102 0.059827064629981892 0 -0.036510393495505424 0.059807398443473589 0 -0.03636783223829549 0.059992937229104981 0 -0.036752258059500102 0.059827064629981892 0 -0.036510393495505424 0.059807398443473589 0 -0.040650313720013868 0.060298366211362836 0 -0.040391160064448366 0.062244265491998844 0 -0.041214910827695433 0.061385943245907348 0 -0.040391160064448366 0.062244265491998844 0 -0.041214910827695433 0.061385943245907348 0 -0.041657008935159251 0.062422308551109307 0 -0.041270112798417337 0.064182865968916411 0 -0.041624007985237049 0.062312359667120461 0 -0.040391160064448366 0.062244265491998844 0 -0.040708901420409872 0.064091185213587934 0 -0.041657008935159251 0.062422308551109307 0 -0.040581838622495404 0.063906278013602894 0 -0.041738853115970913 0.062261392456615938 0 -0.041588582726525429 0.063714565548687832 0 -0.040391160064448366 0.062244265491998844 0 -0.040075069182289584 0.0640097476366005 0 -0.040708901420409872 0.064091185213587934 0 -0.036510393495505424 0.059807398443473589 0 -0.035844142391166914 0.060007379252836932 0 -0.035675508941898748 0.06064201349181781 0 -0.038441432199162802 0.060956160644630858 0 -0.038176477299539345 0.062494705614116831 0 -0.03636783223829549 0.059992937229104981 0 -0.036510393495505424 0.059807398443473589 0 -0.035844142391166914 0.060007379252836932 0 -0.040075069182289584 0.0640097476366005 0 -0.040708901420409872 0.064091185213587934 0 -0.039701484318912461 0.065700004050108701 0 -0.035844142391166914 0.060007379252836932 0 -0.035675508941898748 0.06064201349181781 0 -0.033876507398800035 0.06052835153602977 0 -0.034307563086184246 0.061720905279040172 0 -0.035675508941898748 0.06064201349181781 0 -0.033876507398800035 0.06052835153602977 0 -0.040581838622495404 0.063906278013602894 0 -0.040951282864638235 0.064588162554502296 0 -0.04021480534731723 0.064792270238276287 0 -0.041588582726525429 0.063714565548687832 0 -0.041807468379937318 0.064486744699691442 0 -0.040951282864638235 0.064588162554502296 0 -0.040581838622495404 0.063906278013602894 0 -0.041588582726525429 0.063714565548687832 0 -0.040951282864638235 0.064588162554502296 0 -0.029949262581862618 0.059283908802827939 0 -0.032207638618693038 0.058271246266279712 0 -0.029177430516632397 0.057678962947125399 0 -0.029949262581862618 0.059283908802827939 0 -0.032207638618693038 0.058271246266279712 0 -0.031644608381945875 0.060192187207911085 0 -0.035844142391166914 0.060007379252836932 0 -0.032207638618693038 0.058271246266279712 0 -0.033876507398800035 0.06052835153602977 0 -0.032207638618693038 0.058271246266279712 0 -0.033876507398800035 0.06052835153602977 0 -0.031644608381945875 0.060192187207911085 0 -0.035720067210920074 0.059918124964062201 0 -0.034186257848695611 0.059341412386057633 0 -0.03636783223829549 0.059992937229104981 0 -0.035844142391166914 0.060007379252836932 0 -0.036223565631065165 0.060285586593780527 0 -0.033876507398800035 0.06052835153602977 0 -0.03272230673439748 0.061807438178823476 0 -0.031644608381945875 0.060192187207911085 0 -0.034307563086184246 0.061720905279040172 0 -0.033876507398800035 0.06052835153602977 0 -0.03272230673439748 0.061807438178823476 0 -0.029949262581862618 0.059283908802827939 0 -0.031644608381945875 0.060192187207911085 0 -0.029322310457410478 0.06068951811726081 0 -0.03272230673439748 0.061807438178823476 0 -0.031644608381945875 0.060192187207911085 0 -0.030874379769637379 0.061826543565733437 0 -0.031644608381945875 0.060192187207911085 0 -0.029322310457410478 0.06068951811726081 0 -0.030874379769637379 0.061826543565733437 0 -0.029949262581862618 0.059283908802827939 0 -0.029322310457410478 0.06068951811726081 0 -0.027766124698060609 0.05953060014847341 0 -0.029949262581862618 0.059283908802827939 0 -0.027766124698060609 0.05953060014847341 0 -0.029177430516632397 0.057678962947125399 0 -0.027766124698060609 0.05953060014847341 0 -0.026526524326874839 0.058722216797566763 0 -0.029177430516632397 0.057678962947125399 0 -0.027766124698060609 0.05953060014847341 0 -0.026526524326874839 0.058722216797566763 0 -0.026223588220050744 0.060129003418913314 0 -0.029322310457410478 0.06068951811726081 0 -0.027766124698060609 0.05953060014847341 0 -0.026923106598567448 0.061563636033953574 0 -0.027766124698060609 0.05953060014847341 0 -0.026223588220050744 0.060129003418913314 0 -0.026923106598567448 0.061563636033953574 0 -0.025275495744760797 0.060897007298632455 0 -0.026223588220050744 0.060129003418913314 0 -0.024834098090837264 0.05965585258077049 0 -0.025275495744760797 0.060897007298632455 0 -0.026223588220050744 0.060129003418913314 0 -0.026923106598567448 0.061563636033953574 0 -0.025275495744760797 0.060897007298632455 0 -0.023903262096175847 0.060668210216610778 0 -0.024834098090837264 0.05965585258077049 0 -0.025275495744760797 0.060897007298632455 0 -0.023903262096175847 0.060668210216610778 0 -0.024428704763705195 0.062172723325079705 0 -0.023442928885607856 0.059853306283191368 0 -0.023903262096175847 0.060668210216610778 0 -0.024834098090837264 0.05965585258077049 0 -0.023442928885607856 0.059853306283191368 0 -0.024834098090837264 0.05965585258077049 0 -0.023784533065657618 0.058770910560495319 0 -0.026526524326874839 0.058722216797566763 0 -0.026223588220050744 0.060129003418913314 0 -0.024834098090837264 0.05965585258077049 0 -0.026526524326874839 0.058722216797566763 0 -0.024834098090837264 0.05965585258077049 0 -0.025251112069595658 0.058295034868278417 0 -0.026526524326874839 0.058722216797566763 0 -0.025251112069595658 0.058295034868278417 0 -0.026733210386844123 0.057362599480427226 0 -0.025251112069595658 0.058295034868278417 0 -0.024641830343875588 0.057113984623911408 0 -0.026733210386844123 0.057362599480427226 0 -0.024834098090837264 0.05965585258077049 0 -0.025251112069595658 0.058295034868278417 0 -0.023784533065657618 0.058770910560495319 0 -0.025251112069595658 0.058295034868278417 0 -0.023784533065657618 0.058770910560495319 0 -0.024641830343875588 0.057113984623911408 0 -0.024585246076474183 0.059171629107626612 0 -0.026720441969152867 0.058841660054420569 0 -0.024563142729328948 0.059009253945223578 0 -0.026237138011092027 0.058432379421173901 0 -0.026374647159580662 0.059704805616463741 0 -0.026720441969152867 0.058841660054420569 0 -0.029634281149906176 0.058462866500033489 0 -0.026720441969152867 0.058841660054420569 0 -0.030478990080737099 0.058744231539047516 0 -0.027187282617080172 0.058885285804717434 0 -0.026374647159580662 0.059704805616463741 0 -0.028253600336723195 0.059256795568315507 0 -0.029869237103363457 0.058881226380936 0 -0.032702334861179509 0.058310194044538917 0 -0.03232527006967293 0.059713848065516904 0 -0.032702334861179509 0.058310194044538917 0 -0.034034661303678146 0.059093785241902022 0 -0.03232527006967293 0.059713848065516904 0 -0.034003633124429243 0.05922798649601841 0 -0.030478990080737099 0.058744231539047516 0 -0.03514005062505305 0.057933184980773815 0 -0.032702334861179509 0.058310194044538917 0 -0.034034661303678146 0.059093785241902022 0 -0.03514005062505305 0.057933184980773815 0 -0.035113783358742712 0.059272809953746682 0 -0.034034661303678146 0.059093785241902022 0 -0.034034661303678146 0.059093785241902022 0 -0.034602636179562531 0.060251547599070122 0 -0.03232527006967293 0.059713848065516904 0 -0.035113783358742712 0.059272809953746682 0 -0.034034661303678146 0.059093785241902022 0 -0.034602636179562531 0.060251547599070122 0 -0.031884397729868084 0.058956516908006885 0 -0.029634281149906176 0.058462866500033489 0 -0.026526524326874839 0.058722216797566763 0 -0.029177430516632397 0.057678962947125399 0 -0.026733210386844123 0.057362599480427226 0 -0.054922036539112165 0.050920609682955545 0 -0.05499892554148194 0.054997693383785975 0 -0.054995820181711522 0.048056579353698503 0 -0.05499892554148194 0.054997693383785975 0 -0.050732540187287095 0.054962437812326369 0 -0.046771882648871124 0.05499614981484828 0 -0.05499892554148194 0.054997693383785975 0 -0.050732540187287095 0.054962437812326369 0 -0.053877267110818645 0.054149653926909257 0 -0.054922036539112165 0.050920609682955545 0 -0.05499892554148194 0.054997693383785975 0 -0.053877267110818645 0.054149653926909257 0 -0.050732540187287095 0.054962437812326369 0 -0.049651627009660665 0.056793026351738836 0 -0.053877267110818645 0.054149653926909257 0 -0.049651627009660665 0.056793026351738836 0 -0.053877267110818645 0.054149653926909257 0 -0.051679848740007056 0.058695686199882538 0 -0.054922036539112165 0.050920609682955545 0 -0.053877267110818645 0.054149653926909257 0 -0.057798795010612948 0.049703795357943691 0 -0.054123932985058167 0.054003891712688643 0 -0.054645984338508279 0.054056883002932543 0 -0.049651627009660665 0.056793026351738836 0 -0.051679848740007056 0.058695686199882538 0 -0.04946468267007377 0.058941126393249367 0 -0.049651627009660665 0.056793026351738836 0 -0.047411490128164882 0.058709254664525437 0 -0.04946468267007377 0.058941126393249367 0 -0.045730050337000241 0.059880031848839901 0 -0.046858450783212477 0.056997072678565443 0 -0.044040183611247445 0.059292052458689876 0 -0.046566025502990063 0.059012511028360325 0 -0.046851110732408524 0.057138225567109402 0 -0.050732540187287095 0.054962437812326369 0 -0.049651627009660665 0.056793026351738836 0 -0.046858450783212477 0.056997072678565443 0 -0.049651627009660665 0.056793026351738836 0 -0.047411490128164882 0.058709254664525437 0 -0.046858450783212477 0.056997072678565443 0 -0.050732540187287095 0.054962437812326369 0 -0.046858450783212477 0.056997072678565443 0 -0.046771882648871124 0.05499614981484828 0 -0.046858450783212477 0.056997072678565443 0 -0.046771882648871124 0.05499614981484828 0 -0.045102993590867682 0.056251659210794044 0 -0.046771882648871124 0.05499614981484828 0 -0.045102993590867682 0.056251659210794044 0 -0.043086795969262175 0.05607819482861251 0 -0.046858450783212477 0.056997072678565443 0 -0.045102993590867682 0.056251659210794044 0 -0.043712321244914934 0.05731631507419499 0 -0.040658556378111464 0.054999836890848364 0 -0.046771882648871124 0.05499614981484828 0 -0.043086795969262175 0.05607819482861251 0 -0.045102993590867682 0.056251659210794044 0 -0.043086795969262175 0.05607819482861251 0 -0.043712321244914934 0.05731631507419499 0 -0.040658556378111464 0.054999836890848364 0 -0.040554974366988975 0.056368636452421628 0 -0.043086795969262175 0.05607819482861251 0 -0.043086795969262175 0.05607819482861251 0 -0.042066610593825979 0.057372658058476141 0 -0.043712321244914934 0.05731631507419499 0 -0.040554974366988975 0.056368636452421628 0 -0.043086795969262175 0.05607819482861251 0 -0.042066610593825979 0.057372658058476141 0 -0.042066610593825979 0.057372658058476141 0 -0.043712321244914934 0.05731631507419499 0 -0.042283793932065966 0.05889289312255961 0 -0.040876655632449868 0.058275600016269413 0 -0.042066610593825979 0.057372658058476141 0 -0.042283793932065966 0.05889289312255961 0 -0.043712321244914934 0.05731631507419499 0 -0.044040183611247445 0.059292052458689876 0 -0.042283793932065966 0.05889289312255961 0 -0.046858450783212477 0.056997072678565443 0 -0.043712321244914934 0.05731631507419499 0 -0.044040183611247445 0.059292052458689876 0 -0.044040183611247445 0.059292052458689876 0 -0.042283793932065966 0.05889289312255961 0 -0.042738706049358942 0.060578944284015536 0 -0.040650313720013868 0.060298366211362836 0 -0.042283793932065966 0.05889289312255961 0 -0.042738706049358942 0.060578944284015536 0 -0.044040183611247445 0.059292052458689876 0 -0.042738706049358942 0.060578944284015536 0 -0.043718165683070784 0.061378835471017211 0 -0.045730050337000241 0.059880031848839901 0 -0.044040183611247445 0.059292052458689876 0 -0.043718165683070784 0.061378835471017211 0 -0.043718165683070784 0.061378835471017211 0 -0.043363699587276504 0.062588744745937189 0 -0.044906611407700081 0.06176726856496547 0 -0.042685669579974793 0.060665662510096405 0 -0.041624007985237049 0.062312359667120461 0 -0.042738706049358942 0.060578944284015536 0 -0.043718165683070784 0.061378835471017211 0 -0.041738853115970913 0.062261392456615938 0 -0.041214910827695433 0.061385943245907348 0 -0.042738706049358942 0.060578944284015536 0 -0.041657008935159251 0.062422308551109307 0 -0.043718165683070784 0.061378835471017211 0 -0.041738853115970913 0.062261392456615938 0 -0.043363699587276504 0.062588744745937189 0 -0.041738853115970913 0.062261392456615938 0 -0.042289016112629627 0.063184897878924381 0 -0.043363699587276504 0.062588744745937189 0 -0.041738853115970913 0.062261392456615938 0 -0.042289016112629627 0.063184897878924381 0 -0.041588582726525429 0.063714565548687832 0 -0.042289016112629627 0.063184897878924381 0 -0.04299316768780264 0.063453987045474169 0 -0.043363699587276504 0.062588744745937189 0 -0.042289016112629627 0.063184897878924381 0 -0.042162420277388708 0.063929550470608984 0 -0.041588582726525429 0.063714565548687832 0 -0.042162420277388708 0.063929550470608984 0 -0.042819163289225727 0.064063342020640929 0 -0.04299316768780264 0.063453987045474169 0 -0.042289016112629627 0.063184897878924381 0 -0.042162420277388708 0.063929550470608984 0 -0.04299316768780264 0.063453987045474169 0 -0.042819163289225727 0.064063342020640929 0 -0.041807468379937318 0.064486744699691442 0 -0.042644273919978097 0.064985857336795669 0 -0.042162420277388708 0.063929550470608984 0 -0.042819163289225727 0.064063342020640929 0 -0.041807468379937318 0.064486744699691442 0 -0.042162420277388708 0.063929550470608984 0 -0.041588582726525429 0.063714565548687832 0 -0.041807468379937318 0.064486744699691442 0 -0.042683470309869215 0.058816106922859233 0 -0.03615690447617767 0.05745085117924479 0 -0.034225838075406134 0.047768580474016567 0 -0.032780220110208494 0.050729250795313117 0 -0.030673314152657852 0.05081153283367381 0 -0.042819163289225727 0.064063342020640929 0 -0.04299316768780264 0.063453987045474169 0 -0.044422089507875774 0.063462102896856276 0 -0.042819163289225727 0.064063342020640929 0 -0.044422089507875774 0.063462102896856276 0 -0.042644273919978097 0.064985857336795669 0 -0.04299316768780264 0.063453987045474169 0 -0.043363699587276504 0.062588744745937189 0 -0.044422089507875774 0.063462102896856276 0 -0.047741781234557717 0.061553229652440089 0 -0.048479604717236419 0.06086867918235165 0 -0.047807914508949639 0.060224527080100052 0 -0.043363699587276504 0.062588744745937189 0 -0.044422089507875774 0.063462102896856276 0 -0.044906611407700081 0.06176726856496547 0 -0.042683470309869215 0.058816106922859233 0 -0.046657294174981878 0.061704002061260768 0 -0.048340991679764432 0.0610656824757334 0 -0.04875338875280049 0.061135959620411566 0 -0.048479604717236419 0.06086867918235165 0 -0.042683470309869215 0.058816106922859233 0 -0.048833425197923067 0.060382488940515879 0 -0.042683470309869215 0.058816106922859233 0 -0.04207379170733358 0.051891610982905831 0 -0.048340991679764432 0.0610656824757334 0 -0.048591252908541119 0.061272910392703682 0 -0.048287695507095461 0.06141438693082038 0 -0.048340991679764432 0.0610656824757334 0 -0.048591252908541119 0.061272910392703682 0 -0.04875338875280049 0.061135959620411566 0 -0.034225838075406134 0.047768580474016567 0 -0.03367498099417409 0.050777249033881242 0 -0.032780220110208494 0.050729250795313117 0 -0.048591252908541119 0.061272910392703682 0 -0.04875338875280049 0.061135959620411566 0 -0.048966906471692884 0.061465586530280371 0 -0.04875338875280049 0.061135959620411566 0 -0.049317626807441957 0.061091634925169398 0 -0.048966906471692884 0.061465586530280371 0 -0.04875338875280049 0.061135959620411566 0 -0.049171962766436275 0.060751547319281361 0 -0.049317626807441957 0.061091634925169398 0 -0.04875338875280049 0.061135959620411566 0 -0.048479604717236419 0.06086867918235165 0 -0.049171962766436275 0.060751547319281361 0 -0.048479604717236419 0.06086867918235165 0 -0.048919324839996045 0.060108773781855876 0 -0.047807914508949639 0.060224527080100052 0 -0.048479604717236419 0.06086867918235165 0 -0.049171962766436275 0.060751547319281361 0 -0.048919324839996045 0.060108773781855876 0 -0.047411490128164882 0.058709254664525437 0 -0.048919324839996045 0.060108773781855876 0 -0.047807914508949639 0.060224527080100052 0 -0.046566025502990063 0.059012511028360325 0 -0.046657294174981878 0.061704002061260768 0 -0.045730050337000241 0.059880031848839901 0 -0.043718165683070784 0.061378835471017211 0 -0.044906611407700081 0.06176726856496547 0 -0.047411490128164882 0.058709254664525437 0 -0.048919324839996045 0.060108773781855876 0 -0.04946468267007377 0.058941126393249367 0 -0.051679848740007056 0.058695686199882538 0 -0.04946468267007377 0.058941126393249367 0 -0.050226758759048432 0.060356773104210323 0 -0.048919324839996045 0.060108773781855876 0 -0.04946468267007377 0.058941126393249367 0 -0.050226758759048432 0.060356773104210323 0 -0.054645984338508279 0.054056883002932543 0 -0.054676806754809418 0.053193842759439988 0 -0.057798795010612948 0.049703795357943691 0 -0.059131163593166572 0.046352837428493526 0 -0.056410623239853602 0.046957976934655359 0 -0.059131163593166572 0.046352837428493526 0 -0.057247411196034166 0.04384287266808061 0 -0.056410623239853602 0.046957976934655359 0 -0.049171962766436275 0.060751547319281361 0 -0.048919324839996045 0.060108773781855876 0 -0.050226758759048432 0.060356773104210323 0 -0.054676806754809418 0.053193842759439988 0 -0.054883856363442764 0.053079824190044173 0 -0.049171962766436275 0.060751547319281361 0 -0.050226758759048432 0.060356773104210323 0 -0.049317626807441957 0.061091634925169398 0 -0.059766734431720467 0.043761544470055529 0 -0.057713510910613282 0.041340452821010489 0 -0.060290715675899692 0.041596610306374876 0 -0.054883856363442764 0.053079824190044173 0 -0.050611663898011541 0.047691513603351429 0 -0.059766734431720467 0.043761544470055529 0 -0.057247411196034166 0.04384287266808061 0 -0.057713510910613282 0.041340452821010489 0 -0.059131163593166572 0.046352837428493526 0 -0.059766734431720467 0.043761544470055529 0 -0.057247411196034166 0.04384287266808061 0 -0.057247411196034166 0.04384287266808061 0 -0.055000184092103915 0.042768895371047 0 -0.056410623239853602 0.046957976934655359 0 -0.057247411196034166 0.04384287266808061 0 -0.056321171715198244 0.042072061218334386 0 -0.057713510910613282 0.041340452821010489 0 -0.057247411196034166 0.04384287266808061 0 -0.056321171715198244 0.042072061218334386 0 -0.055000184092103915 0.042768895371047 0 -0.055000184092103915 0.042768895371047 0 -0.05527187575836047 0.041410941990870212 0 -0.054999616607306727 0.04043067376892711 0 -0.056321171715198244 0.042072061218334386 0 -0.055000184092103915 0.042768895371047 0 -0.05527187575836047 0.041410941990870212 0 -0.055000184092103915 0.042768895371047 0 -0.056410623239853602 0.046957976934655359 0 -0.054995820181711522 0.048056579353698503 0 -0.054922036539112165 0.050920609682955545 0 -0.057798795010612948 0.049703795357943691 0 -0.056410623239853602 0.046957976934655359 0 -0.054922036539112165 0.050920609682955545 0 -0.056410623239853602 0.046957976934655359 0 -0.054995820181711522 0.048056579353698503 0 -0.055000027131961025 0.035705199496651671 0 -0.057202230778963241 0.035192270464407281 0 -0.054999968545193692 0.035705030828571578 0 -0.056519614979875524 0.035166659196622728 0 -0.055930796690569315 0.034068188905244358 0 -0.057202230778963241 0.035192270464407281 0 -0.054335108648532145 0.039205785714857402 0 -0.052073685029761001 0.049340519274327255 0 -0.053607773703540439 0.045934389563173639 0 -0.050553474660230815 0.048170542207092298 0 -0.056515703472986976 0.035333893358157134 0 -0.057979939958613606 0.03491788558547216 0 -0.056883495579882377 0.037608477207201119 0 -0.056519614979875524 0.035166659196622728 0 -0.057952561188080814 0.034691860356829821 0 -0.057027496046347409 0.033641465526679272 0 -0.054335108648532145 0.039205785714857402 0 -0.055259873022113402 0.042379727921119929 0 -0.054999945406172819 0.03570554881738279 0 -0.056515703472986976 0.035333893358157134 0 -0.056883495579882377 0.037608477207201119 0 -0.055259873022113402 0.042379727921119929 0 -0.055324751846439431 0.041280267225149679 0 -0.056883495579882377 0.037608477207201119 0 -0.054999955832384421 0.040429340967836604 0 -0.055685121386058037 0.040450424037341642 0 -0.054999945406172819 0.03570554881738279 0 -0.056883495579882377 0.037608477207201119 0 -0.054999955832384421 0.040429340967836604 0 -0.056321171715198244 0.042072061218334386 0 -0.05527187575836047 0.041410941990870212 0 -0.055459015790782308 0.041021385796417682 0 -0.05527187575836047 0.041410941990870212 0 -0.054999616607306727 0.04043067376892711 0 -0.055739035370926088 0.04046442207541693 0 -0.055374887904404223 0.041183122027323556 0 -0.055324751846439431 0.041280267225149679 0 -0.055243759777384042 0.041010411814803714 0 -0.055324751846439431 0.041280267225149679 0 -0.055324751846439431 0.041280267225149679 0 -0.055207610138731864 0.041168557009796547 0 -0.055147956125660841 0.042478471842227611 0 -0.051628607603102949 0.044736453449231904 0 -0.051332827502152255 0.042390883828013974 0 -0.056321171715198244 0.042072061218334386 0 -0.055459015790782308 0.041021385796417682 0 -0.057713510910613282 0.041340452821010489 0 -0.053607773703540439 0.045934389563173639 0 -0.055147956125660841 0.042478471842227611 0 -0.051628607603102949 0.044736453449231904 0 -0.051628607603102949 0.044736453449231904 0 -0.049163889423508821 0.04450023342035539 0 -0.050144456133339448 0.046343860063021936 0 -0.053607773703540439 0.045934389563173639 0 -0.051628607603102949 0.044736453449231904 0 -0.050144456133339448 0.046343860063021936 0 -0.051628607603102949 0.044736453449231904 0 -0.051332827502152255 0.042390883828013974 0 -0.049163889423508821 0.04450023342035539 0 -0.055207610138731864 0.041168557009796547 0 -0.050611663898011541 0.047691513603351429 0 -0.051332827502152255 0.042390883828013974 0 -0.049163889423508821 0.04450023342035539 0 -0.047479001313550415 0.042324173990314129 0 -0.049163889423508821 0.04450023342035539 0 -0.046793045005409963 0.044587440350143226 0 -0.047479001313550415 0.042324173990314129 0 -0.049163889423508821 0.04450023342035539 0 -0.047709157167634055 0.046326869199604645 0 -0.050144456133339448 0.046343860063021936 0 -0.049163889423508821 0.04450023342035539 0 -0.047709157167634055 0.046326869199604645 0 -0.046793045005409963 0.044587440350143226 0 -0.050144456133339448 0.046343860063021936 0 -0.050553474660230815 0.048170542207092298 0 -0.048051251525784128 0.048504964330543354 0 -0.047709157167634055 0.046326869199604645 0 -0.050144456133339448 0.046343860063021936 0 -0.048051251525784128 0.048504964330543354 0 -0.053607773703540439 0.045934389563173639 0 -0.050144456133339448 0.046343860063021936 0 -0.050553474660230815 0.048170542207092298 0 -0.054335108648532145 0.039205785714857402 0 -0.047561194673483208 0.045584256499089822 0 -0.052073685029761001 0.049340519274327255 0 -0.050553474660230815 0.048170542207092298 0 -0.049304131376246715 0.050203218953708814 0 -0.050553474660230815 0.048170542207092298 0 -0.048051251525784128 0.048504964330543354 0 -0.049304131376246715 0.050203218953708814 0 -0.048051251525784128 0.048504964330543354 0 -0.046019840766442478 0.049289643619069116 0 -0.046550653963723036 0.051027588163518559 0 -0.046019840766442478 0.049289643619069116 0 -0.04460449094359311 0.04860328573751186 0 -0.046352507040249791 0.047743759337737474 0 -0.048051251525784128 0.048504964330543354 0 -0.046019840766442478 0.049289643619069116 0 -0.046352507040249791 0.047743759337737474 0 -0.046019840766442478 0.049289643619069116 0 -0.04460449094359311 0.04860328573751186 0 -0.044547955580123789 0.050571836893109977 0 -0.04460449094359311 0.04860328573751186 0 -0.042537704192889568 0.050122860347365801 0 -0.044547955580123789 0.050571836893109977 0 -0.04460449094359311 0.04860328573751186 0 -0.04523391521855448 0.046232913413248741 0 -0.046352507040249791 0.047743759337737474 0 -0.04460449094359311 0.04860328573751186 0 -0.04523391521855448 0.046232913413248741 0 -0.042940423954889451 0.047533345923823606 0 -0.04523391521855448 0.046232913413248741 0 -0.043348446525513097 0.044985721616707594 0 -0.042940423954889451 0.047533345923823606 0 -0.047709157167634055 0.046326869199604645 0 -0.048051251525784128 0.048504964330543354 0 -0.046352507040249791 0.047743759337737474 0 -0.047709157167634055 0.046326869199604645 0 -0.04523391521855448 0.046232913413248741 0 -0.046352507040249791 0.047743759337737474 0 -0.04523391521855448 0.046232913413248741 0 -0.046793045005409963 0.044587440350143226 0 -0.045217317600175562 0.04409572646086389 0 -0.047709157167634055 0.046326869199604645 0 -0.04523391521855448 0.046232913413248741 0 -0.046793045005409963 0.044587440350143226 0 -0.047272695061337897 0.043052205819317083 0 -0.050611663898011541 0.047691513603351429 0 -0.046793045005409963 0.044587440350143226 0 -0.047373125601816002 0.042625355900351533 0 -0.045217317600175562 0.04409572646086389 0 -0.050611663898011541 0.047691513603351429 0 -0.04207379170733358 0.051891610982905831 0 -0.047373125601816002 0.042625355900351533 0 -0.043728213504997893 0.042532318249581216 0 -0.045217317600175562 0.04409572646086389 0 -0.043728213504997893 0.042532318249581216 0 -0.045217317600175562 0.04409572646086389 0 -0.043348446525513097 0.044985721616707594 0 -0.048591252908541119 0.061272910392703682 0 -0.048966906471692884 0.061465586530280371 0 -0.048287695507095461 0.06141438693082038 0 -0.04523391521855448 0.046232913413248741 0 -0.045217317600175562 0.04409572646086389 0 -0.043348446525513097 0.044985721616707594 0 -0.033285352985789454 0.053970922069019552 0 -0.03042142832480569 0.053599744653232896 0 -0.029576678382760326 0.056485365488990649 0 -0.033285352985789454 0.053970922069019552 0 -0.032184713656456539 0.051953929360859394 0 -0.03042142832480569 0.053599744653232896 0 -0.04207379170733358 0.051891610982905831 0 -0.038247147706141717 0.048459239444750592 0 -0.033707913662135984 0.050736261977200547 0 -0.033285352985789454 0.053970922069019552 0 -0.032184713656456539 0.051953929360859394 0 -0.032184713656456539 0.051953929360859394 0 -0.030673314152657852 0.05081153283367381 0 -0.03042142832480569 0.053599744653232896 0 -0.032184713656456539 0.051953929360859394 0 -0.032780220110208494 0.050729250795313117 0 -0.030673314152657852 0.05081153283367381 0 -0.033707913662135984 0.050736261977200547 0 -0.032184713656456539 0.051953929360859394 0 -0.032780220110208494 0.050729250795313117 0 -0.04207379170733358 0.051891610982905831 0 -0.035853719273857651 0.051460114949931454 0 -0.041807468379937318 0.064486744699691442 0 -0.042644273919978097 0.064985857336795669 0 -0.041083800593163501 0.065290758037590588 0 -0.042644273919978097 0.064985857336795669 0 -0.041083800593163501 0.065290758037590588 0 -0.040692357829679143 0.066684062759566967 0 -0.03615690447617767 0.05745085117924479 0 -0.033701914150938192 0.060557008789623494 0 -0.030673314152657852 0.05081153283367381 0 -0.03042142832480569 0.053599744653232896 0 -0.026657392421568459 0.05429100279444625 0 -0.03042142832480569 0.053599744653232896 0 -0.029576678382760326 0.056485365488990649 0 -0.026657392421568459 0.05429100279444625 0 -0.029576678382760326 0.056485365488990649 0 -0.032818817356082441 0.057451726426876189 0 -0.030686086844678422 0.058745837859751765 0 -0.038247147706141717 0.048459239444750592 0 -0.03801282634888363 0.053178467498149119 0 -0.033285352985789454 0.053970922069019552 0 -0.029576678382760326 0.056485365488990649 0 -0.032818817356082441 0.057451726426876189 0 -0.03801282634888363 0.053178467498149119 0 -0.03336762134434465 0.052487019120269263 0 -0.032818817356082441 0.057451726426876189 0 -0.030686086844678422 0.058745837859751765 0 -0.032361555682018629 0.060990102646103037 0 -0.04460449094359311 0.04860328573751186 0 -0.042940423954889451 0.047533345923823606 0 -0.042537704192889568 0.050122860347365801 0 -0.02410261435502389 0.06003182047036211 0 -0.03336762134434465 0.052487019120269263 0 -0.029576678382760326 0.056485365488990649 0 -0.02795448615331509 0.060071150724631719 0 -0.030686086844678422 0.058745837859751765 0 -0.02795448615331509 0.060071150724631719 0 -0.030686086844678422 0.058745837859751765 0 -0.032361555682018629 0.060990102646103037 0 -0.022734782576622155 0.058775536268617673 0 -0.022354502048080632 0.057885796767200494 0 -0.021631177266720095 0.058386749592589403 0 -0.022734782576622155 0.058775536268617673 0 -0.022354502048080632 0.057885796767200494 0 -0.023187368146841518 0.057763367448663207 0 -0.022354502048080632 0.057885796767200494 0 -0.021631177266720095 0.058386749592589403 0 -0.021664230336679465 0.05746827747787922 0 -0.03336762134434465 0.052487019120269263 0 -0.02912814558989639 0.04950388044877075 0 -0.03667768336514797 0.040038327550523146 0 -0.037699824498366133 0.041483301761997111 0 -0.036521030239371012 0.042469837094623916 0 -0.02912814558989639 0.04950388044877075 0 -0.027785137362591701 0.050326937302710061 0 -0.021664230336679465 0.05746827747787922 0 -0.022422856970174987 0.056888880357359034 0 -0.021781909479514177 0.056455686356671572 0 -0.036521030239371012 0.042469837094623916 0 -0.037026166114500506 0.043493288261190047 0 -0.036200605002747695 0.044628975310933384 0 -0.036521030239371012 0.042469837094623916 0 -0.037026166114500506 0.043493288261190047 0 -0.037985618708931766 0.042745530146385741 0 -0.037699824498366133 0.041483301761997111 0 -0.036521030239371012 0.042469837094623916 0 -0.037985618708931766 0.042745530146385741 0 -0.022354502048080632 0.057885796767200494 0 -0.022422856970174987 0.056888880357359034 0 -0.023187368146841518 0.057763367448663207 0 -0.022422856970174987 0.056888880357359034 0 -0.022917764694910098 0.056158155771389912 0 -0.023187368146841518 0.057763367448663207 0 -0.022354502048080632 0.057885796767200494 0 -0.021664230336679465 0.05746827747787922 0 -0.022422856970174987 0.056888880357359034 0 -0.022917764694910098 0.056158155771389912 0 -0.021929892433546105 0.055686385991833592 0 -0.022020106488509918 0.053792888904248423 0 -0.022422856970174987 0.056888880357359034 0 -0.022917764694910098 0.056158155771389912 0 -0.021929892433546105 0.055686385991833592 0 -0.022422856970174987 0.056888880357359034 0 -0.021929892433546105 0.055686385991833592 0 -0.021113747213966787 0.05613804728095912 0 -0.02216226710322618 0.055594601649375665 0 -0.027785137362591701 0.050326937302710061 0 -0.022144006583558865 0.059075397923767065 0 -0.022049696907951839 0.058743656702972102 0 -0.022232909705270698 0.058952434906849364 0 -0.022849825627534473 0.059456483844498476 0 -0.024368575174284472 0.045209491379508214 0 -0.021929892433546105 0.055686385991833592 0 -0.022020106488509918 0.053792888904248423 0 -0.021195349386615533 0.055230087243528819 0 -0.022020106488509918 0.053792888904248423 0 -0.021779926338119888 0.053833338978346933 0 -0.021195349386615533 0.055230087243528819 0 -0.029396338901232069 0.034558879395691133 0 -0.025863340871523897 0.037017273805179274 0 -0.026853930279540091 0.029398385249379905 0 -0.023068759176192517 0.035121004267558736 0 -0.022923005274760259 0.034824074943448649 0 -0.024685221707804839 0.03349208362609854 0 -0.028586912094085568 0.036489589427362662 0 -0.029396338901232069 0.034558879395691133 0 -0.025863340871523897 0.037017273805179274 0 -0.02520640865046565 0.042011993024898296 0 -0.025748641548867357 0.036678436288519863 0 -0.024368575174284472 0.045209491379508214 0 -0.02520640865046565 0.042011993024898296 0 -0.023062465139319359 0.042645904378134959 0 -0.025958177297437691 0.042085541744012689 0 -0.024499160332258789 0.045537210121350175 0 -0.024368575174284472 0.045209491379508214 0 -0.025748641548867357 0.036678436288519863 0 -0.032399981505429741 0.039560971662250859 0 -0.032370309816999281 0.039853885089920472 0 -0.031783798457302996 0.039641375562649211 0 -0.030703769662119223 0.021138944311413128 0 -0.032470275426932656 0.020789630157713811 0 -0.031494176089885466 0.021546910969847687 0 -0.030703769662119223 0.021138944311413128 0 -0.030980306790827607 0.021657593391875084 0 -0.031494176089885466 0.021546910969847687 0 -0.030373838990040095 0.035024673259629213 0 -0.028474029341120956 0.025631264867091098 0 -0.02520640865046565 0.042011993024898296 0 -0.030373838990040095 0.035024673259629213 0 -0.030373838990040095 0.035024673259629213 0 -0.027858700646066617 0.047764307823449328 0 -0.02520640865046565 0.042011993024898296 0 -0.027858700646066617 0.047764307823449328 0 -0.030469315872576039 0.038743774781623441 0 -0.028191249177024633 0.03918632997172581 0 -0.027268368331722068 0.046455097231328527 0 -0.032370309816999281 0.039853885089920472 0 -0.032301973477684494 0.04004162733695589 0 -0.031783798457302996 0.039641375562649211 0 -0.02829495978523296 0.047427871824984077 0 -0.02801285242595741 0.049641394519213816 0 -0.027498300330955395 0.04934343132340091 0 -0.027858700646066617 0.047764307823449328 0 -0.027785137362591701 0.050326937302710061 0 -0.021929892433546105 0.055686385991833592 0 -0.021195349386615533 0.055230087243528819 0 -0.021113747213966787 0.05613804728095912 0 -0.027858700646066617 0.047764307823449328 0 -0.032456148989928241 0.04765447870972947 0 -0.037026166114500506 0.043493288261190047 0 -0.036200605002747695 0.044628975310933384 0 -0.036453471381706987 0.044777515807547817 0 -0.027785137362591701 0.050326937302710061 0 -0.032456148989928241 0.04765447870972947 0 -0.036302686633491718 0.042902496041796669 0 -0.032456148989928241 0.04765447870972947 0 -0.037026166114500506 0.043493288261190047 0 -0.036543250573812927 0.044622430927570532 0 -0.038151045944945866 0.044450469423635168 0 -0.036543250573812927 0.044622430927570532 0 -0.038151045944945866 0.044450469423635168 0 -0.039354379545925543 0.046126314601659918 0 -0.037026166114500506 0.043493288261190047 0 -0.038151045944945866 0.044450469423635168 0 -0.038303964007440558 0.043622855542783577 0 -0.032456148989928241 0.04765447870972947 0 -0.034623865095535417 0.033564073871242973 0 -0.038151045944945866 0.044450469423635168 0 -0.03947274007583064 0.044375864327097295 0 -0.038303964007440558 0.043622855542783577 0 -0.038151045944945866 0.044450469423635168 0 -0.03947274007583064 0.044375864327097295 0 -0.039354379545925543 0.046126314601659918 0 -0.032470275426932656 0.020789630157713811 0 -0.032367065687018595 0.021901238142306465 0 -0.031494176089885466 0.021546910969847687 0 -0.030373838990040095 0.035024673259629213 0 -0.034623865095535417 0.033564073871242973 0 -0.034623865095535417 0.033564073871242973 0 -0.04491704430992606 0.024818571945558351 0 -0.032470275426932656 0.020789630157713811 0 -0.033857937320318193 0.021503040967060891 0 -0.032367065687018595 0.021901238142306465 0 -0.034623865095535417 0.033564073871242973 0 -0.04146295932427238 0.038841151272851211 0 -0.03708051785428481 0.030780384100314931 0 -0.039419894916355953 0.030333699653085192 0 -0.040234402286730836 0.032515531295904926 0 -0.039354379545925543 0.046126314601659918 0 -0.041316963505572728 0.045736798793120953 0 -0.040813462863272268 0.044658554135959191 0 -0.04146295932427238 0.038841151272851211 0 -0.042291850207330971 0.045031147879012766 0 -0.041392487524529481 0.045814513598380888 0 -0.040813462863272268 0.044658554135959191 0 -0.041900366261468244 0.044694696370410195 0 -0.03947274007583064 0.044375864327097295 0 -0.039354379545925543 0.046126314601659918 0 -0.040813462863272268 0.044658554135959191 0 -0.03947274007583064 0.044375864327097295 0 -0.040813462863272268 0.044658554135959191 0 -0.03993220501635545 0.043650528824234439 0 -0.040813462863272268 0.044658554135959191 0 -0.040749974214848619 0.043256260681170673 0 -0.03993220501635545 0.043650528824234439 0 -0.040813462863272268 0.044658554135959191 0 -0.041588880320221122 0.043827614241787945 0 -0.041900366261468244 0.044694696370410195 0 -0.040813462863272268 0.044658554135959191 0 -0.040749974214848619 0.043256260681170673 0 -0.041588880320221122 0.043827614241787945 0 -0.040749974214848619 0.043256260681170673 0 -0.041880810505445475 0.04287878693367092 0 -0.041588880320221122 0.043827614241787945 0 -0.040749974214848619 0.043256260681170673 0 -0.040883241207347251 0.042585832852452821 0 -0.041880810505445475 0.04287878693367092 0 -0.040749974214848619 0.043256260681170673 0 -0.040883241207347251 0.042585832852452821 0 -0.040085330859986293 0.042565008654242904 0 -0.040883241207347251 0.042585832852452821 0 -0.041038462526624228 0.041795385522589795 0 -0.041880810505445475 0.04287878693367092 0 -0.040883241207347251 0.042585832852452821 0 -0.041038462526624228 0.041795385522589795 0 -0.040085330859986293 0.042565008654242904 0 -0.041038462526624228 0.041795385522589795 0 -0.040085330859986293 0.042565008654242904 0 -0.039211912357097298 0.042354089963281369 0 -0.040085330859986293 0.042565008654242904 0 -0.03993220501635545 0.043650528824234439 0 -0.039247359245746273 0.0431845672889083 0 -0.040749974214848619 0.043256260681170673 0 -0.040085330859986293 0.042565008654242904 0 -0.03993220501635545 0.043650528824234439 0 -0.03947274007583064 0.044375864327097295 0 -0.03993220501635545 0.043650528824234439 0 -0.039247359245746273 0.0431845672889083 0 -0.03947274007583064 0.044375864327097295 0 -0.039247359245746273 0.0431845672889083 0 -0.038303964007440558 0.043622855542783577 0 -0.039247359245746273 0.0431845672889083 0 -0.038303964007440558 0.043622855542783577 0 -0.037985618708931766 0.042745530146385741 0 -0.037026166114500506 0.043493288261190047 0 -0.038303964007440558 0.043622855542783577 0 -0.037985618708931766 0.042745530146385741 0 -0.037699824498366133 0.041483301761997111 0 -0.037985618708931766 0.042745530146385741 0 -0.039211912357097298 0.042354089963281369 0 -0.039247359245746273 0.0431845672889083 0 -0.037985618708931766 0.042745530146385741 0 -0.039211912357097298 0.042354089963281369 0 -0.040085330859986293 0.042565008654242904 0 -0.039247359245746273 0.0431845672889083 0 -0.039211912357097298 0.042354089963281369 0 -0.038238788356434739 0.041400451572162239 0 -0.041372334339979895 0.042726186884104886 0 -0.037699824498366133 0.041483301761997111 0 -0.041038462526624228 0.041795385522589795 0 -0.039211912357097298 0.042354089963281369 0 -0.037699824498366133 0.041483301761997111 0 -0.043204900314347296 0.042555190623729186 0 -0.040816786406457466 0.041611054823324507 0 -0.037699824498366133 0.041483301761997111 0 -0.040816786406457466 0.041611054823324507 0 -0.039356373908875864 0.040392149451822984 0 -0.03667768336514797 0.040038327550523146 0 -0.037699824498366133 0.041483301761997111 0 -0.039356373908875864 0.040392149451822984 0 -0.03336762134434465 0.052487019120269263 0 -0.042752076607362285 0.045937615634166783 0 -0.046019840766442478 0.049289643619069116 0 -0.044547955580123789 0.050571836893109977 0 -0.046550653963723036 0.051027588163518559 0 -0.042752076607362285 0.045937615634166783 0 -0.043778430667358259 0.043400809543219628 0 -0.043204900314347296 0.042555190623729186 0 -0.042453362283112299 0.041133225299669438 0 -0.045885996015432709 0.041907658228287299 0 -0.041766992520972337 0.042693745005855162 0 -0.043778430667358259 0.043400809543219628 0 -0.040816786406457466 0.041611054823324507 0 -0.039356373908875864 0.040392149451822984 0 -0.04252962292669675 0.041098571334879597 0 -0.043204900314347296 0.042555190623729186 0 -0.040816786406457466 0.041611054823324507 0 -0.042453362283112299 0.041133225299669438 0 -0.042477596034557759 0.041125877364348036 0 -0.046979703548701159 0.039728776363505656 0 -0.045885996015432709 0.041907658228287299 0 -0.048051251525784128 0.048504964330543354 0 -0.046550653963723036 0.051027588163518559 0 -0.049304131376246715 0.050203218953708814 0 -0.046979703548701159 0.039728776363505656 0 -0.045885996015432709 0.041907658228287299 0 -0.049295265304876795 0.043454602357815737 0 -0.043778430667358259 0.043400809543219628 0 -0.047561194673483208 0.045584256499089822 0 -0.043778430667358259 0.043400809543219628 0 -0.044884250669926434 0.041784359953713476 0 -0.051569197983230002 0.038350871866376958 0 -0.046979703548701159 0.039728776363505656 0 -0.049295265304876795 0.043454602357815737 0 -0.054335108648532145 0.039205785714857402 0 -0.050352512633826493 0.038196359156186618 0 -0.043204900314347296 0.042555190623729186 0 -0.045885996015432709 0.041907658228287299 0 -0.049295265304876795 0.043454602357815737 0 -0.041038462526624228 0.041795385522589795 0 -0.044610161374766498 0.042196841741602084 0 -0.041880810505445475 0.04287878693367092 0 -0.041372334339979895 0.042726186884104886 0 -0.050352512633826493 0.038196359156186618 0 -0.044610161374766498 0.042196841741602084 0 -0.042611390190191605 0.043658137712205392 0 -0.041880810505445475 0.04287878693367092 0 -0.042611390190191605 0.043658137712205392 0 -0.041880810505445475 0.04287878693367092 0 -0.041588880320221122 0.043827614241787945 0 -0.044610161374766498 0.042196841741602084 0 -0.042611390190191605 0.043658137712205392 0 -0.043128483166423356 0.045480586255722384 0 -0.042611390190191605 0.043658137712205392 0 -0.041588880320221122 0.043827614241787945 0 -0.041900366261468244 0.044694696370410195 0 -0.042611390190191605 0.043658137712205392 0 -0.043128483166423356 0.045480586255722384 0 -0.041900366261468244 0.044694696370410195 0 -0.04146295932427238 0.038841151272851211 0 -0.046667689504778342 0.037893862673522759 0 -0.041392487524529481 0.045814513598380888 0 -0.043128483166423356 0.045480586255722384 0 -0.041900366261468244 0.044694696370410195 0 -0.051061823154755187 0.030931284279767299 0 -0.05076248027822218 0.031594126349741167 0 -0.0513240545968821 0.031432149831921788 0 -0.046667689504778342 0.037893862673522759 0 -0.045891652905121115 0.028551941216570766 0 -0.04625802476860448 0.035890682443030661 0 -0.04334815276919899 0.036459270459910563 0 -0.044884377226431266 0.03290585196442411 0 -0.05076248027822218 0.031594126349741167 0 -0.0513240545968821 0.031432149831921788 0 -0.050831028494843465 0.031728588077415083 0 -0.039419894916355953 0.030333699653085192 0 -0.040353128104556428 0.032249195792412207 0 -0.040234402286730836 0.032515531295904926 0 -0.04146295932427238 0.038841151272851211 0 -0.045891652905121115 0.028551941216570766 0 -0.045891652905121115 0.028551941216570766 0 -0.04491704430992606 0.024818571945558351 0 -0.051061823154755187 0.030931284279767299 0 -0.0513240545968821 0.031432149831921788 0 -0.052345461556760266 0.0306823724047301 0 -0.0513240545968821 0.031432149831921788 0 -0.052191145698856106 0.031440063667149777 0 -0.051311558303383083 0.031992493294346599 0 -0.048969050095643701 0.037552571489215807 0 -0.053746365285980063 0.036606908962415148 0 -0.052335775830373889 0.034926670000682648 0 -0.046667689504778342 0.037893862673522759 0 -0.055150142799061642 0.03163403531825331 0 -0.050856629731280502 0.033308475316446914 0 -0.048969050095643701 0.037552571489215807 0 -0.052335775830373889 0.034926670000682648 0 -0.050352512633826493 0.038196359156186618 0 -0.046667689504778342 0.037893862673522759 0 -0.055150142799061642 0.03163403531825331 0 -0.056714533072217924 0.032732053922091157 0 -0.057748470049318226 0.028021269891795986 0 -0.056380328674526622 0.028937067934274644 0 -0.056769759194620018 0.02668545057531892 0 -0.056978613942478058 0.030001683704001782 0 -0.057252429157701699 0.028420473280776983 0 -0.056147580987276541 0.029145881720688677 0 -0.055150142799061642 0.03163403531825331 0 -0.055125581347309785 0.02928761828509769 0 -0.0513240545968821 0.031432149831921788 0 -0.052345461556760266 0.0306823724047301 0 -0.052191145698856106 0.031440063667149777 0 -0.055125581347309785 0.02928761828509769 0 -0.056559449830580533 0.028820507785445999 0 -0.056380328674526622 0.028937067934274644 0 -0.054999989864566223 0.029863955572743208 0 -0.054999983962020993 0.026785850742747572 0 -0.056978613942478058 0.030001683704001782 0 -0.054999960678665943 0.029864675643450099 0 -0.054999994294785311 0.030454730144007198 0 -0.056559449830580533 0.028820507785445999 0 -0.055000195137370943 0.029863862699558652 0 -0.056978613942478058 0.030001683704001782 0 -0.056147580987276541 0.029145881720688677 0 -0.054999960678665943 0.029864675643450099 0 -0.055150142799061642 0.03163403531825331 0 -0.055003171310587136 0.030454418386305356 0 -0.05731228111243699 0.030082032262710213 0 -0.054999909303113853 0.030455629607195105 0 -0.056606939324724118 0.031869953182145486 0 -0.054999909303113853 0.030455629607195105 0 -0.054999959110206088 0.033080329699642752 0 -0.056049414924559879 0.032774301485183795 0 -0.054999909303113853 0.030455629607195105 0 -0.056606939324724118 0.031869953182145486 0 -0.056049414924559879 0.032774301485183795 0 -0.056606939324724118 0.031869953182145486 0 -0.057159254596320631 0.032671432266064671 0 -0.056049414924559879 0.032774301485183795 0 -0.05731228111243699 0.030082032262710213 0 -0.056606939324724118 0.031869953182145486 0 -0.056963464661921523 0.031925186982649574 0 -0.053746365285980063 0.036606908962415148 0 -0.052335775830373889 0.034926670000682648 0 -0.054297062136360548 0.033798710791136485 0 -0.050352512633826493 0.038196359156186618 0 -0.056714533072217924 0.032732053922091157 0 -0.058908980862078776 0.03238122981001091 0 -0.05692070639285584 0.031967733514845116 0 -0.057159254596320631 0.032671432266064671 0 -0.050856629731280502 0.033308475316446914 0 -0.052335775830373889 0.034926670000682648 0 -0.054297062136360548 0.033798710791136485 0 -0.056606939324724118 0.031869953182145486 0 -0.05692070639285584 0.031967733514845116 0 -0.057159254596320631 0.032671432266064671 0 -0.056680093421699371 0.03263973453422396 0 -0.056714533072217924 0.032732053922091157 0 -0.057952561188080814 0.034691860356829821 0 -0.058908980862078776 0.03238122981001091 0 -0.057027496046347409 0.033641465526679272 0 -0.057159254596320631 0.032671432266064671 0 -0.057027496046347409 0.033641465526679272 0 -0.056049414924559879 0.032774301485183795 0 -0.058908980862078776 0.03238122981001091 0 -0.057159254596320631 0.032671432266064671 0 -0.057027496046347409 0.033641465526679272 0 -0.054999968545193692 0.035705030828571578 0 -0.055930796690569315 0.034068188905244358 0 -0.054999959110206088 0.033080329699642752 0 -0.056519614979875524 0.035166659196622728 0 -0.057027496046347409 0.033641465526679272 0 -0.055930796690569315 0.034068188905244358 0 -0.055930796690569315 0.034068188905244358 0 -0.054999959110206088 0.033080329699642752 0 -0.056049414924559879 0.032774301485183795 0 -0.057027496046347409 0.033641465526679272 0 -0.055930796690569315 0.034068188905244358 0 -0.056049414924559879 0.032774301485183795 0 -0.022892306552302663 0.06133740782931249 0 -0.023130114466245928 0.061570856232041296 0 -0.022800430297205521 0.0615222732809639 0 -0.022892306552302663 0.06133740782931249 0 -0.022632347410426433 0.061241954346295369 0 -0.022800430297205521 0.0615222732809639 0 -0.022892306552302663 0.06133740782931249 0 -0.022632347410426433 0.061241954346295369 0 -0.022709663908045647 0.061054564247640962 0 -0.022632347410426433 0.061241954346295369 0 -0.022800430297205521 0.0615222732809639 0 -0.022585789651430339 0.061356374120080021 0 -0.022632347410426433 0.061241954346295369 0 -0.022546425368468584 0.060971870427725207 0 -0.022464311284481647 0.061071740707693799 0 -0.022632347410426433 0.061241954346295369 0 -0.022709663908045647 0.061054564247640962 0 -0.022546425368468584 0.060971870427725207 0 -0.022546425368468584 0.060971870427725207 0 -0.022433356330208511 0.060728464267801395 0 -0.022572532321049794 0.060716905550029884 0 -0.022709663908045647 0.061054564247640962 0 -0.022546425368468584 0.060971870427725207 0 -0.022572532321049794 0.060716905550029884 0 -0.022709663908045647 0.061054564247640962 0 -0.022891170864395981 0.0610988265432117 0 -0.022709238550010547 0.060721935256067706 0 -0.022709663908045647 0.061054564247640962 0 -0.022709238550010547 0.060721935256067706 0 -0.022572532321049794 0.060716905550029884 0 -0.022891170864395981 0.0610988265432117 0 -0.023088057603364499 0.061380639523795195 0 -0.02300412199946484 0.060934235364610873 0 -0.022892306552302663 0.06133740782931249 0 -0.022709663908045647 0.061054564247640962 0 -0.022891170864395981 0.0610988265432117 0 -0.022892306552302663 0.06133740782931249 0 -0.022891170864395981 0.0610988265432117 0 -0.023088057603364499 0.061380639523795195 0 -0.023088057603364499 0.061380639523795195 0 -0.023266639998699386 0.06149975564331954 0 -0.02300412199946484 0.060934235364610873 0 -0.023088057603364499 0.061380639523795195 0 -0.023266639998699386 0.06149975564331954 0 -0.0231523303046729 0.061574942225135168 0 -0.022975883990365514 0.061731252003166759 0 -0.023266639998699386 0.06149975564331954 0 -0.023509012870445198 0.061627975925808813 0 -0.022975883990365514 0.061731252003166759 0 -0.023266639998699386 0.06149975564331954 0 -0.0231523303046729 0.061574942225135168 0 -0.02307913724477989 0.061763529081936684 0 -0.0231523303046729 0.061574942225135168 0 -0.023130114466245928 0.061570856232041296 0 -0.022975883990365514 0.061731252003166759 0 -0.02307913724477989 0.061763529081936684 0 -0.0231523303046729 0.061574942225135168 0 -0.022892306552302663 0.06133740782931249 0 -0.023088057603364499 0.061380639523795195 0 -0.023130114466245928 0.061570856232041296 0 -0.023088057603364499 0.061380639523795195 0 -0.0231523303046729 0.061574942225135168 0 -0.023130114466245928 0.061570856232041296 0 -0.023269211568903422 0.061868089519048798 0 -0.024177947812313166 0.062281141006636329 0 -0.02307913724477989 0.061763529081936684 0 -0.025243160119164436 0.063062921133489103 0 -0.024308343049246974 0.061499452371349558 0 -0.022926692485444256 0.061344178853487141 0 -0.023903262096175847 0.060668210216610778 0 -0.024428704763705195 0.062172723325079705 0 -0.025243160119164436 0.063062921133489103 0 -0.024308343049246974 0.061499452371349558 0 -0.026923106598567448 0.061563636033953574 0 -0.024388074294033474 0.061829610459405084 0 -0.026734069036032777 0.061530759325084887 0 -0.025275495744760797 0.060897007298632455 0 -0.024428704763705195 0.062172723325079705 0 -0.026923106598567448 0.061563636033953574 0 -0.024177947812313166 0.062281141006636329 0 -0.025758169670686854 0.062608447977633735 0 -0.025243160119164436 0.063062921133489103 0 -0.026923106598567448 0.061563636033953574 0 -0.02804640123757687 0.063756559358365009 0 -0.02804640123757687 0.063756559358365009 0 -0.029436890738787996 0.062485475424108414 0 -0.031363717095147396 0.064078858166946695 0 -0.025758169670686854 0.062608447977633735 0 -0.025721886490984659 0.062644656167349308 0 -0.022800430297205521 0.0615222732809639 0 -0.022509962197354003 0.061386712071821836 0 -0.022585789651430339 0.061356374120080021 0 -0.026923106598567448 0.061563636033953574 0 -0.02804640123757687 0.063756559358365009 0 -0.029436890738787996 0.062485475424108414 0 -0.029322310457410478 0.06068951811726081 0 -0.029436890738787996 0.062485475424108414 0 -0.030874379769637379 0.061826543565733437 0 -0.029322310457410478 0.06068951811726081 0 -0.026923106598567448 0.061563636033953574 0 -0.029436890738787996 0.062485475424108414 0 -0.03272230673439748 0.061807438178823476 0 -0.030874379769637379 0.061826543565733437 0 -0.031363717095147396 0.064078858166946695 0 -0.029436890738787996 0.062485475424108414 0 -0.030874379769637379 0.061826543565733437 0 -0.031363717095147396 0.064078858166946695 0 -0.03272230673439748 0.061807438178823476 0 -0.033488354611859575 0.062870170246922027 0 -0.031363717095147396 0.064078858166946695 0 -0.033488354611859575 0.062870170246922027 0 -0.031363717095147396 0.064078858166946695 0 -0.034947828578352561 0.063847575933489178 0 -0.034307563086184246 0.061720905279040172 0 -0.03272230673439748 0.061807438178823476 0 -0.033488354611859575 0.062870170246922027 0 -0.022519990275891345 0.061347843050298757 0 -0.02270022955303649 0.061349247130260021 0 -0.022352807601345101 0.061295998803994396 0 -0.025721886490984659 0.062644656167349308 0 -0.034602934208203866 0.063859896269532881 0 -0.022519990275891345 0.061347843050298757 0 -0.022509962197354003 0.061386712071821836 0 -0.022712632822913026 0.061331162188094236 0 -0.022519990275891345 0.061347843050298757 0 -0.022509962197354003 0.061386712071821836 0 -0.022480297413677935 0.061339570416141666 0 -0.022509962197354003 0.061386712071821836 0 -0.022585789651430339 0.061356374120080021 0 -0.022480297413677935 0.061339570416141666 0 -0.041807468379937318 0.064486744699691442 0 -0.041083800593163501 0.065290758037590588 0 -0.040951282864638235 0.064588162554502296 0 -0.041083800593163501 0.065290758037590588 0 -0.040951282864638235 0.064588162554502296 0 -0.040588721475633034 0.065030148816993011 0 -0.040951282864638235 0.064588162554502296 0 -0.040588721475633034 0.065030148816993011 0 -0.04021480534731723 0.064792270238276287 0 -0.040588721475633034 0.065030148816993011 0 -0.04021480534731723 0.064792270238276287 0 -0.040075308895956015 0.065317427536825443 0 -0.040588721475633034 0.065030148816993011 0 -0.040075308895956015 0.065317427536825443 0 -0.040455705463752337 0.065370802067705958 0 -0.040075308895956015 0.065317427536825443 0 -0.040455705463752337 0.065370802067705958 0 -0.040140056603367842 0.065551986592353756 0 -0.041083800593163501 0.065290758037590588 0 -0.040455705463752337 0.065370802067705958 0 -0.040304050155725184 0.065901298548563775 0 -0.041083800593163501 0.065290758037590588 0 -0.040588721475633034 0.065030148816993011 0 -0.040455705463752337 0.065370802067705958 0 -0.040140056603367842 0.065551986592353756 0 -0.039726149788828824 0.065623787977000164 0 -0.040304050155725184 0.065901298548563775 0 -0.040455705463752337 0.065370802067705958 0 -0.040140056603367842 0.065551986592353756 0 -0.040304050155725184 0.065901298548563775 0 -0.034307563086184246 0.061720905279040172 0 -0.035675508941898748 0.06064201349181781 0 -0.034947828578352561 0.063847575933489178 0 -0.041270112798417337 0.064182865968916411 0 -0.034602934208203866 0.063859896269532881 0 -0.038176477299539345 0.062494705614116831 0 -0.034602934208203866 0.063859896269532881 0 -0.034307563086184246 0.061720905279040172 0 -0.033488354611859575 0.062870170246922027 0 -0.034947828578352561 0.063847575933489178 0 -0.040581838622495404 0.063906278013602894 0 -0.04021480534731723 0.064792270238276287 0 -0.039222398819855585 0.065689119473460927 0 -0.04021480534731723 0.064792270238276287 0 -0.040075308895956015 0.065317427536825443 0 -0.039222398819855585 0.065689119473460927 0 -0.040075308895956015 0.065317427536825443 0 -0.039726149788828824 0.065623787977000164 0 -0.039222398819855585 0.065689119473460927 0 -0.040075308895956015 0.065317427536825443 0 -0.040140056603367842 0.065551986592353756 0 -0.039726149788828824 0.065623787977000164 0 -0.038016269433938613 0.064052496755022503 0 -0.034602934208203866 0.063859896269532881 0 -0.034064671162240837 0.064519885888022002 0 -0.029635851383605097 0.064901521175742813 0 -0.038995522187101492 0.065884306904936088 0 -0.038882086624471235 0.066336145443222708 0 -0.037498300407569844 0.068201511274884677 0 -0.022519990275891345 0.061347843050298757 0 -0.022712632822913026 0.061331162188094236 0 -0.02270022955303649 0.061349247130260021 0 -0.034602934208203866 0.063859896269532881 0 -0.034064671162240837 0.064519885888022002 0 -0.034064671162240837 0.064519885888022002 0 -0.035029926645233529 0.065222752330444736 0 -0.0390123138845943 0.065910518055602316 0 -0.038882086624471235 0.066336145443222708 0 -0.039261774207948054 0.066205873891933206 0 -0.038882086624471235 0.066336145443222708 0 -0.039311995751134643 0.067016077908306729 0 -0.038526675129521994 0.067545452709672188 0 -0.039292415676950548 0.066457862364926942 0 -0.039311995751134643 0.067016077908306729 0 -0.039710839024675364 0.066276964161089566 0 -0.038882086624471235 0.066336145443222708 0 -0.039292415676950548 0.066457862364926942 0 -0.039311995751134643 0.067016077908306729 0 -0.039292415676950548 0.066457862364926942 0 -0.039710839024675364 0.066276964161089566 0 -0.039261774207948054 0.066205873891933206 0 -0.038882086624471235 0.066336145443222708 0 -0.039292415676950548 0.066457862364926942 0 -0.039261774207948054 0.066205873891933206 0 -0.039710839024675364 0.066276964161089566 0 -0.039261774207948054 0.066205873891933206 0 -0.039407790960794567 0.0659398363557233 0 -0.039726149788828824 0.065623787977000164 0 -0.039057671312247431 0.065650317404980382 0 -0.039407790960794567 0.0659398363557233 0 -0.0390123138845943 0.065910518055602316 0 -0.039261774207948054 0.066205873891933206 0 -0.039407790960794567 0.0659398363557233 0 -0.039057671312247431 0.065650317404980382 0 -0.0390123138845943 0.065910518055602316 0 -0.039407790960794567 0.0659398363557233 0 -0.039726149788828824 0.065623787977000164 0 -0.039710839024675364 0.066276964161089566 0 -0.039407790960794567 0.0659398363557233 0 -0.039726149788828824 0.065623787977000164 0 -0.039710839024675364 0.066276964161089566 0 -0.040304050155725184 0.065901298548563775 0 -0.041083800593163501 0.065290758037590588 0 -0.040304050155725184 0.065901298548563775 0 -0.040692357829679143 0.066684062759566967 0 -0.039710839024675364 0.066276964161089566 0 -0.040304050155725184 0.065901298548563775 0 -0.040692357829679143 0.066684062759566967 0 -0.039311995751134643 0.067016077908306729 0 -0.039710839024675364 0.066276964161089566 0 -0.040692357829679143 0.066684062759566967 0 -0.026657392421568459 0.05429100279444625 0 -0.026006663809710701 0.057495101723700787 0 -0.02266476010988832 0.058208686766140404 0 -0.029576678382760326 0.056485365488990649 0 -0.026657392421568459 0.05429100279444625 0 -0.026006663809710701 0.057495101723700787 0 -0.039311995751134643 0.067016077908306729 0 -0.040692357829679143 0.066684062759566967 0 -0.038379468239156111 0.068628604453394554 0 -0.038882086624471235 0.066336145443222708 0 -0.038526675129521994 0.067545452709672188 0 -0.037498300407569844 0.068201511274884677 0 -0.033701914150938192 0.060557008789623494 0 -0.030802410220111331 0.06349801911264541 0 -0.039311995751134643 0.067016077908306729 0 -0.038526675129521994 0.067545452709672188 0 -0.038379468239156111 0.068628604453394554 0 -0.038526675129521994 0.067545452709672188 0 -0.038379468239156111 0.068628604453394554 0 -0.037498300407569844 0.068201511274884677 0 -0.026006663809710701 0.057495101723700787 0 -0.02266476010988832 0.058208686766140404 0 -0.023277101912305889 0.058872197906613993 0 -0.02266476010988832 0.058208686766140404 0 -0.023277101912305889 0.058872197906613993 0 -0.022780619669046105 0.058860772079384095 0 -0.023277101912305889 0.058872197906613993 0 -0.022780619669046105 0.058860772079384095 0 -0.02288379395031287 0.058986937789615078 0 -0.022780619669046105 0.058860772079384095 0 -0.02288379395031287 0.058986937789615078 0 -0.022644535866683805 0.059077676926600348 0 -0.023277101912305889 0.058872197906613993 0 -0.02288379395031287 0.058986937789615078 0 -0.023120748948186793 0.058838016020711592 0 -0.029576678382760326 0.056485365488990649 0 -0.02795448615331509 0.060071150724631719 0 -0.026006663809710701 0.057495101723700787 0 -0.02410261435502389 0.06003182047036211 0 -0.02386880951302707 0.058836834118278128 0 -0.022734782576622155 0.058775536268617673 0 -0.023277101912305889 0.058872197906613993 0 -0.023120748948186793 0.058838016020711592 0 -0.02795448615331509 0.060071150724631719 0 -0.026006663809710701 0.057495101723700787 0 -0.023277101912305889 0.058872197906613993 0 -0.022632347410426433 0.061241954346295369 0 -0.022436791742202221 0.061234462782241886 0 -0.022585789651430339 0.061356374120080021 0 -0.022632347410426433 0.061241954346295369 0 -0.022436791742202221 0.061234462782241886 0 -0.022464311284481647 0.061071740707693799 0 -0.022436791742202221 0.061234462782241886 0 -0.022369156680968574 0.061201949453428925 0 -0.02229189529340082 0.060948783617818442 0 -0.022436791742202221 0.061234462782241886 0 -0.022414753851092078 0.061291949623450116 0 -0.022369156680968574 0.061201949453428925 0 -0.022436791742202221 0.061234462782241886 0 -0.022585789651430339 0.061356374120080021 0 -0.022480297413677935 0.061339570416141666 0 -0.022436791742202221 0.061234462782241886 0 -0.022480297413677935 0.061339570416141666 0 -0.022414753851092078 0.061291949623450116 0 -0.022519990275891345 0.061347843050298757 0 -0.022414753851092078 0.061291949623450116 0 -0.022352807601345101 0.061295998803994396 0 -0.022519990275891345 0.061347843050298757 0 -0.022480297413677935 0.061339570416141666 0 -0.022414753851092078 0.061291949623450116 0 -0.022414753851092078 0.061291949623450116 0 -0.022352807601345101 0.061295998803994396 0 -0.022369156680968574 0.061201949453428925 0 -0.029635851383605097 0.064901521175742813 0 -0.027605238916561969 0.06401534081527234 0 -0.030802410220111331 0.06349801911264541 0 -0.027605238916561969 0.06401534081527234 0 -0.022352807601345101 0.061295998803994396 0 -0.02229189529340082 0.060948783617818442 0 -0.022062981578211526 0.060452495223258018 0 -0.02266476010988832 0.058208686766140404 0 -0.022440018715630804 0.059033398639818463 0 -0.022069467448396125 0.059570766843524761 0 -0.038379468239156111 0.068628604453394554 0 -0.037498300407569844 0.068201511274884677 0 -0.035972975846171304 0.070518562807817931 0 -0.022352807601345101 0.061295998803994396 0 -0.022369156680968574 0.061201949453428925 0 -0.02229189529340082 0.060948783617818442 0 -0.022780619669046105 0.058860772079384095 0 -0.022440018715630804 0.059033398639818463 0 -0.022644535866683805 0.059077676926600348 0 -0.02266476010988832 0.058208686766140404 0 -0.022780619669046105 0.058860772079384095 0 -0.022440018715630804 0.059033398639818463 0 -0.022229383385154435 0.060712068040636551 0 -0.02229189529340082 0.060948783617818442 0 -0.022062981578211526 0.060452495223258018 0 -0.022229383385154435 0.060712068040636551 0 -0.02229189529340082 0.060948783617818442 0 -0.022376931061267251 0.060863610897038407 0 -0.022229383385154435 0.060712068040636551 0 -0.022376931061267251 0.060863610897038407 0 -0.022316308943935027 0.060685216232110213 0 -0.02229189529340082 0.060948783617818442 0 -0.022464311284481647 0.061071740707693799 0 -0.022376931061267251 0.060863610897038407 0 -0.022436791742202221 0.061234462782241886 0 -0.02229189529340082 0.060948783617818442 0 -0.022464311284481647 0.061071740707693799 0 -0.022546425368468584 0.060971870427725207 0 -0.022464311284481647 0.061071740707693799 0 -0.022376931061267251 0.060863610897038407 0 -0.022546425368468584 0.060971870427725207 0 -0.022376931061267251 0.060863610897038407 0 -0.022433356330208511 0.060728464267801395 0 -0.022376931061267251 0.060863610897038407 0 -0.022316308943935027 0.060685216232110213 0 -0.022433356330208511 0.060728464267801395 0 -0.022433356330208511 0.060728464267801395 0 -0.022322849028097658 0.060533346861863589 0 -0.022440023677322129 0.060502458634894785 0 -0.022316308943935027 0.060685216232110213 0 -0.022433356330208511 0.060728464267801395 0 -0.022322849028097658 0.060533346861863589 0 -0.022316308943935027 0.060685216232110213 0 -0.022322849028097658 0.060533346861863589 0 -0.022222563468871588 0.060561929012387078 0 -0.022322849028097658 0.060533346861863589 0 -0.022440023677322129 0.060502458634894785 0 -0.022339841073812188 0.060264050206272027 0 -0.022322849028097658 0.060533346861863589 0 -0.022339841073812188 0.060264050206272027 0 -0.022222920497227461 0.060387487208058151 0 -0.022440023677322129 0.060502458634894785 0 -0.022339841073812188 0.060264050206272027 0 -0.022465560008296817 0.060262851260812468 0 -0.022339841073812188 0.060264050206272027 0 -0.022343193095637984 0.060068527120775046 0 -0.022465560008296817 0.060262851260812468 0 -0.022339841073812188 0.060264050206272027 0 -0.02224818305271286 0.059933272220221739 0 -0.022343193095637984 0.060068527120775046 0 -0.022339841073812188 0.060264050206272027 0 -0.02224818305271286 0.059933272220221739 0 -0.022181636865655645 0.060003324167443063 0 -0.02224818305271286 0.059933272220221739 0 -0.022343193095637984 0.060068527120775046 0 -0.0222971820410994 0.059840562741977951 0 -0.022343193095637984 0.060068527120775046 0 -0.0222971820410994 0.059840562741977951 0 -0.022465560008296817 0.060262851260812468 0 -0.022153232932984192 0.059753113763976705 0 -0.022180370966068664 0.059663677973109293 0 -0.022196124867526226 0.059633606850727945 0 -0.022153232932984192 0.059753113763976705 0 -0.022196124867526226 0.059633606850727945 0 -0.022203440799178607 0.059745488186663795 0 -0.022153232932984192 0.059753113763976705 0 -0.022168195725731137 0.059856094581340898 0 -0.022203440799178607 0.059745488186663795 0 -0.02224818305271286 0.059933272220221739 0 -0.022168195725731137 0.059856094581340898 0 -0.022203440799178607 0.059745488186663795 0 -0.02224818305271286 0.059933272220221739 0 -0.022168195725731137 0.059856094581340898 0 -0.022181636865655645 0.060003324167443063 0 -0.022153232932984192 0.059753113763976705 0 -0.022168195725731137 0.059856094581340898 0 -0.022101470192944079 0.059883464431799462 0 -0.022339841073812188 0.060264050206272027 0 -0.022181636865655645 0.060003324167443063 0 -0.022222920497227461 0.060387487208058151 0 -0.022168195725731137 0.059856094581340898 0 -0.022101470192944079 0.059883464431799462 0 -0.022181636865655645 0.060003324167443063 0 -0.026127985240989693 0.06340887795368251 0 -0.027605238916561969 0.06401534081527234 0 -0.022101470192944079 0.059883464431799462 0 -0.022181636865655645 0.060003324167443063 0 -0.022036687497376042 0.060023057044646021 0 -0.022153232932984192 0.059753113763976705 0 -0.022101470192944079 0.059883464431799462 0 -0.022180370966068664 0.059663677973109293 0 -0.026923564125037092 0.062950803702620836 0 -0.027605238916561969 0.06401534081527234 0 -0.022101470192944079 0.059883464431799462 0 -0.022069467448396125 0.059570766843524761 0 -0.022180370966068664 0.059663677973109293 0 -0.022062981578211526 0.060452495223258018 0 -0.022222920497227461 0.060387487208058151 0 -0.022222563468871588 0.060561929012387078 0 -0.022181636865655645 0.060003324167443063 0 -0.022062981578211526 0.060452495223258018 0 -0.022222920497227461 0.060387487208058151 0 -0.022322849028097658 0.060533346861863589 0 -0.022222920497227461 0.060387487208058151 0 -0.022222563468871588 0.060561929012387078 0 -0.022229383385154435 0.060712068040636551 0 -0.022062981578211526 0.060452495223258018 0 -0.022222563468871588 0.060561929012387078 0 -0.022229383385154435 0.060712068040636551 0 -0.022316308943935027 0.060685216232110213 0 -0.022222563468871588 0.060561929012387078 0 -0.022440018715630804 0.059033398639818463 0 -0.022069467448396125 0.059570766843524761 0 -0.0222528244289447 0.059463383212729919 0 -0.022440018715630804 0.059033398639818463 0 -0.02236424521773436 0.059359133182325184 0 -0.0222528244289447 0.059463383212729919 0 -0.022069467448396125 0.059570766843524761 0 -0.0222528244289447 0.059463383212729919 0 -0.022180370966068664 0.059663677973109293 0 -0.022644535866683805 0.059077676926600348 0 -0.022497416002263317 0.059222157674009825 0 -0.022599362941451779 0.059247917187649789 0 -0.022440018715630804 0.059033398639818463 0 -0.022644535866683805 0.059077676926600348 0 -0.022497416002263317 0.059222157674009825 0 -0.022440018715630804 0.059033398639818463 0 -0.02236424521773436 0.059359133182325184 0 -0.022497416002263317 0.059222157674009825 0 -0.02236424521773436 0.059359133182325184 0 -0.022497416002263317 0.059222157674009825 0 -0.022424196830726596 0.059375219652099361 0 -0.022497416002263317 0.059222157674009825 0 -0.022424196830726596 0.059375219652099361 0 -0.022599362941451779 0.059247917187649789 0 -0.022424196830726596 0.059375219652099361 0 -0.022411131125840145 0.059404515664368773 0 -0.022599362941451779 0.059247917187649789 0 -0.022424196830726596 0.059375219652099361 0 -0.022285833824767086 0.059535100243145678 0 -0.022411131125840145 0.059404515664368773 0 -0.02236424521773436 0.059359133182325184 0 -0.022424196830726596 0.059375219652099361 0 -0.022285833824767086 0.059535100243145678 0 -0.0222528244289447 0.059463383212729919 0 -0.022180370966068664 0.059663677973109293 0 -0.022285833824767086 0.059535100243145678 0 -0.02236424521773436 0.059359133182325184 0 -0.0222528244289447 0.059463383212729919 0 -0.022285833824767086 0.059535100243145678 0 -0.022180370966068664 0.059663677973109293 0 -0.022285833824767086 0.059535100243145678 0 -0.022196124867526226 0.059633606850727945 0 -0.022285833824767086 0.059535100243145678 0 -0.022196124867526226 0.059633606850727945 0 -0.022257695882932232 0.0594579193701084 0 -0.022196124867526226 0.059633606850727945 0 -0.022257695882932232 0.0594579193701084 0 -0.02220739519346723 0.059558669138541499 0 -0.022257695882932232 0.0594579193701084 0 -0.022411131125840145 0.059404515664368773 0 -0.022346294861951124 0.059284592504309543 0 -0.022285833824767086 0.059535100243145678 0 -0.022257695882932232 0.0594579193701084 0 -0.022411131125840145 0.059404515664368773 0 -0.022257695882932232 0.0594579193701084 0 -0.022346294861951124 0.059284592504309543 0 -0.022239440220012167 0.059214359236868401 0 -0.022257695882932232 0.0594579193701084 0 -0.022210324170614599 0.059362154222218376 0 -0.022239440220012167 0.059214359236868401 0 -0.022257695882932232 0.0594579193701084 0 -0.022210324170614599 0.059362154222218376 0 -0.02220739519346723 0.059558669138541499 0 -0.022223822975350322 0.059575935216033472 0 -0.022360526694083348 0.05937011008046706 0 -0.022368022152575613 0.059822378114687227 0 -0.022210324170614599 0.059362154222218376 0 -0.022223822975350322 0.059575935216033472 0 -0.02220739519346723 0.059558669138541499 0 -0.0222971820410994 0.059840562741977951 0 -0.022368022152575613 0.059822378114687227 0 -0.022465560008296817 0.060262851260812468 0 -0.022223822975350322 0.059575935216033472 0 -0.0222971820410994 0.059840562741977951 0 -0.022203440799178607 0.059745488186663795 0 -0.022223822975350322 0.059575935216033472 0 -0.0222971820410994 0.059840562741977951 0 -0.022368022152575613 0.059822378114687227 0 -0.02224818305271286 0.059933272220221739 0 -0.0222971820410994 0.059840562741977951 0 -0.022203440799178607 0.059745488186663795 0 -0.022196124867526226 0.059633606850727945 0 -0.022203440799178607 0.059745488186663795 0 -0.02220739519346723 0.059558669138541499 0 -0.022223822975350322 0.059575935216033472 0 -0.022203440799178607 0.059745488186663795 0 -0.02220739519346723 0.059558669138541499 0 -0.023106605886121605 0.058901001978347488 0 -0.022696068930278847 0.0580990651187945 0 -0.022734782576622155 0.058775536268617673 0 -0.023120748948186793 0.058838016020711592 0 -0.023187368146841518 0.057763367448663207 0 -0.023120748948186793 0.058838016020711592 0 -0.02276415741515745 0.059150771797468325 0 -0.022481295278888494 0.059326664979421968 0 -0.02276415741515745 0.059150771797468325 0 -0.022521310975027565 0.059318994620701684 0 -0.022481295278888494 0.059326664979421968 0 -0.02288379395031287 0.058986937789615078 0 -0.023120748948186793 0.058838016020711592 0 -0.02276415741515745 0.059150771797468325 0 -0.02288379395031287 0.058986937789615078 0 -0.02276415741515745 0.059150771797468325 0 -0.022599362941451779 0.059247917187649789 0 -0.02288379395031287 0.058986937789615078 0 -0.022644535866683805 0.059077676926600348 0 -0.022599362941451779 0.059247917187649789 0 -0.02276415741515745 0.059150771797468325 0 -0.022599362941451779 0.059247917187649789 0 -0.022521310975027565 0.059318994620701684 0 -0.022411131125840145 0.059404515664368773 0 -0.022599362941451779 0.059247917187649789 0 -0.022521310975027565 0.059318994620701684 0 -0.022411131125840145 0.059404515664368773 0 -0.022346294861951124 0.059284592504309543 0 -0.022521310975027565 0.059318994620701684 0 -0.022346294861951124 0.059284592504309543 0 -0.022521310975027565 0.059318994620701684 0 -0.022345542991036142 0.05917532020418536 0 -0.022849825627534473 0.059456483844498476 0 -0.022696068930278847 0.0580990651187945 0 -0.022144006583558865 0.059075397923767065 0 -0.022481295278888494 0.059326664979421968 0 -0.022345542991036142 0.05917532020418536 0 -0.022521310975027565 0.059318994620701684 0 -0.022481295278888494 0.059326664979421968 0 -0.022345542991036142 0.05917532020418536 0 -0.022144006583558865 0.059075397923767065 0 -0.022345542991036142 0.05917532020418536 0 -0.022232909705270698 0.058952434906849364 0 -0.022346294861951124 0.059284592504309543 0 -0.022345542991036142 0.05917532020418536 0 -0.022240914171609338 0.05898339715891527 0 -0.022345542991036142 0.05917532020418536 0 -0.022240914171609338 0.05898339715891527 0 -0.022232909705270698 0.058952434906849364 0 -0.022240914171609338 0.05898339715891527 0 -0.022196489842498432 0.058667227116135715 0 -0.022240180224080083 0.058814184731671389 0 -0.022240914171609338 0.05898339715891527 0 -0.022232909705270698 0.058952434906849364 0 -0.022240180224080083 0.058814184731671389 0 -0.024368575174284472 0.045209491379508214 0 -0.023999601820546414 0.046833070720417022 0 -0.022049696907951839 0.058743656702972102 0 -0.022232909705270698 0.058952434906849364 0 -0.022240180224080083 0.058814184731671389 0 -0.022223822975350322 0.059575935216033472 0 -0.022218024742909681 0.059175946938684325 0 -0.022360526694083348 0.05937011008046706 0 -0.022210324170614599 0.059362154222218376 0 -0.022223822975350322 0.059575935216033472 0 -0.022218024742909681 0.059175946938684325 0 -0.022210324170614599 0.059362154222218376 0 -0.022218024742909681 0.059175946938684325 0 -0.022203860805600956 0.058996941731655907 0 -0.022240914171609338 0.05898339715891527 0 -0.022239440220012167 0.059214359236868401 0 -0.022203860805600956 0.058996941731655907 0 -0.022210324170614599 0.059362154222218376 0 -0.022239440220012167 0.059214359236868401 0 -0.022203860805600956 0.058996941731655907 0 -0.022346294861951124 0.059284592504309543 0 -0.022240914171609338 0.05898339715891527 0 -0.022239440220012167 0.059214359236868401 0 -0.022240914171609338 0.05898339715891527 0 -0.022203860805600956 0.058996941731655907 0 -0.022196489842498432 0.058667227116135715 0 -0.022203860805600956 0.058996941731655907 0 -0.022217222253385033 0.058720749552743041 0 -0.022196489842498432 0.058667227116135715 0 -0.022218024742909681 0.059175946938684325 0 -0.022203860805600956 0.058996941731655907 0 -0.022217222253385033 0.058720749552743041 0 -0.022218024742909681 0.059175946938684325 0 -0.022217222253385033 0.058720749552743041 0 -0.02231177438701111 0.058687499565003735 0 -0.022217222253385033 0.058720749552743041 0 -0.02231177438701111 0.058687499565003735 0 -0.02228298148994412 0.058118532756816749 0 -0.02231177438701111 0.058687499565003735 0 -0.022415003106792116 0.058261012633052521 0 -0.02228298148994412 0.058118532756816749 0 -0.022605890562912581 0.058151212464656842 0 -0.022415003106792116 0.058261012633052521 0 -0.022532785198022133 0.05876456883909599 0 -0.022605890562912581 0.058151212464656842 0 -0.022415003106792116 0.058261012633052521 0 -0.02250653602525508 0.057742031353585452 0 -0.02231177438701111 0.058687499565003735 0 -0.022415003106792116 0.058261012633052521 0 -0.022532785198022133 0.05876456883909599 0 -0.022532785198022133 0.05876456883909599 0 -0.022660596165933744 0.059516958514025289 0 -0.023039685724457446 0.058920332103610654 0 -0.022532785198022133 0.05876456883909599 0 -0.022660596165933744 0.059516958514025289 0 -0.022360526694083348 0.05937011008046706 0 -0.022218024742909681 0.059175946938684325 0 -0.02231177438701111 0.058687499565003735 0 -0.022360526694083348 0.05937011008046706 0 -0.02231177438701111 0.058687499565003735 0 -0.022532785198022133 0.05876456883909599 0 -0.022360526694083348 0.05937011008046706 0 -0.022360526694083348 0.05937011008046706 0 -0.022595874777361854 0.060212673161207736 0 -0.022768077999514014 0.060157949538820595 0 -0.022360526694083348 0.05937011008046706 0 -0.022368022152575613 0.059822378114687227 0 -0.022595874777361854 0.060212673161207736 0 -0.022368022152575613 0.059822378114687227 0 -0.022595874777361854 0.060212673161207736 0 -0.022465560008296817 0.060262851260812468 0 -0.022768077999514014 0.060157949538820595 0 -0.02300412199946484 0.060934235364610873 0 -0.023115709216961839 0.060395659852077781 0 -0.022660596165933744 0.059516958514025289 0 -0.022768077999514014 0.060157949538820595 0 -0.023115709216961839 0.060395659852077781 0 -0.022660596165933744 0.059516958514025289 0 -0.022360526694083348 0.05937011008046706 0 -0.022768077999514014 0.060157949538820595 0 -0.022891170864395981 0.0610988265432117 0 -0.02300412199946484 0.060934235364610873 0 -0.022709238550010547 0.060721935256067706 0 -0.022595874777361854 0.060212673161207736 0 -0.022768077999514014 0.060157949538820595 0 -0.02300412199946484 0.060934235364610873 0 -0.022595874777361854 0.060212673161207736 0 -0.02300412199946484 0.060934235364610873 0 -0.022709238550010547 0.060721935256067706 0 -0.022709238550010547 0.060721935256067706 0 -0.022572532321049794 0.060716905550029884 0 -0.022465560008296817 0.060262851260812468 0 -0.022440023677322129 0.060502458634894785 0 -0.022572532321049794 0.060716905550029884 0 -0.022465560008296817 0.060262851260812468 0 -0.022433356330208511 0.060728464267801395 0 -0.022440023677322129 0.060502458634894785 0 -0.022572532321049794 0.060716905550029884 0 -0.022595874777361854 0.060212673161207736 0 -0.022709238550010547 0.060721935256067706 0 -0.022465560008296817 0.060262851260812468 0 -0.023266639998699386 0.06149975564331954 0 -0.02300412199946484 0.060934235364610873 0 -0.023509012870445198 0.061627975925808813 0 -0.02300412199946484 0.060934235364610873 0 -0.023509012870445198 0.061627975925808813 0 -0.023115709216961839 0.060395659852077781 0 -0.023509012870445198 0.061627975925808813 0 -0.023115709216961839 0.060395659852077781 0 -0.023623770107475624 0.060354285421272566 0 -0.024504847524093019 0.060127220825689699 0 -0.023509012870445198 0.061627975925808813 0 -0.023623770107475624 0.060354285421272566 0 -0.024179527572425932 0.059382132607939231 0 -0.023623770107475624 0.060354285421272566 0 -0.023235182137687629 0.05972194983372018 0 -0.022660596165933744 0.059516958514025289 0 -0.023115709216961839 0.060395659852077781 0 -0.023235182137687629 0.05972194983372018 0 -0.02268107162827902 0.059497674301980691 0 -0.023022846907676729 0.059403680289639056 0 -0.023115709216961839 0.060395659852077781 0 -0.023623770107475624 0.060354285421272566 0 -0.023235182137687629 0.05972194983372018 0 -0.023039685724457446 0.058920332103610654 0 -0.022815338543646764 0.057745428878413579 0 -0.02338940241924873 0.057928232832503528 0 -0.022605890562912581 0.058151212464656842 0 -0.022532785198022133 0.05876456883909599 0 -0.023039685724457446 0.058920332103610654 0 -0.022605890562912581 0.058151212464656842 0 -0.023039685724457446 0.058920332103610654 0 -0.022815338543646764 0.057745428878413579 0 -0.024988192086579274 0.058769871438462622 0 -0.023022846907676729 0.059403680289639056 0 -0.024546197367830702 0.058859534978644115 0 -0.023039685724457446 0.058920332103610654 0 -0.02338940241924873 0.057928232832503528 0 -0.024546197367830702 0.058859534978644115 0 -0.02338940241924873 0.057928232832503528 0 -0.02411321607759577 0.056795771452892711 0 -0.022815338543646764 0.057745428878413579 0 -0.02338940241924873 0.057928232832503528 0 -0.023077798753362178 0.057073276502965072 0 -0.02338940241924873 0.057928232832503528 0 -0.02411321607759577 0.056795771452892711 0 -0.023077798753362178 0.057073276502965072 0 -0.02411321607759577 0.056795771452892711 0 -0.023077798753362178 0.057073276502965072 0 -0.023382348848505721 0.056012216177816695 0 -0.023077798753362178 0.057073276502965072 0 -0.023382348848505721 0.056012216177816695 0 -0.022522256906584732 0.056742621194820035 0 -0.023382348848505721 0.056012216177816695 0 -0.022522256906584732 0.056742621194820035 0 -0.022975421969795334 0.055418810900690292 0 -0.02411321607759577 0.056795771452892711 0 -0.023382348848505721 0.056012216177816695 0 -0.024006550270967909 0.054979014900426192 0 -0.022585530706463377 0.057482538605331243 0 -0.022558906406556223 0.057385250773982495 0 -0.02250653602525508 0.057742031353585452 0 -0.022605890562912581 0.058151212464656842 0 -0.022815338543646764 0.057745428878413579 0 -0.022585530706463377 0.057482538605331243 0 -0.022815338543646764 0.057745428878413579 0 -0.023077798753362178 0.057073276502965072 0 -0.022522256906584732 0.056742621194820035 0 -0.022815338543646764 0.057745428878413579 0 -0.022585530706463377 0.057482538605331243 0 -0.022522256906584732 0.056742621194820035 0 -0.022522256906584732 0.056742621194820035 0 -0.022564290395355138 0.057093889980681822 0 -0.022575831230923105 0.057303249097151766 0 -0.02527322073929052 0.054582556491434134 0 -0.026036573353368821 0.045240503455905377 0 -0.022585530706463377 0.057482538605331243 0 -0.022522256906584732 0.056742621194820035 0 -0.022564290395355138 0.057093889980681822 0 -0.022564290395355138 0.057093889980681822 0 -0.022604044080399465 0.057241084347406206 0 -0.022575831230923105 0.057303249097151766 0 -0.022564290395355138 0.057093889980681822 0 -0.022579513961131652 0.057243626816164447 0 -0.022604044080399465 0.057241084347406206 0 -0.022579513961131652 0.057243626816164447 0 -0.022558906406556223 0.057385250773982495 0 -0.022604044080399465 0.057241084347406206 0 -0.022585530706463377 0.057482538605331243 0 -0.022564290395355138 0.057093889980681822 0 -0.022558906406556223 0.057385250773982495 0 -0.022564290395355138 0.057093889980681822 0 -0.022579513961131652 0.057243626816164447 0 -0.022558906406556223 0.057385250773982495 0 -0.022449453889458484 0.045278891325540326 0 -0.020038238933451701 0.053621534088881921 0 -0.021504429643379501 0.054955050522788353 0 -0.022186291595852944 0.055519961262729449 0 -0.023328409885554853 0.054560690389894535 0 -0.012882027511428373 0.052904253707046107 0 -0.013344944764429989 0.05171309378461577 0 -0.018547487163416955 0.052753279218253256 0 -0.022449453889458484 0.045278891325540326 0 -0.029988955293949356 0.038463485596111291 0 -0.026036573353368821 0.045240503455905377 0 -0.029988955293949356 0.038463485596111291 0 -0.02650353223354561 0.041302903471885359 0 -0.026394199758103528 0.041567698363379986 0 -0.026765362584355603 0.04152605948774115 0 -0.033341776049033787 0.032701368397295191 0 -0.033372065284333743 0.032614810228248435 0 -0.033249764590106895 0.032478142919713682 0 -0.028854546493894937 0.044207632630255046 0 -0.026036573353368821 0.045240503455905377 0 -0.026036573353368821 0.045240503455905377 0 -0.022449453889458484 0.045278891325540326 0 -0.021203573453620544 0.055446545800965169 0 -0.021504429643379501 0.054955050522788353 0 -0.022186291595852944 0.055519961262729449 0 -0.022522256906584732 0.056742621194820035 0 -0.021203573453620544 0.055446545800965169 0 -0.022186291595852944 0.055519961262729449 0 -0.022522256906584732 0.056742621194820035 0 -0.022186291595852944 0.055519961262729449 0 -0.022975421969795334 0.055418810900690292 0 -0.023641142307890238 0.040012263509802776 0 -0.030380768486514376 0.039903208992094326 0 -0.027781922715504583 0.037548624611715924 0 -0.021984351813728993 0.042373892417691621 0 -0.03269211292482934 0.033614244706151229 0 -0.022449453889458484 0.045278891325540326 0 -0.021984351813728993 0.042373892417691621 0 -0.024495352628978499 0.03784687431642355 0 -0.023641142307890238 0.040012263509802776 0 -0.027781922715504583 0.037548624611715924 0 -0.012822150093755496 0.052009436614549716 0 -0.020727116191566846 0.049315710875679132 0 -0.022630353450522764 0.052200363320508252 0 -0.024006550270967909 0.054979014900426192 0 -0.023328409885554853 0.054560690389894535 0 -0.024429280391056539 0.052725942662522278 0 -0.013344944764429989 0.05171309378461577 0 -0.018547487163416955 0.052753279218253256 0 -0.022630353450522764 0.052200363320508252 0 -0.020038238933451701 0.053621534088881921 0 -0.024562223639498986 0.052923780361432991 0 -0.021984351813728993 0.042373892417691621 0 -0.018315519553002289 0.054618688356859908 0 -0.023382348848505721 0.056012216177816695 0 -0.024006550270967909 0.054979014900426192 0 -0.023328409885554853 0.054560690389894535 0 -0.022186291595852944 0.055519961262729449 0 -0.022975421969795334 0.055418810900690292 0 -0.023328409885554853 0.054560690389894535 0 -0.023382348848505721 0.056012216177816695 0 -0.022975421969795334 0.055418810900690292 0 -0.023328409885554853 0.054560690389894535 0 -0.012822150093755496 0.052009436614549716 0 -0.020727116191566846 0.049315710875679132 0 -0.018238953265386312 0.047279905960642382 0 -0.020727116191566846 0.049315710875679132 0 -0.018238953265386312 0.047279905960642382 0 -0.022350486710079869 0.045145645619465644 0 -0.033588287617873455 0.027907472582805917 0 -0.034303828081369378 0.025981536805353991 0 -0.033056137718748158 0.02686333156620652 0 -0.012822150093755496 0.052009436614549716 0 -0.018238953265386312 0.047279905960642382 0 -0.016537066779434655 0.042662640295045309 0 -0.021984351813728993 0.042373892417691621 0 -0.025666961715509733 0.033771384279677082 0 -0.034303828081369378 0.025981536805353991 0 -0.032890767462948806 0.026059892157301749 0 -0.033056137718748158 0.02686333156620652 0 -0.034303828081369378 0.025981536805353991 0 -0.032890767462948806 0.026059892157301749 0 -0.033376421787977992 0.024790318064902377 0 -0.016537066779434655 0.042662640295045309 0 -0.022350486710079869 0.045145645619465644 0 -0.02215019589863931 0.039659754515995342 0 -0.018238953265386312 0.047279905960642382 0 -0.016537066779434655 0.042662640295045309 0 -0.022350486710079869 0.045145645619465644 0 -0.032890767462948806 0.026059892157301749 0 -0.03168495686123135 0.026508318086035342 0 -0.032046594361772263 0.025050656080434702 0 -0.033056137718748158 0.02686333156620652 0 -0.03168495686123135 0.026508318086035342 0 -0.032879254419613778 0.027862470582012036 0 -0.032890767462948806 0.026059892157301749 0 -0.033056137718748158 0.02686333156620652 0 -0.03168495686123135 0.026508318086035342 0 -0.033588287617873455 0.027907472582805917 0 -0.033056137718748158 0.02686333156620652 0 -0.032879254419613778 0.027862470582012036 0 -0.033492505929381737 0.028257704631708309 0 -0.033826623080570307 0.030982231304773476 0 -0.032524599311051623 0.02976335588497496 0 -0.032720225013878411 0.026697495439197149 0 -0.03269211292482934 0.033614244706151229 0 -0.033492505929381737 0.028257704631708309 0 -0.033826623080570307 0.030982231304773476 0 -0.036339448903615838 0.03097134378489259 0 -0.033238413883504049 0.031774246368175572 0 -0.032972343712418008 0.031278396565066931 0 -0.034362015846644799 0.031408091224787944 0 -0.033238413883504049 0.031774246368175572 0 -0.032972343712418008 0.031278396565066931 0 -0.031306440325391059 0.031980394617485142 0 -0.03373654583730102 0.031715505787290925 0 -0.031106013480883359 0.032085591061905533 0 -0.032650459247345769 0.032360380074460043 0 -0.032482737161241587 0.032814698261514182 0 -0.031306440325391059 0.031980394617485142 0 -0.03373654583730102 0.031715505787290925 0 -0.029988955293949356 0.038463485596111291 0 -0.033341776049033787 0.032701368397295191 0 -0.032650459247345769 0.032360380074460043 0 -0.032482737161241587 0.032814698261514182 0 -0.033834106187601513 0.031070946378185447 0 -0.03269211292482934 0.033614244706151229 0 -0.033341776049033787 0.032701368397295191 0 -0.032650459247345769 0.032360380074460043 0 -0.033249764590106895 0.032478142919713682 0 -0.033238413883504049 0.031774246368175572 0 -0.034362015846644799 0.031408091224787944 0 -0.03467450113871938 0.031722230695553855 0 -0.03269211292482934 0.033614244706151229 0 -0.029988955293949356 0.038463485596111291 0 -0.022604044080399465 0.057241084347406206 0 -0.02250653602525508 0.057742031353585452 0 -0.02228298148994412 0.058118532756816749 0 -0.022415003106792116 0.058261012633052521 0 -0.02250653602525508 0.057742031353585452 0 -0.02228298148994412 0.058118532756816749 0 -0.028854546493894937 0.044207632630255046 0 -0.027175260499816983 0.045585988197954709 0 -0.022558906406556223 0.057385250773982495 0 -0.022604044080399465 0.057241084347406206 0 -0.02250653602525508 0.057742031353585452 0 -0.022605890562912581 0.058151212464656842 0 -0.022585530706463377 0.057482538605331243 0 -0.02250653602525508 0.057742031353585452 0 -0.022217222253385033 0.058720749552743041 0 -0.02228298148994412 0.058118532756816749 0 -0.022196489842498432 0.058667227116135715 0 -0.032482737161241587 0.032814698261514182 0 -0.030126402366912386 0.033483755993510743 0 -0.031306440325391059 0.031980394617485142 0 -0.027175260499816983 0.045585988197954709 0 -0.026302390539344727 0.046001980860127224 0 -0.030126402366912386 0.033483755993510743 0 -0.030458554295197001 0.031722907686703571 0 -0.031306440325391059 0.031980394617485142 0 -0.030126402366912386 0.033483755993510743 0 -0.029620096637064788 0.031747250470531993 0 -0.028276433341922768 0.032248190974469265 0 -0.030126402366912386 0.033483755993510743 0 -0.030458554295197001 0.031722907686703571 0 -0.029620096637064788 0.031747250470531993 0 -0.029620096637064788 0.031747250470531993 0 -0.028903477855203082 0.030929624670512943 0 -0.028276433341922768 0.032248190974469265 0 -0.029620096637064788 0.031747250470531993 0 -0.028903477855203082 0.030929624670512943 0 -0.029822402589697032 0.030187811715548515 0 -0.030458554295197001 0.031722907686703571 0 -0.031178885371805274 0.03107820257528365 0 -0.029822402589697032 0.030187811715548515 0 -0.030458554295197001 0.031722907686703571 0 -0.029620096637064788 0.031747250470531993 0 -0.029822402589697032 0.030187811715548515 0 -0.033826623080570307 0.030982231304773476 0 -0.031178885371805274 0.03107820257528365 0 -0.032524599311051623 0.02976335588497496 0 -0.033834106187601513 0.031070946378185447 0 -0.031217042369214403 0.031103641843219745 0 -0.032972343712418008 0.031278396565066931 0 -0.031178885371805274 0.03107820257528365 0 -0.031306440325391059 0.031980394617485142 0 -0.030458554295197001 0.031722907686703571 0 -0.031178885371805274 0.03107820257528365 0 -0.031306440325391059 0.031980394617485142 0 -0.026669539861598739 0.034353670056350309 0 -0.024685221707804839 0.03349208362609854 0 -0.026294031121765069 0.032062880830132909 0 -0.023068759176192517 0.035121004267558736 0 -0.026669539861598739 0.034353670056350309 0 -0.024685221707804839 0.03349208362609854 0 -0.026669539861598739 0.034353670056350309 0 -0.028276433341922768 0.032248190974469265 0 -0.026294031121765069 0.032062880830132909 0 -0.030126402366912386 0.033483755993510743 0 -0.026669539861598739 0.034353670056350309 0 -0.028276433341922768 0.032248190974469265 0 -0.026302390539344727 0.046001980860127224 0 -0.023999601820546414 0.046833070720417022 0 -0.028903477855203082 0.030929624670512943 0 -0.028276433341922768 0.032248190974469265 0 -0.027894043741142568 0.030943387264069318 0 -0.028903477855203082 0.030929624670512943 0 -0.027894043741142568 0.030943387264069318 0 -0.027976572199658011 0.029332458509639243 0 -0.027894043741142568 0.030943387264069318 0 -0.026733884594514243 0.030848786465457217 0 -0.027976572199658011 0.029332458509639243 0 -0.028276433341922768 0.032248190974469265 0 -0.027894043741142568 0.030943387264069318 0 -0.026294031121765069 0.032062880830132909 0 -0.027894043741142568 0.030943387264069318 0 -0.026294031121765069 0.032062880830132909 0 -0.026733884594514243 0.030848786465457217 0 -0.026733884594514243 0.030848786465457217 0 -0.026319384709721828 0.029595947298835242 0 -0.024457498671016983 0.031101404736776569 0 -0.026294031121765069 0.032062880830132909 0 -0.026733884594514243 0.030848786465457217 0 -0.024457498671016983 0.031101404736776569 0 -0.024685221707804839 0.03349208362609854 0 -0.026294031121765069 0.032062880830132909 0 -0.024457498671016983 0.031101404736776569 0 -0.026319384709721828 0.029595947298835242 0 -0.026126832683293473 0.027467579694538065 0 -0.024457498671016983 0.031101404736776569 0 -0.03021580576079089 0.023253420595348004 0 -0.029881881165749843 0.024967399999529211 0 -0.029673554089215889 0.023709122128420516 0 -0.026319384709721828 0.029595947298835242 0 -0.027976572199658011 0.029332458509639243 0 -0.026126832683293473 0.027467579694538065 0 -0.028097652317980563 0.025677472722457108 0 -0.02735841646798641 0.026843151518739877 0 -0.027976572199658011 0.029332458509639243 0 -0.028432208032613017 0.026793100117669014 0 -0.029518206827119958 0.028123164236063161 0 -0.026733884594514243 0.030848786465457217 0 -0.026319384709721828 0.029595947298835242 0 -0.027976572199658011 0.029332458509639243 0 -0.027976572199658011 0.029332458509639243 0 -0.028432208032613017 0.026793100117669014 0 -0.026126832683293473 0.027467579694538065 0 -0.028432208032613017 0.026793100117669014 0 -0.026126832683293473 0.027467579694538065 0 -0.028164293823395734 0.024287484307818574 0 -0.03021580576079089 0.023253420595348004 0 -0.029900525960229869 0.022722888220449076 0 -0.029636787086074121 0.022984602700208877 0 -0.033492505929381737 0.028257704631708309 0 -0.031163449212642486 0.028809050795645757 0 -0.032524599311051623 0.02976335588497496 0 -0.031178885371805274 0.03107820257528365 0 -0.031163449212642486 0.028809050795645757 0 -0.032524599311051623 0.02976335588497496 0 -0.031178885371805274 0.03107820257528365 0 -0.031163449212642486 0.028809050795645757 0 -0.029822402589697032 0.030187811715548515 0 -0.028903477855203082 0.030929624670512943 0 -0.027976572199658011 0.029332458509639243 0 -0.029822402589697032 0.030187811715548515 0 -0.027976572199658011 0.029332458509639243 0 -0.029822402589697032 0.030187811715548515 0 -0.029518206827119958 0.028123164236063161 0 -0.031163449212642486 0.028809050795645757 0 -0.029822402589697032 0.030187811715548515 0 -0.029518206827119958 0.028123164236063161 0 -0.028432208032613017 0.026793100117669014 0 -0.029518206827119958 0.028123164236063161 0 -0.030505725437132817 0.025509442110647668 0 -0.031163449212642486 0.028809050795645757 0 -0.029518206827119958 0.028123164236063161 0 -0.030505725437132817 0.025509442110647668 0 -0.033492505929381737 0.028257704631708309 0 -0.031163449212642486 0.028809050795645757 0 -0.030505725437132817 0.025509442110647668 0 -0.032720225013878411 0.026697495439197149 0 -0.030606099950962976 0.025811116751712875 0 -0.03168495686123135 0.026508318086035342 0 -0.030505725437132817 0.025509442110647668 0 -0.032046594361772263 0.025050656080434702 0 -0.030505725437132817 0.025509442110647668 0 -0.031230184825202803 0.023300514999266182 0 -0.032046594361772263 0.025050656080434702 0 -0.030505725437132817 0.025509442110647668 0 -0.031230184825202803 0.023300514999266182 0 -0.028164293823395734 0.024287484307818574 0 -0.031230184825202803 0.023300514999266182 0 -0.028164293823395734 0.024287484307818574 0 -0.029896324841435225 0.022074280939996596 0 -0.028432208032613017 0.026793100117669014 0 -0.030505725437132817 0.025509442110647668 0 -0.028164293823395734 0.024287484307818574 0 -0.03021580576079089 0.023253420595348004 0 -0.029900525960229869 0.022722888220449076 0 -0.030103402181615425 0.022384189612200071 0 -0.028097652317980563 0.025677472722457108 0 -0.029145423598186983 0.023322257642036458 0 -0.029900525960229869 0.022722888220449076 0 -0.030103402181615425 0.022384189612200071 0 -0.029633768864717067 0.022349769001192666 0 -0.030103402181615425 0.022384189612200071 0 -0.029799303980546945 0.022028183094087821 0 -0.029896324841435225 0.022074280939996596 0 -0.029145423598186983 0.023322257642036458 0 -0.029813643670186404 0.022184440749101645 0 -0.030103402181615425 0.022384189612200071 0 -0.029799303980546945 0.022028183094087821 0 -0.029633768864717067 0.022349769001192666 0 -0.029799303980546945 0.022028183094087821 0 -0.029636588252082943 0.021476454642451563 0 -0.029209888968596057 0.021545892698164544 0 -0.029799303980546945 0.022028183094087821 0 -0.029636588252082943 0.021476454642451563 0 -0.029896324841435225 0.022074280939996596 0 -0.029636588252082943 0.021476454642451563 0 -0.029896324841435225 0.022074280939996596 0 -0.029907147650541151 0.020750128264879944 0 -0.031230184825202803 0.023300514999266182 0 -0.029896324841435225 0.022074280939996596 0 -0.031498005687255068 0.021640418668918339 0 -0.029896324841435225 0.022074280939996596 0 -0.030782727613167683 0.020689064644083831 0 -0.029907147650541151 0.020750128264879944 0 -0.029896324841435225 0.022074280939996596 0 -0.031498005687255068 0.021640418668918339 0 -0.030782727613167683 0.020689064644083831 0 -0.031498005687255068 0.021640418668918339 0 -0.032347685779112123 0.022431267443695543 0 -0.032818919839360881 0.02107284141227168 0 -0.031230184825202803 0.023300514999266182 0 -0.031498005687255068 0.021640418668918339 0 -0.032347685779112123 0.022431267443695543 0 -0.031230184825202803 0.023300514999266182 0 -0.032347685779112123 0.022431267443695543 0 -0.032493385142809646 0.023686510806542053 0 -0.032347685779112123 0.022431267443695543 0 -0.033641415477063619 0.022725246863314098 0 -0.032493385142809646 0.023686510806542053 0 -0.032347685779112123 0.022431267443695543 0 -0.033641415477063619 0.022725246863314098 0 -0.032818919839360881 0.02107284141227168 0 -0.033641415477063619 0.022725246863314098 0 -0.034875496795616516 0.024034617411155541 0 -0.035307840427510215 0.022189934100765835 0 -0.033641415477063619 0.022725246863314098 0 -0.03427139421106612 0.021031840003404551 0 -0.035307840427510215 0.022189934100765835 0 -0.033641415477063619 0.022725246863314098 0 -0.03427139421106612 0.021031840003404551 0 -0.032818919839360881 0.02107284141227168 0 -0.033641415477063619 0.022725246863314098 0 -0.034875496795616516 0.024034617411155541 0 -0.033376421787977992 0.024790318064902377 0 -0.016537066779434655 0.042662640295045309 0 -0.019736511254201398 0.033980968155201748 0 -0.02215019589863931 0.039659754515995342 0 -0.034303828081369378 0.025981536805353991 0 -0.034875496795616516 0.024034617411155541 0 -0.033376421787977992 0.024790318064902377 0 -0.025666961715509733 0.033771384279677082 0 -0.027234631868939617 0.029080968943841535 0 -0.033376421787977992 0.024790318064902377 0 -0.032046594361772263 0.025050656080434702 0 -0.032493385142809646 0.023686510806542053 0 -0.032890767462948806 0.026059892157301749 0 -0.033376421787977992 0.024790318064902377 0 -0.032046594361772263 0.025050656080434702 0 -0.031230184825202803 0.023300514999266182 0 -0.032046594361772263 0.025050656080434702 0 -0.032493385142809646 0.023686510806542053 0 -0.033641415477063619 0.022725246863314098 0 -0.033376421787977992 0.024790318064902377 0 -0.032493385142809646 0.023686510806542053 0 -0.054999894540278281 0.02120886760189988 0 -0.056511038644595363 0.021959654608400405 0 -0.054999866045593329 0.023706916782544846 0 -0.054999894540278281 0.02120886760189988 0 -0.056511038644595363 0.021959654608400405 0 -0.057166315934807657 0.019394439869433101 0 -0.05775486015027561 0.021830293400861234 0 -0.056511038644595363 0.021959654608400405 0 -0.057166315934807657 0.019394439869433101 0 -0.057703467543192569 0.021654028116190775 0 -0.056853078369676874 0.019240450233599032 0 -0.05775486015027561 0.021830293400861234 0 -0.058285813465787394 0.020205140048531287 0 -0.056520926989621384 0.019034896935438948 0 -0.05775486015027561 0.021830293400861234 0 -0.056511038644595363 0.021959654608400405 0 -0.057236282320250451 0.022674594019905969 0 -0.056511038644595363 0.021959654608400405 0 -0.057236282320250451 0.022674594019905969 0 -0.056563814705811663 0.023152827551415782 0 -0.05775486015027561 0.021830293400861234 0 -0.057236282320250451 0.022674594019905969 0 -0.058171441647974872 0.022857162267190326 0 -0.057236282320250451 0.022674594019905969 0 -0.057254654297138947 0.02359574389427635 0 -0.058171441647974872 0.022857162267190326 0 -0.057236282320250451 0.022674594019905969 0 -0.057254654297138947 0.02359574389427635 0 -0.056563814705811663 0.023152827551415782 0 -0.057254654297138947 0.02359574389427635 0 -0.056563814705811663 0.023152827551415782 0 -0.056361553548513896 0.024276747994406395 0 -0.056563814705811663 0.023152827551415782 0 -0.054999866045593329 0.023706916782544846 0 -0.056361553548513896 0.024276747994406395 0 -0.056511038644595363 0.021959654608400405 0 -0.056563814705811663 0.023152827551415782 0 -0.054999866045593329 0.023706916782544846 0 -0.054999988901309319 0.023707730749556555 0 -0.056614021740382006 0.024659518062308008 0 -0.054999983962020993 0.026785850742747572 0 -0.055000292996276505 0.023707808157208566 0 -0.05660480747809455 0.02455830448357103 0 -0.056614021740382006 0.024659518062308008 0 -0.054999983962020993 0.026785850742747572 0 -0.056769759194620018 0.02668545057531892 0 -0.056380328674526622 0.028937067934274644 0 -0.054999983962020993 0.026785850742747572 0 -0.056769759194620018 0.02668545057531892 0 -0.057748470049318226 0.028021269891795986 0 -0.056769759194620018 0.02668545057531892 0 -0.05821713607769289 0.025601472548781139 0 -0.055125581347309785 0.02928761828509769 0 -0.056710152088059823 0.025705297904063205 0 -0.056614021740382006 0.024659518062308008 0 -0.056769759194620018 0.02668545057531892 0 -0.05821713607769289 0.025601472548781139 0 -0.057254654297138947 0.02359574389427635 0 -0.057758627799708646 0.025089299864692948 0 -0.058171441647974872 0.022857162267190326 0 -0.05660480747809455 0.02455830448357103 0 -0.056710152088059823 0.025705297904063205 0 -0.057254654297138947 0.02359574389427635 0 -0.056361553548513896 0.024276747994406395 0 -0.057758627799708646 0.025089299864692948 0 -0.056710152088059823 0.025705297904063205 0 -0.057138297095060075 0.022917624610303666 0 -0.056733175931134736 0.024229132616457424 0 -0.056654204139486582 0.025155913100053877 0 -0.057325900845899148 0.025545776052531954 0 -0.055659413070945837 0.02515613108597568 0 -0.056733175931134736 0.024229132616457424 0 -0.056015562885519739 0.023363857033241009 0 -0.055659413070945837 0.02515613108597568 0 -0.056733175931134736 0.024229132616457424 0 -0.056654204139486582 0.025155913100053877 0 -0.054959312171998211 0.02828573033072292 0 -0.055101650112091158 0.027555874013522136 0 -0.055597091976754207 0.0278542717742951 0 -0.056710152088059823 0.025705297904063205 0 -0.053920742058182973 0.028526944241168705 0 -0.055125581347309785 0.02928761828509769 0 -0.053920742058182973 0.028526944241168705 0 -0.055659413070945837 0.02515613108597568 0 -0.056654204139486582 0.025155913100053877 0 -0.056859818563113097 0.025854945288265731 0 -0.056654204139486582 0.025155913100053877 0 -0.056859818563113097 0.025854945288265731 0 -0.057325900845899148 0.025545776052531954 0 -0.058937259277097725 0.025365836387700579 0 -0.058454322955570133 0.024280587046446121 0 -0.059730996670844978 0.023501483269594066 0 -0.059180557599951049 0.025504326564785698 0 -0.058937259277097725 0.025365836387700579 0 -0.059730996670844978 0.023501483269594066 0 -0.046994223020354622 0.025227505722481704 0 -0.046901927199450182 0.025442306065264663 0 -0.047179916540981588 0.025598324017681213 0 -0.045891652905121115 0.028551941216570766 0 -0.049704539931231306 0.027918007328297648 0 -0.04491704430992606 0.024818571945558351 0 -0.049704539931231306 0.027918007328297648 0 -0.0513240545968821 0.031432149831921788 0 -0.051311558303383083 0.031992493294346599 0 -0.050831028494843465 0.031728588077415083 0 -0.049704539931231306 0.027918007328297648 0 -0.056673244302565949 0.025450086565292313 0 -0.053920742058182973 0.028526944241168705 0 -0.049704539931231306 0.027918007328297648 0 -0.054257068086555393 0.027933258711807213 0 -0.052378904031962728 0.026860195199709686 0 -0.053219216481617281 0.028615873377408577 0 -0.053920742058182973 0.028526944241168705 0 -0.056673244302565949 0.025450086565292313 0 -0.056673244302565949 0.025450086565292313 0 -0.060028076552380773 0.023280729624246151 0 -0.058468573244999877 0.02272528164928548 0 -0.058999326783007608 0.02396501335146849 0 -0.059127513090987141 0.023170493115448478 0 -0.059730996670844978 0.023501483269594066 0 -0.059127513090987141 0.023170493115448478 0 -0.059620988311912038 0.022977708787232303 0 -0.058999326783007608 0.02396501335146849 0 -0.059730996670844978 0.023501483269594066 0 -0.059127513090987141 0.023170493115448478 0 -0.057628387999698265 0.023452750086673926 0 -0.056673244302565949 0.025450086565292313 0 -0.058468573244999877 0.02272528164928548 0 -0.059127513090987141 0.023170493115448478 0 -0.059556232811067741 0.022302956754091482 0 -0.059620988311912038 0.022977708787232303 0 -0.059556232811067741 0.022302956754091482 0 -0.060271827985622604 0.023208552477850204 0 -0.059127513090987141 0.023170493115448478 0 -0.059620988311912038 0.022977708787232303 0 -0.059556232811067741 0.022302956754091482 0 -0.059556232811067741 0.022302956754091482 0 -0.058880093428198776 0.021679497048152415 0 -0.059731443976646065 0.021043281260403918 0 -0.058468573244999877 0.02272528164928548 0 -0.059556232811067741 0.022302956754091482 0 -0.058880093428198776 0.021679497048152415 0 -0.056733175931134736 0.024229132616457424 0 -0.056015562885519739 0.023363857033241009 0 -0.056111193859280227 0.022896919157814964 0 -0.057628387999698265 0.023452750086673926 0 -0.05733814527914019 0.022093829174343577 0 -0.058468573244999877 0.02272528164928548 0 -0.058880093428198776 0.021679497048152415 0 -0.057940105410024534 0.021413632797908758 0 -0.05775486015027561 0.021830293400861234 0 -0.058171441647974872 0.022857162267190326 0 -0.058263769214513483 0.022210593986299255 0 -0.057138297095060075 0.022917624610303666 0 -0.05733814527914019 0.022093829174343577 0 -0.05733814527914019 0.022093829174343577 0 -0.058307229055376122 0.020298418012888599 0 -0.05775486015027561 0.021830293400861234 0 -0.058263769214513483 0.022210593986299255 0 -0.058285813465787394 0.020205140048531287 0 -0.058880093428198776 0.021679497048152415 0 -0.057940105410024534 0.021413632797908758 0 -0.058887181723351882 0.020764796788570489 0 -0.057940105410024534 0.021413632797908758 0 -0.058887181723351882 0.020764796788570489 0 -0.058285813465787394 0.020205140048531287 0 -0.058887181723351882 0.020764796788570489 0 -0.059513629325013404 0.019653421029862169 0 -0.058285813465787394 0.020205140048531287 0 -0.059731443976646065 0.021043281260403918 0 -0.058887181723351882 0.020764796788570489 0 -0.059513629325013404 0.019653421029862169 0 -0.059731443976646065 0.021043281260403918 0 -0.060616236162326732 0.020126554698883942 0 -0.059513629325013404 0.019653421029862169 0 -0.058880093428198776 0.021679497048152415 0 -0.059731443976646065 0.021043281260403918 0 -0.058887181723351882 0.020764796788570489 0 -0.059731443976646065 0.021043281260403918 0 -0.060616236162326732 0.020126554698883942 0 -0.061075592834090635 0.021541685422631046 0 -0.060616236162326732 0.020126554698883942 0 -0.061075592834090635 0.021541685422631046 0 -0.061878406131543585 0.019791071403900705 0 -0.032614087558618658 0.023939784017009202 0 -0.031153367585415648 0.024473071036138608 0 -0.032045773330745833 0.025341646328260855 0 -0.046943603955241692 0.023049147303302178 0 -0.045114789851296598 0.020903379554146354 0 -0.029322817085502963 0.02281402307779324 0 -0.045114789851296598 0.020903379554146354 0 -0.031956476681576064 0.02338625088315531 0 -0.032614087558618658 0.023939784017009202 0 -0.031153367585415648 0.024473071036138608 0 -0.059556232811067741 0.022302956754091482 0 -0.059731443976646065 0.021043281260403918 0 -0.061075592834090635 0.021541685422631046 0 -0.031956476681576064 0.02338625088315531 0 -0.032614087558618658 0.023939784017009202 0 -0.033199053995850214 0.022709356712483985 0 -0.046943603955241692 0.023049147303302178 0 -0.046970885186079059 0.02259753869551415 0 -0.059556232811067741 0.022302956754091482 0 -0.061075592834090635 0.021541685422631046 0 -0.060271827985622604 0.023208552477850204 0 -0.059730996670844978 0.023501483269594066 0 -0.059620988311912038 0.022977708787232303 0 -0.060271827985622604 0.023208552477850204 0 -0.059180557599951049 0.025504326564785698 0 -0.059730996670844978 0.023501483269594066 0 -0.060271827985622604 0.023208552477850204 0 -0.04491704430992606 0.024818571945558351 0 -0.046970885186079059 0.02259753869551415 0 -0.033857937320318193 0.021503040967060891 0 -0.033199053995850214 0.022709356712483985 0 -0.032367065687018595 0.021901238142306465 0 -0.032367065687018595 0.021901238142306465 0 -0.031450279081825995 0.022145430673224283 0 -0.031494176089885466 0.021546910969847687 0 -0.032367065687018595 0.021901238142306465 0 -0.031766176943404167 0.022696687140974083 0 -0.031450279081825995 0.022145430673224283 0 -0.033199053995850214 0.022709356712483985 0 -0.032367065687018595 0.021901238142306465 0 -0.031766176943404167 0.022696687140974083 0 -0.031956476681576064 0.02338625088315531 0 -0.033199053995850214 0.022709356712483985 0 -0.031766176943404167 0.022696687140974083 0 -0.031956476681576064 0.02338625088315531 0 -0.031766176943404167 0.022696687140974083 0 -0.030939809849479562 0.023236626310789574 0 -0.030890279113261324 0.022668426536232827 0 -0.030750800292377974 0.021927928071730982 0 -0.030268839589896481 0.023287144497867299 0 -0.031766176943404167 0.022696687140974083 0 -0.030890279113261324 0.022668426536232827 0 -0.030939809849479562 0.023236626310789574 0 -0.030890279113261324 0.022668426536232827 0 -0.030268839589896481 0.023287144497867299 0 -0.030939809849479562 0.023236626310789574 0 -0.031766176943404167 0.022696687140974083 0 -0.030890279113261324 0.022668426536232827 0 -0.031450279081825995 0.022145430673224283 0 -0.030890279113261324 0.022668426536232827 0 -0.031450279081825995 0.022145430673224283 0 -0.031042919735354616 0.022171378335013536 0 -0.030750800292377974 0.021927928071730982 0 -0.03062437199975632 0.021647563584608103 0 -0.030268839589896481 0.023287144497867299 0 -0.031450279081825995 0.022145430673224283 0 -0.031099433526532064 0.02193312004370717 0 -0.031042919735354616 0.022171378335013536 0 -0.030890279113261324 0.022668426536232827 0 -0.031042919735354616 0.022171378335013536 0 -0.030750800292377974 0.021927928071730982 0 -0.031099433526532064 0.02193312004370717 0 -0.031042919735354616 0.022171378335013536 0 -0.030750800292377974 0.021927928071730982 0 -0.031099433526532064 0.02193312004370717 0 -0.030750800292377974 0.021927928071730982 0 -0.030980306790827607 0.021657593391875084 0 -0.030703769662119223 0.021138944311413128 0 -0.030634704015983054 0.02169472769640042 0 -0.030980306790827607 0.021657593391875084 0 -0.030750800292377974 0.021927928071730982 0 -0.030634704015983054 0.02169472769640042 0 -0.030980306790827607 0.021657593391875084 0 -0.028561428423680355 0.023894528954151784 0 -0.028474029341120956 0.025631264867091098 0 -0.031099433526532064 0.02193312004370717 0 -0.030980306790827607 0.021657593391875084 0 -0.031494176089885466 0.021546910969847687 0 -0.031450279081825995 0.022145430673224283 0 -0.031099433526532064 0.02193312004370717 0 -0.031494176089885466 0.021546910969847687 0 -0.025748641548867357 0.036678436288519863 0 -0.02735841646798641 0.026843151518739877 0 -0.022923005274760259 0.034824074943448649 0 -0.024685221707804839 0.03349208362609854 0 -0.024457498671016983 0.031101404736776569 0 -0.028892004335578234 0.027460506556394058 0 -0.0285874986546301 0.026816271469399428 0 -0.029881881165749843 0.024967399999529211 0 -0.025748641548867357 0.036678436288519863 0 -0.028474029341120956 0.025631264867091098 0 -0.028474029341120956 0.025631264867091098 0 -0.029804912443345398 0.023522731854321785 0 -0.0285874986546301 0.026816271469399428 0 -0.029881881165749843 0.024967399999529211 0 -0.029038448092978925 0.024428790875607908 0 -0.030268839589896481 0.023287144497867299 0 -0.030106721072343703 0.023293171307819042 0 -0.029636787086074121 0.022984602700208877 0 -0.029881881165749843 0.024967399999529211 0 -0.029038448092978925 0.024428790875607908 0 -0.029673554089215889 0.023709122128420516 0 -0.029804912443345398 0.023522731854321785 0 -0.02959819494592902 0.023244091928636253 0 -0.029038448092978925 0.024428790875607908 0 -0.029673554089215889 0.023709122128420516 0 -0.029636787086074121 0.022984602700208877 0 -0.030106721072343703 0.023293171307819042 0 -0.030939809849479562 0.023236626310789574 0 -0.031153367585415648 0.024473071036138608 0 -0.030268839589896481 0.023287144497867299 0 -0.030106721072343703 0.023293171307819042 0 -0.030939809849479562 0.023236626310789574 0 -0.031956476681576064 0.02338625088315531 0 -0.030939809849479562 0.023236626310789574 0 -0.031153367585415648 0.024473071036138608 0 -0.030386177465177491 0.023684739019881922 0 -0.029322817085502963 0.02281402307779324 0 -0.029437469238545278 0.023024381936287818 0 -0.029636787086074121 0.022984602700208877 0 -0.029410769029103313 0.022651494031938151 0 -0.030106721072343703 0.023293171307819042 0 -0.029437469238545278 0.023024381936287818 0 -0.029636787086074121 0.022984602700208877 0 -0.03021580576079089 0.023253420595348004 0 -0.029673554089215889 0.023709122128420516 0 -0.029636787086074121 0.022984602700208877 0 -0.029900525960229869 0.022722888220449076 0 -0.029636787086074121 0.022984602700208877 0 -0.029633768864717067 0.022349769001192666 0 -0.029636787086074121 0.022984602700208877 0 -0.029410769029103313 0.022651494031938151 0 -0.029633768864717067 0.022349769001192666 0 -0.029437469238545278 0.023024381936287818 0 -0.029410769029103313 0.022651494031938151 0 -0.029153934597797256 0.022708033038944146 0 -0.029410769029103313 0.022651494031938151 0 -0.029221254683062945 0.022127196242768175 0 -0.029153934597797256 0.022708033038944146 0 -0.029410769029103313 0.022651494031938151 0 -0.029221254683062945 0.022127196242768175 0 -0.029633768864717067 0.022349769001192666 0 -0.029799303980546945 0.022028183094087821 0 -0.029633768864717067 0.022349769001192666 0 -0.029209888968596057 0.021545892698164544 0 -0.043131573481281563 0.016057358208611591 0 -0.043195341989125453 0.014801387739793186 0 -0.029636588252082943 0.021476454642451563 0 -0.029209888968596057 0.021545892698164544 0 -0.029167800404331909 0.020719017956675967 0 -0.057053080016690488 0.010511094218181829 0 -0.055215154658689779 0.011032178775497139 0 -0.056705712765560058 0.0091725579421077213 0 -0.04235200835781331 0.01720182460048441 0 -0.043131573481281563 0.016057358208611591 0 -0.029221254683062945 0.022127196242768175 0 -0.029633768864717067 0.022349769001192666 0 -0.029209888968596057 0.021545892698164544 0 -0.056068516392288756 0.012872865673714831 0 -0.057053080016690488 0.010511094218181829 0 -0.055215154658689779 0.011032178775497139 0 -0.056068516392288756 0.012872865673714831 0 -0.055215154658689779 0.011032178775497139 0 -0.053607390648334217 0.013121992010167713 0 -0.055215154658689779 0.011032178775497139 0 -0.054560560624610226 0.0093663561675221777 0 -0.056705712765560058 0.0091725579421077213 0 -0.055215154658689779 0.011032178775497139 0 -0.05361998456141441 0.010760154427678113 0 -0.054560560624610226 0.0093663561675221777 0 -0.05361998456141441 0.010760154427678113 0 -0.052662250166397043 0.0095629192295903255 0 -0.054560560624610226 0.0093663561675221777 0 -0.05361998456141441 0.010760154427678113 0 -0.053607390648334217 0.013121992010167713 0 -0.052227602869026564 0.011256641105696547 0 -0.055215154658689779 0.011032178775497139 0 -0.05361998456141441 0.010760154427678113 0 -0.053607390648334217 0.013121992010167713 0 -0.056068516392288756 0.012872865673714831 0 -0.053607390648334217 0.013121992010167713 0 -0.055089778733366096 0.015062985479115297 0 -0.04235200835781331 0.01720182460048441 0 -0.045114789851296598 0.020903379554146354 0 -0.059218735264238556 0.01564950706491209 0 -0.045114789851296598 0.020903379554146354 0 -0.060616236162326732 0.020126554698883942 0 -0.060715268313755281 0.018039742131940862 0 -0.059513629325013404 0.019653421029862169 0 -0.060616236162326732 0.020126554698883942 0 -0.060715268313755281 0.018039742131940862 0 -0.061878406131543585 0.019791071403900705 0 -0.059513629325013404 0.019653421029862169 0 -0.058285813465787394 0.020205140048531287 0 -0.058404819986882399 0.017963076191805257 0 -0.058285813465787394 0.020205140048531287 0 -0.058404819986882399 0.017963076191805257 0 -0.056520926989621384 0.019034896935438948 0 -0.060715268313755281 0.018039742131940862 0 -0.059513629325013404 0.019653421029862169 0 -0.058404819986882399 0.017963076191805257 0 -0.060715268313755281 0.018039742131940862 0 -0.058404819986882399 0.017963076191805257 0 -0.059357474258911601 0.01602646601480329 0 -0.059218735264238556 0.01564950706491209 0 -0.055218017738106868 0.013490513198247438 0 -0.052227602869026564 0.011256641105696547 0 -0.050939694137295218 0.0096539146437977542 0 -0.052662250166397043 0.0095629192295903255 0 -0.05361998456141441 0.010760154427678113 0 -0.052227602869026564 0.011256641105696547 0 -0.052662250166397043 0.0095629192295903255 0 -0.055218017738106868 0.013490513198247438 0 -0.055881190367665756 0.011706588980859307 0 -0.059357474258911601 0.01602646601480329 0 -0.057543368278918379 0.015962943651555615 0 -0.057814283830110669 0.014020848973459126 0 -0.058404819986882399 0.017963076191805257 0 -0.057543368278918379 0.015962943651555615 0 -0.056966941912383239 0.017297943232305935 0 -0.058404819986882399 0.017963076191805257 0 -0.059357474258911601 0.01602646601480329 0 -0.057543368278918379 0.015962943651555615 0 -0.057543368278918379 0.015962943651555615 0 -0.056603460352777205 0.01594967234661486 0 -0.056966941912383239 0.017297943232305935 0 -0.056603460352777205 0.01594967234661486 0 -0.055668704033139942 0.016557299206215965 0 -0.056966941912383239 0.017297943232305935 0 -0.056603460352777205 0.01594967234661486 0 -0.056059324175394373 0.015012195913813559 0 -0.055668704033139942 0.016557299206215965 0 -0.057543368278918379 0.015962943651555615 0 -0.056603460352777205 0.01594967234661486 0 -0.056754737529275574 0.014958078957653196 0 -0.057543368278918379 0.015962943651555615 0 -0.056754737529275574 0.014958078957653196 0 -0.057814283830110669 0.014020848973459126 0 -0.056754737529275574 0.014958078957653196 0 -0.056316908068451445 0.014006725052160317 0 -0.057814283830110669 0.014020848973459126 0 -0.056603460352777205 0.01594967234661486 0 -0.056754737529275574 0.014958078957653196 0 -0.056059324175394373 0.015012195913813559 0 -0.056754737529275574 0.014958078957653196 0 -0.056059324175394373 0.015012195913813559 0 -0.056316908068451445 0.014006725052160317 0 -0.055202315290887705 0.014079806374699341 0 -0.055967061135351361 0.016549330032596489 0 -0.055174797330740571 0.013886714612492483 0 -0.055000054307344795 0.016210821312448248 0 -0.054999577467604387 0.013712841270365138 0 -0.055174797330740571 0.013886714612492483 0 -0.056059324175394373 0.015012195913813559 0 -0.055668704033139942 0.016557299206215965 0 -0.055174797330740571 0.013886714612492483 0 -0.056059324175394373 0.015012195913813559 0 -0.056316908068451445 0.014006725052160317 0 -0.055000054307344795 0.016210821312448248 0 -0.056260457405551551 0.016609750998839438 0 -0.054999902348032474 0.018710057791589862 0 -0.055174797330740571 0.013886714612492483 0 -0.055000054307344795 0.016210821312448248 0 -0.056260457405551551 0.016609750998839438 0 -0.056260457405551551 0.016609750998839438 0 -0.054999902348032474 0.018710057791589862 0 -0.057166315934807657 0.019394439869433101 0 -0.055967061135351361 0.016549330032596489 0 -0.056853078369676874 0.019240450233599032 0 -0.055668704033139942 0.016557299206215965 0 -0.056966941912383239 0.017297943232305935 0 -0.056520926989621384 0.019034896935438948 0 -0.058404819986882399 0.017963076191805257 0 -0.056966941912383239 0.017297943232305935 0 -0.056520926989621384 0.019034896935438948 0 -0.054999894540278281 0.02120886760189988 0 -0.054999902348032474 0.018710057791589862 0 -0.057166315934807657 0.019394439869433101 0 -0.055783386119925005 0.0074750212856384175 0 -0.055000377929227212 0.0092901660215727808 0 -0.054999146754644082 0.0068289967358307569 0 -0.055783386119925005 0.0074750212856384175 0 -0.056130097276710769 0.0082776604212261955 0 -0.056273831430699771 0.0069759630610093677 0 -0.055783386119925005 0.0074750212856384175 0 -0.056130097276710769 0.0082776604212261955 0 -0.055000377929227212 0.0092901660215727808 0 -0.056130097276710769 0.0082776604212261955 0 -0.055000377929227212 0.0092901660215727808 0 -0.055799743687965295 0.0089382468298246955 0 -0.054999964296393124 0.011502766511398133 0 -0.055927466073356767 0.012575020058884872 0 -0.056847859692044402 0.011478149695624476 0 -0.055000001065690383 0.009293246206740359 0 -0.056498070231067135 0.010199073014689962 0 -0.055000012134216264 0.0092933948421829674 0 -0.054999964296393124 0.011502766511398133 0 -0.056847859692044402 0.011478149695624476 0 -0.055000047574752256 0.013712179893783736 0 -0.056935859626898656 0.013776723352101311 0 -0.055927466073356767 0.012575020058884872 0 -0.056833556867393546 0.013604704128444528 0 -0.056847859692044402 0.011478149695624476 0 -0.055174797330740571 0.013886714612492483 0 -0.054999577467604387 0.013712841270365138 0 -0.056316908068451445 0.014006725052160317 0 -0.054999964296393124 0.011502766511398133 0 -0.055927466073356767 0.012575020058884872 0 -0.055000001169139952 0.013711985276065566 0 -0.055927466073356767 0.012575020058884872 0 -0.055000001169139952 0.013711985276065566 0 -0.056833556867393546 0.013604704128444528 0 -0.056935859626898656 0.013776723352101311 0 -0.055881190367665756 0.011706588980859307 0 -0.056498070231067135 0.010199073014689962 0 -0.055881190367665756 0.011706588980859307 0 -0.056833556867393546 0.013604704128444528 0 -0.056847859692044402 0.011478149695624476 0 -0.058606726839229892 0.013548141152791198 0 -0.056130097276710769 0.0082776604212261955 0 -0.055799743687965295 0.0089382468298246955 0 -0.056381980874296904 0.0086608592936366167 0 -0.055881190367665756 0.011706588980859307 0 -0.054125492765173748 0.0090443066628735063 0 -0.056381980874296904 0.0086608592936366167 0 -0.056208800853896283 0.0090540175058148719 0 -0.056547956635509905 0.0088985294087320175 0 -0.055799743687965295 0.0089382468298246955 0 -0.056381980874296904 0.0086608592936366167 0 -0.056208800853896283 0.0090540175058148719 0 -0.056381980874296904 0.0086608592936366167 0 -0.056547956635509905 0.0088985294087320175 0 -0.056727375469689673 0.0084962685433420688 0 -0.056381980874296904 0.0086608592936366167 0 -0.056642869812846323 0.0080956043580445499 0 -0.056727375469689673 0.0084962685433420688 0 -0.056130097276710769 0.0082776604212261955 0 -0.056642869812846323 0.0080956043580445499 0 -0.05656365849079998 0.0075659779322057169 0 -0.056130097276710769 0.0082776604212261955 0 -0.056381980874296904 0.0086608592936366167 0 -0.056642869812846323 0.0080956043580445499 0 -0.056130097276710769 0.0082776604212261955 0 -0.05656365849079998 0.0075659779322057169 0 -0.056273831430699771 0.0069759630610093677 0 -0.05656365849079998 0.0075659779322057169 0 -0.056889310192019309 0.0076057395150786666 0 -0.056698457653661889 0.0068908506496912396 0 -0.056642869812846323 0.0080956043580445499 0 -0.056889310192019309 0.0076057395150786666 0 -0.056851857944176451 0.0080561963649937174 0 -0.056642869812846323 0.0080956043580445499 0 -0.05656365849079998 0.0075659779322057169 0 -0.056889310192019309 0.0076057395150786666 0 -0.056889310192019309 0.0076057395150786666 0 -0.056987858430563927 0.0078304594209082229 0 -0.056851857944176451 0.0080561963649937174 0 -0.056889310192019309 0.0076057395150786666 0 -0.056987858430563927 0.0078304594209082229 0 -0.057057729548178261 0.007531659278662629 0 -0.056987858430563927 0.0078304594209082229 0 -0.057040180155665719 0.0076979227928371894 0 -0.057057729548178261 0.007531659278662629 0 -0.056987858430563927 0.0078304594209082229 0 -0.056989988840015646 0.0079227680523996924 0 -0.057040180155665719 0.0076979227928371894 0 -0.056987858430563927 0.0078304594209082229 0 -0.056989988840015646 0.0079227680523996924 0 -0.056903483630396351 0.0081854456703892037 0 -0.056642869812846323 0.0080956043580445499 0 -0.056851857944176451 0.0080561963649937174 0 -0.056727375469689673 0.0084962685433420688 0 -0.056903483630396351 0.0081854456703892037 0 -0.056851857944176451 0.0080561963649937174 0 -0.056727375469689673 0.0084962685433420688 0 -0.056987858430563927 0.0078304594209082229 0 -0.056903483630396351 0.0081854456703892037 0 -0.056851857944176451 0.0080561963649937174 0 -0.056727375469689673 0.0084962685433420688 0 -0.05672526953670929 0.008813636838044878 0 -0.056792703347952653 0.0085224402736016804 0 -0.056547956635509905 0.0088985294087320175 0 -0.056727375469689673 0.0084962685433420688 0 -0.05672526953670929 0.008813636838044878 0 -0.054125492765173748 0.0090443066628735063 0 -0.055778777716282528 0.0091306506623041184 0 -0.056749669136191061 0.0087645178205091167 0 -0.05672526953670929 0.008813636838044878 0 -0.056792703347952653 0.0085224402736016804 0 -0.055778777716282528 0.0091306506623041184 0 -0.056618025052700416 0.0091436308739485488 0 -0.056749669136191061 0.0087645178205091167 0 -0.05672526953670929 0.008813636838044878 0 -0.056705712765560058 0.0091725579421077213 0 -0.056903483630396351 0.0081854456703892037 0 -0.056727375469689673 0.0084962685433420688 0 -0.056792703347952653 0.0085224402736016804 0 -0.056749669136191061 0.0087645178205091167 0 -0.056792703347952653 0.0085224402736016804 0 -0.056930649119732675 0.0084433288206562703 0 -0.056903483630396351 0.0081854456703892037 0 -0.056792703347952653 0.0085224402736016804 0 -0.056930649119732675 0.0084433288206562703 0 -0.056749669136191061 0.0087645178205091167 0 -0.056930649119732675 0.0084433288206562703 0 -0.056705712765560058 0.0091725579421077213 0 -0.057053080016690488 0.010511094218181829 0 -0.056705712765560058 0.0091725579421077213 0 -0.057253811657602731 0.0087559472990788624 0 -0.056930649119732675 0.0084433288206562703 0 -0.056705712765560058 0.0091725579421077213 0 -0.057253811657602731 0.0087559472990788624 0 -0.043195341989125453 0.014801387739793186 0 -0.043284078953243016 0.013674424257904588 0 -0.056930649119732675 0.0084433288206562703 0 -0.057253811657602731 0.0087559472990788624 0 -0.057083159516615772 0.0081702621002709853 0 -0.056930649119732675 0.0084433288206562703 0 -0.056974781484459495 0.0080839004796759706 0 -0.057083159516615772 0.0081702621002709853 0 -0.056974781484459495 0.0080839004796759706 0 -0.056948387300964007 0.0079895967753967709 0 -0.057083159516615772 0.0081702621002709853 0 -0.056948387300964007 0.0079895967753967709 0 -0.057083159516615772 0.0081702621002709853 0 -0.056816348527365362 0.0079879856235802911 0 -0.056903483630396351 0.0081854456703892037 0 -0.056930649119732675 0.0084433288206562703 0 -0.056974781484459495 0.0080839004796759706 0 -0.056989988840015646 0.0079227680523996924 0 -0.056903483630396351 0.0081854456703892037 0 -0.056974781484459495 0.0080839004796759706 0 -0.056989988840015646 0.0079227680523996924 0 -0.056984310894508852 0.0078962208610506048 0 -0.057040180155665719 0.0076979227928371894 0 -0.056989988840015646 0.0079227680523996924 0 -0.056974781484459495 0.0080839004796759706 0 -0.056984310894508852 0.0078962208610506048 0 -0.056974781484459495 0.0080839004796759706 0 -0.056984310894508852 0.0078962208610506048 0 -0.056948387300964007 0.0079895967753967709 0 -0.056984310894508852 0.0078962208610506048 0 -0.056948387300964007 0.0079895967753967709 0 -0.056929158095906575 0.0079273792628292324 0 -0.056948387300964007 0.0079895967753967709 0 -0.056929158095906575 0.0079273792628292324 0 -0.056797481271436939 0.008058278663446064 0 -0.056929158095906575 0.0079273792628292324 0 -0.05697831963663496 0.0077370415988073952 0 -0.056898605210608175 0.007934620077958426 0 -0.056929158095906575 0.0079273792628292324 0 -0.056898605210608175 0.007934620077958426 0 -0.056797481271436939 0.008058278663446064 0 -0.056929158095906575 0.0079273792628292324 0 -0.056980275126140068 0.0078116745215986282 0 -0.05697831963663496 0.0077370415988073952 0 -0.056984310894508852 0.0078962208610506048 0 -0.056929158095906575 0.0079273792628292324 0 -0.056980275126140068 0.0078116745215986282 0 -0.056984310894508852 0.0078962208610506048 0 -0.056980275126140068 0.0078116745215986282 0 -0.057040180155665719 0.0076979227928371894 0 -0.056980275126140068 0.0078116745215986282 0 -0.05697831963663496 0.0077370415988073952 0 -0.057040180155665719 0.0076979227928371894 0 -0.054818138811745701 0.00068305693638823889 0 -0.054858885207217753 0.00070737169461611098 0 -0.054818655578465401 0.00064425387173918855 0 -0.054818138811745701 0.00068305693638823889 0 -0.054818655578465401 0.00064425387173918855 0 -0.054801737437819666 0.00064333440013511739 0 -0.054858885207217753 0.00070737169461611098 0 -0.054842347828524242 0.00062426634360161976 0 -0.054818655578465401 0.00064425387173918855 0 -0.054436775872430218 0.0036465535995611666 0 -0.04968745164235519 0.00048776952084598438 0 -0.056156891864447764 0.0041573219091384332 0 -0.054436775872430218 0.0036465535995611666 0 -0.045583463010237163 0.00089535411802534601 0 -0.045570570011398498 0.00079713015240467846 0 -0.045441152477648412 0.00061178968501792135 0 -0.045570570011398498 0.00079713015240467846 0 -0.045441152477648412 0.00061178968501792135 0 -0.045472520661844672 0.00069350282250190646 0 -0.054842347828524242 0.00062426634360161976 0 -0.054812125905031671 0.00052489989501604609 0 -0.054814456921909588 0.00059899910552761531 0 -0.045441152477648412 0.00061178968501792135 0 -0.045450728322203697 0.00064071036239244901 0 -0.04542438897210576 0.00064192754307445372 0 -0.045441152477648412 0.00061178968501792135 0 -0.045427192521824804 0.00066316965211539523 0 -0.045472520661844672 0.00069350282250190646 0 -0.054842347828524242 0.00062426634360161976 0 -0.054814456921909588 0.00059899910552761531 0 -0.054818655578465401 0.00064425387173918855 0 -0.04547995992200695 0.00062018974675940881 0 -0.045450728322203697 0.00064071036239244901 0 -0.045451549529178431 0.00060048137078646917 0 -0.050049023213338636 -0.0044702240181080473 0 -0.043272359889976492 -0.0072170613799463551 0 -0.046454920093238247 -0.0095921907063561684 0 -0.045788122337380215 -0.0091995557219694997 0 -0.047012377531838997 -0.0094207467371601183 0 -0.045441152477648412 0.00061178968501792135 0 -0.045484136691845346 0.00061988250431752165 0 -0.045450728322203697 0.00064071036239244901 0 -0.04968745164235519 0.00048776952084598438 0 -0.052679583123786122 -0.0029648392868928558 0 -0.045484136691845346 0.00061988250431752165 0 -0.04547995992200695 0.00062018974675940881 0 -0.045450728322203697 0.00064071036239244901 0 -0.052679583123786122 -0.0029648392868928558 0 -0.050049023213338636 -0.0044702240181080473 0 -0.055056687248640476 0.00027302881380135088 0 -0.054936803076566461 0.00045312443752528543 0 -0.054847414182427737 0.00032915714091032188 0 -0.053856956537753908 -0.0069878113558232658 0 -0.053794702661759682 -0.0069964332713347939 0 -0.053959655744505383 -0.0070451419081442252 0 -0.052679583123786122 -0.0029648392868928558 0 -0.054818163757241675 -0.0034193577897156102 0 -0.052679583123786122 -0.0029648392868928558 0 -0.054940040469724144 0.0008240502834662688 0 -0.054812125905031671 0.00052489989501604609 0 -0.054789646343986094 0.00061020465918177659 0 -0.054814456921909588 0.00059899910552761531 0 -0.054789646343986094 0.00061020465918177659 0 -0.054814456921909588 0.00059899910552761531 0 -0.054818655578465401 0.00064425387173918855 0 -0.054789646343986094 0.00061020465918177659 0 -0.054818655578465401 0.00064425387173918855 0 -0.054801737437819666 0.00064333440013511739 0 -0.054789646343986094 0.00061020465918177659 0 -0.054781846414823296 0.00063889167608479507 0 -0.054801737437819666 0.00064333440013511739 0 -0.054940040469724144 0.0008240502834662688 0 -0.054801434942494585 0.00056439124343709689 0 -0.054936803076566461 0.00045312443752528543 0 -0.05476228871597872 0.00047178619879394081 0 -0.054781846414823296 0.00063889167608479507 0 -0.054936803076566461 0.00045312443752528543 0 -0.054847414182427737 0.00032915714091032188 0 -0.05476228871597872 0.00047178619879394081 0 -0.054818163757241675 -0.0034193577897156102 0 -0.054191558998391072 -0.003631399923591524 0 -0.054061950697542577 -0.0069127194691845544 0 -0.053959655744505383 -0.0070451419081442252 0 -0.054240332393038479 -0.0070277115416371343 0 -0.054847414182427737 0.00032915714091032188 0 -0.05476228871597872 0.00047178619879394081 0 -0.05464380161545461 0.00038735055518170606 0 -0.05476228871597872 0.00047178619879394081 0 -0.054702943760163374 0.00057588118344709181 0 -0.05464380161545461 0.00038735055518170606 0 -0.05476228871597872 0.00047178619879394081 0 -0.054702943760163374 0.00057588118344709181 0 -0.054781846414823296 0.00063889167608479507 0 -0.056137696721880632 0.0052086749389662207 0 -0.057595649325587306 0.0075219306522802251 0 -0.054702943760163374 0.00057588118344709181 0 -0.054729819137352399 0.00069861566081425757 0 -0.054781846414823296 0.00063889167608479507 0 -0.056156891864447764 0.0041573219091384332 0 -0.056137696721880632 0.0052086749389662207 0 -0.054818138811745701 0.00068305693638823889 0 -0.054781846414823296 0.00063889167608479507 0 -0.054801737437819666 0.00064333440013511739 0 -0.05697831963663496 0.0077370415988073952 0 -0.057205639577952265 0.0074925091882403257 0 -0.057125777380031238 0.0074633082134517061 0 -0.054818138811745701 0.00068305693638823889 0 -0.054729819137352399 0.00069861566081425757 0 -0.054781846414823296 0.00063889167608479507 0 -0.057040180155665719 0.0076979227928371894 0 -0.057057729548178261 0.007531659278662629 0 -0.057125777380031238 0.0074633082134517061 0 -0.05697831963663496 0.0077370415988073952 0 -0.057040180155665719 0.0076979227928371894 0 -0.057125777380031238 0.0074633082134517061 0 -0.057057729548178261 0.007531659278662629 0 -0.057047848619380885 0.0071315140371965369 0 -0.057125777380031238 0.0074633082134517061 0 -0.056889310192019309 0.0076057395150786666 0 -0.057057729548178261 0.007531659278662629 0 -0.057047848619380885 0.0071315140371965369 0 -0.05714214911738328 0.0068751032379161655 0 -0.057047848619380885 0.0071315140371965369 0 -0.057125777380031238 0.0074633082134517061 0 -0.057047848619380885 0.0071315140371965369 0 -0.056698457653661889 0.0068908506496912396 0 -0.057041620919072097 0.0064605258629496197 0 -0.056889310192019309 0.0076057395150786666 0 -0.057047848619380885 0.0071315140371965369 0 -0.056698457653661889 0.0068908506496912396 0 -0.0563260215297633 0.0062525532419338689 0 -0.056698457653661889 0.0068908506496912396 0 -0.056273831430699771 0.0069759630610093677 0 -0.05656365849079998 0.0075659779322057169 0 -0.056698457653661889 0.0068908506496912396 0 -0.056273831430699771 0.0069759630610093677 0 -0.0563260215297633 0.0062525532419338689 0 -0.056698457653661889 0.0068908506496912396 0 -0.056598129132973136 0.0061388798909087208 0 -0.056598129132973136 0.0061388798909087208 0 -0.05617396430209301 0.0055976208104043055 0 -0.05690424016976036 0.0054680549054010987 0 -0.0563260215297633 0.0062525532419338689 0 -0.056598129132973136 0.0061388798909087208 0 -0.05617396430209301 0.0055976208104043055 0 -0.056598129132973136 0.0061388798909087208 0 -0.057041620919072097 0.0064605258629496197 0 -0.05690424016976036 0.0054680549054010987 0 -0.054702943760163374 0.00057588118344709181 0 -0.054729819137352399 0.00069861566081425757 0 -0.054579657339831361 0.00056636016170900298 0 -0.056137696721880632 0.0052086749389662207 0 -0.055805267837179102 0.0031482229117320267 0 -0.05773292281164797 0.006494233954691152 0 -0.057041620919072097 0.0064605258629496197 0 -0.05690424016976036 0.0054680549054010987 0 -0.056698457653661889 0.0068908506496912396 0 -0.056598129132973136 0.0061388798909087208 0 -0.057041620919072097 0.0064605258629496197 0 -0.05714214911738328 0.0068751032379161655 0 -0.057047848619380885 0.0071315140371965369 0 -0.057041620919072097 0.0064605258629496197 0 -0.056137696721880632 0.0052086749389662207 0 -0.057322358602225683 0.0061631621462303835 0 -0.054579657339831361 0.00056636016170900298 0 -0.05464380161545461 0.00038735055518170606 0 -0.054450225974564427 0.000422180934434814 0 -0.054702943760163374 0.00057588118344709181 0 -0.054579657339831361 0.00056636016170900298 0 -0.05464380161545461 0.00038735055518170606 0 -0.054373940795426103 -0.0068495176773188419 0 -0.054240332393038479 -0.0070277115416371343 0 -0.054495280160561536 -0.0069851245996619994 0 -0.054191558998391072 -0.003631399923591524 0 -0.055454607155766153 -0.00011183996230716392 0 -0.054373940795426103 -0.0068495176773188419 0 -0.054495280160561536 -0.0069851245996619994 0 -0.05453975979646606 -0.0069400919658073922 0 -0.055454607155766153 -0.00011183996230716392 0 -0.056742996754178612 -0.0015488665065734558 0 -0.055805267837179102 0.0031482229117320267 0 -0.055454607155766153 -0.00011183996230716392 0 -0.05690424016976036 0.0054680549054010987 0 -0.056319792016981299 0.0046826820893398242 0 -0.056156264550022317 0.0050917029653807008 0 -0.05617396430209301 0.0055976208104043055 0 -0.05690424016976036 0.0054680549054010987 0 -0.056156264550022317 0.0050917029653807008 0 -0.05617396430209301 0.0055976208104043055 0 -0.056156264550022317 0.0050917029653807008 0 -0.055542757477133081 0.0049172848844803024 0 -0.056156264550022317 0.0050917029653807008 0 -0.055951702554649999 0.0047377468252106239 0 -0.055542757477133081 0.0049172848844803024 0 -0.056576180328009096 0.0015245550518038354 0 -0.055787399290182955 0.0040541493917422931 0 -0.056319792016981299 0.0046826820893398242 0 -0.056156264550022317 0.0050917029653807008 0 -0.055951702554649999 0.0047377468252106239 0 -0.05620026659609853 0.00030690769241740535 0 -0.05633654475098792 0.00043133516071626801 0 -0.056494646678785759 0.00027605397877629152 0 -0.056431631733826954 -0.00083163135936648795 0 -0.057301698352078843 0.0011762319799329707 0 -0.055903915904525932 0.00049664068369512809 0 -0.055454607155766153 -0.00011183996230716392 0 -0.056576180328009096 0.0015245550518038354 0 -0.056431631733826954 -0.00083163135936648795 0 -0.057958056018340802 0.00048425859889828334 0 -0.057301698352078843 0.0011762319799329707 0 -0.056742996754178612 -0.0015488665065734558 0 -0.056576180328009096 0.0015245550518038354 0 -0.057195126538930254 -0.00014490486478501737 0 -0.056742996754178612 -0.0015488665065734558 0 -0.056576180328009096 0.0015245550518038354 0 -0.055001768139993676 0.0018672255080557426 0 -0.057301698352078843 0.0011762319799329707 0 -0.055903915904525932 0.00049664068369512809 0 -0.054998892128675703 0.0018662831520851767 0 -0.055001144460499002 -0.00012717146614868083 0 -0.056431631733826954 -0.00083163135936648795 0 -0.055903915904525932 0.00049664068369512809 0 -0.055001144460499002 -0.00012717146614868083 0 -0.055903915904525932 0.00049664068369512809 0 -0.054998892128675703 0.0018662831520851767 0 -0.057699805420161357 0.001548843653936249 0 -0.054999979877752271 0.0018676297504203931 0 -0.056358385848065184 0.0029341299225700101 0 -0.054999979877752271 0.0018676297504203931 0 -0.056358385848065184 0.0029341299225700101 0 -0.05499998851220065 0.0043642745060930195 0 -0.055787399290182955 0.0040541493917422931 0 -0.055000329228609854 0.0043643059033778263 0 -0.055542757477133081 0.0049172848844803024 0 -0.054999964400229563 0.0043680454826681226 0 -0.055854259639851182 0.0057203165994435092 0 -0.05617396430209301 0.0055976208104043055 0 -0.055542757477133081 0.0049172848844803024 0 -0.055854259639851182 0.0057203165994435092 0 -0.0563260215297633 0.0062525532419338689 0 -0.05617396430209301 0.0055976208104043055 0 -0.055854259639851182 0.0057203165994435092 0 -0.055783386119925005 0.0074750212856384175 0 -0.055854259639851182 0.0057203165994435092 0 -0.056273831430699771 0.0069759630610093677 0 -0.0563260215297633 0.0062525532419338689 0 -0.055854259639851182 0.0057203165994435092 0 -0.056273831430699771 0.0069759630610093677 0 -0.054999964400229563 0.0043680454826681226 0 -0.055854259639851182 0.0057203165994435092 0 -0.054999146754644082 0.0068289967358307569 0 -0.055783386119925005 0.0074750212856384175 0 -0.055854259639851182 0.0057203165994435092 0 -0.054999146754644082 0.0068289967358307569 0 -0.032125419646733114 0.018792417158928147 0 -0.032928621615104396 0.018290628848307226 0 -0.032615954976355839 0.019657240457415685 0 -0.032125419646733114 0.018792417158928147 0 -0.032615954976355839 0.019657240457415685 0 -0.031360782486903313 0.019749340007434987 0 -0.032125419646733114 0.018792417158928147 0 -0.03134006352599996 0.018586167523731101 0 -0.032122128538858319 0.017666237618681049 0 -0.032125419646733114 0.018792417158928147 0 -0.032928621615104396 0.018290628848307226 0 -0.032122128538858319 0.017666237618681049 0 -0.027263337349153659 0.0096372557070365863 0 -0.028063302711366186 0.0095079218790163102 0 -0.027586425673107678 0.0091384728710227937 0 -0.030213472275554067 0.014330959930037775 0 -0.030824096774845981 0.014647172724783851 0 -0.027263337349153659 0.0096372557070365863 0 -0.028063302711366186 0.0095079218790163102 0 -0.028003475856891141 0.010416463107916727 0 -0.028063302711366186 0.0095079218790163102 0 -0.028003475856891141 0.010416463107916727 0 -0.028930123837319896 0.010179979003083657 0 -0.028063302711366186 0.0095079218790163102 0 -0.028770568404704214 0.0088890016906075404 0 -0.028930123837319896 0.010179979003083657 0 -0.028003475856891141 0.010416463107916727 0 -0.028930123837319896 0.010179979003083657 0 -0.028690102448296676 0.011262545632503337 0 -0.030824096774845981 0.014647172724783851 0 -0.032108089869787255 0.015391568379208732 0 -0.032928621615104396 0.018290628848307226 0 -0.03382034856494863 0.018988741011668628 0 -0.032615954976355839 0.019657240457415685 0 -0.03382034856494863 0.018988741011668628 0 -0.033588264680905158 0.02006380737159889 0 -0.032615954976355839 0.019657240457415685 0 -0.033588264680905158 0.02006380737159889 0 -0.03427139421106612 0.021031840003404551 0 -0.0347035062326502 0.019672643148122983 0 -0.03382034856494863 0.018988741011668628 0 -0.033588264680905158 0.02006380737159889 0 -0.0347035062326502 0.019672643148122983 0 -0.033588264680905158 0.02006380737159889 0 -0.03427139421106612 0.021031840003404551 0 -0.032818919839360881 0.02107284141227168 0 -0.033588264680905158 0.02006380737159889 0 -0.032818919839360881 0.02107284141227168 0 -0.032615954976355839 0.019657240457415685 0 -0.032818919839360881 0.02107284141227168 0 -0.032615954976355839 0.019657240457415685 0 -0.031932704485996229 0.020477529444192327 0 -0.032615954976355839 0.019657240457415685 0 -0.031932704485996229 0.020477529444192327 0 -0.031360782486903313 0.019749340007434987 0 -0.031498005687255068 0.021640418668918339 0 -0.032818919839360881 0.02107284141227168 0 -0.031932704485996229 0.020477529444192327 0 -0.031498005687255068 0.021640418668918339 0 -0.031932704485996229 0.020477529444192327 0 -0.030782727613167683 0.020689064644083831 0 -0.030782727613167683 0.020689064644083831 0 -0.031360782486903313 0.019749340007434987 0 -0.030319891716320303 0.019481012189889537 0 -0.031932704485996229 0.020477529444192327 0 -0.030782727613167683 0.020689064644083831 0 -0.031360782486903313 0.019749340007434987 0 -0.029636588252082943 0.021476454642451563 0 -0.029167800404331909 0.020719017956675967 0 -0.029907147650541151 0.020750128264879944 0 -0.029907147650541151 0.020750128264879944 0 -0.029338150440734342 0.019625603218989717 0 -0.030319891716320303 0.019481012189889537 0 -0.030782727613167683 0.020689064644083831 0 -0.029907147650541151 0.020750128264879944 0 -0.030319891716320303 0.019481012189889537 0 -0.029167800404331909 0.020719017956675967 0 -0.029907147650541151 0.020750128264879944 0 -0.029338150440734342 0.019625603218989717 0 -0.029338150440734342 0.019625603218989717 0 -0.030319891716320303 0.019481012189889537 0 -0.029712413442856106 0.018459688410406405 0 -0.043284078953243016 0.013674424257904588 0 -0.042859572228400616 0.014353260217581529 0 -0.030319891716320303 0.019481012189889537 0 -0.029712413442856106 0.018459688410406405 0 -0.030516510039383198 0.018146325005538554 0 -0.057083159516615772 0.0081702621002709853 0 -0.056582708394973306 0.0079442930454954336 0 -0.056816348527365362 0.0079879856235802911 0 -0.056948387300964007 0.0079895967753967709 0 -0.056816348527365362 0.0079879856235802911 0 -0.056797481271436939 0.008058278663446064 0 -0.056582708394973306 0.0079442930454954336 0 -0.056816348527365362 0.0079879856235802911 0 -0.056797481271436939 0.008058278663446064 0 -0.032125419646733114 0.018792417158928147 0 -0.031360782486903313 0.019749340007434987 0 -0.03134006352599996 0.018586167523731101 0 -0.031360782486903313 0.019749340007434987 0 -0.030319891716320303 0.019481012189889537 0 -0.03134006352599996 0.018586167523731101 0 -0.030319891716320303 0.019481012189889537 0 -0.03134006352599996 0.018586167523731101 0 -0.030516510039383198 0.018146325005538554 0 -0.03134006352599996 0.018586167523731101 0 -0.031139409428964288 0.017572165733832818 0 -0.032122128538858319 0.017666237618681049 0 -0.03170967056528512 0.012832334504256296 0 -0.029740685410364027 0.010393589227297261 0 -0.03134006352599996 0.018586167523731101 0 -0.031139409428964288 0.017572165733832818 0 -0.030516510039383198 0.018146325005538554 0 -0.03170967056528512 0.012832334504256296 0 -0.036839046959083209 0.0088013686185706621 0 -0.031139409428964288 0.017572165733832818 0 -0.030516510039383198 0.018146325005538554 0 -0.030272037386064869 0.017373051143194509 0 -0.032965465491334299 0.0071143680488558094 0 -0.034024449915700049 0.0082924034819750678 0 -0.032411834714935278 0.008354745317628769 0 -0.032965465491334299 0.0071143680488558094 0 -0.034024449915700049 0.0082924034819750678 0 -0.035314406592970971 0.0074646151471329412 0 -0.034024449915700049 0.0082924034819750678 0 -0.035549540383394584 0.007502668160839986 0 -0.034430560938462397 0.009974280633415775 0 -0.032965465491334299 0.0071143680488558094 0 -0.032411834714935278 0.008354745317628769 0 -0.030419152915147588 0.0067675034101747598 0 -0.054436775872430218 0.0036465535995611666 0 -0.057321603903885916 0.0096962438501490469 0 -0.056848520668992458 0.0086450302779797986 0 -0.056797481271436939 0.008058278663446064 0 -0.055849844459993803 0.0086399416825044279 0 -0.056582708394973306 0.0079442930454954336 0 -0.056797481271436939 0.008058278663446064 0 -0.055849844459993803 0.0086399416825044279 0 -0.030516510039383198 0.018146325005538554 0 -0.030272037386064869 0.017373051143194509 0 -0.030183307178309502 0.017347886706838886 0 -0.029712413442856106 0.018459688410406405 0 -0.030516510039383198 0.018146325005538554 0 -0.030183307178309502 0.017347886706838886 0 -0.042859572228400616 0.014353260217581529 0 -0.043577716928034874 0.0076746100277528834 0 -0.045310285103378325 0.00066259402037962373 0 -0.045378579438969446 0.00070431124401657127 0 -0.045312450047832117 0.00070104871554685366 0 -0.043577716928034874 0.0076746100277528834 0 -0.036533893046342039 0.0053079705756783578 0 -0.034024449915700049 0.0082924034819750678 0 -0.035314406592970971 0.0074646151471329412 0 -0.035549540383394584 0.007502668160839986 0 -0.036839046959083209 0.0088013686185706621 0 -0.043577716928034874 0.0076746100277528834 0 -0.045310285103378325 0.00066259402037962373 0 -0.045378579438969446 0.00070431124401657127 0 -0.045435079632620924 0.00072414214647625549 0 -0.046499923308237878 -0.00053531380067333659 0 -0.043577716928034874 0.0076746100277528834 0 -0.045570570011398498 0.00079713015240467846 0 -0.045310285103378325 0.00066259402037962373 0 -0.045435079632620924 0.00072414214647625549 0 -0.045583463010237163 0.00089535411802534601 0 -0.045570570011398498 0.00079713015240467846 0 -0.047354281433072166 0.0012826004192645071 0 -0.054436775872430218 0.0036465535995611666 0 -0.043577716928034874 0.0076746100277528834 0 -0.045378579438969446 0.00070431124401657127 0 -0.045435079632620924 0.00072414214647625549 0 -0.045431127517500502 0.00070205172252898204 0 -0.045435079632620924 0.00072414214647625549 0 -0.045481617804298401 0.00073226806275326429 0 -0.045431127517500502 0.00070205172252898204 0 -0.045570570011398498 0.00079713015240467846 0 -0.045481617804298401 0.00073226806275326429 0 -0.045472520661844672 0.00069350282250190646 0 -0.045570570011398498 0.00079713015240467846 0 -0.045435079632620924 0.00072414214647625549 0 -0.045481617804298401 0.00073226806275326429 0 -0.045481617804298401 0.00073226806275326429 0 -0.045472520661844672 0.00069350282250190646 0 -0.045431127517500502 0.00070205172252898204 0 -0.045441152477648412 0.00061178968501792135 0 -0.045427192521824804 0.00066316965211539523 0 -0.04542438897210576 0.00064192754307445372 0 -0.045427192521824804 0.00066316965211539523 0 -0.045355738225542536 0.0006550137251829215 0 -0.04542438897210576 0.00064192754307445372 0 -0.045427192521824804 0.00066316965211539523 0 -0.045472520661844672 0.00069350282250190646 0 -0.045431127517500502 0.00070205172252898204 0 -0.045427192521824804 0.00066316965211539523 0 -0.045431127517500502 0.00070205172252898204 0 -0.045364954086000248 0.0006843141019801692 0 -0.045378579438969446 0.00070431124401657127 0 -0.045431127517500502 0.00070205172252898204 0 -0.045364954086000248 0.0006843141019801692 0 -0.045364954086000248 0.0006843141019801692 0 -0.045280324048359015 0.00067298996621004072 0 -0.045355738225542536 0.0006550137251829215 0 -0.045427192521824804 0.00066316965211539523 0 -0.045364954086000248 0.0006843141019801692 0 -0.045355738225542536 0.0006550137251829215 0 -0.045310285103378325 0.00066259402037962373 0 -0.045312450047832117 0.00070104871554685366 0 -0.045241772432770756 0.00072315862987663133 0 -0.045364954086000248 0.0006843141019801692 0 -0.045280324048359015 0.00067298996621004072 0 -0.045312450047832117 0.00070104871554685366 0 -0.045378579438969446 0.00070431124401657127 0 -0.045364954086000248 0.0006843141019801692 0 -0.045312450047832117 0.00070104871554685366 0 -0.045280324048359015 0.00067298996621004072 0 -0.045183656635172258 0.00062684013649543261 0 -0.045241772432770756 0.00072315862987663133 0 -0.045280324048359015 0.00067298996621004072 0 -0.045312450047832117 0.00070104871554685366 0 -0.045241772432770756 0.00072315862987663133 0 -0.044311435484628486 0.00096554402457507433 0 -0.045097547846481276 0.00090185076538460026 0 -0.045183656635172258 0.00062684013649543261 0 -0.045346451450296713 0.0018746523143977419 0 -0.036533893046342039 0.0053079705756783578 0 -0.045097547846481276 0.00090185076538460026 0 -0.045183656635172258 0.00062684013649543261 0 -0.045307163428809388 0.00070061576362048404 0 -0.045280324048359015 0.00067298996621004072 0 -0.045183656635172258 0.00062684013649543261 0 -0.045355738225542536 0.0006550137251829215 0 -0.045097547846481276 0.00090185076538460026 0 -0.045307163428809388 0.00070061576362048404 0 -0.04544750306795986 0.00073549134340681038 0 -0.045355738225542536 0.0006550137251829215 0 -0.045307163428809388 0.00070061576362048404 0 -0.045400683482204975 0.00066447655610708757 0 -0.045183656635172258 0.00062684013649543261 0 -0.045355738225542536 0.0006550137251829215 0 -0.045307163428809388 0.00070061576362048404 0 -0.045307163428809388 0.00070061576362048404 0 -0.04544750306795986 0.00073549134340681038 0 -0.045400683482204975 0.00066447655610708757 0 -0.045450728322203697 0.00064071036239244901 0 -0.04544750306795986 0.00073549134340681038 0 -0.045400683482204975 0.00066447655610708757 0 -0.042835368461830878 -0.0011505472771419784 0 -0.043272359889976492 -0.0072170613799463551 0 -0.045355738225542536 0.0006550137251829215 0 -0.045400683482204975 0.00066447655610708757 0 -0.04542438897210576 0.00064192754307445372 0 -0.045450728322203697 0.00064071036239244901 0 -0.045400683482204975 0.00066447655610708757 0 -0.04542438897210576 0.00064192754307445372 0 -0.025386500117753879 0.007607817216734751 0 -0.025557161392136166 0.0065739258741176467 0 -0.024505390887835897 0.0066291171509467606 0 -0.025386500117753879 0.007607817216734751 0 -0.025557161392136166 0.0065739258741176467 0 -0.026143690220568293 0.0069781871039152716 0 -0.034024449915700049 0.0082924034819750678 0 -0.032411834714935278 0.008354745317628769 0 -0.034430560938462397 0.009974280633415775 0 -0.027487057853846281 0.0076414254973737206 0 -0.036533893046342039 0.0053079705756783578 0 -0.03508410390121313 -0.0095185769165680775 0 -0.036533893046342039 0.0053079705756783578 0 -0.044311435484628486 0.00096554402457507433 0 -0.045183656635172258 0.00062684013649543261 0 -0.044704664692577209 0.00025581807080361129 0 -0.025047287506341422 0.0053330076285432295 0 -0.024505390887835897 0.0066291171509467606 0 -0.025540575437805049 0.0058342607161809383 0 -0.025557161392136166 0.0065739258741176467 0 -0.024505390887835897 0.0066291171509467606 0 -0.025540575437805049 0.0058342607161809383 0 -0.025557161392136166 0.0065739258741176467 0 -0.025540575437805049 0.0058342607161809383 0 -0.026062130708909836 0.0061195923022889943 0 -0.026062130708909836 0.0061195923022889943 0 -0.026807549128071449 0.0060859999729869956 0 -0.026143690220568293 0.0069781871039152716 0 -0.02624037627622073 0.0052225214703572297 0 -0.026062130708909836 0.0061195923022889943 0 -0.026807549128071449 0.0060859999729869956 0 -0.02624037627622073 0.0052225214703572297 0 -0.025540575437805049 0.0058342607161809383 0 -0.026062130708909836 0.0061195923022889943 0 -0.027367657193248792 0.0051009896035956155 0 -0.026807549128071449 0.0060859999729869956 0 -0.027598861698867876 0.0059145278132478321 0 -0.026807549128071449 0.0060859999729869956 0 -0.02744082368643045 0.0068501209258433615 0 -0.027598861698867876 0.0059145278132478321 0 -0.026807549128071449 0.0060859999729869956 0 -0.026864003993680233 0.0072005658080910133 0 -0.02744082368643045 0.0068501209258433615 0 -0.026807549128071449 0.0060859999729869956 0 -0.026864003993680233 0.0072005658080910133 0 -0.026143690220568293 0.0069781871039152716 0 -0.026864003993680233 0.0072005658080910133 0 -0.02759849655376341 0.0076670745736827795 0 -0.02744082368643045 0.0068501209258433615 0 -0.025557161392136166 0.0065739258741176467 0 -0.026062130708909836 0.0061195923022889943 0 -0.026143690220568293 0.0069781871039152716 0 -0.026864003993680233 0.0072005658080910133 0 -0.026143690220568293 0.0069781871039152716 0 -0.026439428823679792 0.0078246222011471144 0 -0.025386500117753879 0.007607817216734751 0 -0.026439428823679792 0.0078246222011471144 0 -0.026348286632693049 0.0087100304128581059 0 -0.025386500117753879 0.007607817216734751 0 -0.026143690220568293 0.0069781871039152716 0 -0.026439428823679792 0.0078246222011471144 0 -0.027487057853846281 0.0076414254973737206 0 -0.029740685410364027 0.010393589227297261 0 -0.026439428823679792 0.0078246222011471144 0 -0.026805273604158231 0.0084019389528808535 0 -0.026348286632693049 0.0087100304128581059 0 -0.026864003993680233 0.0072005658080910133 0 -0.026439428823679792 0.0078246222011471144 0 -0.027082259472460901 0.0080024563361530011 0 -0.026864003993680233 0.0072005658080910133 0 -0.027082259472460901 0.0080024563361530011 0 -0.02759849655376341 0.0076670745736827795 0 -0.027082259472460901 0.0080024563361530011 0 -0.026805273604158231 0.0084019389528808535 0 -0.027230374588199508 0.0086590363514699696 0 -0.026439428823679792 0.0078246222011471144 0 -0.027082259472460901 0.0080024563361530011 0 -0.026805273604158231 0.0084019389528808535 0 -0.027263337349153659 0.0096372557070365863 0 -0.027230374588199508 0.0086590363514699696 0 -0.027586425673107678 0.0091384728710227937 0 -0.027263337349153659 0.0096372557070365863 0 -0.026730812380296676 0.0088407636411267296 0 -0.027230374588199508 0.0086590363514699696 0 -0.026805273604158231 0.0084019389528808535 0 -0.026730812380296676 0.0088407636411267296 0 -0.027230374588199508 0.0086590363514699696 0 -0.030213472275554067 0.014330959930037775 0 -0.029740685410364027 0.010393589227297261 0 -0.026805273604158231 0.0084019389528808535 0 -0.026730812380296676 0.0088407636411267296 0 -0.026348286632693049 0.0087100304128581059 0 -0.027263337349153659 0.0096372557070365863 0 -0.026730812380296676 0.0088407636411267296 0 -0.026424690701278879 0.0087845254171801061 0 -0.027116306801618948 0.0095924657147845472 0 -0.029740685410364027 0.010393589227297261 0 -0.028063302711366186 0.0095079218790163102 0 -0.028770568404704214 0.0088890016906075404 0 -0.027827000655615927 0.008498922322534061 0 -0.028063302711366186 0.0095079218790163102 0 -0.027586425673107678 0.0091384728710227937 0 -0.027827000655615927 0.008498922322534061 0 -0.027230374588199508 0.0086590363514699696 0 -0.027586425673107678 0.0091384728710227937 0 -0.027827000655615927 0.008498922322534061 0 -0.027827000655615927 0.008498922322534061 0 -0.02759849655376341 0.0076670745736827795 0 -0.028356991935998981 0.0073800254436710549 0 -0.027082259472460901 0.0080024563361530011 0 -0.027827000655615927 0.008498922322534061 0 -0.02759849655376341 0.0076670745736827795 0 -0.027082259472460901 0.0080024563361530011 0 -0.027230374588199508 0.0086590363514699696 0 -0.027827000655615927 0.008498922322534061 0 -0.028770568404704214 0.0088890016906075404 0 -0.027827000655615927 0.008498922322534061 0 -0.028356991935998981 0.0073800254436710549 0 -0.028028089307469375 0.0086598905921611725 0 -0.027728174542710579 0.0072149694716534367 0 -0.028344067858807241 0.0077795351610014506 0 -0.028417820184776434 0.0087764160919077874 0 -0.028032580893414219 0.0072972596843360682 0 -0.027728174542710579 0.0072149694716534367 0 -0.028099412908319587 0.0063603240683470933 0 -0.028774788209338098 0.0070684515252627611 0 -0.027728174542710579 0.0072149694716534367 0 -0.028774788209338098 0.0070684515252627611 0 -0.028344067858807241 0.0077795351610014506 0 -0.02759849655376341 0.0076670745736827795 0 -0.028356991935998981 0.0073800254436710549 0 -0.02744082368643045 0.0068501209258433615 0 -0.028032580893414219 0.0072972596843360682 0 -0.027618476422641803 0.0060258319001903638 0 -0.028356991935998981 0.0073800254436710549 0 -0.02744082368643045 0.0068501209258433615 0 -0.027598861698867876 0.0059145278132478321 0 -0.027728174542710579 0.0072149694716534367 0 -0.027598861698867876 0.0059145278132478321 0 -0.028099412908319587 0.0063603240683470933 0 -0.028044875251800876 0.0056455579450985071 0 -0.027598861698867876 0.0059145278132478321 0 -0.028099412908319587 0.0063603240683470933 0 -0.028044875251800876 0.0056455579450985071 0 -0.028099412908319587 0.0063603240683470933 0 -0.028652910040985979 0.0059654216024417252 0 -0.028334633791773624 0.0083827037728561385 0 -0.02809648181633535 0.0060744007565493334 0 -0.028099412908319587 0.0063603240683470933 0 -0.028652910040985979 0.0059654216024417252 0 -0.028774788209338098 0.0070684515252627611 0 -0.02698463145584051 0.004338325217572804 0 -0.028962671334064615 0.005074868888096217 0 -0.027747510641403381 0.0063934338477212383 0 -0.02826055184709144 0.0033109532075405387 0 -0.02698463145584051 0.004338325217572804 0 -0.028962671334064615 0.005074868888096217 0 -0.029708740813162958 0.0030627455470700533 0 -0.028962671334064615 0.005074868888096217 0 -0.030599153445498527 0.0050269032114354925 0 -0.02826055184709144 0.0033109532075405387 0 -0.029708740813162958 0.0030627455470700533 0 -0.028962671334064615 0.005074868888096217 0 -0.028962671334064615 0.005074868888096217 0 -0.029130205481624726 0.0067789684549762743 0 -0.027747510641403381 0.0063934338477212383 0 -0.028962671334064615 0.005074868888096217 0 -0.029130205481624726 0.0067789684549762743 0 -0.030277325026499206 0.0063417127630808886 0 -0.029130205481624726 0.0067789684549762743 0 -0.030277325026499206 0.0063417127630808886 0 -0.029817983333019504 0.0076273228172549059 0 -0.031616316561265803 0.0047805193003180955 0 -0.030599153445498527 0.0050269032114354925 0 -0.031774534062001675 0.0061201258229080166 0 -0.031616316561265803 0.0047805193003180955 0 -0.031774534062001675 0.0061201258229080166 0 -0.03199697318867515 0.0059981644832150091 0 -0.029708740813162958 0.0030627455470700533 0 -0.031616316561265803 0.0047805193003180955 0 -0.030599153445498527 0.0050269032114354925 0 -0.028962671334064615 0.005074868888096217 0 -0.030599153445498527 0.0050269032114354925 0 -0.030277325026499206 0.0063417127630808886 0 -0.030599153445498527 0.0050269032114354925 0 -0.030277325026499206 0.0063417127630808886 0 -0.031774534062001675 0.0061201258229080166 0 -0.030277325026499206 0.0063417127630808886 0 -0.031774534062001675 0.0061201258229080166 0 -0.031067019483954489 0.0074681817573263587 0 -0.031774534062001675 0.0061201258229080166 0 -0.031067019483954489 0.0074681817573263587 0 -0.03234596552553614 0.0069366235162943773 0 -0.031067019483954489 0.0074681817573263587 0 -0.031858342198264319 0.0091888384578048682 0 -0.03234596552553614 0.0069366235162943773 0 -0.030277325026499206 0.0063417127630808886 0 -0.031067019483954489 0.0074681817573263587 0 -0.029817983333019504 0.0076273228172549059 0 -0.031067019483954489 0.0074681817573263587 0 -0.029817983333019504 0.0076273228172549059 0 -0.029929777178155346 0.0096802239469116081 0 -0.031067019483954489 0.0074681817573263587 0 -0.031858342198264319 0.0091888384578048682 0 -0.029929777178155346 0.0096802239469116081 0 -0.029130205481624726 0.0067789684549762743 0 -0.027747510641403381 0.0063934338477212383 0 -0.0287852023300353 0.0081598071220442357 0 -0.02809648181633535 0.0060744007565493334 0 -0.028786529612130286 0.008231295871363644 0 -0.028028089307469375 0.0086598905921611725 0 -0.0287852023300353 0.0081598071220442357 0 -0.028344067858807241 0.0077795351610014506 0 -0.028774788209338098 0.0070684515252627611 0 -0.0287852023300353 0.0081598071220442357 0 -0.028344067858807241 0.0077795351610014506 0 -0.029130205481624726 0.0067789684549762743 0 -0.029817983333019504 0.0076273228172549059 0 -0.0287852023300353 0.0081598071220442357 0 -0.0287852023300353 0.0081598071220442357 0 -0.029065397479799696 0.0093345352395224606 0 -0.029929777178155346 0.0096802239469116081 0 -0.029817983333019504 0.0076273228172549059 0 -0.0287852023300353 0.0081598071220442357 0 -0.029929777178155346 0.0096802239469116081 0 -0.028028089307469375 0.0086598905921611725 0 -0.0287852023300353 0.0081598071220442357 0 -0.029065397479799696 0.0093345352395224606 0 -0.028028089307469375 0.0086598905921611725 0 -0.029065397479799696 0.0093345352395224606 0 -0.028930123837319896 0.010179979003083657 0 -0.028417820184776434 0.0087764160919077874 0 -0.0288935311480478 0.010065210561746626 0 -0.028930123837319896 0.010179979003083657 0 -0.029838313780104628 0.010693285295650628 0 -0.028690102448296676 0.011262545632503337 0 -0.028930123837319896 0.010179979003083657 0 -0.029838313780104628 0.010693285295650628 0 -0.029503788708734092 0.0099597423499048522 0 -0.029065397479799696 0.0093345352395224606 0 -0.029503788708734092 0.0099597423499048522 0 -0.029929777178155346 0.0096802239469116081 0 -0.029838313780104628 0.010693285295650628 0 -0.029503788708734092 0.0099597423499048522 0 -0.029929777178155346 0.0096802239469116081 0 -0.029065397479799696 0.0093345352395224606 0 -0.028930123837319896 0.010179979003083657 0 -0.029503788708734092 0.0099597423499048522 0 -0.028447367271208689 0.012071586491018556 0 -0.029813730371572946 0.01006115974905733 0 -0.031858342198264319 0.0091888384578048682 0 -0.029929777178155346 0.0096802239469116081 0 -0.030881840277293179 0.012179659348052671 0 -0.02730589987194243 0.014407870667487773 0 -0.029929777178155346 0.0096802239469116081 0 -0.030881840277293179 0.012179659348052671 0 -0.031858342198264319 0.0091888384578048682 0 -0.030881840277293179 0.012179659348052671 0 -0.033203197700922331 0.011725405475283331 0 -0.030881840277293179 0.012179659348052671 0 -0.033203197700922331 0.011725405475283331 0 -0.031923215394006194 0.013823482442682715 0 -0.033203197700922331 0.011725405475283331 0 -0.031923215394006194 0.013823482442682715 0 -0.033788514134883409 0.013874635837886297 0 -0.030881840277293179 0.012179659348052671 0 -0.031923215394006194 0.013823482442682715 0 -0.030324722484340618 0.015096642994842988 0 -0.031923215394006194 0.013823482442682715 0 -0.030324722484340618 0.015096642994842988 0 -0.032355461890222856 0.016346104680147217 0 -0.031923215394006194 0.013823482442682715 0 -0.032355461890222856 0.016346104680147217 0 -0.033788514134883409 0.013874635837886297 0 -0.032355461890222856 0.016346104680147217 0 -0.034809884709018177 0.015879973744208378 0 -0.033788514134883409 0.013874635837886297 0 -0.02730589987194243 0.014407870667487773 0 -0.030881840277293179 0.012179659348052671 0 -0.030324722484340618 0.015096642994842988 0 -0.02730589987194243 0.014407870667487773 0 -0.029805672560807413 0.018265551964190326 0 -0.027583174465917643 0.018945268171294907 0 -0.02730589987194243 0.014407870667487773 0 -0.030324722484340618 0.015096642994842988 0 -0.029805672560807413 0.018265551964190326 0 -0.030324722484340618 0.015096642994842988 0 -0.029805672560807413 0.018265551964190326 0 -0.032355461890222856 0.016346104680147217 0 -0.032355461890222856 0.016346104680147217 0 -0.034026461719970529 0.0181623253353566 0 -0.034809884709018177 0.015879973744208378 0 -0.029805672560807413 0.018265551964190326 0 -0.032355461890222856 0.016346104680147217 0 -0.031985876055842528 0.019304046208567554 0 -0.032355461890222856 0.016346104680147217 0 -0.031985876055842528 0.019304046208567554 0 -0.034026461719970529 0.0181623253353566 0 -0.031985876055842528 0.019304046208567554 0 -0.033827996541742782 0.021755809189292367 0 -0.034026461719970529 0.0181623253353566 0 -0.029805672560807413 0.018265551964190326 0 -0.031985876055842528 0.019304046208567554 0 -0.031200490090321584 0.021757223872957941 0 -0.031985876055842528 0.019304046208567554 0 -0.031200490090321584 0.021757223872957941 0 -0.033827996541742782 0.021755809189292367 0 -0.029805672560807413 0.018265551964190326 0 -0.031200490090321584 0.021757223872957941 0 -0.028810877861473336 0.021613766831208026 0 -0.029805672560807413 0.018265551964190326 0 -0.028810877861473336 0.021613766831208026 0 -0.027583174465917643 0.018945268171294907 0 -0.028810877861473336 0.021613766831208026 0 -0.026767598673354358 0.020910295896515892 0 -0.02752663444367846 0.022726041647704049 0 -0.026767598673354358 0.020910295896515892 0 -0.02752663444367846 0.022726041647704049 0 -0.026056645368689273 0.023635797319711344 0 -0.026767598673354358 0.020910295896515892 0 -0.025280750143490596 0.019540094958836584 0 -0.026056645368689273 0.023635797319711344 0 -0.028810877861473336 0.021613766831208026 0 -0.026767598673354358 0.020910295896515892 0 -0.027583174465917643 0.018945268171294907 0 -0.026767598673354358 0.020910295896515892 0 -0.025245271733516938 0.019620037374632544 0 -0.027583174465917643 0.018945268171294907 0 -0.027251639900775001 0.019219477914104607 0 -0.029307797429473106 0.018509562780097806 0 -0.03427139421106612 0.021031840003404551 0 -0.03566437975433568 0.020457046894063375 0 -0.035307840427510215 0.022189934100765835 0 -0.03427139421106612 0.021031840003404551 0 -0.03566437975433568 0.020457046894063375 0 -0.0347035062326502 0.019672643148122983 0 -0.029307797429473106 0.018509562780097806 0 -0.032108089869787255 0.015391568379208732 0 -0.028447367271208689 0.012071586491018556 0 -0.029307797429473106 0.018509562780097806 0 -0.029838313780104628 0.010693285295650628 0 -0.029605789796027772 0.012170500756153708 0 -0.028690102448296676 0.011262545632503337 0 -0.02730589987194243 0.014407870667487773 0 -0.025245271733516938 0.019620037374632544 0 -0.027583174465917643 0.018945268171294907 0 -0.017327658650595584 0.0018803227152838619 0 -0.021446643453955406 0.0075141727914913008 0 -0.028360525384347694 0.00086897492731224317 0 -0.030827805848485081 0.00084170865795855823 0 -0.029224519820630259 0.0027240490452218199 0 -0.0083409870056946472 0.003440615442389256 0 -0.0050752766688200628 0.0072304469264034875 0 -0.0018121037949981969 0.0040115166405555926 0 -0.028360525384347694 0.00086897492731224317 0 -0.029224519820630259 0.0027240490452218199 0 -0.027928409061260463 0.0022669976095556349 0 -0.028360525384347694 0.00086897492731224317 0 -0.026937037674897173 0.0018658144274148044 0 -0.027928409061260463 0.0022669976095556349 0 -0.017327658650595584 0.0018803227152838619 0 -0.01967114720550911 0.0021050373856495736 0 -0.028360525384347694 0.00086897492731224317 0 -0.026937037674897173 0.0018658144274148044 0 -0.02403750767972641 0.00099520503642776714 0 -0.0083409870056946472 0.003440615442389256 0 -0.012546137493492473 0.0073226262360243091 0 -0.014830799701275528 0.0028917608941255403 0 -0.026937037674897173 0.0018658144274148044 0 -0.026008448291695761 0.0023604370064622634 0 -0.02403750767972641 0.00099520503642776714 0 -0.012546137493492473 0.0073226262360243091 0 -0.0083177201037612138 0.0094925353383825111 0 -0.013278817230780048 0.01255168674512953 0 -0.0083409870056946472 0.003440615442389256 0 -0.012546137493492473 0.0073226262360243091 0 -0.0083177201037612138 0.0094925353383825111 0 -0.0083177201037612138 0.0094925353383825111 0 -0.0050752766688200628 0.0072304469264034875 0 -0.0017815579878773238 0.012052679063672439 0 -0.0083409870056946472 0.003440615442389256 0 -0.0083177201037612138 0.0094925353383825111 0 -0.0050752766688200628 0.0072304469264034875 0 -0.022738648712369188 0.0112959219529669 0 -0.022804450145964696 0.017265958233591703 0 -0.022002232643456753 0.01733897564900936 0 -0.021446643453955406 0.0075141727914913008 0 -0.010412934187433023 0.014248224080465891 0 -0.031419273479132002 0.013671466867959489 0 -0.030806887226867041 0.020925742593688894 0 -0.0050752766688200628 0.0072304469264034875 0 -0.0018121037949981969 0.0040115166405555926 0 -0.0017815579878773238 0.012052679063672439 0 -0.022738648712369188 0.0112959219529669 0 -0.021138043334891825 0.011443535863958118 0 -0.022002232643456753 0.01733897564900936 0 -0.033827996541742782 0.021755809189292367 0 -0.035703185201589743 0.020312959470832972 0 -0.034026461719970529 0.0181623253353566 0 -0.035703185201589743 0.020312959470832972 0 -0.037122421294938826 0.018014698959707014 0 -0.037733438601821566 0.023191882253872365 0 -0.033827996541742782 0.021755809189292367 0 -0.035703185201589743 0.020312959470832972 0 -0.037733438601821566 0.023191882253872365 0 -0.035895040948868785 0.017606756438341965 0 -0.031419273479132002 0.013671466867959489 0 -0.035703185201589743 0.020312959470832972 0 -0.034026461719970529 0.0181623253353566 0 -0.037122421294938826 0.018014698959707014 0 -0.034026461719970529 0.0181623253353566 0 -0.034809884709018177 0.015879973744208378 0 -0.036866341472269915 0.017740740487636273 0 -0.03158130607327353 0.0064951192049952722 0 -0.031433759594133852 0.006527455947534554 0 -0.031461627486401918 0.0059647333127650281 0 -0.021446643453955406 0.0075141727914913008 0 -0.031419273479132002 0.013671466867959489 0 -0.030827805848485081 0.00084170865795855823 0 -0.030951359925750942 0.0036961804241781799 0 -0.029224519820630259 0.0027240490452218199 0 -0.03158130607327353 0.0064951192049952722 0 -0.031550946434404661 0.0058931417932183879 0 -0.031461627486401918 0.0059647333127650281 0 -0.021446643453955406 0.0075141727914913008 0 -0.032247302462722657 0.0040005172146943321 0 -0.034809884709018177 0.015879973744208378 0 -0.036866341472269915 0.017740740487636273 0 -0.035851250426079929 0.013365052013411536 0 -0.031419273479132002 0.013671466867959489 0 -0.033826590689606369 0.0094727153076698926 0 -0.034809884709018177 0.015879973744208378 0 -0.035851250426079929 0.013365052013411536 0 -0.033788514134883409 0.013874635837886297 0 -0.033203197700922331 0.011725405475283331 0 -0.035851250426079929 0.013365052013411536 0 -0.033788514134883409 0.013874635837886297 0 -0.031550946434404661 0.0058931417932183879 0 -0.031461627486401918 0.0059647333127650281 0 -0.031723596819060583 0.0059228282645023087 0 -0.031858342198264319 0.0091888384578048682 0 -0.033203197700922331 0.011725405475283331 0 -0.034239229567760987 0.0095635290780950455 0 -0.033203197700922331 0.011725405475283331 0 -0.035851250426079929 0.013365052013411536 0 -0.034239229567760987 0.0095635290780950455 0 -0.033826590689606369 0.0094727153076698926 0 -0.03296743277799432 0.007909765447935712 0 -0.030951359925750942 0.0036961804241781799 0 -0.029974988550403731 0.0049453210795226254 0 -0.03128617042309708 0.0060635169949433132 0 -0.032247302462722657 0.0040005172146943321 0 -0.031089102899690753 0.00634858157236989 0 -0.031550946434404661 0.0058931417932183879 0 -0.031723596819060583 0.0059228282645023087 0 -0.03128617042309708 0.0060635169949433132 0 -0.030951359925750942 0.0036961804241781799 0 -0.029974988550403731 0.0049453210795226254 0 -0.029691379024287416 0.0038994384959284856 0 -0.029974988550403731 0.0049453210795226254 0 -0.028546431264126922 0.0042005237629508694 0 -0.028852021888056963 0.005325141942731061 0 -0.029974988550403731 0.0049453210795226254 0 -0.028546431264126922 0.0042005237629508694 0 -0.029691379024287416 0.0038994384959284856 0 -0.028546431264126922 0.0042005237629508694 0 -0.029691379024287416 0.0038994384959284856 0 -0.029224519820630259 0.0027240490452218199 0 -0.030951359925750942 0.0036961804241781799 0 -0.029691379024287416 0.0038994384959284856 0 -0.029224519820630259 0.0027240490452218199 0 -0.028546431264126922 0.0042005237629508694 0 -0.029224519820630259 0.0027240490452218199 0 -0.027736022112379063 0.0031401880463035763 0 -0.029224519820630259 0.0027240490452218199 0 -0.027928409061260463 0.0022669976095556349 0 -0.027736022112379063 0.0031401880463035763 0 -0.026008448291695761 0.0023604370064622634 0 -0.026882415234756558 0.0032142465139000363 0 -0.026446452430279384 0.0039210905822381608 0 -0.026008448291695761 0.0023604370064622634 0 -0.027172465159363886 0.0025625516360031943 0 -0.026882415234756558 0.0032142465139000363 0 -0.026937037674897173 0.0018658144274148044 0 -0.026008448291695761 0.0023604370064622634 0 -0.027172465159363886 0.0025625516360031943 0 -0.026937037674897173 0.0018658144274148044 0 -0.027172465159363886 0.0025625516360031943 0 -0.027928409061260463 0.0022669976095556349 0 -0.027172465159363886 0.0025625516360031943 0 -0.027928409061260463 0.0022669976095556349 0 -0.027736022112379063 0.0031401880463035763 0 -0.027172465159363886 0.0025625516360031943 0 -0.027736022112379063 0.0031401880463035763 0 -0.026882415234756558 0.0032142465139000363 0 -0.028546431264126922 0.0042005237629508694 0 -0.027736022112379063 0.0031401880463035763 0 -0.027330587819620122 0.0038611244683811143 0 -0.027736022112379063 0.0031401880463035763 0 -0.026882415234756558 0.0032142465139000363 0 -0.027330587819620122 0.0038611244683811143 0 -0.026882415234756558 0.0032142465139000363 0 -0.026446452430279384 0.0039210905822381608 0 -0.027330587819620122 0.0038611244683811143 0 -0.026446452430279384 0.0039210905822381608 0 -0.027330587819620122 0.0038611244683811143 0 -0.027489097749259797 0.004799323613670691 0 -0.026446452430279384 0.0039210905822381608 0 -0.027489097749259797 0.004799323613670691 0 -0.025925311591096102 0.0049287903179710485 0 -0.028546431264126922 0.0042005237629508694 0 -0.027330587819620122 0.0038611244683811143 0 -0.027489097749259797 0.004799323613670691 0 -0.028546431264126922 0.0042005237629508694 0 -0.027489097749259797 0.004799323613670691 0 -0.028852021888056963 0.005325141942731061 0 -0.027489097749259797 0.004799323613670691 0 -0.028088501142765069 0.0064279123303305746 0 -0.025925311591096102 0.0049287903179710485 0 -0.029963910961655998 0.0054364703975069628 0 -0.022489989463416075 0.0039608422741242806 0 -0.030276923638070531 0.0039912138419962509 0 -0.029358081809319491 0.0040861673177497327 0 -0.028966126338397156 0.0028236152121180265 0 -0.027489097749259797 0.004799323613670691 0 -0.028088501142765069 0.0064279123303305746 0 -0.028852021888056963 0.005325141942731061 0 -0.028088501142765069 0.0064279123303305746 0 -0.028852021888056963 0.005325141942731061 0 -0.030088880235893588 0.0062354750245379948 0 -0.029974988550403731 0.0049453210795226254 0 -0.028852021888056963 0.005325141942731061 0 -0.030088880235893588 0.0062354750245379948 0 -0.028088501142765069 0.0064279123303305746 0 -0.030088880235893588 0.0062354750245379948 0 -0.030656126489385867 0.0071714518069217262 0 -0.029963910961655998 0.0054364703975069628 0 -0.030822775998647318 0.0059968281248905173 0 -0.030276923638070531 0.0039912138419962509 0 -0.031443144203395397 0.0051789891331824696 0 -0.030399729797982077 0.0054060293631006751 0 -0.030276923638070531 0.0039912138419962509 0 -0.030399729797982077 0.0054060293631006751 0 -0.029358081809319491 0.0040861673177497327 0 -0.030399729797982077 0.0054060293631006751 0 -0.029358081809319491 0.0040861673177497327 0 -0.029129264793213674 0.0050688147422983587 0 -0.031858342198264319 0.0091888384578048682 0 -0.034239229567760987 0.0095635290780950455 0 -0.03234596552553614 0.0069366235162943773 0 -0.03296743277799432 0.007909765447935712 0 -0.032488005087601982 0.0070587345095078878 0 -0.031723596819060583 0.0059228282645023087 0 -0.03128617042309708 0.0060635169949433132 0 -0.031553909070409211 0.0067737023117315125 0 -0.029974988550403731 0.0049453210795226254 0 -0.030088880235893588 0.0062354750245379948 0 -0.03128617042309708 0.0060635169949433132 0 -0.030088880235893588 0.0062354750245379948 0 -0.03128617042309708 0.0060635169949433132 0 -0.031553909070409211 0.0067737023117315125 0 -0.030656126489385867 0.0071714518069217262 0 -0.031553909070409211 0.0067737023117315125 0 -0.032080810935050878 0.0063503982901580861 0 -0.030088880235893588 0.0062354750245379948 0 -0.030656126489385867 0.0071714518069217262 0 -0.031553909070409211 0.0067737023117315125 0 -0.031723596819060583 0.0059228282645023087 0 -0.031553909070409211 0.0067737023117315125 0 -0.03234596552553614 0.0069366235162943773 0 -0.031553909070409211 0.0067737023117315125 0 -0.03234596552553614 0.0069366235162943773 0 -0.032080810935050878 0.0063503982901580861 0 -0.031774534062001675 0.0061201258229080166 0 -0.03234596552553614 0.0069366235162943773 0 -0.032080810935050878 0.0063503982901580861 0 -0.031774534062001675 0.0061201258229080166 0 -0.032080810935050878 0.0063503982901580861 0 -0.03199697318867515 0.0059981644832150091 0 -0.030822775998647318 0.0059968281248905173 0 -0.031941400458035014 0.0063774161525544616 0 -0.031443144203395397 0.0051789891331824696 0 -0.031583928005735132 0.0060699660800674947 0 -0.032080810935050878 0.0063503982901580861 0 -0.031583928005735132 0.0060699660800674947 0 -0.032175405096118909 0.0061610203286896655 0 -0.031154173720709548 0.0065667207765098363 0 -0.031583928005735132 0.0060699660800674947 0 -0.032080810935050878 0.0063503982901580861 0 -0.032175405096118909 0.0061610203286896655 0 -0.029614747273538383 0.0013346457352295617 0 -0.030058937697707164 0.0011587890348310952 0 -0.02921231443592107 0.00067561741339230866 0 -0.0309275118706628 0.0035884433693519052 0 -0.03058024080918709 0.0039274156935069377 0 -0.030859547103389843 0.0033880168608124658 0 -0.0309275118706628 0.0035884433693519052 0 -0.031616316561265803 0.0047805193003180955 0 -0.032175405096118909 0.0061610203286896655 0 -0.03199697318867515 0.0059981644832150091 0 -0.032080810935050878 0.0063503982901580861 0 -0.032175405096118909 0.0061610203286896655 0 -0.03199697318867515 0.0059981644832150091 0 -0.030399729797982077 0.0054060293631006751 0 -0.031154173720709548 0.0065667207765098363 0 -0.029571147540513296 0.0063656136049432006 0 -0.030399729797982077 0.0054060293631006751 0 -0.029571147540513296 0.0063656136049432006 0 -0.029129264793213674 0.0050688147422983587 0 -0.031443144203395397 0.0051789891331824696 0 -0.031583928005735132 0.0060699660800674947 0 -0.030399729797982077 0.0054060293631006751 0 -0.031583928005735132 0.0060699660800674947 0 -0.030399729797982077 0.0054060293631006751 0 -0.031154173720709548 0.0065667207765098363 0 -0.028561869244758488 0.0010509755444734843 0 -0.02921231443592107 0.00067561741339230866 0 -0.028426135042008808 0.00046542158107123625 0 -0.03058024080918709 0.0039274156935069377 0 -0.027287437693227043 0.00067606054038017868 0 -0.027915692235534376 -0.00099842471314948926 0 -0.027287437693227043 0.00067606054038017868 0 -0.024996355420999969 -0.0019648339531170133 0 -0.027545517614125905 -0.0019424528461022474 0 -0.026670669945462709 -0.0052815695445883586 0 -0.026670669945462709 -0.0052815695445883586 0 -0.023301748105991157 -0.0059850215020705918 0 -0.024099128723104987 -0.0039139201902738084 0 -0.024996355420999969 -0.0019648339531170133 0 -0.026670669945462709 -0.0052815695445883586 0 -0.024099128723104987 -0.0039139201902738084 0 -0.023847409654656201 0.00021738346859554361 0 -0.024088330597482707 0.00025123569022109251 0 -0.023885217534808465 0.00049552956553124735 0 -0.024088330597482707 0.00025123569022109251 0 -0.023885217534808465 0.00049552956553124735 0 -0.024016128312148999 0.00051937858699244925 0 -0.027287437693227043 0.00067606054038017868 0 -0.022311722823521424 -0.0037861240405303725 0 -0.027287437693227043 0.00067606054038017868 0 -0.027053503671331049 0.0036508329037716692 0 -0.022311722823521424 -0.0037861240405303725 0 -0.021375922175404783 -0.00067016457295499411 0 -0.019476198777160007 -0.0047693292401203265 0 -0.020240982129939654 -0.0046141900267505989 0 -0.019198262450008614 -0.0021651429599364473 0 -0.016678708152504992 -0.006346054620399175 0 -0.014862802365474884 -0.0033105478578406983 0 -0.011975461049553522 -0.0074457797501372392 0 -0.011369549102819532 -0.0044797569001428766 0 -0.012260080138582322 -0.0054358866037628097 0 -0.011975461049553522 -0.0074457797501372392 0 -0.012978785578047981 -0.0075006749891113403 0 -0.012260080138582322 -0.0054358866037628097 0 -0.022311722823521424 -0.0037861240405303725 0 -0.016678708152504992 -0.006346054620399175 0 -0.022288443704503887 -0.0025652142329418235 0 -0.023122451104102947 -0.0059338221271036488 0 -0.021014874726646319 -0.0032684797939460941 0 -0.022288443704503887 -0.0025652142329418235 0 -0.023301748105991157 -0.0059850215020705918 0 -0.024099128723104987 -0.0039139201902738084 0 -0.023122451104102947 -0.0059338221271036488 0 -0.02222599266180179 -0.0061178794898430391 0 -0.021014874726646319 -0.0032684797939460941 0 -0.022638372699567508 -0.0036676189232405726 0 -0.022311722823521424 -0.0037861240405303725 0 -0.011273753217580685 -0.0082946921429853313 0 -0.012664814631079761 -0.010529460432508622 0 -0.012353832772693234 -0.0095107451072596501 0 -0.012664814631079761 -0.010529460432508622 0 -0.012472043789447503 -0.010693587992114777 0 -0.012353832772693234 -0.0095107451072596501 0 -0.016678708152504992 -0.006346054620399175 0 -0.016860897969571707 -0.0070689161586081064 0 -0.010735936687898573 -0.0091957522101867931 0 -0.012664814631079761 -0.010529460432508622 0 -0.012472043789447503 -0.010693587992114777 0 -0.012472043789447503 -0.010693587992114777 0 -0.0092696662257198033 -0.010531784270151199 0 -0.0091861711912685148 -0.013741239915743815 0 -0.010735936687898573 -0.0091957522101867931 0 -0.012472043789447503 -0.010693587992114777 0 -0.0092696662257198033 -0.010531784270151199 0 -0.011393526617090704 -0.010399215323963713 0 -0.010606985462480942 -0.0068712653258540795 0 -0.012472043789447503 -0.010693587992114777 0 -0.012917272401170214 -0.0092123426629295239 0 -0.014330951990991537 -0.0093374507273778027 0 -0.012472043789447503 -0.010693587992114777 0 -0.012917272401170214 -0.0092123426629295239 0 -0.012353832772693234 -0.0095107451072596501 0 -0.012917272401170214 -0.0092123426629295239 0 -0.012353832772693234 -0.0095107451072596501 0 -0.012390131037643892 -0.0087033956614265707 0 -0.00090523040657106862 0.00059271021762853573 0 -0.0025024707438731134 -0.00082590216686576252 0 -0.00041141827189384499 -0.00071774885656135411 0 -0.0021728559163613106 -0.0043537995940489795 0 -0.010606985462480942 -0.0068712653258540795 0 -0.0046138424352331646 -0.0102049587798999 0 -0.0092696662257198033 -0.010531784270151199 0 -0.0091861711912685148 -0.013741239915743815 0 -0.0025024707438731134 -0.00082590216686576252 0 -0.00098825448065012022 -0.0019219825610063276 0 -0.00041141827189384499 -0.00071774885656135411 0 -0.010606985462480942 -0.0068712653258540795 0 -0.0085781905273959267 -0.0034322615647336759 0 -0.014457753910954527 -0.0066978683607427734 0 -0.014634246052085107 -0.0057956989888304561 0 -0.013924916750609473 -0.0055256529767981431 0 -0.014457753910954527 -0.0066978683607427734 0 -0.015231179064896355 -0.0057008089186306012 0 -0.014634246052085107 -0.0057956989888304561 0 -0.014634246052085107 -0.0057956989888304561 0 -0.013924916750609473 -0.0055256529767981431 0 -0.014265839760218316 -0.004797888451291219 0 -0.015231179064896355 -0.0057008089186306012 0 -0.014634246052085107 -0.0057956989888304561 0 -0.01513290613582014 -0.0047206473130096778 0 -0.014330951990991537 -0.0093374507273778027 0 -0.012978785578047981 -0.0075006749891113403 0 -0.012260080138582322 -0.0054358866037628097 0 -0.014457753910954527 -0.0066978683607427734 0 -0.013924916750609473 -0.0055256529767981431 0 -0.012260080138582322 -0.0054358866037628097 0 -0.010606985462480942 -0.0068712653258540795 0 -0.013677305076233524 -0.0062084205234150007 0 -0.012917272401170214 -0.0092123426629295239 0 -0.012978785578047981 -0.0075006749891113403 0 -0.012390131037643892 -0.0087033956614265707 0 -0.011273753217580685 -0.0082946921429853313 0 -0.012978785578047981 -0.0075006749891113403 0 -0.012390131037643892 -0.0087033956614265707 0 -0.011273753217580685 -0.0082946921429853313 0 -0.012353832772693234 -0.0095107451072596501 0 -0.012390131037643892 -0.0087033956614265707 0 -0.016678708152504992 -0.006346054620399175 0 -0.012502564235438369 -0.0074259673236538159 0 -0.012917272401170214 -0.0092123426629295239 0 -0.014330951990991537 -0.0093374507273778027 0 -0.012978785578047981 -0.0075006749891113403 0 -0.013924916750609473 -0.0055256529767981431 0 -0.013375914751732131 -0.0046871294894918532 0 -0.012260080138582322 -0.0054358866037628097 0 -0.013375914751732131 -0.0046871294894918532 0 -0.012260080138582322 -0.0054358866037628097 0 -0.012614351390596905 -0.0038726859964867515 0 -0.013924916750609473 -0.0055256529767981431 0 -0.013375914751732131 -0.0046871294894918532 0 -0.014265839760218316 -0.004797888451291219 0 -0.013375914751732131 -0.0046871294894918532 0 -0.014265839760218316 -0.004797888451291219 0 -0.013719012164734415 -0.0037722041885581985 0 -0.014265839760218316 -0.004797888451291219 0 -0.013719012164734415 -0.0037722041885581985 0 -0.014658208019833628 -0.0035764321589041121 0 -0.013375914751732131 -0.0046871294894918532 0 -0.013719012164734415 -0.0037722041885581985 0 -0.012614351390596905 -0.0038726859964867515 0 -0.015231179064896355 -0.0057008089186306012 0 -0.01513290613582014 -0.0047206473130096778 0 -0.015304251990099512 -0.0050436492452988566 0 -0.014634246052085107 -0.0057956989888304561 0 -0.014265839760218316 -0.004797888451291219 0 -0.01513290613582014 -0.0047206473130096778 0 -0.014265839760218316 -0.004797888451291219 0 -0.01513290613582014 -0.0047206473130096778 0 -0.014658208019833628 -0.0035764321589041121 0 -0.01513290613582014 -0.0047206473130096778 0 -0.015594428004255012 -0.0028388860816665126 0 -0.014658208019833628 -0.0035764321589041121 0 -0.015019005267187512 -0.0049147330313343224 0 -0.016641834325972771 -0.0029504134342647516 0 -0.01513290613582014 -0.0047206473130096778 0 -0.015594428004255012 -0.0028388860816665126 0 -0.016651772369567615 -0.002869287755946377 0 -0.014658208019833628 -0.0035764321589041121 0 -0.015005517926625979 -0.0025943741125833242 0 -0.014175541949270945 -0.0027139663827278151 0 -0.015594428004255012 -0.0028388860816665126 0 -0.014658208019833628 -0.0035764321589041121 0 -0.015005517926625979 -0.0025943741125833242 0 -0.014748817447249421 -0.0018473184589446548 0 -0.015005517926625979 -0.0025943741125833242 0 -0.015546558471666415 -0.0019132073280009796 0 -0.014748817447249421 -0.0018473184589446548 0 -0.015005517926625979 -0.0025943741125833242 0 -0.014175541949270945 -0.0027139663827278151 0 -0.015594428004255012 -0.0028388860816665126 0 -0.015546558471666415 -0.0019132073280009796 0 -0.016476975590082328 -0.0016174104684292235 0 -0.015594428004255012 -0.0028388860816665126 0 -0.015005517926625979 -0.0025943741125833242 0 -0.015546558471666415 -0.0019132073280009796 0 -0.013719012164734415 -0.0037722041885581985 0 -0.013305421303730662 -0.0027721446540878063 0 -0.012614351390596905 -0.0038726859964867515 0 -0.013719012164734415 -0.0037722041885581985 0 -0.014658208019833628 -0.0035764321589041121 0 -0.014175541949270945 -0.0027139663827278151 0 -0.013719012164734415 -0.0037722041885581985 0 -0.013305421303730662 -0.0027721446540878063 0 -0.014175541949270945 -0.0027139663827278151 0 -0.013305421303730662 -0.0027721446540878063 0 -0.014175541949270945 -0.0027139663827278151 0 -0.013904629494626624 -0.0018347830733891415 0 -0.014748817447249421 -0.0018473184589446548 0 -0.014175541949270945 -0.0027139663827278151 0 -0.013904629494626624 -0.0018347830733891415 0 -0.013305421303730662 -0.0027721446540878063 0 -0.013904629494626624 -0.0018347830733891415 0 -0.012986737781514787 -0.0017797659839511896 0 -0.013305421303730662 -0.0027721446540878063 0 -0.012986737781514787 -0.0017797659839511896 0 -0.012428877944775958 -0.0026689687578628895 0 -0.011020544293332697 -0.0021395649100071118 0 -0.011369549102819532 -0.0044797569001428766 0 -0.011801023286154727 -0.0034866237118293974 0 -0.012986737781514787 -0.0017797659839511896 0 -0.012440660018012084 -0.0020036450663631316 0 -0.012428877944775958 -0.0026689687578628895 0 -0.012986737781514787 -0.0017797659839511896 0 -0.012440660018012084 -0.0020036450663631316 0 -0.012154804995049725 -0.0014883743433072149 0 -0.012440660018012084 -0.0020036450663631316 0 -0.012428877944775958 -0.0026689687578628895 0 -0.011781710777436678 -0.0021413585513292087 0 -0.012428877944775958 -0.0026689687578628895 0 -0.012614351390596905 -0.0038726859964867515 0 -0.011801023286154727 -0.0034866237118293974 0 -0.013305421303730662 -0.0027721446540878063 0 -0.012428877944775958 -0.0026689687578628895 0 -0.012614351390596905 -0.0038726859964867515 0 -0.011756814803415215 -0.0026334394792823413 0 -0.011020544293332697 -0.0021395649100071118 0 -0.011801023286154727 -0.0034866237118293974 0 -0.012428877944775958 -0.0026689687578628895 0 -0.011756814803415215 -0.0026334394792823413 0 -0.011801023286154727 -0.0034866237118293974 0 -0.011756814803415215 -0.0026334394792823413 0 -0.011781710777436678 -0.0021413585513292087 0 -0.011020544293332697 -0.0021395649100071118 0 -0.012428877944775958 -0.0026689687578628895 0 -0.011756814803415215 -0.0026334394792823413 0 -0.011781710777436678 -0.0021413585513292087 0 -0.012440660018012084 -0.0020036450663631316 0 -0.011781710777436678 -0.0021413585513292087 0 -0.012154804995049725 -0.0014883743433072149 0 -0.011781710777436678 -0.0021413585513292087 0 -0.011529770896250902 -0.0017655056601421774 0 -0.012154804995049725 -0.0014883743433072149 0 -0.020637662368162852 0.0008934974228751142 0 -0.022489989463416075 0.0039608422741242806 0 -0.020637662368162852 0.0008934974228751142 0 -0.014862802365474884 -0.0033105478578406983 0 -0.011529770896250902 -0.0017655056601421774 0 -0.011020544293332697 -0.0021395649100071118 0 -0.010825286204677393 -0.00092556473818323972 0 -0.011781710777436678 -0.0021413585513292087 0 -0.011529770896250902 -0.0017655056601421774 0 -0.011020544293332697 -0.0021395649100071118 0 -0.029358081809319491 0.0040861673177497327 0 -0.0286684911159138 0.0035414862123963418 0 -0.028966126338397156 0.0028236152121180265 0 -0.020637662368162852 0.0008934974228751142 0 -0.021375922175404783 -0.00067016457295499411 0 -0.029358081809319491 0.0040861673177497327 0 -0.0286684911159138 0.0035414862123963418 0 -0.029129264793213674 0.0050688147422983587 0 -0.020637662368162852 0.0008934974228751142 0 -0.027053503671331049 0.0036508329037716692 0 -0.023899674510166325 0.00081080898046248637 0 -0.023885217534808465 0.00049552956553124735 0 -0.024016128312148999 0.00051937858699244925 0 -0.019476198777160007 -0.0047693292401203265 0 -0.018814825452716597 -0.0022586857633110236 0 -0.019198262450008614 -0.0021651429599364473 0 -0.018187540249805085 0.00035371296496088052 0 -0.018814825452716597 -0.0022586857633110236 0 -0.019198262450008614 -0.0021651429599364473 0 -0.011369549102819532 -0.0044797569001428766 0 -0.012260080138582322 -0.0054358866037628097 0 -0.012614351390596905 -0.0038726859964867515 0 -0.011369549102819532 -0.0044797569001428766 0 -0.012614351390596905 -0.0038726859964867515 0 -0.011801023286154727 -0.0034866237118293974 0 0.0045700432746721949 -0.0019286555419274708 0 0.0027859359566798293 -0.0028846500492371659 0 0.0059423138467848968 -0.0042003991261216952 0 0.0079673549833946707 -0.0027309760250828498 0 0.0045700432746721949 -0.0019286555419274708 0 0.0059423138467848968 -0.0042003991261216952 0 0.0062250945815447069 -0.0032213507506956458 0 0.01064477946597903 -0.0046221788001583174 0 0.0036589806075891912 0.00095644083489440656 0 0.0069806582472925734 -0.00019778184124406186 0 0.0045700432746721949 -0.0019286555419274708 0 0.0036589806075891912 0.00095644083489440656 0 0.0045700432746721949 -0.0019286555419274708 0 0.0026776576595177624 -0.00087069886922206254 0 0.0045700432746721949 -0.0019286555419274708 0 0.0025376686913233183 -0.0020196780406057306 0 0.0027859359566798293 -0.0028846500492371659 0 0.0045700432746721949 -0.0019286555419274708 0 0.0026776576595177624 -0.00087069886922206254 0 0.0025376686913233183 -0.0020196780406057306 0 0.0025376686913233183 -0.0020196780406057306 0 0.0019898630347421212 -0.0026672336816296726 0 0.0027859359566798293 -0.0028846500492371659 0 0.0025376686913233183 -0.0020196780406057306 0 0.001615994824335807 -0.0022107460261721235 0 0.0019898630347421212 -0.0026672336816296726 0 0.001615994824335807 -0.0022107460261721235 0 0.0010105289930946431 -0.0030218614315189306 0 0.0019898630347421212 -0.0026672336816296726 0 0.001615994824335807 -0.0022107460261721235 0 0.00050759831216190001 -0.0017945323920836467 0 0.0010105289930946431 -0.0030218614315189306 0 0.001615994824335807 -0.0022107460261721235 0 0.0017096761111284008 -0.0014187922156153302 0 0.00050759831216190001 -0.0017945323920836467 0 0.0017096761111284008 -0.0014187922156153302 0 0.0011063097792188927 -0.00016544471263217904 0 0.00050759831216190001 -0.0017945323920836467 0 0.0025376686913233183 -0.0020196780406057306 0 0.001615994824335807 -0.0022107460261721235 0 0.0017096761111284008 -0.0014187922156153302 0 0.0026776576595177624 -0.00087069886922206254 0 0.0025376686913233183 -0.0020196780406057306 0 0.0017096761111284008 -0.0014187922156153302 0 0.0026776576595177624 -0.00087069886922206254 0 0.0017096761111284008 -0.0014187922156153302 0 0.0011063097792188927 -0.00016544471263217904 0 0.0036589806075891912 0.00095644083489440656 0 0.0026776576595177624 -0.00087069886922206254 0 0.0011063097792188927 -0.00016544471263217904 0 0.0011063097792188927 -0.00016544471263217904 0 -0.00041141827189384499 -0.00071774885656135411 0 0.00050759831216190001 -0.0017945323920836467 0 -0.00090523040657106862 0.00059271021762853573 0 0.0011063097792188927 -0.00016544471263217904 0 -0.00041141827189384499 -0.00071774885656135411 0 -0.00098825448065012022 -0.0019219825610063276 0 -0.00041141827189384499 -0.00071774885656135411 0 0.00050759831216190001 -0.0017945323920836467 0 -0.00098825448065012022 -0.0019219825610063276 0 0.00050759831216190001 -0.0017945323920836467 0 0.00042083367597487136 -0.0029446624024010311 0 -0.00015765145873478215 -0.0020591572648472204 0 -0.0020501051680275376 -0.0028909769426591629 0 -0.0085781905273959267 -0.0034322615647336759 0 -0.0020501051680275376 -0.0028909769426591629 0 -0.015231179064896355 -0.0057008089186306012 0 -0.015304251990099512 -0.0050436492452988566 0 -0.01548892418269146 -0.00503038521631649 0 -0.0020501051680275376 -0.0028909769426591629 0 -0.0060011063264801545 -0.0039151605939985153 0 -0.01548892418269146 -0.00503038521631649 0 -0.015320986765257899 -0.0048142868735692023 0 -0.01538832092242442 -0.0046624931117124494 0 -0.01513290613582014 -0.0047206473130096778 0 -0.015304251990099512 -0.0050436492452988566 0 -0.015320986765257899 -0.0048142868735692023 0 -0.015304251990099512 -0.0050436492452988566 0 -0.01548892418269146 -0.00503038521631649 0 -0.015320986765257899 -0.0048142868735692023 0 -0.01513290613582014 -0.0047206473130096778 0 -0.015320986765257899 -0.0048142868735692023 0 -0.015281963716504029 -0.0046482173746420523 0 -0.015281963716504029 -0.0046482173746420523 0 -0.01538832092242442 -0.0046624931117124494 0 -0.015295785915018907 -0.0044618197026850053 0 -0.0060011063264801545 -0.0039151605939985153 0 -0.0054768524078412624 -0.0021160371628532616 0 -0.016651772369567615 -0.002869287755946377 0 -0.017630965101087148 -0.0012666433780924001 0 -0.016476975590082328 -0.0016174104684292235 0 -0.015594428004255012 -0.0028388860816665126 0 -0.016651772369567615 -0.002869287755946377 0 -0.016476975590082328 -0.0016174104684292235 0 -0.016641834325972771 -0.0029504134342647516 0 -0.0054768524078412624 -0.0021160371628532616 0 -0.015320986765257899 -0.0048142868735692023 0 -0.015281963716504029 -0.0046482173746420523 0 -0.01538832092242442 -0.0046624931117124494 0 0.0031181119806190502 -0.0027206161015671981 0 0.0025566928562540262 -0.0021812953422137298 0 0.0034460803577493425 -0.0010446768026959301 0 0.0031181119806190502 -0.0027206161015671981 0 0.0026923532770273574 -0.0027285276974577033 0 0.0025566928562540262 -0.0021812953422137298 0 0.0025566928562540262 -0.0021812953422137298 0 0.0023767098926235635 -0.0025646953188322107 0 0.0023325559051179784 -0.0026648753191821756 0 0.0026923532770273574 -0.0027285276974577033 0 0.0025566928562540262 -0.0021812953422137298 0 0.0024409668979874896 -0.0025170902236449663 0 0.0025566928562540262 -0.0021812953422137298 0 0.0024409668979874896 -0.0025170902236449663 0 0.0023767098926235635 -0.0025646953188322107 0 0.0024409668979874896 -0.0025170902236449663 0 0.0023528272799644115 -0.0026890224686173386 0 0.0023767098926235635 -0.0025646953188322107 0 0.0026923532770273574 -0.0027285276974577033 0 0.0024409668979874896 -0.0025170902236449663 0 0.0023528272799644115 -0.0026890224686173386 0 0.0030415512758725227 -0.0034548928487784752 0 0.0031181119806190502 -0.0027206161015671981 0 0.0026923532770273574 -0.0027285276974577033 0 -0.0020501051680275376 -0.0028909769426591629 0 0.0029153263362191022 -0.0032383042109924618 0 0.0010105289930946431 -0.0030218614315189306 0 0.0022749493179018911 -0.0031525449574617307 0 0.0021287060470827068 -0.0031348558588337821 0 0.0030415512758725227 -0.0034548928487784752 0 0.0026923532770273574 -0.0027285276974577033 0 0.0023528272799644115 -0.0026890224686173386 0 0.0010105289930946431 -0.0030218614315189306 0 0.0021287060470827068 -0.0031348558588337821 0 0.0019898630347421212 -0.0026672336816296726 0 0.0021287060470827068 -0.0031348558588337821 0 0.0019898630347421212 -0.0026672336816296726 0 0.0027859359566798293 -0.0028846500492371659 0 0.0027859359566798293 -0.0028846500492371659 0 0.0038161798921675107 -0.0039155670552496131 0 0.004973718618550939 -0.0026931993942497898 0 0.0021287060470827068 -0.0031348558588337821 0 0.0027859359566798293 -0.0028846500492371659 0 0.0038161798921675107 -0.0039155670552496131 0 0.0022749493179018911 -0.0031525449574617307 0 0.0021287060470827068 -0.0031348558588337821 0 0.0023967443097726747 -0.0027622595890631637 0 0.0022399618558238492 -0.0031034291995169268 0 0.0031052862929930257 -0.0033355461837860467 0 0.0022749493179018911 -0.0031525449574617307 0 0.0024411752588649545 -0.0026730238973238659 0 0.0023967443097726747 -0.0027622595890631637 0 0.0023528272799644115 -0.0026890224686173386 0 0.0023767098926235635 -0.0025646953188322107 0 0.0024411752588649545 -0.0026730238973238659 0 0.0029153263362191022 -0.0032383042109924618 0 0.0021647038768516386 -0.0025612600063895344 0 0.0023767098926235635 -0.0025646953188322107 0 0.0024411752588649545 -0.0026730238973238659 0 0.0023325559051179784 -0.0026648753191821756 0 0.0042804794562045084 -0.0035866683548384541 0 0.0031052862929930257 -0.0033355461837860467 0 0.0031089933647382522 -0.002534047100828283 0 0.0024411752588649545 -0.0026730238973238659 0 0.0023967443097726747 -0.0027622595890631637 0 0.0053960708167197996 -0.0045932640779165314 0 0.0038161798921675107 -0.0039155670552496131 0 0.0049950437268060852 -0.0037264267387924458 0 0.0038161798921675107 -0.0039155670552496131 0 0.0049950437268060852 -0.0037264267387924458 0 0.004973718618550939 -0.0026931993942497898 0 0.0030100880993665252 -0.0029521241604944619 0 0.005475603348931349 -0.0034431164025706703 0 -0.0015925185488829764 0.0027343637395891027 0 0.00017327839720527555 0.00040275832334591913 0 -0.00014636388954012233 0.0023770277926063268 0 0.0027684074278349754 -0.0043045282660380277 0 0.0027522114607661402 -0.0032179324003797751 0 0.0022051918980412911 -0.0029430889094446775 0 -0.00037535121289441955 -0.0016989715302371442 0 0.0014172554497500051 -0.0012500942797853542 0 -0.0015925185488829764 0.0027343637395891027 0 -0.00014636388954012233 0.0023770277926063268 0 -0.00075687326854625861 0.0033371247904656252 0 0.0034291512423576271 -0.0035400558296340185 0 0.0027684074278349754 -0.0043045282660380277 0 0.0027522114607661402 -0.0032179324003797751 0 0.0031089933647382522 -0.002534047100828283 0 0.0034291512423576271 -0.0035400558296340185 0 0.0027522114607661402 -0.0032179324003797751 0 0.0031089933647382522 -0.002534047100828283 0 0.0024411752588649545 -0.0026730238973238659 0 0.002496349317134158 -0.0028540393696872561 0 0.0031089933647382522 -0.002534047100828283 0 0.0027522114607661402 -0.0032179324003797751 0 0.002496349317134158 -0.0028540393696872561 0 0.0027522114607661402 -0.0032179324003797751 0 0.002496349317134158 -0.0028540393696872561 0 0.0022051918980412911 -0.0029430889094446775 0 0.0025566928562540262 -0.0021812953422137298 0 0.0022051918980412911 -0.0029430889094446775 0 0.0023325559051179784 -0.0026648753191821756 0 0.0024583175556084423 -0.0021887834430903206 0 0.0014172554497500051 -0.0012500942797853542 0 0.0024411752588649545 -0.0026730238973238659 0 0.002496349317134158 -0.0028540393696872561 0 0.0023325559051179784 -0.0026648753191821756 0 0.002496349317134158 -0.0028540393696872561 0 0.0022051918980412911 -0.0029430889094446775 0 0.0023325559051179784 -0.0026648753191821756 0 0.00017327839720527555 0.00040275832334591913 0 0.0018727110021833414 0.0016562358753456968 0 0.0020150826667468635 -0.00029230450262981446 0 -0.00014636388954012233 0.0023770277926063268 0 0.0018727110021833414 0.0016562358753456968 0 0.00021325065462149067 0.003944713557471901 0 0.0029461104004428499 0.0020051019308182563 0 -0.001397334774782408 0.0064390630834243465 0 0.00017327839720527555 0.00040275832334591913 0 -0.00014636388954012233 0.0023770277926063268 0 0.0018727110021833414 0.0016562358753456968 0 0.0061256217426322451 0.0049734374871215088 0 0.0017872211959483386 0.0034107812895005861 0 0.0063868998792636434 -0.0028293213484697783 0 0.0061256217426322451 0.0049734374871215088 0 0.0017872211959483386 0.0034107812895005861 0 0.0023339479914499923 0.008864177641633544 0 0.0018727110021833414 0.0016562358753456968 0 0.0020150826667468635 -0.00029230450262981446 0 0.0034460803577493425 -0.0010446768026959301 0 0.0029461104004428499 0.0020051019308182563 0 -0.0054768524078412624 -0.0021160371628532616 0 0.0025566928562540262 -0.0021812953422137298 0 0.00017327839720527555 0.00040275832334591913 0 0.0020150826667468635 -0.00029230450262981446 0 0.0025566928562540262 -0.0021812953422137298 0 0.0020150826667468635 -0.00029230450262981446 0 0.0034460803577493425 -0.0010446768026959301 0 -0.0057650088054837329 0.0031194521095619871 0 -0.0054768524078412624 -0.0021160371628532616 0 -0.017604232118924965 0.000848569289118086 0 -0.017630965101087148 -0.0012666433780924001 0 -0.016616839226035723 -9.4229541953423174e-05 0 -0.017630965101087148 -0.0012666433780924001 0 -0.016476975590082328 -0.0016174104684292235 0 -0.016616839226035723 -9.4229541953423174e-05 0 -0.016476975590082328 -0.0016174104684292235 0 -0.016616839226035723 -9.4229541953423174e-05 0 -0.015477898005122316 -0.00080044263266267047 0 -0.017604232118924965 0.000848569289118086 0 -0.016616839226035723 -9.4229541953423174e-05 0 -0.01664556092125534 0.0017869481036055766 0 -0.016616839226035723 -9.4229541953423174e-05 0 -0.01664556092125534 0.0017869481036055766 0 -0.015508700454475104 0.00068130641599944313 0 -0.017604232118924965 0.000848569289118086 0 -0.01664556092125534 0.0017869481036055766 0 -0.017537446249484816 0.0025330880240664695 0 -0.017537446249484816 0.0025330880240664695 0 -0.017070421524277676 0.0031094343514459183 0 -0.01741260437933894 0.0031524980847699039 0 -0.01664556092125534 0.0017869481036055766 0 -0.017537446249484816 0.0025330880240664695 0 -0.01741260437933894 0.0031524980847699039 0 -0.01664556092125534 0.0017869481036055766 0 -0.015354340088851502 0.0023436567077156217 0 -0.01741260437933894 0.0031524980847699039 0 -0.0056030399639211371 0.0069794630342192819 0 -0.0080818700256602878 0.017035937746564499 0 0.005923956679841972 0.013318674354663782 0 0.00068575958881651636 0.0160314384079988 0 0.0054889286078174115 0.022067835277562089 0 0.0061256217426322451 0.0049734374871215088 0 0.005923956679841972 0.013318674354663782 0 0.0023339479914499923 0.008864177641633544 0 0.005923956679841972 0.013318674354663782 0 0.00068575958881651636 0.0160314384079988 0 0.0023339479914499923 0.008864177641633544 0 -0.0057650088054837329 0.0031194521095619871 0 -0.0056030399639211371 0.0069794630342192819 0 0.0017872211959483386 0.0034107812895005861 0 0.0023339479914499923 0.008864177641633544 0 -0.00318376976133611 0.0098536170496647361 0 0.00068575958881651636 0.0160314384079988 0 0.0023339479914499923 0.008864177641633544 0 -0.00318376976133611 0.0098536170496647361 0 -0.00014636388954012233 0.0023770277926063268 0 0.00021325065462149067 0.003944713557471901 0 -0.00075687326854625861 0.0033371247904656252 0 0.00068575958881651636 0.0160314384079988 0 -0.00318376976133611 0.0098536170496647361 0 -0.0049869848492833614 0.018736528777908761 0 0.00068575958881651636 0.0160314384079988 0 -0.0049869848492833614 0.018736528777908761 0 -0.0014180804506984262 0.019827489714191252 0 0.00068575958881651636 0.0160314384079988 0 -0.0014180804506984262 0.019827489714191252 0 0.0014753765856947783 0.021763520750712195 0 -0.00318376976133611 0.0098536170496647361 0 -0.0049869848492833614 0.018736528777908761 0 -0.0083819955787093441 0.016780457789561623 0 -0.001397334774782408 0.0064390630834243465 0 -0.0047812576186224134 0.015283130730604126 0 -0.0055256935394688896 0.017040904312958668 0 -0.0047812576186224134 0.015283130730604126 0 -0.0049869848492833614 0.018736528777908761 0 -0.0086341771089468097 0.017220910022628804 0 -0.007876456421041414 0.021725185817604364 0 0.0044888041537398549 0.011446176742685204 0 -0.0047812576186224134 0.015283130730604126 0 -0.0022270311503877951 0.0046694844344541435 0 -0.0011234367559386303 0.0056722118060435443 0 -0.0013099835802479691 0.0041874092279378192 0 0.00021325065462149067 0.003944713557471901 0 -0.0011234367559386303 0.0056722118060435443 0 -0.0013099835802479691 0.0041874092279378192 0 0.00021325065462149067 0.003944713557471901 0 -0.0013099835802479691 0.0041874092279378192 0 -0.00075687326854625861 0.0033371247904656252 0 -0.0015925185488829764 0.0027343637395891027 0 -0.0013099835802479691 0.0041874092279378192 0 -0.00075687326854625861 0.0033371247904656252 0 -0.0019808078140572129 0.0035589396283818059 0 -0.0015925185488829764 0.0027343637395891027 0 -0.0013099835802479691 0.0041874092279378192 0 -0.019969945352021228 0.0033306894315319516 0 -0.021725891000675096 0.0038598052900877698 0 -0.022542174081431936 0.0060320877418708332 0 -0.013173211992418554 0.00093467328008518433 0 -0.012352296503134831 -0.00047167823745778088 0 -0.013077168878350242 -5.5723029753970062e-05 0 -0.019969945352021228 0.0033306894315319516 0 -0.020962351034529456 0.0031679125777339568 0 -0.020243492242347682 0.0028909627971475441 0 -0.019969945352021228 0.0033306894315319516 0 -0.020962351034529456 0.0031679125777339568 0 -0.021725891000675096 0.0038598052900877698 0 -0.020962351034529456 0.0031679125777339568 0 -0.021863929706878126 0.0031553557162485161 0 -0.021725891000675096 0.0038598052900877698 0 -0.020962351034529456 0.0031679125777339568 0 -0.021863929706878126 0.0031553557162485161 0 -0.021501340495600662 0.002695464968530176 0 -0.026377669600398966 0.0036464670998483692 0 -0.022489989463416075 0.0039608422741242806 0 -0.021863929706878126 0.0031553557162485161 0 -0.021501340495600662 0.002695464968530176 0 -0.022372517687121986 0.0025232259156013825 0 -0.026008448291695761 0.0023604370064622634 0 -0.02438258291345902 0.0024701715242794143 0 -0.02292582675575177 0.009115100912382745 0 -0.022675619329290429 0.0033818413510233541 0 -0.02438258291345902 0.0024701715242794143 0 -0.022542174081431936 0.0060320877418708332 0 -0.022675619329290429 0.0033818413510233541 0 -0.021725891000675096 0.0038598052900877698 0 -0.022542174081431936 0.0060320877418708332 0 -0.021863929706878126 0.0031553557162485161 0 -0.022675619329290429 0.0033818413510233541 0 -0.022372517687121986 0.0025232259156013825 0 -0.026008448291695761 0.0023604370064622634 0 -0.026446452430279384 0.0039210905822381608 0 -0.025925311591096102 0.0049287903179710485 0 -0.024163467844459354 0.00414170077819263 0 -0.022489989463416075 0.0039608422741242806 0 -0.022675619329290429 0.0033818413510233541 0 -0.023348223643119989 0.0024142888231311757 0 -0.022372517687121986 0.0025232259156013825 0 -0.021863929706878126 0.0031553557162485161 0 -0.022675619329290429 0.0033818413510233541 0 -0.021725891000675096 0.0038598052900877698 0 -0.022675619329290429 0.0033818413510233541 0 -0.02438258291345902 0.0024701715242794143 0 -0.023348223643119989 0.0024142888231311757 0 -0.010825286204677393 -0.00092556473818323972 0 -0.011680514185074788 -0.0012289885465117598 0 -0.012352296503134831 -0.00047167823745778088 0 -0.011529770896250902 -0.0017655056601421774 0 -0.010825286204677393 -0.00092556473818323972 0 -0.011680514185074788 -0.0012289885465117598 0 -0.013173211992418554 0.00093467328008518433 0 -0.010825286204677393 -0.00092556473818323972 0 -0.012352296503134831 -0.00047167823745778088 0 -0.015338959126223024 0.0016440796471509905 0 -0.022489989463416075 0.0039608422741242806 0 -0.011529770896250902 -0.0017655056601421774 0 -0.011680514185074788 -0.0012289885465117598 0 -0.012154804995049725 -0.0014883743433072149 0 -0.011680514185074788 -0.0012289885465117598 0 -0.012154804995049725 -0.0014883743433072149 0 -0.012159804077411417 -0.00099874509969776122 0 -0.012154804995049725 -0.0014883743433072149 0 -0.012159804077411417 -0.00099874509969776122 0 -0.012509842717873754 -0.00098156092056577403 0 -0.012159804077411417 -0.00099874509969776122 0 -0.012352296503134831 -0.00047167823745778088 0 -0.012509842717873754 -0.00098156092056577403 0 -0.011680514185074788 -0.0012289885465117598 0 -0.012159804077411417 -0.00099874509969776122 0 -0.012352296503134831 -0.00047167823745778088 0 -0.012352296503134831 -0.00047167823745778088 0 -0.013080688607863804 -0.00065793634987805754 0 -0.012509842717873754 -0.00098156092056577403 0 -0.012352296503134831 -0.00047167823745778088 0 -0.013077168878350242 -5.5723029753970062e-05 0 -0.013080688607863804 -0.00065793634987805754 0 -0.012986737781514787 -0.0017797659839511896 0 -0.013080688607863804 -0.00065793634987805754 0 -0.012509842717873754 -0.00098156092056577403 0 -0.012986737781514787 -0.0017797659839511896 0 -0.012154804995049725 -0.0014883743433072149 0 -0.012509842717873754 -0.00098156092056577403 0 -0.013904629494626624 -0.0018347830733891415 0 -0.012986737781514787 -0.0017797659839511896 0 -0.013634714077895299 -0.0010751572198401309 0 -0.012986737781514787 -0.0017797659839511896 0 -0.013080688607863804 -0.00065793634987805754 0 -0.013634714077895299 -0.0010751572198401309 0 -0.013904629494626624 -0.0018347830733891415 0 -0.013634714077895299 -0.0010751572198401309 0 -0.014432990219252323 -0.00094551035134270568 0 -0.014748817447249421 -0.0018473184589446548 0 -0.013904629494626624 -0.0018347830733891415 0 -0.014432990219252323 -0.00094551035134270568 0 -0.013634714077895299 -0.0010751572198401309 0 -0.014432990219252323 -0.00094551035134270568 0 -0.013765657975925568 -0.00019150794049871541 0 -0.014432990219252323 -0.00094551035134270568 0 -0.013765657975925568 -0.00019150794049871541 0 -0.014713002146307066 -6.1775353615936199e-05 0 -0.013080688607863804 -0.00065793634987805754 0 -0.013634714077895299 -0.0010751572198401309 0 -0.013765657975925568 -0.00019150794049871541 0 -0.013077168878350242 -5.5723029753970062e-05 0 -0.013080688607863804 -0.00065793634987805754 0 -0.013765657975925568 -0.00019150794049871541 0 -0.015546558471666415 -0.0019132073280009796 0 -0.016476975590082328 -0.0016174104684292235 0 -0.015477898005122316 -0.00080044263266267047 0 -0.014748817447249421 -0.0018473184589446548 0 -0.015546558471666415 -0.0019132073280009796 0 -0.015477898005122316 -0.00080044263266267047 0 -0.014748817447249421 -0.0018473184589446548 0 -0.014432990219252323 -0.00094551035134270568 0 -0.015477898005122316 -0.00080044263266267047 0 -0.014432990219252323 -0.00094551035134270568 0 -0.015477898005122316 -0.00080044263266267047 0 -0.014713002146307066 -6.1775353615936199e-05 0 -0.015508700454475104 0.00068130641599944313 0 -0.014499093415566091 0.00078830118957999877 0 -0.015354340088851502 0.0023436567077156217 0 -0.016616839226035723 -9.4229541953423174e-05 0 -0.015477898005122316 -0.00080044263266267047 0 -0.015508700454475104 0.00068130641599944313 0 -0.015477898005122316 -0.00080044263266267047 0 -0.015508700454475104 0.00068130641599944313 0 -0.014713002146307066 -6.1775353615936199e-05 0 -0.015508700454475104 0.00068130641599944313 0 -0.014713002146307066 -6.1775353615936199e-05 0 -0.014499093415566091 0.00078830118957999877 0 -0.013173211992418554 0.00093467328008518433 0 -0.013765657975925568 -0.00019150794049871541 0 -0.014499093415566091 0.00078830118957999877 0 -0.013173211992418554 0.00093467328008518433 0 -0.013077168878350242 -5.5723029753970062e-05 0 -0.013765657975925568 -0.00019150794049871541 0 -0.013765657975925568 -0.00019150794049871541 0 -0.014713002146307066 -6.1775353615936199e-05 0 -0.014499093415566091 0.00078830118957999877 0 -0.015338959126223024 0.0016440796471509905 0 -0.017378633479788894 0.0030337063339638372 0 -0.013173211992418554 0.00093467328008518433 0 -0.014499093415566091 0.00078830118957999877 0 -0.015354340088851502 0.0023436567077156217 0 -0.018979619733291056 0.0035640897602269238 0 -0.019624898770092391 0.0033225114873331619 0 -0.020243492242347682 0.0028909627971475441 0 -0.019969945352021228 0.0033306894315319516 0 -0.018979619733291056 0.0035640897602269238 0 -0.020243492242347682 0.0028909627971475441 0 -0.01664556092125534 0.0017869481036055766 0 -0.015508700454475104 0.00068130641599944313 0 -0.015354340088851502 0.0023436567077156217 0 -0.017378633479788894 0.0030337063339638372 0 -0.017246685922901857 0.0030357067131420471 0 -0.018979619733291056 0.0035640897602269238 0 -0.018615707630753504 0.0025771719359551945 0 -0.01741260437933894 0.0031524980847699039 0 -0.018979619733291056 0.0035640897602269238 0 -0.019624898770092391 0.0033225114873331619 0 -0.018615707630753504 0.0025771719359551945 0 -0.019624898770092391 0.0033225114873331619 0 -0.019979359937273854 0.0031140070231126284 0 -0.018615707630753504 0.0025771719359551945 0 -0.019624898770092391 0.0033225114873331619 0 -0.019979359937273854 0.0031140070231126284 0 -0.020085756563840668 0.0034031839839590559 0 -0.02067195291067005 0.008906260128871012 0 -0.020085756563840668 0.0034031839839590559 0 -0.018557981122479431 0.0043757780286842306 0 -0.020322828019515737 0.004650747089328295 0 -0.020169145954979303 0.0042626635434163786 0 -0.02067195291067005 0.008906260128871012 0 -0.018557981122479431 0.0043757780286842306 0 -0.017364046341528435 0.0065752355971367667 0 -0.019624898770092391 0.0033225114873331619 0 -0.020085756563840668 0.0034031839839590559 0 -0.020243492242347682 0.0028909627971475441 0 -0.018557981122479431 0.0043757780286842306 0 -0.020243492242347682 0.0028909627971475441 0 -0.016392788416622527 0.0041256198589976756 0 -0.020085756563840668 0.0034031839839590559 0 -0.018557981122479431 0.0043757780286842306 0 -0.020243492242347682 0.0028909627971475441 0 -0.020962351034529456 0.0031679125777339568 0 -0.021501340495600662 0.002695464968530176 0 -0.020243492242347682 0.0028909627971475441 0 -0.020243492242347682 0.0028909627971475441 0 -0.014830799701275528 0.0028917608941255403 0 -0.016392788416622527 0.0041256198589976756 0 -0.021501340495600662 0.002695464968530176 0 -0.020243492242347682 0.0028909627971475441 0 -0.02403750767972641 0.00099520503642776714 0 -0.020169244569518921 0.0026208914235250616 0 -0.01967114720550911 0.0021050373856495736 0 -0.023348223643119989 0.0024142888231311757 0 -0.02403750767972641 0.00099520503642776714 0 -0.022372517687121986 0.0025232259156013825 0 -0.026008448291695761 0.0023604370064622634 0 -0.02438258291345902 0.0024701715242794143 0 -0.02403750767972641 0.00099520503642776714 0 -0.02438258291345902 0.0024701715242794143 0 -0.023348223643119989 0.0024142888231311757 0 -0.02403750767972641 0.00099520503642776714 0 -0.021501340495600662 0.002695464968530176 0 -0.02403750767972641 0.00099520503642776714 0 -0.022372517687121986 0.0025232259156013825 0 -0.018557981122479431 0.0043757780286842306 0 -0.016392788416622527 0.0041256198589976756 0 -0.017364046341528435 0.0065752355971367667 0 -0.016392788416622527 0.0041256198589976756 0 -0.014980413961798437 0.0057490685016690999 0 -0.017364046341528435 0.0065752355971367667 0 -0.014830799701275528 0.0028917608941255403 0 -0.016392788416622527 0.0041256198589976756 0 -0.014980413961798437 0.0057490685016690999 0 -0.012546137493492473 0.0073226262360243091 0 -0.014830799701275528 0.0028917608941255403 0 -0.014980413961798437 0.0057490685016690999 0 -0.012546137493492473 0.0073226262360243091 0 -0.016846571341999916 0.010491554860008084 0 -0.013278817230780048 0.01255168674512953 0 -0.012546137493492473 0.0073226262360243091 0 -0.014980413961798437 0.0057490685016690999 0 -0.016846571341999916 0.010491554860008084 0 -0.014980413961798437 0.0057490685016690999 0 -0.017364046341528435 0.0065752355971367667 0 -0.016846571341999916 0.010491554860008084 0 -0.02067195291067005 0.008906260128871012 0 -0.017364046341528435 0.0065752355971367667 0 -0.016846571341999916 0.010491554860008084 0 -0.016846571341999916 0.010491554860008084 0 -0.018270201861319266 0.014700563140926557 0 -0.013278817230780048 0.01255168674512953 0 -0.018270201861319266 0.014700563140926557 0 -0.017280255475255656 0.017790783386703417 0 -0.013278817230780048 0.01255168674512953 0 -0.017280255475255656 0.017790783386703417 0 -0.014161311923847848 0.022397367969857584 0 -0.013278817230780048 0.01255168674512953 0 -0.014742799158094731 0.021001272191818673 0 -0.013430883545537526 0.013687844862274328 0 -0.017280255475255656 0.017790783386703417 0 -0.014161311923847848 0.022397367969857584 0 -0.020289292568472048 0.022611192365988832 0 -0.0037494134404081692 0.028421774017830196 0 -0.0037747670898420275 0.025046719246992904 0 -0.0032667455977289043 0.029217378595241934 0 -0.013480079444748702 0.015813926149433138 0 -0.012173701739290011 0.0249148740240717 0 -0.017280255475255656 0.017790783386703417 0 -0.020758647404367576 0.014450562108496632 0 -0.020289292568472048 0.022611192365988832 0 -0.0037494134404081692 0.028421774017830196 0 -0.0037747670898420275 0.025046719246992904 0 -0.0054013190031583129 0.027138227009726637 0 -0.018270201861319266 0.014700563140926557 0 -0.017280255475255656 0.017790783386703417 0 -0.020758647404367576 0.014450562108496632 0 -0.020322828019515737 0.004650747089328295 0 -0.013480079444748702 0.015813926149433138 0 -0.02067195291067005 0.008906260128871012 0 -0.016846571341999916 0.010491554860008084 0 -0.020501883116736307 0.014430760320441818 0 -0.016846571341999916 0.010491554860008084 0 -0.018270201861319266 0.014700563140926557 0 -0.020501883116736307 0.014430760320441818 0 -0.018392719360083066 0.015087124655911216 0 -0.013480079444748702 0.015813926149433138 0 -0.0037747670898420275 0.025046719246992904 0 -0.0083868672347095947 0.024796304458875127 0 -0.0074424393126054566 0.026471044957142385 0 -0.013480079444748702 0.015813926149433138 0 -0.014604557638672633 0.012911934129877766 0 -0.019979359937273854 0.0031140070231126284 0 -0.019951393374444709 0.0024994599412868921 0 -0.018615707630753504 0.0025771719359551945 0 -0.0074424393126054566 0.026471044957142385 0 -0.009982128463098967 0.026075058036767643 0 -0.0097160039888708541 0.027315450784442252 0 -0.0074424393126054566 0.026471044957142385 0 -0.008944795124700429 0.028344819983973719 0 -0.0097160039888708541 0.027315450784442252 0 -0.0074424393126054566 0.026471044957142385 0 -0.0065827338835680038 0.028625388812851548 0 -0.0093656217343545001 0.029013519172640827 0 -0.0083868672347095947 0.024796304458875127 0 -0.0074424393126054566 0.026471044957142385 0 -0.009982128463098967 0.026075058036767643 0 -0.0074696170708944097 0.026123672847612828 0 -0.0068332953812215358 0.03228328277300864 0 -0.0037747670898420275 0.025046719246992904 0 -0.0074424393126054566 0.026471044957142385 0 -0.0054013190031583129 0.027138227009726637 0 -0.0037494134404081692 0.028421774017830196 0 -0.0054013190031583129 0.027138227009726637 0 -0.0065827338835680038 0.028625388812851548 0 -0.0074424393126054566 0.026471044957142385 0 -0.0054013190031583129 0.027138227009726637 0 -0.0065827338835680038 0.028625388812851548 0 -0.0064808458487099511 0.029059807333479761 0 -0.0090768158716759747 0.029516014376609459 0 -0.0063468701886946607 0.03158965755761789 0 -0.0039371061084834723 0.028464117756861841 0 -0.006788123881263498 0.028895250432309404 0 -0.0064808458487099511 0.029059807333479761 0 -0.0063468701886946607 0.03158965755761789 0 -0.0049885884252315119 0.029803709389064934 0 -0.0094585188189319231 0.03004423595495297 0 -0.0090768158716759747 0.029516014376609459 0 -0.0063468701886946607 0.03158965755761789 0 -0.006788123881263498 0.028895250432309404 0 -0.0068332953812215358 0.03228328277300864 0 -0.0046246389169450645 0.038832408320782136 0 -0.00049688577389317998 0.044700436306172049 0 -0.008944795124700429 0.028344819983973719 0 -0.0097160039888708541 0.027315450784442252 0 -0.0098878748590116583 0.028467759849671974 0 -0.0064715507943179261 0.033151661745952139 0 -0.0070145185322938956 0.033855052286870024 0 -0.0054514240654576791 0.033649406034994452 0 -0.0046246389169450645 0.038832408320782136 0 -0.0063988212928798869 0.034159291636646723 0 -0.0068332953812215358 0.03228328277300864 0 -0.0063988212928798869 0.034159291636646723 0 -0.0046246389169450645 0.038832408320782136 0 -0.0068332953812215358 0.03228328277300864 0 0.0019146914670328688 0.05492643995841557 0 0.0019286845107260699 0.056120041842051993 0 0.0022812574896818073 0.055730742514538176 0 0.0019286845107260699 0.056120041842051993 0 0.0022812574896818073 0.055730742514538176 0 0.0022432447821907355 0.056620977142546741 0 -0.019692759289189954 0.031372843721655941 0 -0.01746356890518011 0.027415219183589253 0 -0.020289292568472048 0.022611192365988832 0 0.0022812574896818073 0.055730742514538176 0 0.0026401327511366298 0.056135233151205922 0 0.0022432447821907355 0.056620977142546741 0 -0.0061963598044545215 0.041227640613052507 0 -0.012173701739290011 0.0249148740240717 0 -0.0063468701886946607 0.03158965755761789 0 -0.0029578091560137345 0.033369148663474936 0 -0.0049885884252315119 0.029803709389064934 0 -0.00049688577389317998 0.044700436306172049 0 -0.0061963598044545215 0.041227640613052507 0 -0.014742799158094731 0.021001272191818673 0 -0.016825915047897353 0.039067898629597544 0 -0.019692759289189954 0.031372843721655941 0 -0.01746356890518011 0.027415219183589253 0 -0.01567732126711141 0.033341270418694516 0 -0.0061963598044545215 0.041227640613052507 0 -0.016825915047897353 0.039067898629597544 0 -0.01559110234533791 0.022533791968891947 0 -0.017507542985049362 0.032921589252565289 0 -0.011933698671448232 0.028493077581793147 0 -0.01746356890518011 0.027415219183589253 0 -0.014161311923847848 0.022397367969857584 0 -0.01567732126711141 0.033341270418694516 0 -0.01746356890518011 0.027415219183589253 0 -0.014161311923847848 0.022397367969857584 0 -0.020289292568472048 0.022611192365988832 0 -0.0029578091560137345 0.033369148663474936 0 -0.0032667455977289043 0.029217378595241934 0 -0.0049885884252315119 0.029803709389064934 0 -0.0037494134404081692 0.028421774017830196 0 -0.0064808458487099511 0.029059807333479761 0 -0.0049885884252315119 0.029803709389064934 0 -0.0037494134404081692 0.028421774017830196 0 -0.0032667455977289043 0.029217378595241934 0 -0.0049885884252315119 0.029803709389064934 0 -0.010410968877061368 0.029511369255754257 0 -0.0066517222919206037 0.031793048383779395 0 -0.0070467745950858933 0.025007496208042088 0 -0.014200121704315789 0.025704807360664689 0 -0.010410968877061368 0.029511369255754257 0 -0.0070467745950858933 0.025007496208042088 0 -0.014200121704315789 0.025704807360664689 0 -0.0086341771089468097 0.017220910022628804 0 -0.007876456421041414 0.021725185817604364 0 -0.014200121704315789 0.025704807360664689 0 -0.007876456421041414 0.021725185817604364 0 -0.0070467745950858933 0.025007496208042088 0 0.0052010394163190836 0.023476211871824797 0 -0.0047812576186224134 0.015283130730604126 0 -0.007876456421041414 0.021725185817604364 0 -0.0070467745950858933 0.025007496208042088 0 -0.002860572365055802 0.022790969640587657 0 -0.0070467745950858933 0.025007496208042088 0 -0.002860572365055802 0.022790969640587657 0 -0.00095068561137056544 0.027568381059201712 0 -0.0049869848492833614 0.018736528777908761 0 -0.007876456421041414 0.021725185817604364 0 -0.002860572365055802 0.022790969640587657 0 -0.0049869848492833614 0.018736528777908761 0 -0.002860572365055802 0.022790969640587657 0 -0.0014180804506984262 0.019827489714191252 0 -0.002860572365055802 0.022790969640587657 0 -0.0014180804506984262 0.019827489714191252 0 0.0014753765856947783 0.021763520750712195 0 -0.002860572365055802 0.022790969640587657 0 -0.00095068561137056544 0.027568381059201712 0 0.0014753765856947783 0.021763520750712195 0 -0.0066517222919206037 0.031793048383779395 0 -0.0024785213184019268 0.027992958089234587 0 -0.0016411565206390527 0.03205298980985731 0 -0.0066517222919206037 0.031793048383779395 0 -0.0070467745950858933 0.025007496208042088 0 -0.0024785213184019268 0.027992958089234587 0 -0.0067683744677407053 0.025201069563191302 0 -0.00097458714752423638 0.028146390068573522 0 -0.0025452204285554862 0.029978848745458368 0 -0.0080818700256602878 0.017035937746564499 0 0.004841597364306463 0.030330811809293826 0 0.0026872267585767275 0.025463741111781093 0 0.0053346279334692782 0.022174730511836386 0 -0.00097458714752423638 0.028146390068573522 0 -0.0025452204285554862 0.029978848745458368 0 -0.0024785213184019268 0.027992958089234587 0 0.0025299081260070724 0.030562563414338488 0 -0.0016411565206390527 0.03205298980985731 0 -0.00095068561137056544 0.027568381059201712 0 0.004841597364306463 0.030330811809293826 0 0.0026872267585767275 0.025463741111781093 0 0.0026872267585767275 0.025463741111781093 0 0.0014753765856947783 0.021763520750712195 0 0.0053346279334692782 0.022174730511836386 0 -0.00095068561137056544 0.027568381059201712 0 0.0026872267585767275 0.025463741111781093 0 0.0014753765856947783 0.021763520750712195 0 0.0040483183503718483 0.020523155102827605 0 -0.0080818700256602878 0.017035937746564499 0 0.00068575958881651636 0.0160314384079988 0 0.0014753765856947783 0.021763520750712195 0 0.0054889286078174115 0.022067835277562089 0 -0.0083868672347095947 0.024796304458875127 0 -0.012120743561008339 0.024483508116161033 0 -0.009982128463098967 0.026075058036767643 0 -0.014604557638672633 0.012911934129877766 0 -0.0080818700256602878 0.017035937746564499 0 -0.018615707630753504 0.0025771719359551945 0 -0.017070421524277676 0.0031094343514459183 0 -0.01741260437933894 0.0031524980847699039 0 -0.01225515260929034 0.027252724975137154 0 -0.009982128463098967 0.026075058036767643 0 -0.0097160039888708541 0.027315450784442252 0 -0.01225515260929034 0.027252724975137154 0 -0.0097160039888708541 0.027315450784442252 0 -0.0098878748590116583 0.028467759849671974 0 -0.01225515260929034 0.027252724975137154 0 -0.012120743561008339 0.024483508116161033 0 -0.009982128463098967 0.026075058036767643 0 -0.0025452204285554862 0.029978848745458368 0 -0.0063988212928798869 0.034159291636646723 0 -0.0018426197618548676 0.041415303123246511 0 -0.0009367929694322376 0.040512423852391483 0 -0.00015442737102715361 0.040958536355984961 0 -0.0063988212928798869 0.034159291636646723 0 -0.00078632370833168477 0.03589304017977691 0 -0.0026047811951424708 0.034176693057756689 0 -0.0047220419028392146 0.033167863417192002 0 -0.002525912035381423 0.032873972662155367 0 -0.0024209015242484138 0.04116962197648863 0 -0.0018426197618548676 0.041415303123246511 0 -0.0009367929694322376 0.040512423852391483 0 -0.0046246389169450645 0.038832408320782136 0 0.00070738194952747388 0.049625073744216298 0 -0.0024209015242484138 0.04116962197648863 0 -0.0009367929694322376 0.040512423852391483 0 -0.00014908991503492533 0.040074161163247982 0 0.0019146914670328688 0.05492643995841557 0 0.0019286845107260699 0.056120041842051993 0 0.0013830904840360712 0.056003407615974457 0 -0.0009367929694322376 0.040512423852391483 0 -0.00014908991503492533 0.040074161163247982 0 -0.00045829541929449962 0.039455685343075399 0 -0.00014908991503492533 0.040074161163247982 0 -0.00045829541929449962 0.039455685343075399 0 -0.0018434140577662471 0.04130760167705174 0 -0.00045829541929449962 0.039455685343075399 0 -0.0029302779254251569 0.039255563195836819 0 -0.0018434140577662471 0.04130760167705174 0 -0.00045829541929449962 0.039455685343075399 0 -0.0016486242271038672 0.037382540090428878 0 -0.0029302779254251569 0.039255563195836819 0 -0.00078632370833168477 0.03589304017977691 0 -0.002203373736504196 0.035426687972761065 0 -0.0016486242271038672 0.037382540090428878 0 8.9292345848050419e-05 0.03549212630251225 0 -0.0033999802557297802 0.035457024075290625 0 -0.00045829541929449962 0.039455685343075399 0 -0.0016486242271038672 0.037382540090428878 0 8.9292345848050419e-05 0.03549212630251225 0 -0.0009367929694322376 0.040512423852391483 0 -0.00045829541929449962 0.039455685343075399 0 -0.00015442737102715361 0.040958536355984961 0 -0.00047318553617687063 0.039818458235283169 0 -0.00078632370833168477 0.03589304017977691 0 -0.0025452204285554862 0.029978848745458368 0 -0.00078632370833168477 0.03589304017977691 0 0.0023441048745433185 0.034671327871407656 0 -0.0016411565206390527 0.03205298980985731 0 -0.0033999802557297802 0.035457024075290625 0 0.0025299081260070724 0.030562563414338488 0 0.0023441048745433185 0.034671327871407656 0 -0.0016411565206390527 0.03205298980985731 0 -0.0066517222919206037 0.031793048383779395 0 -0.0016411565206390527 0.03205298980985731 0 -0.0033999802557297802 0.035457024075290625 0 -0.0066517222919206037 0.031793048383779395 0 -0.0033999802557297802 0.035457024075290625 0 -0.008061293347668249 0.037286326803839066 0 -0.0029302779254251569 0.039255563195836819 0 -0.0055292567584616136 0.041561866439079581 0 -0.0018434140577662471 0.04130760167705174 0 -0.0016486242271038672 0.037382540090428878 0 -0.0033999802557297802 0.035457024075290625 0 -0.0029302779254251569 0.039255563195836819 0 -0.0029302779254251569 0.039255563195836819 0 -0.008061293347668249 0.037286326803839066 0 -0.0055292567584616136 0.041561866439079581 0 -0.0033999802557297802 0.035457024075290625 0 -0.0029302779254251569 0.039255563195836819 0 -0.008061293347668249 0.037286326803839066 0 -0.012784654551939476 0.042407081513004895 0 -0.008061293347668249 0.037286326803839066 0 -0.0055292567584616136 0.041561866439079581 0 -0.013486698315468938 0.035051536883853103 0 -0.0066517222919206037 0.031793048383779395 0 -0.008061293347668249 0.037286326803839066 0 -0.013486698315468938 0.035051536883853103 0 -0.010410968877061368 0.029511369255754257 0 -0.0066517222919206037 0.031793048383779395 0 -0.012590970976172707 0.049042240529476158 0 -0.0076110865648093481 0.045575242730814911 0 -0.0055012823046982316 0.050004068000991324 0 -0.012784654551939476 0.042407081513004895 0 -0.0076110865648093481 0.045575242730814911 0 -0.0055292567584616136 0.041561866439079581 0 -0.0055292567584616136 0.041561866439079581 0 -0.0017753158926643625 0.044715291986404386 0 -0.0018434140577662471 0.04130760167705174 0 -0.0076110865648093481 0.045575242730814911 0 -0.0055292567584616136 0.041561866439079581 0 -0.0017753158926643625 0.044715291986404386 0 -0.0076110865648093481 0.045575242730814911 0 -0.0017753158926643625 0.044715291986404386 0 -0.0055012823046982316 0.050004068000991324 0 0.0011587439403658486 0.057398672489840021 0 0.0014777569930760563 0.058094315259210327 0 0.0017284667662625227 0.058524388546258424 0 -0.00019473030722953015 0.050695683101683327 0 -0.0023853202747009059 0.054599516464961431 0 0.0011587439403658486 0.057398672489840021 0 0.00155767949211235 0.057722391762997455 0 0.0014777569930760563 0.058094315259210327 0 0.00070738194952747388 0.049625073744216298 0 -0.00019473030722953015 0.050695683101683327 0 -0.00014908991503492533 0.040074161163247982 0 -0.0017753158926643625 0.044715291986404386 0 -0.0018434140577662471 0.04130760167705174 0 0.0013830904840360712 0.056003407615974457 0 0.0011587439403658486 0.057398672489840021 0 0.0016043437529371181 0.056969985017049668 0 0.0019286845107260699 0.056120041842051993 0 0.0013830904840360712 0.056003407615974457 0 0.0016043437529371181 0.056969985017049668 0 0.0016043437529371181 0.056969985017049668 0 0.00155767949211235 0.057722391762997455 0 0.0017279434496856271 0.057514871156671678 0 0.0011587439403658486 0.057398672489840021 0 0.0016043437529371181 0.056969985017049668 0 0.00155767949211235 0.057722391762997455 0 0.00155767949211235 0.057722391762997455 0 0.0014978624367694305 0.058199621841154146 0 0.0014777569930760563 0.058094315259210327 0 0.00155767949211235 0.057722391762997455 0 0.0014978624367694305 0.058199621841154146 0 0.0015336732028332874 0.057970632879226679 0 0.0014225227666565319 0.058287813296904335 0 0.0014978624367694305 0.058199621841154146 0 0.0014112331602134367 0.058175063938929683 0 0.0014978624367694305 0.058199621841154146 0 0.0014112331602134367 0.058175063938929683 0 0.0015336732028332874 0.057970632879226679 0 0.0014225227666565319 0.058287813296904335 0 0.0016694692168474144 0.058357290655585266 0 0.0014978624367694305 0.058199621841154146 0 0.0016694692168474144 0.058357290655585266 0 0.0014978624367694305 0.058199621841154146 0 0.0016372009084577286 0.058312181448436071 0 0.0016694692168474144 0.058357290655585266 0 0.0016372009084577286 0.058312181448436071 0 0.0020063127126299317 0.05836912930475481 0 0.0014978624367694305 0.058199621841154146 0 0.0016372009084577286 0.058312181448436071 0 0.0014777569930760563 0.058094315259210327 0 0.0016372009084577286 0.058312181448436071 0 0.0014777569930760563 0.058094315259210327 0 0.0017284667662625227 0.058524388546258424 0 0.0016372009084577286 0.058312181448436071 0 0.0017284667662625227 0.058524388546258424 0 0.0020063127126299317 0.05836912930475481 0 -0.0023853202747009059 0.054599516464961431 0 0.00068102550801069854 0.055657907001397618 0 0.0020063127126299317 0.05836912930475481 0 0.0038680497351938708 0.058133479452420117 0 0.0037781680678306098 0.058471891543869413 0 0.0017284667662625227 0.058524388546258424 0 0.0020063127126299317 0.05836912930475481 0 0.0037781680678306098 0.058471891543869413 0 0.0024819267094208265 0.057954736637704438 0 0.00068102550801069854 0.055657907001397618 0 -0.012590970976172707 0.049042240529476158 0 -0.0055012823046982316 0.050004068000991324 0 -0.0091857898840751202 0.054984628736934646 0 0.0024868472925523325 0.057032641636823027 0 0.0022432447821907355 0.056620977142546741 0 0.0019464290797571563 0.057377725127780443 0 0.0024868472925523325 0.057032641636823027 0 0.0019464290797571563 0.057377725127780443 0 0.0020611357049358557 0.057494541369048663 0 -0.010571466509777638 0.050628311989474387 0 -0.0088151355918879362 0.05148936366263044 0 -0.0099166424769937984 0.058533316093790068 0 -0.022246707466087562 0.050846005784836786 0 -0.020802002507665066 0.052272452649108708 0 -0.020414409071628673 0.050105591339646677 0 -0.010571466509777638 0.050628311989474387 0 -0.0088151355918879362 0.05148936366263044 0 -0.0076382409841613966 0.044271953349733349 0 -0.011174484863848481 0.042524835944578288 0 -0.010571466509777638 0.050628311989474387 0 -0.0076382409841613966 0.044271953349733349 0 -0.022246707466087562 0.050846005784836786 0 -0.021654704391401068 0.047298909108416831 0 -0.020414409071628673 0.050105591339646677 0 -0.016145813919337532 0.052553097713540373 0 -0.016825915047897353 0.039067898629597544 0 -0.0061963598044545215 0.041227640613052507 0 -0.0034478890886142396 0.05580440624745335 0 0.0026401327511366298 0.056135233151205922 0 0.0024868472925523325 0.057032641636823027 0 0.0022432447821907355 0.056620977142546741 0 0.0019286845107260699 0.056120041842051993 0 0.0022432447821907355 0.056620977142546741 0 0.001892193342168445 0.056907411187349106 0 0.0019286845107260699 0.056120041842051993 0 0.0016043437529371181 0.056969985017049668 0 0.001892193342168445 0.056907411187349106 0 0.0016043437529371181 0.056969985017049668 0 0.001892193342168445 0.056907411187349106 0 0.0017279434496856271 0.057514871156671678 0 0.001892193342168445 0.056907411187349106 0 0.0017279434496856271 0.057514871156671678 0 0.0019464290797571563 0.057377725127780443 0 0.0022432447821907355 0.056620977142546741 0 0.001892193342168445 0.056907411187349106 0 0.0019464290797571563 0.057377725127780443 0 0.0017279434496856271 0.057514871156671678 0 0.0019464290797571563 0.057377725127780443 0 0.0016362442022084974 0.057844473668427987 0 0.0019464290797571563 0.057377725127780443 0 0.0016362442022084974 0.057844473668427987 0 0.0017833943479119586 0.05777845691381775 0 0.00155767949211235 0.057722391762997455 0 0.0017279434496856271 0.057514871156671678 0 0.0015336732028332874 0.057970632879226679 0 0.0017279434496856271 0.057514871156671678 0 0.0016362442022084974 0.057844473668427987 0 0.0015336732028332874 0.057970632879226679 0 0.0016362442022084974 0.057844473668427987 0 0.0015336732028332874 0.057970632879226679 0 0.0014120833329252479 0.058091455904593615 0 0.0014112331602134367 0.058175063938929683 0 0.0015336732028332874 0.057970632879226679 0 0.0014120833329252479 0.058091455904593615 0 0.0016362442022084974 0.057844473668427987 0 0.0014120833329252479 0.058091455904593615 0 0.0015677379058479902 0.057967366084682614 0 0.0016362442022084974 0.057844473668427987 0 0.0017833943479119586 0.05777845691381775 0 0.0015677379058479902 0.057967366084682614 0 0.0015170131351200013 0.057997945791028051 0 0.0015677379058479902 0.057967366084682614 0 0.0017088443818350884 0.057913046796032895 0 0.0017833943479119586 0.05777845691381775 0 0.0017088443818350884 0.057913046796032895 0 0.0020499706296826835 0.057750088407725497 0 0.0015170131351200013 0.057997945791028051 0 0.0016739679183035939 0.057938185199271158 0 0.0017088443818350884 0.057913046796032895 0 0.0016739679183035939 0.057938185199271158 0 0.0017088443818350884 0.057913046796032895 0 0.0020499706296826835 0.057750088407725497 0 -0.00071221780627744793 0.0574160786862076 0 -0.0074705672559414286 0.056621053933273817 0 0.0017833943479119586 0.05777845691381775 0 0.0015677379058479902 0.057967366084682614 0 0.0017088443818350884 0.057913046796032895 0 -0.0034478890886142396 0.05580440624745335 0 -0.0074705672559414286 0.056621053933273817 0 0.0017833943479119586 0.05777845691381775 0 0.0020611357049358557 0.057494541369048663 0 0.0020499706296826835 0.057750088407725497 0 0.0019464290797571563 0.057377725127780443 0 0.0017833943479119586 0.05777845691381775 0 0.0020611357049358557 0.057494541369048663 0 0.0024868472925523325 0.057032641636823027 0 0.0020611357049358557 0.057494541369048663 0 0.0020499706296826835 0.057750088407725497 0 -0.022246707466087562 0.050846005784836786 0 -0.020802002507665066 0.052272452649108708 0 -0.022808673388598297 0.054340434300013334 0 -0.016145813919337532 0.052553097713540373 0 -0.0074705672559414286 0.056621053933273817 0 -0.020802002507665066 0.052272452649108708 0 -0.022808673388598297 0.054340434300013334 0 -0.020922024382145736 0.054254796554107206 0 -0.01074976339098445 0.057795883700325713 0 -0.0074705672559414286 0.056621053933273817 0 -0.022554914526108909 0.058017536181416994 0 -0.022808673388598297 0.054340434300013334 0 -0.020712904571904688 0.055996318646268986 0 0.0015215418669350508 0.057986812167875677 0 0.0016739679183035939 0.057938185199271158 0 0.0017569106552280359 0.057895004429651814 0 -0.022808673388598297 0.054340434300013334 0 -0.020922024382145736 0.054254796554107206 0 -0.020712904571904688 0.055996318646268986 0 -0.022554914526108909 0.058017536181416994 0 -0.020787229291014467 0.05772591271622185 0 -0.020712904571904688 0.055996318646268986 0 -0.019240657492154846 0.057565866858244441 0 -0.020712904571904688 0.055996318646268986 0 -0.018964870826684615 0.05528731780661543 0 -0.020787229291014467 0.05772591271622185 0 -0.019240657492154846 0.057565866858244441 0 -0.020712904571904688 0.055996318646268986 0 -0.019240657492154846 0.057565866858244441 0 -0.018964870826684615 0.05528731780661543 0 -0.017090988375160238 0.055813567708599472 0 -0.020922024382145736 0.054254796554107206 0 -0.020712904571904688 0.055996318646268986 0 -0.018964870826684615 0.05528731780661543 0 -0.018964870826684615 0.05528731780661543 0 -0.017090988375160238 0.055813567708599472 0 -0.018048094255095449 0.053658446874785423 0 -0.01716643355632605 0.055275221135052621 0 -0.016141590925491091 0.051700889281336572 0 -0.017090988375160238 0.055813567708599472 0 -0.016986454647492176 0.050274174322252514 0 -0.015198961558697191 0.053398332063995191 0 -0.017090988375160238 0.055813567708599472 0 -0.01624454453151002 0.052190399053368572 0 -0.018048094255095449 0.053658446874785423 0 -0.01624454453151002 0.052190399053368572 0 -0.018048094255095449 0.053658446874785423 0 -0.01857645230576194 0.051309902597541965 0 -0.020922024382145736 0.054254796554107206 0 -0.018964870826684615 0.05528731780661543 0 -0.019436421634431392 0.053580984514512708 0 -0.018964870826684615 0.05528731780661543 0 -0.019436421634431392 0.053580984514512708 0 -0.018048094255095449 0.053658446874785423 0 -0.019436421634431392 0.053580984514512708 0 -0.018048094255095449 0.053658446874785423 0 -0.01857645230576194 0.051309902597541965 0 -0.020802002507665066 0.052272452649108708 0 -0.020922024382145736 0.054254796554107206 0 -0.019436421634431392 0.053580984514512708 0 -0.020802002507665066 0.052272452649108708 0 -0.019436421634431392 0.053580984514512708 0 -0.01857645230576194 0.051309902597541965 0 -0.020802002507665066 0.052272452649108708 0 -0.020414409071628673 0.050105591339646677 0 -0.01857645230576194 0.051309902597541965 0 -0.020414409071628673 0.050105591339646677 0 -0.01857645230576194 0.051309902597541965 0 -0.018814923123304642 0.048765010171089619 0 -0.01624454453151002 0.052190399053368572 0 -0.01857645230576194 0.051309902597541965 0 -0.015866894155740247 0.050206993632742759 0 -0.01857645230576194 0.051309902597541965 0 -0.015866894155740247 0.050206993632742759 0 -0.018814923123304642 0.048765010171089619 0 -0.016986454647492176 0.050274174322252514 0 -0.016724108952885425 0.047130989360390077 0 -0.014834574952835852 0.046141500843329221 0 -0.016141590925491091 0.051700889281336572 0 -0.01091452673836865 0.045227064165205673 0 -0.0039505994916139283 0.035217739691577508 0 -0.011232766519899922 0.036049609976112014 0 -0.0088391405941647856 0.032024984326977486 0 -0.01091452673836865 0.045227064165205673 0 -0.015313387373388252 0.042345613831749528 0 -0.004664301795625817 0.039323085877444763 0 -0.0039505994916139283 0.035217739691577508 0 -0.011232766519899922 0.036049609976112014 0 -0.01091452673836865 0.045227064165205673 0 -0.0099145965994395339 0.039410816998805269 0 -0.0039505994916139283 0.035217739691577508 0 -0.0088391405941647856 0.032024984326977486 0 -0.0055945236873994079 0.030119845465697608 0 -0.016825915047897353 0.039067898629597544 0 -0.015313387373388252 0.042345613831749528 0 -0.013114010454332718 0.032442364148343963 0 -0.011232766519899922 0.036049609976112014 0 -0.0088391405941647856 0.032024984326977486 0 -0.017507542985049362 0.032921589252565289 0 -0.013114010454332718 0.032442364148343963 0 -0.011232766519899922 0.036049609976112014 0 -0.021654704391401068 0.047298909108416831 0 -0.020414409071628673 0.050105591339646677 0 -0.018814923123304642 0.048765010171089619 0 -0.0400814261760465 0.041073663253073385 0 -0.038579037445091481 0.044464797308386511 0 -0.035857620283272586 0.042413325839991307 0 -0.0400814261760465 0.041073663253073385 0 -0.035857620283272586 0.042413325839991307 0 -0.036715042917981611 0.037851242651531336 0 -0.014788024502978612 0.045251803568415357 0 -0.014817054469634215 0.042011239026086424 0 -0.011689508895267922 0.043838705556295654 0 -0.014834574952835852 0.046141500843329221 0 -0.014870544083212733 0.042316579112447704 0 -0.016559656867392535 0.043491336978872912 0 -0.014834574952835852 0.046141500843329221 0 -0.014334001909848725 0.040285944709626681 0 -0.016724108952885425 0.047130989360390077 0 -0.016559656867392535 0.043491336978872912 0 -0.014834574952835852 0.046141500843329221 0 -0.016986454647492176 0.050274174322252514 0 -0.014834574952835852 0.046141500843329221 0 -0.014523404891760374 0.049059581672237444 0 -0.011689508895267922 0.043838705556295654 0 -0.014523404891760374 0.049059581672237444 0 -0.012701720813539057 0.051207835518813957 0 -0.011689508895267922 0.043838705556295654 0 -0.014834574952835852 0.046141500843329221 0 -0.014523404891760374 0.049059581672237444 0 -0.02504463353527768 0.042837070857894184 0 -0.02735382031832086 0.048833992146089682 0 -0.037473777065119972 0.046389713692506142 0 -0.038579037445091481 0.044464797308386511 0 -0.040826694635886819 0.047939155352382051 0 -0.0400814261760465 0.041073663253073385 0 -0.038579037445091481 0.044464797308386511 0 -0.040826694635886819 0.047939155352382051 0 -0.037473777065119972 0.046389713692506142 0 -0.038579037445091481 0.044464797308386511 0 -0.035857620283272586 0.042413325839991307 0 -0.037473777065119972 0.046389713692506142 0 -0.037865102210330591 0.050183499323891552 0 -0.040826694635886819 0.047939155352382051 0 -0.016986454647492176 0.050274174322252514 0 -0.014523404891760374 0.049059581672237444 0 -0.015198961558697191 0.053398332063995191 0 -0.014523404891760374 0.049059581672237444 0 -0.012701720813539057 0.051207835518813957 0 -0.015198961558697191 0.053398332063995191 0 -0.014038904916047193 0.057663676692304419 0 -0.017090988375160238 0.055813567708599472 0 -0.015198961558697191 0.053398332063995191 0 -0.014038904916047193 0.057663676692304419 0 -0.012701720813539057 0.051207835518813957 0 -0.015198961558697191 0.053398332063995191 0 -0.024344419208494134 0.059106333651179309 0 -0.02735382031832086 0.048833992146089682 0 -0.024344419208494134 0.059106333651179309 0 -0.029834091456044137 0.058831215788501555 0 -0.020055194920207499 0.06546923999334521 0 -0.019874082205051501 0.065016810528111896 0 -0.02039806865809422 0.065213932296521809 0 -0.019302718861169178 0.064931735930770201 0 -0.020055194920207499 0.06546923999334521 0 -0.019874082205051501 0.065016810528111896 0 -0.041624008540134434 0.054268837865247346 0 -0.037865102210330591 0.050183499323891552 0 -0.040826694635886819 0.047939155352382051 0 -0.020682042572332089 0.065123449473314873 0 -0.020442399833983837 0.065211687703546739 0 -0.020055194920207499 0.06546923999334521 0 -0.02039806865809422 0.065213932296521809 0 -0.020596046816494813 0.065505614583478908 0 -0.02039806865809422 0.065213932296521809 0 -0.021131078519375863 0.065387120298515441 0 -0.020596046816494813 0.065505614583478908 0 -0.02039806865809422 0.065213932296521809 0 -0.021017060700533552 0.064841661123414204 0 -0.021131078519375863 0.065387120298515441 0 -0.021717451384221362 0.064568505965434592 0 -0.021017060700533552 0.064841661123414204 0 -0.021131078519375863 0.065387120298515441 0 -0.031539187406800132 0.05473055342016913 0 -0.030631838025363456 0.051906891425053767 0 -0.03564001680547467 0.049044274212201498 0 -0.025978158901705455 0.061034394152817313 0 -0.029389240863965937 0.051459422458023756 0 -0.021131078519375863 0.065387120298515441 0 -0.020596046816494813 0.065505614583478908 0 -0.020748312970709289 0.065888339578188251 0 -0.037473777065119972 0.046389713692506142 0 -0.037865102210330591 0.050183499323891552 0 -0.033650910580022841 0.045940842870992885 0 -0.020055194920207499 0.06546923999334521 0 -0.020596046816494813 0.065505614583478908 0 -0.020748312970709289 0.065888339578188251 0 -0.029834091456044137 0.058831215788501555 0 -0.029389240863965937 0.051459422458023756 0 -0.02411321607759577 0.056795771452892711 0 -0.024006550270967909 0.054979014900426192 0 -0.025210311114124778 0.055048281560992562 0 -0.02411321607759577 0.056795771452892711 0 -0.025743264942252223 0.057187188855767443 0 -0.025210311114124778 0.055048281560992562 0 -0.025743264942252223 0.057187188855767443 0 -0.025210311114124778 0.055048281560992562 0 -0.026915612018291391 0.055488127650675012 0 -0.028024688556965882 0.058547360982612887 0 -0.031539187406800132 0.05473055342016913 0 -0.028943465210579958 0.055023816793085663 0 -0.02433970398514422 0.061486224774633967 0 -0.025978158901705455 0.061034394152817313 0 -0.028024688556965882 0.058547360982612887 0 -0.026915612018291391 0.055488127650675012 0 -0.028943465210579958 0.055023816793085663 0 -0.028024688556965882 0.058547360982612887 0 -0.025743264942252223 0.057187188855767443 0 -0.026915612018291391 0.055488127650675012 0 -0.031539187406800132 0.05473055342016913 0 -0.030631838025363456 0.051906891425053767 0 -0.028943465210579958 0.055023816793085663 0 -0.030631838025363456 0.051906891425053767 0 -0.028943465210579958 0.055023816793085663 0 -0.027840008190448479 0.052970982791556175 0 -0.030631838025363456 0.051906891425053767 0 -0.027840008190448479 0.052970982791556175 0 -0.028680206759733953 0.050443161342643726 0 -0.027840008190448479 0.052970982791556175 0 -0.026039122374772232 0.050985068546022382 0 -0.028680206759733953 0.050443161342643726 0 -0.027840008190448479 0.052970982791556175 0 -0.025988270511672615 0.053564906177579599 0 -0.026039122374772232 0.050985068546022382 0 -0.026915612018291391 0.055488127650675012 0 -0.028943465210579958 0.055023816793085663 0 -0.027840008190448479 0.052970982791556175 0 -0.026915612018291391 0.055488127650675012 0 -0.027840008190448479 0.052970982791556175 0 -0.025988270511672615 0.053564906177579599 0 -0.018547487163416955 0.052753279218253256 0 -0.024429280391056539 0.052725942662522278 0 -0.022630353450522764 0.052200363320508252 0 -0.025210311114124778 0.055048281560992562 0 -0.025988270511672615 0.053564906177579599 0 -0.024429280391056539 0.052725942662522278 0 -0.025210311114124778 0.055048281560992562 0 -0.026915612018291391 0.055488127650675012 0 -0.025988270511672615 0.053564906177579599 0 -0.025988270511672615 0.053564906177579599 0 -0.026039122374772232 0.050985068546022382 0 -0.024429280391056539 0.052725942662522278 0 -0.026039122374772232 0.050985068546022382 0 -0.024429280391056539 0.052725942662522278 0 -0.023630457187027349 0.050752606095918425 0 -0.020727116191566846 0.049315710875679132 0 -0.023630457187027349 0.050752606095918425 0 -0.022630353450522764 0.052200363320508252 0 -0.024429280391056539 0.052725942662522278 0 -0.023630457187027349 0.050752606095918425 0 -0.022630353450522764 0.052200363320508252 0 -0.024006550270967909 0.054979014900426192 0 -0.025210311114124778 0.055048281560992562 0 -0.024429280391056539 0.052725942662522278 0 -0.024139129860340169 0.048628353572275664 0 -0.027382149941179001 0.047146706488755769 0 -0.022350486710079869 0.045145645619465644 0 -0.020727116191566846 0.049315710875679132 0 -0.024139129860340169 0.048628353572275664 0 -0.022350486710079869 0.045145645619465644 0 -0.020727116191566846 0.049315710875679132 0 -0.023630457187027349 0.050752606095918425 0 -0.024139129860340169 0.048628353572275664 0 -0.026039122374772232 0.050985068546022382 0 -0.024139129860340169 0.048628353572275664 0 -0.027382149941179001 0.047146706488755769 0 -0.026039122374772232 0.050985068546022382 0 -0.023630457187027349 0.050752606095918425 0 -0.024139129860340169 0.048628353572275664 0 -0.026039122374772232 0.050985068546022382 0 -0.027382149941179001 0.047146706488755769 0 -0.028680206759733953 0.050443161342643726 0 -0.030631838025363456 0.051906891425053767 0 -0.028680206759733953 0.050443161342643726 0 -0.03171487850927239 0.04871022537942557 0 -0.027382149941179001 0.047146706488755769 0 -0.028680206759733953 0.050443161342643726 0 -0.03171487850927239 0.04871022537942557 0 -0.027382149941179001 0.047146706488755769 0 -0.03171487850927239 0.04871022537942557 0 -0.031984134826716734 0.044906297787682729 0 -0.027382149941179001 0.047146706488755769 0 -0.02756279568875258 0.040267641919815737 0 -0.031984134826716734 0.044906297787682729 0 -0.027915208659612098 0.040621285763096489 0 -0.031350429899985176 0.043952291626937368 0 -0.027382149941179001 0.047146706488755769 0 -0.02756279568875258 0.040267641919815737 0 -0.022350486710079869 0.045145645619465644 0 -0.02756279568875258 0.040267641919815737 0 -0.022350486710079869 0.045145645619465644 0 -0.02215019589863931 0.039659754515995342 0 -0.037473777065119972 0.046389713692506142 0 -0.033650910580022841 0.045940842870992885 0 -0.035857620283272586 0.042413325839991307 0 -0.029389240863965937 0.051459422458023756 0 -0.036844335319297018 0.040826225290163352 0 -0.030631838025363456 0.051906891425053767 0 -0.03564001680547467 0.049044274212201498 0 -0.03171487850927239 0.04871022537942557 0 -0.033630296926692373 0.046076556547198562 0 -0.03058962960271713 0.043035511713351661 0 -0.035857620283272586 0.042413325839991307 0 -0.03564001680547467 0.049044274212201498 0 -0.03171487850927239 0.04871022537942557 0 -0.031984134826716734 0.044906297787682729 0 -0.029389240863965937 0.051459422458023756 0 -0.031350429899985176 0.043952291626937368 0 -0.02756279568875258 0.040267641919815737 0 -0.03058962960271713 0.043035511713351661 0 -0.032124121333336669 0.038308201465564691 0 -0.03058962960271713 0.043035511713351661 0 -0.035857620283272586 0.042413325839991307 0 -0.032124121333336669 0.038308201465564691 0 -0.036715042917981611 0.037851242651531336 0 -0.032124121333336669 0.038308201465564691 0 -0.033282273732316132 0.030987363668986408 0 -0.035857620283272586 0.042413325839991307 0 -0.036715042917981611 0.037851242651531336 0 -0.032124121333336669 0.038308201465564691 0 -0.032124121333336669 0.038308201465564691 0 -0.028149564742511096 0.034170375951090334 0 -0.033282273732316132 0.030987363668986408 0 -0.036715042917981611 0.037851242651531336 0 -0.033282273732316132 0.030987363668986408 0 -0.039092032702943168 0.033591463881860302 0 -0.033292794413166578 0.029731993134258384 0 -0.030356143989841062 0.033894707825990335 0 -0.02756279568875258 0.040267641919815737 0 -0.02215019589863931 0.039659754515995342 0 -0.024420583600246678 0.035931809535419718 0 -0.019736511254201398 0.033980968155201748 0 -0.02215019589863931 0.039659754515995342 0 -0.024420583600246678 0.035931809535419718 0 -0.02756279568875258 0.040267641919815737 0 -0.024420583600246678 0.035931809535419718 0 -0.028149564742511096 0.034170375951090334 0 -0.02756279568875258 0.040267641919815737 0 -0.032124121333336669 0.038308201465564691 0 -0.028149564742511096 0.034170375951090334 0 -0.028149564742511096 0.034170375951090334 0 -0.026341930394958576 0.027623080874306361 0 -0.033282273732316132 0.030987363668986408 0 -0.028149564742511096 0.034170375951090334 0 -0.024354649178842169 0.031594291145691254 0 -0.026341930394958576 0.027623080874306361 0 -0.024420583600246678 0.035931809535419718 0 -0.028149564742511096 0.034170375951090334 0 -0.024354649178842169 0.031594291145691254 0 -0.019736511254201398 0.033980968155201748 0 -0.024420583600246678 0.035931809535419718 0 -0.024354649178842169 0.031594291145691254 0 -0.027234631868939617 0.029080968943841535 0 -0.029181864915014556 0.024330461864759411 0 -0.024354649178842169 0.031594291145691254 0 -0.026341930394958576 0.027623080874306361 0 -0.022769214352936131 0.025877775927036304 0 -0.019736511254201398 0.033980968155201748 0 -0.024354649178842169 0.031594291145691254 0 -0.022769214352936131 0.025877775927036304 0 -0.025280750143490596 0.019540094958836584 0 -0.026056645368689273 0.023635797319711344 0 -0.022769214352936131 0.025877775927036304 0 -0.026341930394958576 0.027623080874306361 0 -0.026056645368689273 0.023635797319711344 0 -0.028740207343538531 0.024490437511180907 0 -0.026341930394958576 0.027623080874306361 0 -0.026056645368689273 0.023635797319711344 0 -0.022769214352936131 0.025877775927036304 0 -0.02752663444367846 0.022726041647704049 0 -0.026056645368689273 0.023635797319711344 0 -0.028740207343538531 0.024490437511180907 0 -0.029307797429473106 0.018509562780097806 0 -0.029181864915014556 0.024330461864759411 0 -0.030743875528841672 0.02853469136884567 0 -0.031466143536885358 0.024911492998556196 0 -0.034370204377585929 0.024868498995012686 0 -0.030743875528841672 0.02853469136884567 0 -0.034370204377585929 0.024868498995012686 0 -0.035404118901340896 0.030212939900336813 0 -0.026047622205204402 0.027640360954220337 0 -0.033292794413166578 0.029731993134258384 0 -0.030743875528841672 0.02853469136884567 0 -0.028740207343538531 0.024490437511180907 0 -0.031466143536885358 0.024911492998556196 0 -0.026341930394958576 0.027623080874306361 0 -0.030743875528841672 0.02853469136884567 0 -0.028740207343538531 0.024490437511180907 0 -0.028810877861473336 0.021613766831208026 0 -0.02752663444367846 0.022726041647704049 0 -0.028740207343538531 0.024490437511180907 0 -0.031200490090321584 0.021757223872957941 0 -0.028740207343538531 0.024490437511180907 0 -0.031466143536885358 0.024911492998556196 0 -0.031200490090321584 0.021757223872957941 0 -0.028810877861473336 0.021613766831208026 0 -0.028740207343538531 0.024490437511180907 0 -0.031200490090321584 0.021757223872957941 0 -0.033827996541742782 0.021755809189292367 0 -0.031466143536885358 0.024911492998556196 0 -0.033827996541742782 0.021755809189292367 0 -0.031466143536885358 0.024911492998556196 0 -0.034370204377585929 0.024868498995012686 0 -0.033827996541742782 0.021755809189292367 0 -0.034370204377585929 0.024868498995012686 0 -0.037733438601821566 0.023191882253872365 0 -0.035477324990361658 0.023536889544012653 0 -0.030356143989841062 0.033894707825990335 0 -0.034370204377585929 0.024868498995012686 0 -0.038094148886860177 0.027648249663753878 0 -0.035088012560139437 0.029237732610667908 0 -0.020101205874381425 0.023872139036873345 0 -0.010412934187433023 0.014248224080465891 0 -0.020101205874381425 0.023872139036873345 0 -0.030806887226867041 0.020925742593688894 0 -0.034370204377585929 0.024868498995012686 0 -0.038094148886860177 0.027648249663753878 0 -0.037733438601821566 0.023191882253872365 0 -0.0017672736586555866 0.020635201395772188 0 -0.0017815579878773238 0.012052679063672439 0 -0.0055683509980026307 0.01918213849915211 0 -0.022765240080498027 0.02326464430658606 0 -0.022804450145964696 0.017265958233591703 0 -0.022002232643456753 0.01733897564900936 0 -0.0017815579878773238 0.012052679063672439 0 -0.008613895504351269 0.016113685153158724 0 -0.0055683509980026307 0.01918213849915211 0 -0.0083177201037612138 0.0094925353383825111 0 -0.0017815579878773238 0.012052679063672439 0 -0.008613895504351269 0.016113685153158724 0 -0.0083177201037612138 0.0094925353383825111 0 -0.013278817230780048 0.01255168674512953 0 -0.008613895504351269 0.016113685153158724 0 -0.01559110234533791 0.022533791968891947 0 -0.013278817230780048 0.01255168674512953 0 -0.008613895504351269 0.016113685153158724 0 -0.01559110234533791 0.022533791968891947 0 -0.008613895504351269 0.016113685153158724 0 -0.0090327088103695202 0.021929607000299792 0 -0.008613895504351269 0.016113685153158724 0 -0.0055683509980026307 0.01918213849915211 0 -0.0090327088103695202 0.021929607000299792 0 -0.0017672736586555866 0.020635201395772188 0 -0.0055683509980026307 0.01918213849915211 0 -0.0054500235731319985 0.023709162260771872 0 -0.0054500235731319985 0.023709162260771872 0 -0.0090327088103695202 0.021929607000299792 0 -0.0084939437499574073 0.025909326854742575 0 -0.0055683509980026307 0.01918213849915211 0 -0.0054500235731319985 0.023709162260771872 0 -0.0090327088103695202 0.021929607000299792 0 -0.0054500235731319985 0.023709162260771872 0 -0.0050581965274000785 0.027617970211579895 0 -0.0026432052146532917 0.026681174245035882 0 -0.0054500235731319985 0.023709162260771872 0 -0.0084939437499574073 0.025909326854742575 0 -0.0050581965274000785 0.027617970211579895 0 -0.01559110234533791 0.022533791968891947 0 -0.011261298988740483 0.024713150388762598 0 -0.011933698671448232 0.028493077581793147 0 -0.01559110234533791 0.022533791968891947 0 -0.0090327088103695202 0.021929607000299792 0 -0.011261298988740483 0.024713150388762598 0 -0.0084939437499574073 0.025909326854742575 0 -0.011261298988740483 0.024713150388762598 0 -0.011933698671448232 0.028493077581793147 0 -0.0090327088103695202 0.021929607000299792 0 -0.0084939437499574073 0.025909326854742575 0 -0.011261298988740483 0.024713150388762598 0 -0.0084939437499574073 0.025909326854742575 0 -0.011933698671448232 0.028493077581793147 0 -0.0075616674931648286 0.029017425893669589 0 -0.011933698671448232 0.028493077581793147 0 -0.0075616674931648286 0.029017425893669589 0 -0.0088391405941647856 0.032024984326977486 0 -0.013114010454332718 0.032442364148343963 0 -0.011933698671448232 0.028493077581793147 0 -0.0088391405941647856 0.032024984326977486 0 -0.017507542985049362 0.032921589252565289 0 -0.013114010454332718 0.032442364148343963 0 -0.011933698671448232 0.028493077581793147 0 -0.0039505994916139283 0.035217739691577508 0 -0.0055945236873994079 0.030119845465697608 0 -0.0025460809375806174 0.026719736993956581 0 -0.0050581965274000785 0.027617970211579895 0 -0.0055945236873994079 0.030119845465697608 0 -0.0025460809375806174 0.026719736993956581 0 -0.0050581965274000785 0.027617970211579895 0 -0.0075616674931648286 0.029017425893669589 0 -0.0055945236873994079 0.030119845465697608 0 -0.0050419475109061808 0.027318066513911009 0 -0.01142588813529094 0.02943365808150936 0 -0.0084939437499574073 0.025909326854742575 0 -0.0050581965274000785 0.027617970211579895 0 -0.0075616674931648286 0.029017425893669589 0 -0.0075616674931648286 0.029017425893669589 0 -0.0088391405941647856 0.032024984326977486 0 -0.0055945236873994079 0.030119845465697608 0 -0.011689508895267922 0.043838705556295654 0 -0.014870544083212733 0.042316579112447704 0 -0.014873125358244234 0.038616769075306187 0 -0.014817054469634215 0.042011239026086424 0 -0.020226845373639453 0.032179850510860898 0 -0.0099145965994395339 0.039410816998805269 0 -0.01142588813529094 0.02943365808150936 0 -0.014334001909848725 0.040285944709626681 0 -0.015092713693525262 0.034444607436429457 0 -0.014169263578181827 0.034104722525214654 0 -0.016559656867392535 0.043491336978872912 0 -0.014334001909848725 0.040285944709626681 0 -0.015092713693525262 0.034444607436429457 0 -0.011689508895267922 0.043838705556295654 0 -0.0107802891989313 0.037079913013722876 0 -0.014873125358244234 0.038616769075306187 0 -0.0400814261760465 0.041073663253073385 0 -0.036715042917981611 0.037851242651531336 0 -0.039092032702943168 0.033591463881860302 0 -0.02504463353527768 0.042837070857894184 0 -0.030356143989841062 0.033894707825990335 0 -0.0017672736586555866 0.020635201395772188 0 -0.0054500235731319985 0.023709162260771872 0 -0.0026432052146532917 0.026681174245035882 0 -0.020101205874381425 0.023872139036873345 0 -0.01142588813529094 0.02943365808150936 0 -0.020101205874381425 0.023872139036873345 0 -0.020226845373639453 0.032179850510860898 0 -0.017233470650508426 0.023896319726651846 0 -0.01851720794809459 0.032027739804045635 0 -0.017388816387146139 0.031614877902079334 0 -0.038094148886860177 0.027648249663753878 0 -0.035088012560139437 0.029237732610667908 0 -0.038035139967542014 0.030314882463825167 0 -0.030356143989841062 0.033894707825990335 0 -0.020226845373639453 0.032179850510860898 0 -0.01142588813529094 0.02943365808150936 0 -0.020226845373639453 0.032179850510860898 0 
</DataArray>
</PointData>
<CellData Scalars="region_id,cross_section_updated," Vectors="" Tensors="stress,">
<DataArray type="Float64" Name="region_id" format="ascii">
5 5 5 5 5 5 6 5 5 5 5 5 6 5 5 6 5 5 5 6 5 5 5 5 5 5 5 5 5 5 5 5 5 5 5 5 5 5 5 5 5 5 5 5 5 5 5 5 5 5 6 5 6 5 5 5 6 5 5 5 5 5 5 5 6 5 5 6 5 5 5 5 5 5 5 6 5 5 5 5 6 5 5 5 5 5 6 5 5 5 6 5 5 5 5 5 5 5 5 5 5 5 5 5 5 5 5 5 6 5 5 5 5 6 5 5 5 5 5 5 6 5 5 5 6 5 6 5 6 5 5 6 5 5 5 5 5 5 5 6 5 5 5 5 5 5 5 5 5 5 5 5 6 5 5 5 5 5 5 5 6 5 5 5 5 5 5 5 5 6 5 5 5 5 5 5 6 5 5 5 5 5 6 5 6 5 5 5 5 5 6 5 6 5 6 6 5 5 6 5 5 5 5 5 5 5 5 5 5 5 5 5 5 5 5 5 5 5 5 5 5 5 5 5 5 5 5 5 5 5 5 5 5 5 5 5 6 5 6 5 5 5 5 5 5 5 5 5 6 5 6 5 5 5 5 5 6 5 5 5 5 6 5 5 5 5 5 5 5 5 5 5 5 6 5 5 6 5 5 5 5 5 5 5 5 5 5 5 5 5 5 5 5 5 5 5 5 5 5 5 5 5 5 5 5 5 5 5 5 5 5 5 5 5 5 5 5 5 5 6 5 5 5 6 5 5 5 6 5 5 5 5 6 5 5 5 5 6 5 5 5 5 5 5 5 5 5 5 5 6 5 5 5 5 5 5 5 5 5 5 5 5 5 5 5 5 5 5 5 5 5 5 5 5 6 6 5 5 5 5 5 5 5 5 5 5 6 5 5 5 5 5 5 5 5 5 5 5 5 5 5 5 5 5 5 5 5 5 5 5 6 5 5 5 6 5 5 5 5 5 5 5 6 5 5 5 5 5 5 5 5 5 6 5 5 5 6 5 5 5 5 5 5 5 6 5 5 5 5 5 5 5 5 5 5 5 5 5 5 5 5 5 5 6 5 5 5 5 5 5 5 5 5 5 5 5 5 5 5 5 5 5 5 5 6 5 5 5 6 5 5 6 5 6 5 5 5 6 5 5 5 5 6 5 5 5 6 5 5 5 5 5 6 5 5 5 5 5 5 5 5 6 5 5 5 5 5 5 5 5 5 5 5 5 5 5 5 5 5 5 5 5 5 5 5 5 6 5 6 5 5 5 5 5 5 5 5 6 5 5 5 5 5 6 5 5 5 5 5 5 6 5 6 5 5 5 5 5 5 5 5 5 5 5 5 5 5 5 5 5 5 5 5 5 5 6 6 5 5 5 6 5 5 5 5 6 5 5 5 5 5 5 5 5 6 5 5 5 6 5 5 5 5 5 5 5 5 6 6 5 6 5 5 6 5 6 5 5 5 5 5 5 6 5 5 5 5 5 6 5 5 6 5 5 6 5 5 5 6 5 5 5 5 5 5 5 5 5 5 5 5 5 5 6 5 5 5 5 5 6 5 5 5 6 5 5 6 6 5 5 5 5 5 5 5 6 5 5 5 5 6 5 5 5 5 6 5 5 5 5 5 5 5 5 5 6 5 5 5 5 5 5 6 5 5 6 5 5 5 5 5 6 5 5 6 5 5 5 5 5 5 5 5 6 6 5 5 5 5 5 5 6 5 5 5 5 5 5 6 5 5 5 5 5 5 6 5 5 5 5 5 5 5 5 5 5 6 5 5 5 5 5 6 5 5 6 5 5 5 5 5 5 6 5 6 5 5 5 6 5 5 6 5 5 5 5 5 5 5 5 5 5 5 5 5 6 5 5 5 6 5 5 5 5 5 5 5 5 5 5 6 5 5 5 5 5 5 5 5 5 5 5 5 5 5 5 5 5 5 6 5 5 6 5 5 5 5 5 5 5 5 5 5 5 5 5 5 5 5 5 6 5 5 5 5 5 5 5 5 5 5 5 5 5 6 5 5 5 5 5 5 5 5 5 5 5 5 5 5 5 5 6 5 5 5 6 5 5 5 5 5 5 5 6 5 5 6 5 6 5 6 5 6 5 5 5 5 6 5 5 5 5 5 5 6 5 5 6 5 5 5 5 5 6 6 5 5 5 5 5 5 5 5 5 5 5 5 5 5 5 5 5 5 5 5 5 5 5 5 6 5 5 5 5 5 5 5 5 5 5 5 5 5 5 5 5 5 5 5 5 5 5 5 5 5 5 5 5 5 6 5 5 5 5 5 5 5 5 5 5 5 6 5 5 5 5 5 5 6 5 5 6 5 6 5 5 5 6 5 5 5 6 5 5 6 5 6 5 5 6 5 5 6 5 6 5 5 5 5 5 6 5 6 5 5 5 5 6 6 5 5 6 5 5 6 5 6 5 5 6 5 5 5 6 5 5 6 6 5 5 5 6 6 5 5 5 5 5 5 5 5 6 5 6 5 6 5 6 5 6 5 6 5 5 5 6 5 5 6 5 5 6 5 6 6 5 6 6 5 5 6 5 6 5 5 5 5 5 5 5 6 5 5 5 5 6 5 5 5 5 5 5 5 5 5 6 5 6 5 5 5 5 5 5 5 5 5 5 5 5 5 6 5 6 5 5 6 5 5 5 6 5 5 5 5 5 5 5 6 5 5 5 5 5 6 6 5 5 5 5 5 5 5 6 5 5 5 6 5 5 5 5 5 5 5 5 5 6 5 5 5 5 5 5 5 5 5 5 5 6 5 5 5 5 5 5 6 5 5 5 5 6 5 5 5 5 5 5 5 5 5 5 5 5 5 5 5 5 5 5 5 6 5 5 5 5 6 5 5 5 5 5 5 5 5 5 5 5 5 5 5 5 6 5 5 6 5 6 5 5 5 5 5 5 6 5 5 5 5 5 6 5 5 5 5 5 6 6 5 5 5 5 5 5 5 5 5 5 5 5 5 5 5 5 5 5 5 5 5 6 5 5 5 5 5 5 5 5 5 5 5 6 5 6 5 5 5 5 6 5 5 6 5 5 6 5 5 6 5 5 5 5 5 5 6 5 5 5 5 5 5 5 6 5 5 6 5 5 6 5 5 5 5 5 6 5 5 5 5 5 5 5 5 5 5 5 5 6 5 5 5 5 5 5 5 5 5 5 5 5 5 5 6 6 5 5 6 5 6 5 6 6 5 5 5 5 6 6 6 5 5 6 5 5 6 5 5 5 5 6 5 5 5 5 5 5 5 6 5 5 6 6 5 5 6 5 6 5 5 5 5 5 5 5 5 5 5 5 5 5 5 5 5 5 5 5 5 5 6 6 5 5 5 5 5 5 5 5 5 5 6 5 5 5 5 6 5 5 5 5 5 5 6 5 5 5 6 5 5 5 5 5 5 6 5 5 5 5 5 5 6 5 5 6 5 5 5 5 5 5 5 5 5 5 5 5 5 5 5 5 5 5 5 5 5 5 5 5 6 5 5 5 5 5 5 5 5 5 5 5 5 5 6 5 6 5 5 5 5 5 5 5 5 5 5 5 5 5 5 5 5 5 6 5 5 5 6 5 5 5 6 5 5 5 5 6 5 5 5 5 5 5 5 5 5 5 5 5 5 5 5 5 5 5 5 5 5 5 5 5 5 5 5 5 5 5 5 5 5 5 5 5 5 6 5 5 5 5 5 5 5 6 5 5 6 5 6 5 5 5 5 5 6 5 5 5 6 5 5 5 5 5 5 5 5 5 5 5 5 5 5 5 5 5 5 5 5 6 5 5 5 5 5 5 5 5 5 5 5 5 5 5 5 5 5 5 5 5 5 5 5 5 5 5 5 6 6 5 5 5 5 5 5 6 5 5 5 5 5 5 5 6 6 5 5 6 6 5 5 5 5 6 6 5 5 5 5 5 6 5 5 5 6 5 5 5 5 5 5 5 5 5 6 5 5 5 6 5 5 6 5 6 5 6 5 6 6 5 5 6 6 5 5 5 5 5 5 6 5 6 5 5 5 5 6 5 5 5 5 5 5 5 6 5 6 5 5 5 5 5 5 5 5 5 5 5 5 5 6 5 6 5 5 5 5 5 5 5 5 5 5 5 5 5 6 5 5 5 5 5 5 5 5 5 5 6 5 5 5 5 5 5 5 5 5 5 5 5 5 5 6 5 6 5 5 5 6 5 5 5 5 5 5 5 5 5 5 5 5 5 5 5 6 6 5 5 5 5 5 5 5 5 5 5 5 5 5 5 6 5 5 5 5 5 6 5 5 5 5 5 5 6 5 5 5 5 5 5 5 5 5 5 5 5 6 5 5 5 5 5 5 6 5 5 5 6 5 5 5 5 5 6 5 5 5 6 5 5 5 5 5 5 5 5 5 6 5 5 5 5 5 5 5 5 5 5 6 5 5 5 6 5 5 5 5 5 5 5 5 5 5 5 5 5 5 5 5 5 5 5 5 5 5 5 6 5 5 5 5 5 5 5 5 5 5 5 5 5 5 5 5 5 5 5 5 5 5 5 5 6 5 5 5 5 5 5 5 6 5 5 5 6 5 5 5 5 5 5 5 5 6 5 6 5 5 6 5 6 5 5 5 5 5 5 6 5 5 5 6 6 5 6 5 5 5 5 5 6 5 5 5 5 5 5 5 5 5 5 5 5 5 5 5 6 5 5 6 5 5 5 6 5 6 5 6 5 6 5 5 6 6 5 5 5 6 5 6 5 5 5 5 5 5 5 5 5 6 5 5 5 6 5 5 5 5 5 5 5 5 5 5 5 6 5 5 5 6 5 5 5 5 5 5 5 5 5 6 5 5 6 5 5 5 6 5 5 6 5 5 5 5 5 5 5 5 5 5 5 5 5 5 5 5 5 5 5 5 5 5 6 5 5 6 5 5 5 5 5 5 5 6 5 5 5 5 5 5 5 5 5 5 5 5 6 5 5 5 6 5 5 6 6 5 6 5 5 5 5 5 6 5 5 5 5 5 6 5 5 5 6 6 5 5 5 6 5 5 5 6 5 5 5 6 6 5 5 6 5 5 5 5 5 5 6 6 5 5 5 5 5 5 5 5 5 5 5 6 5 5 5 5 5 5 5 5 5 5 5 5 5 5 5 5 6 5 5 5 6 5 5 5 5 5 5 5 5 5 5 6 6 5 5 5 5 6 5 5 5 5 5 5 6 5 6 5 5 5 5 5 5 6 6 5 5 5 5 5 5 5 5 6 6 5 5 5 5 5 5 6 5 5 5 5 6 5 6 5 5 5 5 5 6 5 6 6 5 5 6 6 5 5 6 5 6 6 5 5 5 6 6 5 5 5 5 5 5 5 5 5 5 6 5 5 5 6 6 5 6 6 5 5 5 5 5 6 5 6 5 6 5 5 5 6 5 6 6 5 5 6 5 5 6 5 5 5 5 6 5 5 5 5 5 5 5 5 5 5 5 5 6 5 5 5 5 5 6 5 6 5 6 5 6 5 6 5 6 5 5 5 5 5 6 6 5 6 6 6 5 5 5 5 6 5 5 5 5 5 6 5 5 5 5 5 5 6 5 5 5 5 6 5 5 6 5 6 6 5 5 5 5 5 5 6 6 6 6 5 5 6 5 6 5 6 6 5 5 5 5 5 5 5 5 5 5 5 5 6 5 5 6 5 5 5 5 5 5 5 5 5 5 5 6 5 5 5 5 6 5 5 6 5 5 5 6 5 6 5 5 5 5 5 5 5 5 5 6 5 5 5 5 5 6 5 5 5 5 5 5 5 5 5 5 5 5 5 5 5 6 5 5 5 5 6 5 5 5 5 6 5 5 5 5 5 5 5 5 5 5 5 5 5 5 5 5 5 5 6 5 5 5 5 6 5 5 5 5 5 5 5 5 5 5 5 6 5 5 5 6 6 5 5 5 6 6 6 5 6 5 5 6 5 5 6 5 5 6 5 6 5 5 5 5 5 5 5 5 5 5 5 5 5 5 5 5 5 5 5 5 6 6 5 5 5 6 5 6 5 5 5 5 5 5 5 5 5 5 6 5 5 5 5 5 5 5 5 5 6 5 5 5 5 5 5 6 5 5 5 5 5 5 5 5 5 5 5 5 6 5 6 5 5 5 5 5 5 5 5 5 5 5 5 5 5 5 5 5 5 6 5 6 5 6 5 5 6 5 6 5 5 6 5 5 6 5 5 5 5 5 5 6 5 5 6 6 5 5 6 5 5 6 5 6 6 5 5 5 5 5 5 6 5 5 5 5 5 5 5 5 5 5 6 5 5 6 5 5 5 6 5 5 5 5 5 5 5 6 5 5 5 6 5 5 6 5 5 5 5 5 5 5 5 5 5 5 5 5 5 5 5 5 5 5 5 5 5 5 5 5 5 5 5 5 5 5 5 5 5 5 5 5 5 5 5 5 5 5 5 5 5 6 5 5 5 5 5 5 5 5 5 5 5 5 5 5 5 5 5 5 5 5 6 5 6 5 5 5 5 5 5 5 6 5 5 5 5 5 5 5 6 5 5 5 5 5 5 6 5 6 5 5 5 6 5 5 5 5 5 5 5 5 5 5 5 5 6 5 5 5 5 6 5 5 5 6 6 5 5 5 6 6 5 5 5 5 5 5 5 5 5 5 5 5 5 5 5 5 5 5 5 5 6 5 5 5 5 6 5 5 5 6 5 5 5 5 5 5 5 5 5 5 6 6 5 5 5 5 6 5 5 5 5 5 5 6 5 5 6 5 5 6 5 5 5 5 5 5 5 5 5 5 5 5 5 5 5 5 5 5 5 5 5 5 5 5 5 5 5 5 5 5 5 5 5 5 5 5 5 5 5 5 5 5 5 5 5 5 5 5 6 5 5 5 5 5 6 5 5 6 5 5 6 5 5 5 5 5 5 5 5 5 5 5 5 5 5 5 5 5 5 5 6 5 5 5 5 5 6 5 5 5 5 5 5 5 5 5 5 5 5 6 5 5 5 5 5 6 5 5 5 6 5 5 5 5 5 5 6 5 5 5 5 6 5 5 5 5 6 5 5 5 6 5 5 5 6 5 5 6 5 5 5 5 5 5 5 5 5 5 5 5 5 5 5 5 5 5 5 5 5 5 5 6 5 5 5 6 5 5 5 5 5 5 5 5 5 5 5 5 5 5 5 5 5 6 6 5 5 6 5 5 6 5 6 5 6 5 5 5 5 6 5 5 5 5 6 5 6 5 5 5 5 5 5 5 5 5 5 5 5 5 5 6 5 5 5 5 5 5 5 5 5 5 6 5 5 5 5 5 5 5 5 5 5 6 5 5 5 5 5 6 5 5 5 5 5 6 5 5 5 5 6 5 5 5 5 5 5 5 5 5 5 5 5 6 5 5 5 5 5 6 5 5 5 5 5 5 6 5 5 5 5 5 5 6 5 5 5 5 5 5 5 5 5 5 5 5 5 5 5 5 5 5 5 5 5 5 5 5 5 6 5 5 5 5 5 5 6 5 5 5 5 6 5 5 6 5 5 5 5 5 5 5 5 5 6 5 5 6 5 5 5 6 5 5 5 5 6 5 5 5 5 5 5 5 5 5 6 5 5 5 5 5 5 5 5 5 5 5 5 5 5 5 5 5 5 5 5 5 5 5 5 6 5 5 5 5 5 5 5 5 5 5 6 5 5 5 5 5 5 5 6 5 5 5 5 6 5 5 5 5 5 5 5 5 5 5 5 5 5 5 5 5 5 5 5 5 5 5 5 5 5 5 5 5 5 5 5 5 5 5 5 5 5 5 5 5 5 5 5 5 5 5 5 6 5 5 5 5 5 5 5 5 5 5 5 5 5 5 6 5 5 5 5 5 5 5 5 6 5 5 5 5 6 6 5 5 6 6 5 5 5 5 5 5 5 5 5 5 5 5 5 5 5 5 6 5 5 5 5 5 5 5 5 5 5 5 6 5 5 5 5 5 5 5 5 5 6 6 5 5 6 5 5 5 5 5 5 6 5 5 5 5 6 5 5 5 5 5 5 5 5 5 5 5 5 6 5 5 5 5 6 5 5 5 5 5 5 5 5 5 6 6 5 5 5 5 6 5 5 5 5 5 5 6 5 5 5 5 5 5 5 5 5 5 5 5 5 5 5 6 5 5 5 5 5 5 5 5 5 5 5 5 5 5 5 5 5 5 5 5 5 5 5 5 5 5 5 6 5 5 5 6 5 5 5 5 5 5 5 5 5 6 5 5 5 5 5 5 5 5 5 6 5 5 5 5 5 5 5 5 5 5 5 5 5 5 5 6 5 5 5 5 5 5 5 6 5 5 5 5 5 5 5 5 5 5 5 5 5 5 5 5 5 5 5 5 5 5 5 5 5 5 5 5 5 5 6 5 5 5 5 6 5 5 5 5 5 6 5 6 5 5 5 5 5 5 6 5 5 5 6 5 5 5 5 5 5 5 5 5 5 5 5 5 5 5 5 5 5 5 5 5 5 5 5 5 5 5 5 5 6 5 5 5 5 5 6 5 5 5 5 5 5 5 6 5 5 5 5 5 5 5 6 5 6 5 5 5 5 5 6 6 5 5 6 5 5 6 5 6 6 6 5 6 5 6 6 6 5 5 6 6 5 5 6 5 5 5 5 5 6 5 5 6 5 6 5 5 5 5 5 6 5 5 6 5 6 5 6 6 5 5 5 5 5 6 5 5 6 5 5 5 5 5 5 6 5 5 5 5 5 5 5 5 5 5 5 5 5 5 5 6 5 5 5 5 5 6 5 6 6 5 5 5 5 5 5 5 5 5 5 5 5 5 5 5 5 5 5 5 5 5 6 5 5 5 6 5 5 6 5 5 5 5 5 5 5 5 5 5 6 5 6 5 5 5 5 5 6 5 5 5 5 6 5 5 5 5 5 5 5 5 5 5 5 5 5 5 5 5 5 5 5 5 5 5 5 5 5 5 5 5 5 5 5 5 6 5 6 5 6 5 6 5 5 5 6 6 5 6 6 5 5 5 6 5 5 5 5 5 5 5 5 5 5 5 5 5 5 5 5 5 5 5 5 5 5 5 5 5 5 5 5 5 5 5 5 5 5 5 5 5 5 5 5 5 5 5 5 5 5 5 5 5 5 5 5 5 5 5 5 5 5 5 5 5 5 5 6 5 5 5 5 5 5 6 6 5 5 5 5 5 5 6 5 5 5 5 6 5 5 5 5 5 6 5 6 5 5 5 5 6 5 5 5 5 5 5 5 5 5 5 5 5 5 5 5 5 5 5 5 5 5 5 5 5 5 6 5 5 5 5 5 5 5 5 5 6 6 5 5 5 6 6 5 5 5 5 5 6 5 6 5 5 6 5 5 5 5 5 5 5 5 5 5 5 5 6 5 5 5 5 6 5 5 5 5 5 5 5 6 5 5 5 5 5 5 5 5 5 5 5 5 5 5 5 5 5 5 6 5 5 5 6 5 5 5 5 5 5 5 5 5 5 5 5 5 5 6 6 5 5 5 5 5 5 5 5 5 5 5 6 5 5 5 5 5 5 5 6 5 5 5 5 5 5 5 5 5 5 5 5 5 5 5 5 5 5 5 6 6 5 5 5 5 5 5 6 5 5 5 5 5 5 5 5 5 5 5 5 5 5 5 5 5 5 5 5 5 5 5 5 5 5 5 5 6 6 5 5 5 5 5 6 5 5 6 5 5 5 5 6 5 5 5 6 6 5 6 6 5 5 5 5 6 5 5 5 5 5 5 5 6 5 6 5 6 5 5 6 6 5 5 5 6 5 6 5 5 5 5 5 5 5 5 5 6 5 5 5 5 5 6 5 5 5 5 5 5 5 5 5 5 5 5 6 5 5 5 5 5 5 5 5 5 6 5 5 5 5 5 5 5 5 6 6 6 5 5 5 6 5 5 6 5 5 5 5 5 5 6 5 5 5 6 6 5 6 5 5 5 5 6 6 5 5 6 5 5 6 5 5 5 5 5 5 5 6 5 6 5 6 6 5 5 5 5 5 5 5 5 6 5 5 5 5 5 6 5 5 5 5 5 5 5 5 5 5 5 5 5 5 5 5 5 5 5 5 5 5 5 5 5 5 5 5 5 5 5 5 5 5 5 5 5 5 5 5 5 5 5 5 5 5 5 5 5 5 5 5 5 5 5 5 5 5 5 5 5 5 5 5 6 5 5 5 5 5 5 5 5 5 5 5 5 5 5 5 5 5 5 5 5 5 5 5 5 5 5 5 5 5 5 6 5 5 5 6 6 6 5 5 5 5 5 5 5 6 6 5 5 5 6 5 6 5 5 5 5 5 5 6 5 5 6 5 5 5 5 5 5 5 5 5 5 5 5 6 5 5 5 5 5 5 5 6 5 6 6 5 5 5 5 6 5 6 6 5 5 5 5 6 5 5 6 6 5 5 5 5 6 5 5 6 5 5 5 5 5 5 5 5 5 5 6 5 6 5 5 5 5 6 5 5 5 5 5 6 5 5 5 5 5 5 5 5 5 5 5 5 5 5 5 6 5 5 5 6 6 5 5 5 5 5 5 5 5 5 5 5 5 5 6 5 6 5 5 5 6 5 5 5 6 5 5 5 5 6 5 5 5 5 5 6 5 5 5 5 5 5 6 5 5 5 5 5 5 5 5 5 5 6 6 5 6 5 5 5 5 6 5 5 6 5 5 6 5 5 5 6 6 5 6 6 5 5 5 5 5 6 5 5 6 5 5 5 6 5 6 5 5 5 5 5 5 5 6 5 5 5 5 5 5 5 5 5 5 5 5 6 5 5 5 5 5 6 5 5 6 5 6 5 5 6 5 6 5 5 6 6 5 5 5 6 6 5 5 6 5 5 5 5 5 6 6 6 6 6 6 5 5 5 6 5 6 6 6 5 5 5 6 5 5 6 5 5 5 6 5 5 6 5 5 5 5 6 6 5 5 5 5 5 6 5 5 5 5 5 5 6 6 5 5 6 5 6 5 5 5 5 5 5 5 5 5 5 5 5 5 5 5 5 5 5 5 6 5 5 5 5 6 5 6 5 5 5 6 5 5 5 6 5 5 5 5 5 5 5 5 5 5 5 5 5 5 6 6 5 5 5 5 5 5 5 5 5 5 5 5 5 5 5 6 5 5 5 5 6 5 6 5 5 5 5 5 5 5 5 5 5 5 5 5 5 5 5 5 5 5 5 5 5 5 5 5 5 5 5 5 5 5 5 5 5 6 6 5 5 6 5 6 5 6 6 5 5 5 5 5 5 6 6 5 5 6 5 5 5 6 5 5 5 5 5 5 5 6 5 5 5 5 5 5 6 5 5 5 5 5 5 5 5 5 5 5 6 5 5 5 5 5 5 5 5 5 6 5 5 5 5 6 5 5 5 5 5 6 5 5 5 5 5 5 5 5 5 5 5 5 5 5 5 5 5 5 5 5 5 5 5 5 5 6 5 5 5 5 5 5 5 5 5 5 5 5 5 5 6 5 5 5 5 5 5 6 5 6 5 5 5 5 6 5 6 5 5 5 5 5 5 5 6 5 5 5 5 5 5 5 5 6 5 5 5 5 5 5 5 6 5 5 5 5 5 5 5 5 5 5 5 5 5 5 6 5 5 5 5 6 6 5 5 5 5 5 5 5 6 5 6 5 6 5 5 6 6 5 6 5 5 5 5 5 5 5 5 6 5 6 5 5 5 5 6 5 5 6 5 5 5 5 5 6 5 5 5 5 5 5 5 5 5 5 5 5 5 6 5 5 6 5 5 5 6 5 5 5 5 5 6 5 5 6 5 6 5 5 5 5 5 5 5 6 5 5 6 5 5 5 6 5 5 5 5 5 5 5 5 5 5 6 5 5 5 6 5 5 5 5 6 5 5 5 5 5 5 5 5 5 5 5 5 5 5 5 5 5 5 5 5 6 5 5 5 6 5 5 5 5 5 5 5 5 5 6 5 5 5 5 5 6 5 5 5 5 5 5 5 5 5 5 5 5 5 5 5 5 5 5 5 5 5 6 5 5 5 5 5 6 6 5 5 5 5 6 5 5 5 5 5 5 5 5 6 5 5 5 5 5 5 5 6 6 5 5 5 5 5 6 5 5 5 5 5 5 5 5 5 5 6 5 6 5 6 5 6 5 5 5 5 6 5 5 5 5 5 5 5 5 5 5 5 5 5 5 5 5 5 5 5 5 6 5 5 6 5 5 5 5 5 5 5 5 5 6 5 5 6 5 5 5 5 6 5 5 5 5 5 5 5 5 5 5 5 5 5 5 5 5 5 5 5 5 5 5 6 5 5 5 5 5 5 5 5 5 5 5 5 5 5 5 5 5 5 5 5 5 5 5 5 5 6 5 5 5 5 5 5 5 5 5 5 5 5 5 5 5 6 5 5 5 5 5 5 5 5 5 5 5 5 6 5 5 5 5 6 6 5 5 5 6 5 6 5 5 5 6 5 5 5 5 6 6 5 5 6 5 5 5 5 5 5 5 5 6 5 5 5 5 5 5 5 5 5 5 5 5 5 6 5 6 5 5 5 5 5 5 5 6 5 5 5 5 5 6 6 5 5 5 5 5 5 5 6 5 5 5 5 5 6 5 5 5 5 5 6 5 5 5 5 5 6 5 5 5 5 5 5 5 5 5 5 5 5 5 5 5 5 5 5 5 5 5 5 5 5 5 6 5 5 5 5 5 5 5 5 5 5 5 5 6 5 6 6 5 5 5 5 5 6 5 5 5 5 5 5 6 5 6 5 5 5 5 5 5 5 5 5 5 5 5 5 5 5 6 5 6 5 5 5 5 5 6 5 5 5 5 5 5 5 5 5 5 5 5 5 5 5 5 5 5 5 5 5 6 5 5 5 5 5 5 5 5 5 6 5 5 5 5 5 6 5 5 5 5 6 5 5 5 5 5 6 5 5 5 5 5 6 5 5 5 5 5 5 5 5 5 5 5 6 5 5 5 6 5 5 5 5 5 6 5 5 5 6 6 5 5 5 5 5 5 5 6 5 5 5 5 5 5 5 6 5 5 5 5 5 6 5 5 5 5 5 5 5 5 5 5 5 5 5 6 5 5 5 5 5 5 5 5 5 5 5 6 5 5 5 5 5 5 5 5 5 5 5 5 5 5 5 5 5 5 5 5 5 5 5 5 6 5 6 5 6 5 5 5 5 6 5 6 5 5 6 5 5 5 5 5 5 5 5 5 5 5 5 5 5 5 5 5 5 6 5 5 5 5 5 5 5 5 5 5 5 5 5 5 6 5 5 5 5 5 5 5 6 6 5 5 5 5 5 6 5 5 5 5 5 5 5 5 5 5 5 5 5 5 5 6 5 5 5 5 5 5 5 5 5 5 6 5 5 5 5 6 5 5 5 5 5 5 5 5 5 5 5 5 5 5 5 5 5 5 5 6 5 5 5 6 5 5 5 6 5 5 5 5 5 5 5 5 5 5 5 5 5 5 5 6 5 5 5 5 5 5 5 6 5 5 5 5 5 5 5 5 5 5 5 5 5 5 5 5 5 5 5 5 5 5 5 5 5 5 5 5 5 5 6 5 6 5 5 5 5 5 5 5 5 6 5 5 5 5 5 5 5 5 5 5 5 6 5 5 5 5 5 5 5 6 5 5 5 5 5 5 5 6 5 5 5 5 5 6 5 5 5 6 5 5 5 5 5 5 5 5 5 5 5 5 5 5 5 5 5 6 5 5 6 5 5 5 6 5 5 5 5 5 5 6 5 5 6 5 5 5 5 5 5 6 5 5 5 6 5 5 5 5 5 5 5 5 5 6 5 5 6 5 5 5 5 5 5 5 5 5 6 6 5 5 5 5 5 5 5 6 6 5 5 5 5 5 5 5 5 5 5 5 5 5 5 5 5 5 5 6 5 5 5 5 5 5 5 5 5 5 5 5 5 5 5 5 5 6 5 5 6 5 5 5 5 5 5 5 5 5 5 5 5 6 5 5 5 5 5 6 5 5 5 5 5 5 5 5 5 5 5 5 5 5 5 5 5 5 5 5 5 5 5 5 5 5 5 6 5 5 5 5 5 6 5 5 5 5 5 5 5 5 6 5 5 5 5 5 5 5 6 5 5 5 5 5 5 5 5 5 6 5 5 5 5 5 5 6 5 5 5 5 5 5 5 5 5 6 5 5 5 6 5 6 5 5 5 5 5 6 5 5 6 5 6 5 5 5 5 5 5 6 6 5 5 6 5 6 5 5 5 5 5 5 5 5 5 5 5 5 5 6 5 6 5 5 5 6 5 5 5 5 6 5 5 5 5 5 5 5 5 5 5 5 6 5 5 5 5 5 5 6 5 5 5 6 5 5 6 5 5 5 5 5 5 5 5 5 5 5 5 5 5 5 5 5 5 5 5 5 5 5 5 5 5 5 6 5 5 5 5 5 6 5 5 5 5 5 5 5 5 5 5 5 5 5 5 6 5 5 5 5 5 5 6 5 5 5 6 5 5 5 5 5 5 5 5 5 5 5 5 5 5 5 5 5 5 5 5 5 5 5 5 5 6 5 5 5 5 5 5 5 5 6 6 5 5 5 5 5 5 5 5 5 6 5 5 6 5 6 5 6 5 5 5 5 5 5 6 5 5 5 5 6 5 5 6 5 5 5 5 5 6 5 5 5 5 5 5 5 5 5 5 5 5 5 5 6 6 5 5 5 5 5 5 5 5 5 5 5 5 6 5 5 6 5 5 6 6 5 5 5 6 5 5 5 5 6 6 5 5 6 5 5 5 6 5 5 5 5 5 5 5 5 6 5 5 5 5 5 6 5 5 5 6 5 5 5 6 5 5 5 5 6 5 5 6 6 5 5 5 5 5 5 6 5 5 5 5 5 5 5 5 5 5 5 5 5 5 5 5 5 6 5 5 5 5 5 5 5 6 5 5 5 6 5 5 6 5 5 5 5 5 6 6 5 5 5 5 5 6 5 5 5 5 6 5 6 5 5 5 5 5 5 5 6 5 5 6 5 5 5 6 5 5 6 6 5 5 5 5 5 5 5 6 5 5 6 5 5 5 6 5 5 5 5 5 5 5 5 5 5 5 5 5 5 5 5 5 5 5 5 5 5 5 5 5 5 5 5 5 5 5 5 5 5 5 5 5 5 5 5 5 5 5 5 5 5 5 5 5 5 5 5 5 5 5 5 5 5 5 5 5 5 5 5 5 5 5 5 5 5 5 5 5 5 5 5 5 5 5 5 5 5 6 5 6 5 5 5 6 5 5 5 5 5 5 5 5 5 5 5 5 5 5 6 5 5 5 5 5 6 6 6 5 5 5 5 5 6 6 5 5 5 5 6 5 5 5 5 5 5 5 5 6 5 6 5 5 5 5 5 5 5 5 5 5 5 5 5 5 5 5 5 5 5 5 5 5 5 5 5 5 5 5 5 5 5 5 5 5 5 5 5 5 6 5 5 5 5 5 5 5 6 5 5 5 5 5 5 5 5 6 5 5 5 6 5 5 5 5 5 5 5 5 5 5 5 5 5 5 5 5 5 5 5 5 5 5 5 5 5 6 5 5 6 5 5 5 5 5 5 5 5 5 5 5 5 6 5 5 5 5 5 6 5 5 5 5 6 5 6 5 5 5 6 5 5 5 6 5 6 5 5 6 6 6 5 5 5 6 5 5 6 6 5 5 5 5 5 5 5 5 5 5 5 5 5 5 5 5 6 5 5 6 5 5 5 5 5 5 5 5 5 6 5 5 6 5 5 6 5 5 5 5 5 5 5 5 5 5 5 5 5 5 5 6 5 5 5 6 5 5 5 6 5 6 5 5 5 5 5 5 5 5 6 5 5 5 5 5 5 5 5 5 5 5 5 5 6 5 5 5 5 5 5 5 5 6 5 5 5 5 5 6 5 5 5 5 5 5 5 6 5 6 5 5 5 5 5 5 5 5 5 5 5 5 5 6 5 5 5 5 5 5 5 6 5 5 5 5 5 5 5 5 5 5 5 5 5 5 5 5 5 5 5 5 5 5 5 5 5 5 5 5 5 6 5 5 5 6 5 6 6 5 5 6 6 5 5 5 5 5 6 5 5 5 5 5 5 5 5 5 5 6 5 6 5 5 5 5 6 5 5 5 5 5 5 5 5 5 5 6 5 5 5 5 5 5 5 5 5 5 5 5 6 5 5 5 5 6 5 5 5 5 5 5 6 5 5 5 6 5 6 5 5 5 5 6 5 5 5 5 5 5 5 5 5 5 5 5 5 5 5 5 5 5 5 5 5 5 5 5 5 5 5 5 5 5 5 5 5 5 5 5 5 5 6 5 5 5 5 6 5 5 5 5 5 5 5 5 5 5 6 5 5 5 5 5 5 5 5 5 5 5 5 6 5 5 5 6 5 5 5 5 5 5 5 6 5 5 5 5 5 6 5 5 5 5 5 5 5 5 5 5 5 5 5 5 5 5 5 5 5 5 5 5 5 5 5 5 5 5 5 5 5 5 5 5 5 5 5 6 5 5 5 5 5 5 5 5 5 5 5 5 5 5 5 5 6 5 5 6 5 5 5 5 5 5 5 5 5 5 5 5 5 5 5 5 5 5 5 5 5 5 5 5 5 5 5 5 5 5 5 5 5 5 5 5 5 5 5 5 5 5 6 5 5 5 6 5 5 5 5 6 5 5 5 6 5 5 5 5 5 5 5 5 5 5 5 5 5 5 6 5 5 5 5 6 6 5 5 5 5 5 5 5 5 5 6 5 6 5 5 5 5 5 5 5 5 5 5 5 5 5 5 6 5 5 5 5 5 5 5 5 5 5 5 5 5 5 6 5 5 5 5 6 5 5 5 5 6 5 6 5 5 5 6 5 5 6 5 5 5 5 6 5 5 5 5 5 6 5 5 6 5 5 5 5 6 5 5 5 5 5 5 5 6 5 5 5 5 6 5 5 6 5 5 6 5 6 5 5 5 5 6 5 5 5 6 5 5 5 5 5 5 5 6 5 5 5 5 5 5 5 5 5 5 5 5 5 5 5 5 5 6 5 5 5 6 5 5 5 5 5 5 5 5 5 5 5 5 5 5 5 5 5 5 5 5 5 5 5 5 5 5 5 5 5 5 5 5 5 5 5 5 5 6 5 5 5 6 5 5 6 6 5 5 5 5 5 5 5 5 5 5 6 5 5 5 5 5 5 5 5 5 5 5 5 5 5 5 6 5 5 5 5 5 5 5 5 5 5 5 5 5 6 5 5 5 5 5 6 5 5 5 5 6 5 5 5 5 5 6 5 5 5 5 5 5 5 5 5 5 6 5 6 5 5 5 5 6 5 6 5 5 5 5 5 5 6 6 5 5 6 5 5 5 5 5 5 5 5 6 5 5 5 5 5 5 5 5 5 5 5 5 5 5 5 5 6 5 6 5 5 5 5 5 5 5 5 5 5 5 5 5 5 5 5 5 5 5 5 5 6 5 5 5 5 5 5 5 5 5 5 5 5 5 5 5 5 5 5 5 5 5 5 5 5 5 5 5 5 5 5 5 5 5 5 6 5 5 5 5 5 5 5 5 5 5 6 5 5 5 6 5 6 5 5 5 5 5 5 5 5 5 5 6 5 5 6 5 5 5 5 5 5 5 5 5 5 5 5 5 5 5 5 5 5 5 5 5 5 5 5 5 5 5 5 5 5 5 5 5 5 5 5 5 5 5 5 5 5 5 5 5 5 5 5 5 5 5 5 5 5 5 5 5 5 5 5 6 5 5 5 5 5 5 6 6 5 5 5 5 5 5 5 5 5 6 5 5 5 5 5 5 5 5 5 5 5 5 5 5 5 5 5 5 5 5 5 5 5 5 5 5 5 5 5 5 5 5 5 5 5 5 5 5 5 5 5 5 5 5 5 5 5 5 5 5 5 5 5 5 5 5 5 5 6 5 6 5 5 5 5 5 5 5 5 6 5 5 5 5 5 5 5 5 5 6 5 5 5 5 5 5 5 6 5 5 5 5 5 5 5 5 5 5 5 5 6 5 5 6 5 5 5 5 5 5 5 5 5 5 5 5 5 5 5 5 5 5 5 5 5 5 5 5 5 5 5 5 5 5 5 5 5 5 5 5 5 5 5 5 5 5 5 5 5 5 5 6 5 5 5 5 6 5 5 6 5 5 5 5 5 6 5 5 5 5 6 5 5 5 5 6 5 5 6 5 5 5 6 5 5 5 5 5 5 5 5 5 5 5 5 5 5 5 5 5 5 5 5 5 5 5 5 5 5 5 6 6 5 6 5 5 5 6 5 5 5 5 5 5 5 5 5 6 5 6 5 5 6 5 5 6 5 5 5 5 5 5 5 5 5 5 5 5 5 5 5 5 5 5 5 5 5 5 5 5 5 6 5 5 5 5 5 6 5 5 5 5 5 5 5 6 6 5 5 5 6 5 5 5 5 6 5 5 5 6 5 5 5 5 5 5 5 5 5 6 5 5 5 5 5 5 5 5 5 6 5 5 5 6 5 5 5 5 6 5 5 6 5 5 5 5 5 5 5 6 5 5 5 5 5 5 6 5 5 5 5 5 5 6 5 5 5 5 5 5 5 5 6 5 5 5 6 5 5 5 5 5 5 5 5 5 5 5 5 5 5 5 5 5 5 5 5 5 5 5 5 5 5 5 5 5 5 5 5 5 5 5 5 5 5 5 5 5 5 5 5 5 5 5 5 5 5 5 5 5 6 5 5 6 5 6 5 5 6 5 5 5 5 5 5 5 5 5 6 5 5 5 5 5 5 6 5 5 5 5 5 5 6 5 6 5 5 6 5 5 6 5 5 6 5 5 5 5 5 5 5 5 5 5 5 5 5 6 5 6 5 5 6 5 5 5 5 5 6 5 5 5 5 5 5 5 5 5 5 5 5 5 5 5 6 5 5 6 5 5 5 5 6 5 5 5 5 5 5 5 5 5 6 5 5 5 5 5 5 5 5 5 5 6 5 5 5 5 5 6 6 5 5 5 5 5 5 5 6 6 5 5 5 5 5 5 5 5 6 5 5 6 5 6 5 5 6 5 5 5 5 5 5 6 5 5 5 5 5 5 5 5 5 5 6 5 5 5 5 5 5 6 6 5 5 5 5 6 5 5 5 5 5 5 5 5 5 5 5 5 5 5 5 5 5 5 6 5 5 5 5 6 5 5 5 5 5 5 5 5 5 5 5 5 5 6 5 5 5 5 5 5 5 5 6 5 5 5 6 5 5 5 5 5 6 5 6 5 5 5 5 5 5 5 5 5 5 5 5 5 5 6 5 5 5 5 5 5 5 5 5 5 6 5 5 5 5 5 5 5 6 6 5 5 5 5 5 5 6 5 5 5 5 5 5 5 5 5 5 6 5 5 5 5 6 6 5 6 5 5 5 5 5 5 5 6 5 6 5 5 5 5 5 5 5 5 5 6 5 5 5 5 5 5 5 5 5 5 5 5 5 5 5 5 5 5 5 5 5 5 5 5 6 5 5 5 5 5 5 5 5 5 5 5 5 5 5 5 5 5 5 5 5 5 5 5 5 5 5 5 5 5 5 5 5 5 5 5 5 5 5 5 5 5 5 5 5 5 5 5 6 5 5 5 5 6 5 5 5 5 5 5 5 6 5 5 6 5 5 5 5 5 5 5 5 5 5 5 5 5 5 5 6 6 5 5 5 5 5 5 5 5 6 5 5 5 5 5 5 5 5 5 5 6 5 6 5 5 5 5 5 5 5 5 5 5 5 5 5 5 5 5 5 5 5 5 5 5 5 5 5 5 5 5 5 5 5 5 5 5 5 5 5 5 5 5 5 5 5 5 5 5 5 5 5 5 5 5 5 5 5 5 5 5 5 5 5 6 5 5 6 5 5 5 5 5 5 5 5 5 6 5 5 5 5 5 5 5 5 5 5 5 5 6 5 5 5 6 5 5 5 5 5 5 5 5 5 5 5 5 5 5 5 5 5 5 5 5 5 6 5 5 5 6 5 5 5 5 5 5 6 6 5 5 5 5 5 5 5 5 5 5 5 5 5 5 5 5 5 5 5 5 5 5 5 5 5 5 5 5 5 5 5 5 5 5 5 6 5 5 5 5 5 5 5 5 5 5 5 5 5 5 5 5 5 5 5 5 5 5 5 5 6 5 5 5 5 5 5 5 5 5 5 5 5 5 6 6 5 5 5 6 6 5 5 5 5 5 5 5 5 5 5 5 5 5 6 5 5 5 5 6 5 5 5 5 5 6 5 5 5 5 5 5 5 5 6 5 5 5 6 5 5 6 5 5 6 5 5 5 6 5 5 6 5 5 5 5 5 5 6 5 5 5 5 6 5 5 5 5 5 5 5 5 5 5 5 6 5 5 5 5 5 5 5 5 5 5 5 5 5 5 5 5 5 5 5 5 5 5 5 5 6 5 6 6 5 5 5 6 5 5 5 5 6 5 5 5 5 5 5 5 5 6 5 5 5 6 5 5 5 5 5 5 5 5 5 5 5 5 5 5 5 5 5 5 5 5 6 5 5 5 5 5 5 5 5 5 5 5 5 6 5 5 5 5 5 5 6 5 6 6 5 5 5 5 5 5 5 5 5 5 6 5 5 5 5 6 5 5 5 6 5 5 6 5 5 5 5 5 5 5 5 5 5 6 5 6 5 5 5 6 5 6 5 5 5 5 6 6 6 5 5 5 5 5 5 6 5 5 5 5 5 5 5 6 5 5 5 5 5 5 5 5 5 5 5 5 5 5 6 5 6 5 5 5 5 5 5 6 5 5 5 5 6 5 5 6 5 5 5 6 5 6 5 5 6 5 5 5 5 5 6 5 6 5 5 5 5 5 5 5 5 5 5 6 5 6 5 5 5 5 5 6 6 5 6 5 5 5 6 6 6 6 5 5 5 6 5 6 5 6 6 5 5 5 6 5 5 5 6 6 5 6 5 5 6 5 5 5 5 5 5 5 5 5 5 5 5 5 5 5 5 5 5 5 5 5 6 5 5 5 5 6 5 6 5 6 5 5 5 5 5 6 6 5 6 5 5 6 5 5 5 5 5 6 5 5 6 5 5 5 6 6 5 5 5 6 5 6 6 5 5 6 5 6 5 5 6 5 6 5 5 5 5 5 5 6 5 5 5 6 5 5 5 5 5 5 5 5 5 5 5 5 5 5 5 5 5 5 5 5 5 5 5 5 5 5 5 5 6 5 5 5 6 5 6 5 5 6 5 5 5 5 5 5 5 5 5 5 6 5 5 5 5 5 5 5 5 5 5 5 5 5 5 6 6 5 5 5 5 5 6 6 5 5 6 6 5 5 5 5 5 5 5 5 5 5 5 5 5 5 5 5 5 5 5 6 5 5 5 5 5 5 5 5 6 5 5 5 5 5 5 5 5 5 5 5 6 6 5 5 5 5 5 5 5 5 5 5 5 5 5 5 5 5 5 5 5 5 5 5 5 5 5 5 5 5 5 5 5 5 5 6 5 5 6 5 5 5 5 5 5 5 5 5 5 5 5 5 5 5 5 5 5 5 5 5 5 5 5 5 5 5 5 5 5 5 5 5 5 5 6 5 5 5 5 5 5 5 5 5 5 6 5 5 5 5 5 5 5 6 5 5 5 5 5 5 5 5 5 5 5 5 5 5 5 5 5 5 5 5 5 5 5 5 5 5 5 5 5 5 5 5 5 5 5 5 5 5 5 6 5 5 5 5 6 5 5 5 5 5 5 5 5 5 5 5 5 5 6 5 5 5 5 5 5 6 5 5 6 6 5 5 6 6 5 5 5 5 6 6 5 5 5 5 6 6 5 5 5 5 5 5 5 6 5 5 5 5 5 5 5 5 5 6 5 5 5 6 5 6 5 6 5 5 6 5 5 6 5 5 5 5 6 5 5 5 5 5 5 5 5 6 5 5 5 5 5 5 6 5 5 5 5 5 5 5 5 5 5 5 6 5 5 5 5 5 5 5 5 5 5 5 5 5 5 6 5 5 5 5 5 5 6 5 5 6 5 5 5 5 5 5 5 5 5 5 5 5 5 5 5 5 5 5 6 5 5 5 5 5 5 5 6 5 5 5 5 5 5 5 5 5 5 6 5 5 5 6 5 5 6 5 6 5 5 5 5 6 6 5 5 5 5 5 6 6 5 6 6 5 6 6 5 5 5 6 5 5 5 5 5 5 6 5 5 6 6 5 5 5 5 5 5 5 5 5 5 6 6 5 5 5 6 5 5 5 6 5 5 5 5 5 5 5 5 5 5 5 5 5 5 5 5 5 5 6 5 5 6 5 5 6 6 5 5 5 6 5 5 5 5 6 5 5 5 5 5 5 5 5 5 6 5 5 6 5 5 5 5 5 5 5 5 5 6 6 5 5 5 5 5 5 6 5 5 6 5 5 5 5 5 5 5 5 5 5 5 6 5 5 5 5 5 5 6 5 5 5 5 5 5 5 5 6 5 6 5 5 5 5 6 6 5 5 6 5 5 5 5 5 5 5 5 5 5 5 5 5 5 5 5 5 5 5 5 6 5 6 5 5 5 5 5 5 5 6 5 5 5 5 5 5 5 5 5 5 5 5 5 5 5 5 5 5 5 5 6 6 5 5 5 5 5 5 5 6 5 5 6 5 6 5 5 6 6 5 5 5 5 6 5 5 6 5 5 5 5 6 5 6 5 5 5 5 5 5 5 5 5 5 5 5 5 5 5 5 5 6 5 5 5 6 5 5 5 6 5 6 6 5 5 5 5 6 5 5 5 6 5 6 6 6 5 5 5 5 5 6 5 5 5 5 5 5 5 5 5 5 5 5 6 5 5 5 5 6 5 5 5 5 5 5 5 5 5 5 5 5 5 5 5 5 5 6 5 5 5 5 5 5 5 5 6 5 6 5 5 5 5 5 6 5 5 5 5 6 5 6 5 6 5 6 5 5 6 5 5 5 5 5 5 5 5 5 5 5 5 5 5 5 5 5 5 6 5 5 5 5 5 5 5 6 5 5 5 5 5 6 6 5 5 5 5 5 5 5 5 5 5 5 5 5 5 5 5 6 5 5 5 5 5 5 5 5 6 5 5 6 5 5 5 5 5 5 5 5 6 5 5 5 6 5 5 5 5 6 5 5 5 5 5 5 5 5 5 5 5 5 5 5 5 5 5 5 5 5 6 5 5 5 5 5 5 5 6 5 5 5 5 5 6 5 5 5 5 5 5 5 5 5 5 5 5 5 5 5 5 5 5 5 5 5 5 5 5 5 5 6 5 5 6 6 5 5 6 5 5 5 5 6 5 5 5 5 5 5 5 5 6 6 5 5 5 5 5 6 5 5 5 6 5 5 6 5 6 5 5 5 5 5 6 5 6 5 5 5 5 5 5 5 5 5 5 5 5 5 5 5 5 5 5 5 5 5 5 6 5 5 5 5 5 6 5 5 5 5 6 5 5 5 5 5 5 5 5 5 6 5 5 5 5 6 6 5 5 5 5 5 5 5 6 6 5 5 5 5 5 6 6 6 5 6 5 5 6 5 5 5 6 5 5 6 5 5 5 6 5 5 5 5 6 5 5 6 5 5 5 5 5 5 6 5 5 5 6 5 5 5 5 5 5 5 5 5 5 5 6 5 5 5 5 5 5 5 5 5 5 5 5 5 5 5 5 5 5 5 5 5 5 5 5 5 5 6 6 5 5 5 6 5 6 5 5 5 5 5 5 5 6 5 5 5 5 5 5 5 5 5 5 5 5 5 5 5 5 5 5 6 6 5 6 5 5 5 5 5 6 5 5 6 5 5 5 5 5 5 5 5 5 6 5 5 5 5 5 5 5 6 5 5 6 5 6 5 5 5 6 5 5 6 5 5 5 5 5 5 5 6 5 5 5 5 6 5 5 5 5 6 5 5 6 5 5 5 5 5 5 5 5 5 6 5 5 5 6 5 5 5 5 5 5 5 6 6 5 6 5 5 5 5 5 5 5 5 5 5 5 6 5 5 5 5 5 5 6 5 5 5 5 5 5 6 5 5 5 5 5 5 5 5 5 5 5 5 5 5 5 5 5 5 5 5 5 5 5 5 5 5 5 5 6 5 5 5 5 6 5 5 5 5 5 6 5 5 5 5 5 5 5 6 5 5 5 5 5 5 5 5 5 5 5 5 5 5 5 6 5 5 6 5 5 5 6 5 5 6 5 6 5 5 5 5 5 6 5 5 5 5 6 5 5 6 6 5 5 6 6 6 5 5 5 5 6 5 6 6 5 6 5 5 5 5 5 5 5 5 5 5 6 5 5 5 5 5 5 5 5 6 6 5 6 5 5 5 5 6 5 5 6 5 5 5 5 6 5 6 5 5 6 5 5 5 5 5 5 6 5 5 5 6 6 5 5 5 5 5 5 5 5 5 5 5 5 5 5 5 5 5 6 5 6 5 5 5 5 5 5 5 5 5 5 5 5 5 5 5 6 5 5 6 5 5 5 5 5 5 5 5 6 6 5 5 5 5 5 5 5 5 5 5 5 5 5 5 5 5 5 5 6 5 6 5 5 5 5 6 5 6 5 5 5 5 5 5 5 5 5 6 5 5 5 5 5 5 5 5 5 5 5 5 5 6 5 6 5 6 5 6 5 5 5 5 5 6 5 5 5 5 5 5 6 5 5 5 5 5 5 5 5 6 6 5 5 5 6 5 5 5 5 5 6 5 5 5 6 5 5 5 5 6 5 5 5 5 5 5 5 5 5 5 5 5 5 5 5 5 5 5 5 5 5 5 5 5 5 5 5 6 5 5 5 6 5 5 5 6 5 5 5 5 5 5 6 5 5 5 5 5 5 5 5 6 5 5 5 5 5 5 6 5 5 6 5 5 5 5 5 5 5 5 6 5 6 6 5 5 5 5 5 5 5 5 5 5 5 5 5 5 5 5 5 5 5 5 5 5 5 5 5 6 5 5 5 6 6 5 5 5 5 6 5 6 6 5 5 6 6 
</DataArray>
<DataArray type="Float64" Name="stress" NumberOfComponents="9" format="ascii">
-260.92467662272611 4881.1849785157483 0 4881.1849785157483 -5557.4019008723117 0 0 0 0 6.463613259838894 3883.1612651387586 0 3883.1612651387586 -2663.7744122546283 0 0 0 0 -1859.0348274430144 3987.1750214989297 0 3987.1750214989297 -1875.285677853768 0 0 0 0 -2006.3766314912864 1960.1953184299855 0 1960.1953184299855 -0.015267993512679823 0 0 0 0 158.95433938411588 3540.874483300373 0 3540.874483300373 -2644.087735938243 0 0 0 0 -366.66635743058578 3945.4919222687895 0 3945.4919222687895 -1296.545587357934 0 0 0 0 -1.2124732537969862 15.249720629517014 0 15.249720629517014 4.309325214072544 0 0 0 0 -788.62112224353768 1777.5181841005979 0 1777.5181841005979 2320.1391507442313 0 0 0 0 -886.93430826097028 2104.9652946149945 0 2104.9652946149945 -2879.4028557877318 0 0 0 0 -576.33857164352958 2292.3275579308465 0 2292.3275579308465 -2277.0665478410474 0 0 0 0 -699.28047744437936 2423.4257771198172 0 2423.4257771198172 -2393.4472005606658 0 0 0 0 -831.17443463605014 1467.7345992816263 0 1467.7345992816263 -1722.3068286192065 0 0 0 0 -1.8132946983335501 31.333233329072982 0 31.333233329072982 13.500200719410742 0 0 0 0 -541.29078088258393 1638.952104152384 0 1638.952104152384 -1949.1959064652619 0 0 0 0 -753.67788743572964 1189.0035060545997 0 1189.0035060545997 2028.3197292303812 0 0 0 0 -2.907750928539258 15.948424281918506 0 15.948424281918506 5.1420091270499881 0 0 0 0 -1209.1789222851658 1942.2372359681176 0 1942.2372359681176 -4068.2012128754577 0 0 0 0 -697.73227808281081 3362.0806145785173 0 3362.0806145785173 -6211.3155291269286 0 0 0 0 -1185.7709423784981 2243.1462464438155 0 2243.1462464438155 -3653.7853574093533 0 0 0 0 -3.0781315709309069 31.567659441672561 0 31.567659441672561 13.312395774179151 0 0 0 0 -931.03995966589719 3636.2844695154636 0 3636.2844695154636 0.78236815958371153 0 0 0 0 -1084.7083407968239 3544.1930124256396 0 3544.1930124256396 -3725.8137402788852 0 0 0 0 -1183.09395469218 3463.2715057036039 0 3463.2715057036039 -1940.4907877270016 0 0 0 0 -1096.5363338846728 2155.9467396153486 0 2155.9467396153486 -2452.2629473150882 0 0 0 0 -1052.075134884697 2282.1382271330949 0 2282.1382271330949 -2919.017927324312 0 0 0 0 -1242.0995205370127 2027.2514405625552 0 2027.2514405625552 -3259.1000802468589 0 0 0 0 -1104.3076337918465 1987.7325931110099 0 1987.7325931110099 -2834.3510386654489 0 0 0 0 -1276.4597754369024 2278.9516483247717 0 2278.9516483247717 -2900.8627956065466 0 0 0 0 -1240.7980774586613 2077.9684170833498 0 2077.9684170833498 -2816.2047929630935 0 0 0 0 -849.19156464660773 2089.4323161938955 0 2089.4323161938955 -2810.4654655445775 0 0 0 0 -906.12865012270049 1798.6380753905978 0 1798.6380753905978 -2671.4868914074832 0 0 0 0 -921.54818753985455 1841.4707989515246 0 1841.4707989515246 -3266.3289383648516 0 0 0 0 -1554.9824627688358 2449.88608702895 0 2449.88608702895 -3148.3429752640368 0 0 0 0 -1281.8327810133924 2182.8603613474697 0 2182.8603613474697 -3065.708068307933 0 0 0 0 -1447.9331073396606 2238.93556108536 0 2238.93556108536 -2920.4472725276864 0 0 0 0 -1296.7431854572787 2230.795626443025 0 2230.795626443025 -2946.7020060049763 0 0 0 0 -1287.1843875455525 2436.4680012457393 0 2436.4680012457393 -3007.7851958664978 0 0 0 0 -1127.0638548439128 2071.6533347098375 0 2071.6533347098375 -3647.8444237088406 0 0 0 0 -971.87629190922598 2057.4223416957684 0 2057.4223416957684 -3567.2912229259673 0 0 0 0 -1284.8997054760694 2344.4229651534552 0 2344.4229651534552 -3037.9560249110946 0 0 0 0 -627.03733047099377 1322.271612135155 0 1322.271612135155 -3394.2392294218444 0 0 0 0 -542.78776746659423 2429.3380370221057 0 2429.3380370221057 -6128.7744444831187 0 0 0 0 -1152.2596070224827 2974.3835057667966 0 2974.3835057667966 -3852.7751355229993 0 0 0 0 -743.02685805661895 1358.3167847464647 0 1358.3167847464647 -1664.8017743451055 0 0 0 0 -924.93098171851307 1885.1285231985894 0 1885.1285231985894 -2450.2293444110546 0 0 0 0 -515.15455716234283 1327.648914062127 0 1327.648914062127 -2450.4083308816089 0 0 0 0 -835.12373499428213 1683.5860273781145 0 1683.5860273781145 -2802.2403330490051 0 0 0 0 -791.03843498884817 1697.2694914916356 0 1697.2694914916356 -2851.3631977400109 0 0 0 0 -1060.2512964116468 2103.5824091790419 0 2103.5824091790419 -2919.6896317850915 0 0 0 0 -922.72310414866661 1483.5816996184731 0 1483.5816996184731 -2818.6314313327894 0 0 0 0 -107.25531410364954 9.0829189744883365 0 9.0829189744883365 23.946694347142255 0 0 0 0 -741.05258720600978 1505.9770858504344 0 1505.9770858504344 -2861.186503896839 0 0 0 0 -25.922684330525438 41.197585091777171 0 41.197585091777171 -0.079830381482224766 0 0 0 0 1001.1747791083626 219.65667067869526 0 219.65667067869526 -2393.4127098416502 0 0 0 0 -526.50078522485273 -189.06906148319831 0 -189.06906148319831 177.81963012105552 0 0 0 0 88.373645235315507 122.20620907908994 0 122.20620907908994 -53.934074176446302 0 0 0 0 -27.962481433678555 67.625570811539319 0 67.625570811539319 148.95045634875987 0 0 0 0 -71.744335124240024 -37.210581612220267 0 -37.210581612220267 -115.46622977473453 0 0 0 0 156.11886316171149 -222.02738122046867 0 -222.02738122046867 32.591172295244178 0 0 0 0 36.313262273419241 -93.769052053172345 0 -93.769052053172345 -22.30827164882794 0 0 0 0 94.525830063881585 232.71406518996264 0 232.71406518996264 411.84870372709702 0 0 0 0 879.15795851004077 431.51942270394647 0 431.51942270394647 356.72655831236625 0 0 0 0 -884.78794651053613 43.966817715998332 0 43.966817715998332 539.0003592627836 0 0 0 0 -117.30514772060269 133.93720021684567 0 133.93720021684567 157.48129276162945 0 0 0 0 -1.0122219277798656 55.57266885901538 0 55.57266885901538 119.20552239760411 0 0 0 0 -722.73108349839458 443.86178353171272 0 443.86178353171272 1329.4855835848284 0 0 0 0 240.84574703712133 564.00917447286338 0 564.00917447286338 850.74232057030895 0 0 0 0 -32.91684646276866 2.2685185894599726 0 2.2685185894599726 -5.9471591612349073 0 0 0 0 -122.66952670786122 218.9353900829592 0 218.9353900829592 658.29462816307205 0 0 0 0 905.94717969215708 900.74384132982232 0 900.74384132982232 740.02463776340846 0 0 0 0 850.57866192079382 1224.9338292247849 0 1224.9338292247849 67.63675731618423 0 0 0 0 297.53012211268651 121.82891612534877 0 121.82891612534877 367.05068919097539 0 0 0 0 2191.1761785271228 422.55112210391962 0 422.55112210391962 -449.54971466208372 0 0 0 0 -1058.118377845356 2649.4674489679091 0 2649.4674489679091 4046.803382696613 0 0 0 0 1162.5948216839315 2112.5087233758459 0 2112.5087233758459 1883.888939487224 0 0 0 0 -7.1982623786345243 11.435353929103286 0 11.435353929103286 -5.23524379995456 0 0 0 0 323.02618664765032 -185.71764884583536 0 -185.71764884583536 -3318.946653586172 0 0 0 0 -1977.679086709948 1438.1596282588434 0 1438.1596282588434 3550.9561541293442 0 0 0 0 1510.121202400187 1851.9886038475961 0 1851.9886038475961 -3598.9309092855401 0 0 0 0 683.31430475879461 2764.8135340901135 0 2764.8135340901135 -2847.4302969637865 0 0 0 0 -7.188563335921117 27.064979217900941 0 27.064979217900941 -18.835784286870393 0 0 0 0 672.70390140704694 -110.2468289895769 0 -110.2468289895769 -1529.0477512298858 0 0 0 0 571.42280623776605 416.75071474444121 0 416.75071474444121 -1401.8825110149337 0 0 0 0 -113.25882895637187 624.86843134315859 0 624.86843134315859 -779.73855574594927 0 0 0 0 302.03470825290424 309.35585717570939 0 309.35585717570939 -229.05834789088112 0 0 0 0 308.75833760568639 -238.27522689492616 0 -238.27522689492616 -639.15440788120031 0 0 0 0 -11.146734969542763 12.026277243203303 0 12.026277243203303 -11.64139327710177 0 0 0 0 -273.56698164431145 704.13127471299231 0 704.13127471299231 1019.6551945779647 0 0 0 0 114.43307448120322 -552.14197042109299 0 -552.14197042109299 -867.37239320899243 0 0 0 0 0.77219147750292905 597.3182151344372 0 597.3182151344372 709.93266549729742 0 0 0 0 -0.5045645218521031 14.541401567098418 0 14.541401567098418 -15.929947342459286 0 0 0 0 14.9929842490524 4192.1890970714348 0 4192.1890970714348 -1489.5089526007214 0 0 0 0 900.63220186430044 2267.5917555176438 0 2267.5917555176438 -3830.1037227198831 0 0 0 0 -1.1688739929677152 4004.2982419737814 0 4004.2982419737814 -3712.2546625114337 0 0 0 0 1027.1219332190522 2281.8538718137206 0 2281.8538718137206 -9855.1384443405586 0 0 0 0 389.15165664335655 3728.5840790543589 0 3728.5840790543589 -4436.0540081560903 0 0 0 0 -442.14463404056733 2504.3005084284523 0 2504.3005084284523 -3818.2335742312134 0 0 0 0 11.690342605783371 3382.5823169602227 0 3382.5823169602227 -2232.2946411534531 0 0 0 0 -684.15824534054263 2624.6303860561165 0 2624.6303860561165 -2972.3095646769289 0 0 0 0 -723.19665162915044 1932.8780362773014 0 1932.8780362773014 -3462.5258636566286 0 0 0 0 688.53152192675043 2555.9687810387113 0 2555.9687810387113 -3898.799043079991 0 0 0 0 631.63095507399703 2759.5771198695438 0 2759.5771198695438 -4509.9687986025701 0 0 0 0 -111.6096624888014 34.60980158104212 0 34.60980158104212 182.52285808254965 0 0 0 0 -59.78245162726671 45.689246178109897 0 45.689246178109897 123.0143739155028 0 0 0 0 -213.13692317483947 1.7450462218548637 0 1.7450462218548637 224.93865613502476 0 0 0 0 -213.26449183623481 4.1309975053154631 0 4.1309975053154631 433.6010675002035 0 0 0 0 35.593217523652129 -97.798498751799343 0 -97.798498751799343 230.94120559507974 0 0 0 0 -103.62978884363474 -17.409090954251951 0 -17.409090954251951 -730.3650602750422 0 0 0 0 -13.617160327013778 -0.54150778161152857 0 -0.54150778161152857 -0.018389937277049739 0 0 0 0 -225.3393557844247 -190.82558969849197 0 -190.82558969849197 337.20288998351316 0 0 0 0 36.238368469447721 51.604314110053508 0 51.604314110053508 166.09495930565754 0 0 0 0 -56.688363490255142 21.516471359362185 0 21.516471359362185 183.71924775739899 0 0 0 0 -446.95643662282964 435.99423674517311 0 435.99423674517311 -572.21824611795819 0 0 0 0 -2.5340932616412033 3.878414491723106 0 3.878414491723106 4.137175091757598 0 0 0 0 -339.39677741125342 585.46284503531933 0 585.46284503531933 -617.07173213275382 0 0 0 0 -2.5961747986875707 45.382144340284867 0 45.382144340284867 98.520838562435529 0 0 0 0 -72.880078400274215 80.293093171011606 0 80.293093171011606 164.99773693000316 0 0 0 0 -66.417428790615304 129.57320278683528 0 129.57320278683528 70.945710411178879 0 0 0 0 109.59345392392424 77.604955158189114 0 77.604955158189114 3.5142446788813686 0 0 0 0 11.732183156913379 129.20058790965413 0 129.20058790965413 -0.092357035740613311 0 0 0 0 -3.8999439944532241 14.237049683994542 0 14.237049683994542 -0.3558653505267273 0 0 0 0 -18.983278940504533 42.699944023144781 0 42.699944023144781 -15.78018661274109 0 0 0 0 12.323504279160261 35.184584083195659 0 35.184584083195659 -14.806613610009663 0 0 0 0 -833.95358143401972 708.60032799538749 0 708.60032799538749 -528.60147215268807 0 0 0 0 -9.9080015938040731 4.2071970872941336 0 4.2071970872941336 -8.9759157378213104 0 0 0 0 -1617.3762081438581 1027.3793560370686 0 1027.3793560370686 -432.49386217312713 0 0 0 0 -3.3212873664052722 -2.7384931171924904 0 -2.7384931171924904 -0.94648320660701302 0 0 0 0 -120.22416122637151 53.111401161746471 0 53.111401161746471 10.064278047531843 0 0 0 0 -58.2569013395958 11.948575053523825 0 11.948575053523825 9.5613619988137089 0 0 0 0 -761.64211646505282 884.43254306698509 0 884.43254306698509 -813.05216759770701 0 0 0 0 -297.2499724517711 -611.02475431657513 0 -611.02475431657513 -1825.2890753227985 0 0 0 0 13.128350516062085 33.066086489167759 0 33.066086489167759 -25.399967242190996 0 0 0 0 -142.36867909712601 1185.3013482449896 0 1185.3013482449896 -1050.7445571463395 0 0 0 0 -918.34642067710229 -48.083136302127969 0 -48.083136302127969 813.82332184718689 0 0 0 0 -134.87262224836741 432.60392763932759 0 432.60392763932759 441.65187341339333 0 0 0 0 -553.67299152901978 -163.62445954987197 0 -163.62445954987197 351.94747285921767 0 0 0 0 -110.23317096517712 121.60460920511105 0 121.60460920511105 9.5074678349628812 0 0 0 0 -68.072856607890571 80.530445542666712 0 80.530445542666712 -29.669833624488092 0 0 0 0 -1515.4727890841168 1372.7025803305987 0 1372.7025803305987 -2.1685629099738435 0 0 0 0 -35.89136449215232 7.9762154819794659 0 7.9762154819794659 8.7380148066532115 0 0 0 0 -77.236812413175358 18.828535168620874 0 18.828535168620874 182.35610856019048 0 0 0 0 -60.832152959730593 64.436486773716751 0 64.436486773716751 5.0311814595770556 0 0 0 0 -999.65556236843895 1529.9232094400213 0 1529.9232094400213 -1876.2599656215752 0 0 0 0 -688.48217132172431 1039.1946463546628 0 1039.1946463546628 -1476.6277702391744 0 0 0 0 -1656.8662551161106 2093.5863811495074 0 2093.5863811495074 -612.69446899587274 0 0 0 0 -1658.7670248134091 2353.6164610631895 0 2353.6164610631895 -1606.674852064607 0 0 0 0 -1777.8185530556948 2467.6973223864625 0 2467.6973223864625 -502.52149201073189 0 0 0 0 -1181.5432128221291 2061.4473040156809 0 2061.4473040156809 -2495.9460879127437 0 0 0 0 -997.10550924720701 1561.3225140810864 0 1561.3225140810864 -2734.2838788305526 0 0 0 0 -1642.043811763564 2162.5271098341764 0 2162.5271098341764 -1529.7267188569895 0 0 0 0 -1216.1093805396231 2586.7796993202646 0 2586.7796993202646 -3685.9083689159888 0 0 0 0 -148.67519219970563 -114.99376720840519 0 -114.99376720840519 486.73416629539861 0 0 0 0 -14.344992075423363 6.114602801423473 0 6.114602801423473 2.7238225693993741 0 0 0 0 -1072.0814161948547 1736.8927675781706 0 1736.8927675781706 -2384.4533599881106 0 0 0 0 -1570.8204392001498 2043.5711172830343 0 2043.5711172830343 -2495.3305742658013 0 0 0 0 -962.21707564828102 1452.762391559103 0 1452.762391559103 -1116.3124228077359 0 0 0 0 -373.71550733235199 1449.7230308149301 0 1449.7230308149301 -2304.436584582043 0 0 0 0 -580.82594052766217 1412.2769899642481 0 1412.2769899642481 -2297.8952576037846 0 0 0 0 -319.46070749561477 197.68564799048181 0 197.68564799048181 261.9076330557582 0 0 0 0 34.017499278941614 973.15563448956436 0 973.15563448956436 -1383.9433790792827 0 0 0 0 -59.776168794167859 97.136455597607522 0 97.136455597607522 46.682084190705041 0 0 0 0 -337.25931570495595 -87.567279612601851 0 -87.567279612601851 297.78284902390806 0 0 0 0 -799.51434268418234 402.38349377958366 0 402.38349377958366 -305.79255913260567 0 0 0 0 -269.04618667790783 338.22592803249427 0 338.22592803249427 136.28906431186624 0 0 0 0 -207.54972028979682 167.9111399441681 0 167.9111399441681 209.83311912915087 0 0 0 0 -249.08013219491113 117.74950189229276 0 117.74950189229276 276.65039539943973 0 0 0 0 -190.29449101676437 244.38974836303532 0 244.38974836303532 806.08944161635009 0 0 0 0 -279.6898604419257 21.488919335752144 0 21.488919335752144 438.85410286320257 0 0 0 0 -436.66916903571109 -51.135846596607735 0 -51.135846596607735 1510.7977537780243 0 0 0 0 -6.5283388359914625 2.2407973333764915 0 2.2407973333764915 1.3096523175887569 0 0 0 0 -326.44803831017634 390.90941890835165 0 390.90941890835165 648.98995813165675 0 0 0 0 -136.46700748684816 -373.9768077970657 0 -373.9768077970657 667.56145300567732 0 0 0 0 170.18958629832196 130.1857324953744 0 130.1857324953744 667.75884925296123 0 0 0 0 -310.60980418177496 -31.642677466326859 0 -31.642677466326859 401.22343999319128 0 0 0 0 -310.56443458734429 -94.95060215810372 0 -94.95060215810372 197.15772832161747 0 0 0 0 194.53010841706418 283.628431455596 0 283.628431455596 515.69685047328312 0 0 0 0 -3.5835915616847842 1.3551774943953134 0 1.3551774943953134 1.8425557190002166 0 0 0 0 170.76906737469835 308.79515200677997 0 308.79515200677997 703.91804284227874 0 0 0 0 95.444190884227282 53.446706237889885 0 53.446706237889885 528.80765572011296 0 0 0 0 157.03765846294118 143.8042767822335 0 143.8042767822335 654.56128849115339 0 0 0 0 31.560816725774202 8.4315076475613751 0 8.4315076475613751 717.17626027278311 0 0 0 0 -487.2674247387331 231.59771798164002 0 231.59771798164002 -527.32868936363957 0 0 0 0 -22.870025460643092 6.3247889177117145 0 6.3247889177117145 4.3375954233019627 0 0 0 0 40.70766964699942 728.60865149287383 0 728.60865149287383 -1088.4950372816675 0 0 0 0 -72.245674971954429 89.341230035195196 0 89.341230035195196 36.388315187791534 0 0 0 0 -438.35001860761258 -80.139281980613305 0 -80.139281980613305 -210.71305509982631 0 0 0 0 -106.87901359066018 127.80836167743837 0 127.80836167743837 95.727858393533097 0 0 0 0 -0.40464813343714923 189.87078671101335 0 189.87078671101335 -117.2733556835592 0 0 0 0 -3.0073268384221592 12.679743690543546 0 12.679743690543546 50.136915255628992 0 0 0 0 -60.599494164984208 125.03963433441095 0 125.03963433441095 10.569779428013135 0 0 0 0 -73.865333117949888 97.537558816456567 0 97.537558816456567 31.675207123352862 0 0 0 0 -103.49280227078998 105.35287676652661 0 105.35287676652661 48.489135373063618 0 0 0 0 -5.1119664196684482 66.457654085818461 0 66.457654085818461 -34.243729118825399 0 0 0 0 -107.85312739096116 64.839645016385475 0 64.839645016385475 -462.94110766800077 0 0 0 0 -26.397918093827883 49.794479911077417 0 49.794479911077417 -25.948978779853292 0 0 0 0 -141.91575195568589 96.115425857988669 0 96.115425857988669 43.028248987117223 0 0 0 0 -231.78890242859779 172.11808167175332 0 172.11808167175332 41.284455573593732 0 0 0 0 -197.36803730070824 120.01575923653581 0 120.01575923653581 -398.63342860864213 0 0 0 0 -43.462913022388989 6.4131240993678489 0 6.4131240993678489 5.8826663101095562 0 0 0 0 -264.51192095510851 473.56006090541996 0 473.56006090541996 -672.02121729984356 0 0 0 0 -40.171480134653393 -62.847167281041038 0 -62.847167281041038 308.99966225999742 0 0 0 0 -30.877498303598259 -67.235409936285578 0 -67.235409936285578 291.66466745983053 0 0 0 0 -53.54923643150687 -20.375728840676402 0 -20.375728840676402 262.42738759415806 0 0 0 0 -51.665655173186678 -38.798907425603829 0 -38.798907425603829 342.36803480602975 0 0 0 0 -3.2849701602826826 -116.364876702326 0 -116.364876702326 343.15285827759362 0 0 0 0 -94.717602424541838 390.53483606022201 0 390.53483606022201 -705.55783510184847 0 0 0 0 -11.623084012884647 -80.308206636589603 0 -80.308206636589603 312.09796751549584 0 0 0 0 -12.390880259044934 -101.7022276535281 0 -101.7022276535281 554.68981236888794 0 0 0 0 -16.451321359258145 -125.40703166193271 0 -125.40703166193271 416.98705608956516 0 0 0 0 11.079560325859347 72.519720605909242 0 72.519720605909242 604.3031291857551 0 0 0 0 3.0553083858103491 32.262426211222191 0 32.262426211222191 442.87526504514244 0 0 0 0 -37.216868945659371 4.2099352493023616 0 4.2099352493023616 427.87759873521281 0 0 0 0 -41.214148820377886 -44.133245003089542 0 -44.133245003089542 388.99262811579683 0 0 0 0 -49.076721413177438 -63.315162761457032 0 -63.315162761457032 498.80557000119006 0 0 0 0 9.470924469147576 168.62097043301037 0 168.62097043301037 418.40120140547515 0 0 0 0 125.86261998747068 146.48024894562695 0 146.48024894562695 250.13350045264815 0 0 0 0 -131.76760955026839 119.49093602228095 0 119.49093602228095 312.89038212703599 0 0 0 0 -142.18240360554773 99.808361165167298 0 99.808361165167298 288.70200414698047 0 0 0 0 -23.963281180331251 95.223336778595694 0 95.223336778595694 259.09951567277312 0 0 0 0 -66.696976700579398 21.4666238201753 0 21.4666238201753 289.0343215935427 0 0 0 0 -64.547355737391626 41.842199577018619 0 41.842199577018619 376.40647292174981 0 0 0 0 -42.971077566122403 -53.975628056883579 0 -53.975628056883579 358.27955278739682 0 0 0 0 -105.50086569093401 31.531218006348354 0 31.531218006348354 296.73462339036632 0 0 0 0 -186.13599961099681 144.8849553975524 0 144.8849553975524 220.39022308794665 0 0 0 0 -99.203049195522908 68.213671625489951 0 68.213671625489951 180.97478987527211 0 0 0 0 -112.68788259613211 32.99916799082348 0 32.99916799082348 227.32210399306496 0 0 0 0 -154.96536730654771 190.48866061723675 0 190.48866061723675 222.52036321115065 0 0 0 0 -119.77855001785792 96.482962027039321 0 96.482962027039321 235.54367894666211 0 0 0 0 -155.72929335024673 156.86946730873024 0 156.86946730873024 152.02898957666912 0 0 0 0 -221.99985134991584 268.99117170871614 0 268.99117170871614 120.94040024592505 0 0 0 0 -165.7733597868646 79.907675933784049 0 79.907675933784049 117.8329874988849 0 0 0 0 -179.59071385752759 193.51504858858243 0 193.51504858858243 95.790776319205179 0 0 0 0 -57.177201295489795 -22.810768150724471 0 -22.810768150724471 132.30774193179968 0 0 0 0 -132.74767840378991 95.432650026908959 0 95.432650026908959 113.64125902613159 0 0 0 0 -97.296753079921473 -22.40236777827522 0 -22.40236777827522 216.74301595339784 0 0 0 0 -63.153241850290215 1.6116874535218813 0 1.6116874535218813 187.43051330145681 0 0 0 0 -63.746584300933364 -0.04260932969134501 0 -0.04260932969134501 5.1650541520576638 0 0 0 0 -142.08721980068367 206.13768486708614 0 206.13768486708614 -407.54985288152238 0 0 0 0 -118.98517932776747 94.094855841511276 0 94.094855841511276 38.914728348893874 0 0 0 0 -130.47011017092154 85.357344261661638 0 85.357344261661638 -345.28210739415226 0 0 0 0 610.13914200842555 -385.1506373661814 0 -385.1506373661814 1.453352101125347 0 0 0 0 218.72622781936661 456.19859226710105 0 456.19859226710105 -618.73977283401291 0 0 0 0 433.47026370774984 -71.106188935526006 0 -71.106188935526006 -422.1668088160659 0 0 0 0 1203.614014852501 81.165012241759541 0 81.165012241759541 -541.78088487305922 0 0 0 0 191.85688768740511 533.13808766470174 0 533.13808766470174 -246.20169827766949 0 0 0 0 689.91717694042018 1179.1428914269236 0 1179.1428914269236 -72.801653341834026 0 0 0 0 98.097100189217599 434.1898433273891 0 434.1898433273891 -1003.5929562094716 0 0 0 0 -304.49860538933717 1230.8486490447467 0 1230.8486490447467 -848.34360695545729 0 0 0 0 64.91473389605062 43.747257948872431 0 43.747257948872431 11.528217590995553 0 0 0 0 -1231.4294683163389 413.50736955811044 0 413.50736955811044 186.19595751124143 0 0 0 0 52.701231678849695 65.064927151169968 0 65.064927151169968 69.858261132637352 0 0 0 0 -517.81175275499118 409.53588421110908 0 409.53588421110908 -395.03649259610575 0 0 0 0 -254.52302777190926 586.25732349308964 0 586.25732349308964 -363.90942500326491 0 0 0 0 -17.894091911322903 545.85476703460154 0 545.85476703460154 -655.7033926268316 0 0 0 0 -66.429153510718606 448.07745640628855 0 448.07745640628855 -162.90764246619074 0 0 0 0 -184.91803061350947 452.43599233985879 0 452.43599233985879 -115.88794822263299 0 0 0 0 52.291088057421234 5.2258902081947554 0 5.2258902081947554 -54.483285238409962 0 0 0 0 108.44228205518448 207.91422154190514 0 207.91422154190514 -653.03299470017373 0 0 0 0 -344.72793768084375 326.19814547929786 0 326.19814547929786 -424.28128975554137 0 0 0 0 82.644306302230689 242.97993146917725 0 242.97993146917725 -460.89782134520647 0 0 0 0 -87.017394397611497 428.92629522780226 0 428.92629522780226 -180.04539043930708 0 0 0 0 105.87519958897525 100.25592105924682 0 100.25592105924682 92.698512059868165 0 0 0 0 -117.80407359175297 536.95761770015815 0 536.95761770015815 -158.46171608095756 0 0 0 0 -143.68332950703916 302.28898561674578 0 302.28898561674578 -129.43491562100826 0 0 0 0 -172.10232820779402 252.14934553766 0 252.14934553766 58.079976830122177 0 0 0 0 -221.04376257280819 350.412719942884 0 350.412719942884 42.913282478388282 0 0 0 0 -389.61494389141444 312.16136447291501 0 312.16136447291501 177.89560821630585 0 0 0 0 -200.72916463520596 167.05507081311862 0 167.05507081311862 218.02034652384464 0 0 0 0 -531.13649112271378 633.89371939667762 0 633.89371939667762 -103.36686935284524 0 0 0 0 -221.26390275478479 354.85923219477991 0 354.85923219477991 22.046150656606187 0 0 0 0 -331.14429471309995 462.2669307457254 0 462.2669307457254 23.715908534431719 0 0 0 0 -700.3482400942703 175.202181516569 0 175.202181516569 174.57394326433132 0 0 0 0 -156.48712018560036 50.330670330535213 0 50.330670330535213 175.9409968983382 0 0 0 0 -3.9514762136428772 2.3486200922441896 0 2.3486200922441896 0.35576651602892184 0 0 0 0 82.053619509722921 157.37688854062435 0 157.37688854062435 154.55720300499524 0 0 0 0 82.595460889065748 200.87108695902072 0 200.87108695902072 280.93066424022254 0 0 0 0 -6.7220401465027635 3.5797924244297619 0 3.5797924244297619 1.1258565397803295 0 0 0 0 -87.822680415047216 -4.3443688173574628 0 -4.3443688173574628 138.52074333782366 0 0 0 0 261.76636987109669 373.65013383758924 0 373.65013383758924 -235.63479641418962 0 0 0 0 83.836833861540072 778.69313178773155 0 778.69313178773155 -96.908982040913543 0 0 0 0 -419.35945111044566 606.5082241352502 0 606.5082241352502 -153.70643157698214 0 0 0 0 -136.61570646804466 604.99998563214467 0 604.99998563214467 -544.35341571003664 0 0 0 0 -628.39475607303029 -165.62324028032162 0 -165.62324028032162 -170.45237084383916 0 0 0 0 -294.60348565207096 673.54905591342686 0 673.54905591342686 -515.16101887457626 0 0 0 0 -573.30581316695316 573.0957681145228 0 573.0957681145228 -342.85202519343147 0 0 0 0 -356.75328621183871 536.73247907949553 0 536.73247907949553 -363.3422794311482 0 0 0 0 -307.25895126175601 436.98175756016281 0 436.98175756016281 -197.12743054502789 0 0 0 0 -600.4612627667957 203.65427802677732 0 203.65427802677732 -63.123715379253554 0 0 0 0 -585.14972559650778 285.56148126185872 0 285.56148126185872 -228.36575833098323 0 0 0 0 -742.83264430600684 -44.208197568252217 0 -44.208197568252217 11.756864733812108 0 0 0 0 -330.49032105038577 -203.05376319451477 0 -203.05376319451477 -36.584079937747447 0 0 0 0 -334.62442847999046 -14.252353378098633 0 -14.252353378098633 -24.277834336418891 0 0 0 0 -195.44402748151333 38.4531725492634 0 38.4531725492634 126.90805630972318 0 0 0 0 -450.02459048471064 -56.831640669275657 0 -56.831640669275657 93.423989268339938 0 0 0 0 -288.33491775841685 209.39213418590953 0 209.39213418590953 -86.855322671173781 0 0 0 0 -301.72801731729123 49.818407231497986 0 49.818407231497986 335.95794250754261 0 0 0 0 -7.2056032252148725 254.31062900963298 0 254.31062900963298 345.38294053084246 0 0 0 0 -236.73711177361838 45.618640848886571 0 45.618640848886571 203.65465413023776 0 0 0 0 -224.6018617861555 27.423103420776897 0 27.423103420776897 225.47303580356129 0 0 0 0 -288.82102556433529 -71.943507647392835 0 -71.943507647392835 140.69966573444253 0 0 0 0 -226.46448609876097 18.031877943532891 0 18.031877943532891 216.29481171721272 0 0 0 0 -206.94860661249913 -33.207100936841016 0 -33.207100936841016 71.533120018997579 0 0 0 0 -180.11733199754963 17.942894752217398 0 17.942894752217398 149.4403257224858 0 0 0 0 -161.65275259679038 42.75411268503376 0 42.75411268503376 145.31186017209257 0 0 0 0 -198.80945392863941 98.464943424340163 0 98.464943424340163 275.20372921846865 0 0 0 0 -191.14958860143088 33.590209980713553 0 33.590209980713553 227.99450573918148 0 0 0 0 -188.83516327321558 61.396239748370135 0 61.396239748370135 115.13050070396275 0 0 0 0 -174.69097785314079 22.603971106858808 0 22.603971106858808 110.49850100506592 0 0 0 0 -171.85591019589629 -3.9183441484110517 0 -3.9183441484110517 28.240885019360576 0 0 0 0 -144.19097969736322 -17.397633451775619 0 -17.397633451775619 -29.342905998739298 0 0 0 0 -147.66435686263139 -9.971724674651341 0 -9.971724674651341 29.710385841779498 0 0 0 0 -148.32272781896245 -5.5875483524469018 0 -5.5875483524469018 0.52900368158589117 0 0 0 0 -126.13703360517684 -72.198782638517514 0 -72.198782638517514 -86.708538849343313 0 0 0 0 -164.34933643817203 -41.723166775685968 0 -41.723166775685968 72.045005191673226 0 0 0 0 -184.05716774714529 -78.677473644391284 0 -78.677473644391284 4.0250467575970106 0 0 0 0 -122.43160168832401 -90.76578975126904 0 -90.76578975126904 4.9408562522457942 0 0 0 0 6.2979842365311924 -57.832678055077849 0 -57.832678055077849 -99.952848642155004 0 0 0 0 -29.199059525359189 -184.46563669006719 0 -184.46563669006719 -77.981937251879572 0 0 0 0 19.096402995885001 432.76884001064718 0 432.76884001064718 1860.736378974776 0 0 0 0 -30.861164540132222 30.685369597677706 0 30.685369597677706 -29.912520731720889 0 0 0 0 104.10219231953852 1247.7337774629627 0 1247.7337774629627 1311.004211126914 0 0 0 0 337.37894832895836 1886.4889920003043 0 1886.4889920003043 1138.3329095495283 0 0 0 0 301.86794884008486 1157.6754884441257 0 1157.6754884441257 -1148.3570581461245 0 0 0 0 -9.5264710798970214 12.736115861029603 0 12.736115861029603 -10.190910947360322 0 0 0 0 1597.346633656678 1282.0735724673941 0 1282.0735724673941 1307.5785288313418 0 0 0 0 1516.5319849476491 1931.1578576310085 0 1931.1578576310085 639.71640306097106 0 0 0 0 712.44748170177627 1687.0423979992338 0 1687.0423979992338 2625.8704077240254 0 0 0 0 47.046227599494955 22.334245097460837 0 22.334245097460837 7.8174947190242676 0 0 0 0 -445.45354728263919 246.17212771428603 0 246.17212771428603 834.23938989044836 0 0 0 0 -114.66466137391399 16.284702876102529 0 16.284702876102529 -212.48570776387351 0 0 0 0 799.9283992836281 2811.5076149219567 0 2811.5076149219567 -505.28182995181123 0 0 0 0 -732.4965789434209 1353.0512443191838 0 1353.0512443191838 2519.5824999404576 0 0 0 0 27.230511474333753 21.400831833439071 0 21.400831833439071 17.092505248878467 0 0 0 0 -123.12363681638089 105.35234447703988 0 105.35234447703988 2197.7466768464583 0 0 0 0 1000.5044970795648 -701.18577106754663 0 -701.18577106754663 -1953.1366781759425 0 0 0 0 -461.63556652405532 691.29343697500735 0 691.29343697500735 -2718.4889313875028 0 0 0 0 -628.08501489982882 479.83578482176745 0 479.83578482176745 37.066893343259835 0 0 0 0 66.117262789059851 63.210984687253045 0 63.210984687253045 53.551704046222795 0 0 0 0 1643.8904342756723 3983.6742900189129 0 3983.6742900189129 -486.43084712092241 0 0 0 0 -219.07965411178884 241.1084166945875 0 241.1084166945875 87.669152718113764 0 0 0 0 -111.50612695765449 -19.430500234724605 0 -19.430500234724605 694.95038421696518 0 0 0 0 -469.21827346814098 71.061121302802349 0 71.061121302802349 515.69067988084862 0 0 0 0 -618.11469132953789 291.29569619710674 0 291.29569619710674 727.48738254381169 0 0 0 0 -393.87705203016958 567.61350595901968 0 567.61350595901968 28.311002691581962 0 0 0 0 -629.79755800396379 359.30413227612735 0 359.30413227612735 452.00145366931974 0 0 0 0 -474.58421504583384 113.74226005185119 0 113.74226005185119 267.07179083842493 0 0 0 0 -991.47274754833779 -68.054929564477789 0 -68.054929564477789 192.01842787862552 0 0 0 0 -75.424838741098938 307.6930157633069 0 307.6930157633069 -78.716029995615827 0 0 0 0 -204.01839164941339 101.17475201458365 0 101.17475201458365 162.38627236384491 0 0 0 0 79.951200153296327 81.727599116493337 0 81.727599116493337 75.413776105170086 0 0 0 0 -2386.1061218966352 157.52169860835056 0 157.52169860835056 -312.48755439529486 0 0 0 0 1348.1423882790841 1488.9644811721082 0 1488.9644811721082 -484.86138925010164 0 0 0 0 263.2970439955825 -738.69371883503845 0 -738.69371883503845 -247.60202178714098 0 0 0 0 -688.85678960056975 -1149.9386313349241 0 -1149.9386313349241 -1123.4851549682826 0 0 0 0 313.94085833671852 -2077.3457970526215 0 -2077.3457970526215 -3374.3617362006335 0 0 0 0 4732.4359579051379 3982.343516486173 0 3982.343516486173 -813.84834547774517 0 0 0 0 -729.71482575175469 30.484587059661862 0 30.484587059661862 -669.50038622276043 0 0 0 0 193.14003669185331 -199.59604155611305 0 -199.59604155611305 -1593.2145807774359 0 0 0 0 -1373.8709467759472 -876.56937552057207 0 -876.56937552057207 -1218.5545247350383 0 0 0 0 61.33604813501006 412.02565479074838 0 412.02565479074838 -510.6212638496072 0 0 0 0 -336.39856092445552 -56.784689470106969 0 -56.784689470106969 -664.20022716837775 0 0 0 0 -408.14703877235297 119.48240811889991 0 119.48240811889991 62.348638332565315 0 0 0 0 -443.33415224746568 -217.91731538795284 0 -217.91731538795284 109.2527619227767 0 0 0 0 -398.42667727348089 -77.124638001181665 0 -77.124638001181665 -202.69593133917078 0 0 0 0 -1060.5864664948313 -49.905150104241329 0 -49.905150104241329 -144.27444093412487 0 0 0 0 -1578.4877644332009 1084.8513572709489 0 1084.8513572709489 -741.64367091447639 0 0 0 0 -762.80013613088522 789.19010630035336 0 789.19010630035336 -576.11381831706967 0 0 0 0 -1147.5487080092716 278.57228799487348 0 278.57228799487348 -164.89108972204122 0 0 0 0 -938.80521600627253 348.31994881956598 0 348.31994881956598 -397.14469521239516 0 0 0 0 -961.1719111307757 -966.59102962825273 0 -966.59102962825273 -92.613019133338184 0 0 0 0 -546.76478291035164 735.67668943872559 0 735.67668943872559 -771.4609653292955 0 0 0 0 -426.65796873671934 634.49020668951562 0 634.49020668951562 -687.86616415958269 0 0 0 0 -704.97061045814189 692.28990865018568 0 692.28990865018568 -442.89682217920199 0 0 0 0 -380.13689299006364 546.03115398845694 0 546.03115398845694 -546.28061957767932 0 0 0 0 24.222195841888379 25.746314506961198 0 25.746314506961198 23.227190635147906 0 0 0 0 77.241086664148725 75.901341502141321 0 75.901341502141321 70.063290752551779 0 0 0 0 742.66324007615913 791.00556854068418 0 791.00556854068418 -282.15207802766236 0 0 0 0 -1033.1996318690944 1189.517656786622 0 1189.517656786622 -427.37303285494272 0 0 0 0 -1339.090649395861 803.83809274212035 0 803.83809274212035 176.07335907398374 0 0 0 0 -666.14873481378163 135.68275048746364 0 135.68275048746364 251.42028851955547 0 0 0 0 -486.57762460334925 341.09765610782779 0 341.09765610782779 -852.80453294395193 0 0 0 0 -268.78833674438647 386.44549162303883 0 386.44549162303883 98.026040737961011 0 0 0 0 -746.29667776610586 124.95231644610976 0 124.95231644610976 -45.142967141604458 0 0 0 0 -356.6021170396034 13.062571002345976 0 13.062571002345976 90.917787574551767 0 0 0 0 -428.02706870461407 467.68417393627897 0 467.68417393627897 149.74550642061513 0 0 0 0 -616.33081465398209 673.91052359962396 0 673.91052359962396 142.82202701614005 0 0 0 0 8.2130120458801343 8.224391634227544 0 8.224391634227544 6.8361826526238758 0 0 0 0 35.312205284717493 833.48184348271752 0 833.48184348271752 177.59546074157697 0 0 0 0 1197.6893624422592 723.56748368191438 0 723.56748368191438 -150.9658627895551 0 0 0 0 103.82670550560579 403.66474351031502 0 403.66474351031502 -230.9101306380544 0 0 0 0 139.6737370412684 600.64648765047377 0 600.64648765047377 82.781244867132045 0 0 0 0 12.279443486084347 541.81375438474061 0 541.81375438474061 -186.8866563814081 0 0 0 0 -58.756537746783579 433.94841850049124 0 433.94841850049124 54.827630920473894 0 0 0 0 324.38900375844969 526.89187214764388 0 526.89187214764388 -231.19043983306983 0 0 0 0 58.953052810880763 256.72760644993673 0 256.72760644993673 -225.65397533569194 0 0 0 0 81.925102185428841 445.76966891256961 0 445.76966891256961 -80.892135339774541 0 0 0 0 285.97268105734838 29.299873031170137 0 29.299873031170137 -15.090134855501674 0 0 0 0 311.22031081697787 63.738022454079328 0 63.738022454079328 -245.83412613923065 0 0 0 0 490.14504155196482 151.12202021475241 0 151.12202021475241 -531.13163011102733 0 0 0 0 494.63285712739162 296.05893456136982 0 296.05893456136982 -276.87203416063494 0 0 0 0 376.40488058980554 -8.564652291515813 0 -8.564652291515813 -301.93496070480614 0 0 0 0 348.06698889250947 108.13269979898178 0 108.13269979898178 -338.87055888563918 0 0 0 0 340.37552222812519 -37.070522062620512 0 -37.070522062620512 -62.159328361471125 0 0 0 0 1057.3020527122862 146.49120279325143 0 146.49120279325143 -61.417553612407971 0 0 0 0 -116.5632101566589 133.47605252063659 0 133.47605252063659 -51.000906867644517 0 0 0 0 336.82790331194701 -558.13333564206187 0 -558.13333564206187 478.43258471756417 0 0 0 0 -410.85951334054698 238.31009793145495 0 238.31009793145495 7.3755602898163488 0 0 0 0 -745.73127015860518 753.3883017522312 0 753.3883017522312 -199.78320727163373 0 0 0 0 -434.04131204214355 464.76299210270736 0 464.76299210270736 1069.7818007896567 0 0 0 0 421.16565922015434 469.01685144983639 0 469.01685144983639 616.10074378003628 0 0 0 0 -9.0731447198865567 6.3502456497836448 0 6.3502456497836448 4.1724202670619093 0 0 0 0 470.02186649627401 807.59044899212313 0 807.59044899212313 523.85217126354291 0 0 0 0 519.63550628127996 500.38562685968645 0 500.38562685968645 243.41049863585795 0 0 0 0 409.77363340266311 628.11848017222837 0 628.11848017222837 776.2843627485272 0 0 0 0 -4.7261903515163795 3.4487491796268159 0 3.4487491796268159 2.0176026548160166 0 0 0 0 -263.35122273719753 91.375110490669613 0 91.375110490669613 571.21205961371743 0 0 0 0 521.05752053561446 929.86551138927462 0 929.86551138927462 304.02185571318842 0 0 0 0 531.6118506888597 101.9906657010215 0 101.9906657010215 -805.18553142902965 0 0 0 0 78.930477056012023 65.105795285722706 0 65.105795285722706 562.97119938817923 0 0 0 0 505.64057684353611 -110.18039373380452 0 -110.18039373380452 -272.99586354965868 0 0 0 0 -144.16352741964511 -37.306154124213208 0 -37.306154124213208 -81.757946736986923 0 0 0 0 22.140736931032734 391.78889909986901 0 391.78889909986901 -181.79321783366322 0 0 0 0 1.3206008952404318 -1.5696694287871367 0 -1.5696694287871367 0.27693059570028566 0 0 0 0 164.57765767721867 27.154089427076542 0 27.154089427076542 -1139.3572074400363 0 0 0 0 -0.31368144333839132 362.4913823528467 0 362.4913823528467 -188.95744609154644 0 0 0 0 -142.97435247179237 197.48692655848572 0 197.48692655848572 243.77912016914343 0 0 0 0 341.78521632002958 247.16603208115703 0 247.16603208115703 233.35996820499713 0 0 0 0 3.9938605122733861 474.61306889327534 0 474.61306889327534 105.78999444992587 0 0 0 0 -38.695996618189383 311.7642720311851 0 311.7642720311851 543.88585413167311 0 0 0 0 -46.27773733183858 364.42532325958018 0 364.42532325958018 273.68149209720104 0 0 0 0 -0.37240102597570512 462.77819531521527 0 462.77819531521527 445.21691301715327 0 0 0 0 -180.58527735437883 457.50551216383815 0 457.50551216383815 609.81037166947499 0 0 0 0 -6.4467741259473996 3.8640348268481546 0 3.8640348268481546 5.0726197656804288 0 0 0 0 -184.77802762924694 345.22483417150943 0 345.22483417150943 536.65214973097318 0 0 0 0 980.21824155322975 914.60397393566382 0 914.60397393566382 901.16235875739949 0 0 0 0 1000.3637921250775 975.43420399363094 0 975.43420399363094 912.38993465487147 0 0 0 0 -30.459414176774544 34.246710476732261 0 34.246710476732261 -31.771342045362303 0 0 0 0 1108.2127105409454 878.69728888499958 0 878.69728888499958 895.39280905800842 0 0 0 0 640.57104478823021 746.6936847097968 0 746.6936847097968 -339.57719459438158 0 0 0 0 885.86639455149998 30.029594266685308 0 30.029594266685308 -427.85193294378405 0 0 0 0 -18.860890411218861 -1.8256334776378935 0 -1.8256334776378935 725.27338184849941 0 0 0 0 926.61018449396943 987.29588865264668 0 987.29588865264668 914.21787995961495 0 0 0 0 456.9650546584744 541.26468829631631 0 541.26468829631631 654.93541739330976 0 0 0 0 625.74698246672051 652.16429196687386 0 652.16429196687386 545.82041503119399 0 0 0 0 -47.02047437135991 47.597585723634161 0 47.597585723634161 -41.294185755528645 0 0 0 0 536.45938780109282 740.04225325510561 0 740.04225325510561 733.35716033179779 0 0 0 0 195.3083450855338 1221.4188493168331 0 1221.4188493168331 777.02720421151025 0 0 0 0 628.10303365708387 448.14815968137918 0 448.14815968137918 304.62546639252105 0 0 0 0 -470.85988595999515 -235.77295657125796 0 -235.77295657125796 -489.88300283730496 0 0 0 0 -79.588493951974669 985.16351139136532 0 985.16351139136532 6.514361589186592 0 0 0 0 -358.44477323064348 729.87929907688522 0 729.87929907688522 1049.8589835486346 0 0 0 0 -559.53239496453898 316.64137641909474 0 316.64137641909474 310.48304378203466 0 0 0 0 152.31758535685367 245.54557605432638 0 245.54557605432638 -716.08983398642158 0 0 0 0 -717.99592754198238 1825.2862218617083 0 1825.2862218617083 -574.43754294991959 0 0 0 0 -259.60275001253467 230.61245210847119 0 230.61245210847119 -126.01604875628254 0 0 0 0 -695.00360285816714 77.75927980220149 0 77.75927980220149 529.43153617472854 0 0 0 0 -658.14789200256928 -107.76680960289377 0 -107.76680960289377 1128.8688799068914 0 0 0 0 -994.95852748338075 1749.0534211907216 0 1749.0534211907216 2028.0638780922163 0 0 0 0 1665.4301088572829 1793.7288407809538 0 1793.7288407809538 1045.9809676173609 0 0 0 0 688.94414611597313 1057.5940203593054 0 1057.5940203593054 2046.4002466306265 0 0 0 0 1114.6880835125339 -156.64228915349668 0 -156.64228915349668 1555.6959251204971 0 0 0 0 2540.1330490765686 1613.8738832785893 0 1613.8738832785893 206.12546815582027 0 0 0 0 -474.07920316517993 -417.04140604078566 0 -417.04140604078566 247.37068867580092 0 0 0 0 -1.2780924938350893 1.4849883859610031 0 1.4849883859610031 34.950798217314514 0 0 0 0 -785.19582447685389 -376.75560854030118 0 -376.75560854030118 596.49097944064124 0 0 0 0 -297.63334347633645 103.85045539167186 0 103.85045539167186 754.05771620100131 0 0 0 0 -131.90459209022811 -103.09785973608086 0 -103.09785973608086 649.44095114359516 0 0 0 0 -226.24938461434795 -2.0927773883886402 0 -2.0927773883886402 541.66265695606126 0 0 0 0 -195.46908173381235 49.083099580515409 0 49.083099580515409 111.42858530883677 0 0 0 0 386.18161072148359 569.90588243835373 0 569.90588243835373 707.32853824811173 0 0 0 0 229.10301864112262 849.09488832198258 0 849.09488832198258 216.44055952565759 0 0 0 0 214.67261776269879 -70.156401804430061 0 -70.156401804430061 44.941611800837563 0 0 0 0 129.25729620104539 304.27796997163387 0 304.27796997163387 1206.3832598463341 0 0 0 0 998.60775770206237 847.63678722175246 0 847.63678722175246 472.44912302093871 0 0 0 0 1192.9231783464493 780.05119970312808 0 780.05119970312808 417.94630152988248 0 0 0 0 1044.1984598469571 1172.4116423807427 0 1172.4116423807427 270.54807305853319 0 0 0 0 1701.4381868306664 712.66588016747119 0 712.66588016747119 156.24857981561217 0 0 0 0 1017.5344120071968 931.09285497847304 0 931.09285497847304 325.53695569687989 0 0 0 0 930.39084808470216 1090.2736438686261 0 1090.2736438686261 86.562059549702099 0 0 0 0 475.67256973602343 675.73334969735879 0 675.73334969735879 336.13883745486964 0 0 0 0 850.89865177328466 1068.0754482832126 0 1068.0754482832126 350.48437140884926 0 0 0 0 -452.67841891615535 594.39416907293344 0 594.39416907293344 545.80317015518085 0 0 0 0 -550.59754049979892 134.84877925158617 0 134.84877925158617 109.78476762864739 0 0 0 0 -195.82254650529649 59.387158435361926 0 59.387158435361926 90.383570145771955 0 0 0 0 -11.393470754422754 68.19050555958782 0 68.19050555958782 82.066269992393984 0 0 0 0 632.04788300272776 370.20190425452893 0 370.20190425452893 -234.99787198938429 0 0 0 0 1044.8307908298448 832.76764094465761 0 832.76764094465761 -115.72026482158981 0 0 0 0 381.95885663738591 515.51304175519908 0 515.51304175519908 311.64226198307006 0 0 0 0 2.8376672116567079 14.058512434120431 0 14.058512434120431 19.892469113883919 0 0 0 0 -175.29454059869022 39.096124994950515 0 39.096124994950515 5.6048877127177548 0 0 0 0 -65.357738528837217 304.97506612032885 0 304.97506612032885 -93.084860283284797 0 0 0 0 -36.992832469252505 59.457727614063089 0 59.457727614063089 -33.003483337099993 0 0 0 0 1917.1835942082307 679.23843105403057 0 679.23843105403057 177.00563861359842 0 0 0 0 -14.329353360174149 19.532349263103242 0 19.532349263103242 96.30345784021074 0 0 0 0 1428.4703606201219 1117.4949800957256 0 1117.4949800957256 404.48514668922871 0 0 0 0 862.37558320446988 1091.1193875042372 0 1091.1193875042372 764.33925234909111 0 0 0 0 879.43467499379722 547.60527877858317 0 547.60527877858317 192.35892299227999 0 0 0 0 -13.206596465673812 -4.3201506648446184 0 -4.3201506648446184 92.340619243511412 0 0 0 0 -864.0450549508023 781.61661392327005 0 781.61661392327005 1374.076330048134 0 0 0 0 437.80833089727093 2642.2049419724135 0 2642.2049419724135 1229.8647547588407 0 0 0 0 5378.1871787491837 2579.3899694549109 0 2579.3899694549109 -748.93778688187012 0 0 0 0 -512.74935634052963 -365.02243497619202 0 -365.02243497619202 1821.7528606550914 0 0 0 0 2.6653395248729481 5.512299914159712 0 5.512299914159712 31.904148228542738 0 0 0 0 2419.3150817823771 667.69282049436879 0 667.69282049436879 668.17154434256372 0 0 0 0 242.60904784861486 -254.74005729990313 0 -254.74005729990313 25.452323401415924 0 0 0 0 217.03335409032297 629.99695198761765 0 629.99695198761765 447.6072106470674 0 0 0 0 -51.943287363785714 50.873163662313296 0 50.873163662313296 -47.045738489528844 0 0 0 0 233.42298454465345 860.73221391016705 0 860.73221391016705 853.48859586847539 0 0 0 0 177.64531576195441 -97.142996954091359 0 -97.142996954091359 -264.65053045994136 0 0 0 0 248.62742005079053 248.3964847370662 0 248.3964847370662 -255.63651255404284 0 0 0 0 589.24131700236467 944.46604654101975 0 944.46604654101975 602.97811832418665 0 0 0 0 726.78077461660723 725.66838010821084 0 725.66838010821084 653.60802938429697 0 0 0 0 -48.607470997116991 53.384610448105214 0 53.384610448105214 -31.19560970378518 0 0 0 0 -432.31310495494108 176.58841034572833 0 176.58841034572833 350.00343702873215 0 0 0 0 -343.66790581861278 768.11016519631812 0 768.11016519631812 838.602474319865 0 0 0 0 203.84800348036515 473.38737983936517 0 473.38737983936517 689.1174826019851 0 0 0 0 -188.46705105268666 42.770315987149388 0 42.770315987149388 -228.63895883350051 0 0 0 0 -178.88956711807987 -66.163662017323077 0 -66.163662017323077 -488.73466929642018 0 0 0 0 -11.188217794464435 -106.16000289870135 0 -106.16000289870135 -708.52655912199407 0 0 0 0 173.30907318158643 429.51296564338645 0 429.51296564338645 992.05172517788014 0 0 0 0 176.51878419745481 391.65035043509852 0 391.65035043509852 -181.28879103122745 0 0 0 0 2.906112559549797 1.8946184296354716 0 1.8946184296354716 -0.05609571163471827 0 0 0 0 451.2691960883385 991.23190592919855 0 991.23190592919855 1625.6720080654995 0 0 0 0 537.78679749363801 172.56423890980659 0 172.56423890980659 -1157.6393946197932 0 0 0 0 1189.6138413988519 1105.6035469111957 0 1105.6035469111957 692.00785572208679 0 0 0 0 889.90750609483803 735.92008340223401 0 735.92008340223401 -953.33018057962181 0 0 0 0 78.225362484226935 96.501491257542511 0 96.501491257542511 -666.03937564916123 0 0 0 0 203.23965207848232 307.28508813193184 0 307.28508813193184 -331.57015159059665 0 0 0 0 -78.716223368246574 109.49642029036477 0 109.49642029036477 -86.19316463090945 0 0 0 0 523.51908716361504 574.28259783532121 0 574.28259783532121 -39.144838006235659 0 0 0 0 224.41885301138973 276.84676136697817 0 276.84676136697817 -332.75933984003495 0 0 0 0 716.57877813093364 256.73614051631012 0 256.73614051631012 42.552674420148833 0 0 0 0 70.41946161177475 158.29288940161496 0 158.29288940161496 329.21239214294474 0 0 0 0 94.666256729251472 141.1323281797122 0 141.1323281797122 -128.135944941052 0 0 0 0 -159.58410644880496 70.970883928850526 0 70.970883928850526 -285.22083864087472 0 0 0 0 -185.045464287512 -68.171711303191842 0 -68.171711303191842 -194.17339400023775 0 0 0 0 -160.24972880701534 77.854143996359198 0 77.854143996359198 -119.23709602678719 0 0 0 0 -70.311389657203108 9.7985314842808293 0 9.7985314842808293 -252.88503105856216 0 0 0 0 -59.48085887664638 -18.640041467595438 0 -18.640041467595438 -400.77734110251185 0 0 0 0 -64.604214633232914 126.2545002724728 0 126.2545002724728 -267.77646982225997 0 0 0 0 -119.49905720754759 90.85794980591163 0 90.85794980591163 -250.98622359574074 0 0 0 0 -77.855648063516128 110.90344305499639 0 110.90344305499639 -251.51675355181214 0 0 0 0 267.85486369847786 -1904.0838294285568 0 -1904.0838294285568 4739.1819465769731 0 0 0 0 -132.55659172686865 2908.3828502981705 0 2908.3828502981705 2068.4294860248629 0 0 0 0 -644.5703035943734 491.10405700137926 0 491.10405700137926 3735.8013620561978 0 0 0 0 -82.785007003163628 200.81942058816458 0 200.81942058816458 183.24848433765874 0 0 0 0 -19.422882022641886 17.857049915108092 0 17.857049915108092 8.523011728394124 0 0 0 0 1552.0189495545637 -1832.8701311482291 0 -1832.8701311482291 -1117.0392307787261 0 0 0 0 -13.876995243418946 0.10943558387242547 0 0.10943558387242547 50.030119466972394 0 0 0 0 1041.4782434492081 652.80024939126451 0 652.80024939126451 686.12508716934826 0 0 0 0 1210.2154325105366 1252.5518696574873 0 1252.5518696574873 -197.52024406992132 0 0 0 0 1433.0216621688451 741.23218655544042 0 741.23218655544042 546.43798684209469 0 0 0 0 560.28183215571335 464.66926180146402 0 464.66926180146402 255.02403113131004 0 0 0 0 366.44066764396848 724.94483913865406 0 724.94483913865406 1409.8651839876838 0 0 0 0 1792.0722838917864 1425.7545546779584 0 1425.7545546779584 708.47781883762218 0 0 0 0 -207.68942567124031 -239.96163745166996 0 -239.96163745166996 357.16480967079406 0 0 0 0 2752.4290125221596 1246.0411599146028 0 1246.0411599146028 -31.088558131013997 0 0 0 0 3.2598975909840817 -4.888840012855411 0 -4.888840012855411 12.773419641504177 0 0 0 0 -220.98276408179663 -178.11432117354707 0 -178.11432117354707 263.82983935810626 0 0 0 0 -389.23355518188328 -161.193863001914 0 -161.193863001914 459.74117761086382 0 0 0 0 -330.5908702838351 -268.47245467946777 0 -268.47245467946777 594.68297880591126 0 0 0 0 -407.68244187370874 -48.226731522649061 0 -48.226731522649061 -162.16971415295848 0 0 0 0 -21.02490348124411 1042.8037411605692 0 1042.8037411605692 -1039.1348880711375 0 0 0 0 120.78362689393822 56.590790952450305 0 56.590790952450305 19.773349811063284 0 0 0 0 1024.3981010023417 2060.9599868726873 0 2060.9599868726873 -3251.611351827356 0 0 0 0 -230.71011161481147 1469.0547716165238 0 1469.0547716165238 970.36644710991459 0 0 0 0 896.51843923196429 372.14214185698074 0 372.14214185698074 -1862.2792767750689 0 0 0 0 884.66679268558073 -925.63350868273665 0 -925.63350868273665 -1039.0442144084955 0 0 0 0 542.32828507092199 -248.44430879307401 0 -248.44430879307401 -961.32166032973328 0 0 0 0 444.28815945715178 -124.41440281370888 0 -124.41440281370888 1001.6234889309053 0 0 0 0 130.18809954864969 77.777462235703467 0 77.777462235703467 28.499893957995809 0 0 0 0 -652.32124338424182 608.861602227611 0 608.861602227611 -945.23878524127031 0 0 0 0 -34.274378383245192 16.55787652429612 0 16.55787652429612 5.3389446985829068 0 0 0 0 31.527816188157885 1872.6649681438867 0 1872.6649681438867 -610.38142522676208 0 0 0 0 618.0951691071532 303.59363403211319 0 303.59363403211319 16.922056015144335 0 0 0 0 698.59547814656253 651.44034124112113 0 651.44034124112113 45.271881734195631 0 0 0 0 -100.44293093273882 273.69226798551972 0 273.69226798551972 154.24759637782699 0 0 0 0 -957.15978492022259 -422.02876730274875 0 -422.02876730274875 -975.59311823165626 0 0 0 0 74.981764958065469 1075.1805615040357 0 1075.1805615040357 460.25701642331842 0 0 0 0 -2665.5690492982103 720.55373837105435 0 720.55373837105435 1182.1596323815902 0 0 0 0 -1229.4071052130021 367.38014455501252 0 367.38014455501252 1136.1805586433911 0 0 0 0 -753.7939833101118 967.54864886801806 0 967.54864886801806 543.39237284607952 0 0 0 0 -712.18779653680394 943.5202345752914 0 943.5202345752914 -86.183657796449552 0 0 0 0 -47.035501292790286 -158.89037789509166 0 -158.89037789509166 -659.03692313296779 0 0 0 0 -218.18644318252336 -184.59137439946062 0 -184.59137439946062 -478.76538851612713 0 0 0 0 7.3931958683424455 -35.476315224860855 0 -35.476315224860855 -463.96042056124134 0 0 0 0 9.0759533116652165 -78.241883331349527 0 -78.241883331349527 -548.49899559389451 0 0 0 0 -110.53576115859323 -56.737453675072175 0 -56.737453675072175 -359.85771627191571 0 0 0 0 -147.09404437354533 -89.100968152837595 0 -89.100968152837595 -357.10657591780182 0 0 0 0 0.41951717564370483 -206.5189245348738 0 -206.5189245348738 -373.78366771090077 0 0 0 0 -158.86868254729779 50.811559653797303 0 50.811559653797303 54.695542191329878 0 0 0 0 -35.781350844656117 78.794238641508855 0 78.794238641508855 183.09705577737623 0 0 0 0 -101.41221762448549 305.62175608998223 0 305.62175608998223 -944.50268929569143 0 0 0 0 -252.72355699123 111.7991072996665 0 111.7991072996665 -582.84638386284496 0 0 0 0 -442.40454690618208 -348.19701521561365 0 -348.19701521561365 -1263.5874137069914 0 0 0 0 4.9227010919048553 12.618287629931757 0 12.618287629931757 18.069281023673028 0 0 0 0 -95.928225856889867 71.815363829583191 0 71.815363829583191 38.81128956477778 0 0 0 0 -607.5987966224202 717.63919852660183 0 717.63919852660183 -327.95328145998064 0 0 0 0 -44.899881188568543 191.81991816855952 0 191.81991816855952 -335.14182744068967 0 0 0 0 -54.494072684028652 20.321455228287959 0 20.321455228287959 -306.36595084453438 0 0 0 0 -12.410005440308169 25.354192361108147 0 25.354192361108147 16.59411323625244 0 0 0 0 -268.88455739134224 68.110830869525671 0 68.110830869525671 -4.71714268343203 0 0 0 0 89.955814754794119 518.75449639927683 0 518.75449639927683 -548.74768762449094 0 0 0 0 24.396689630229957 -6.4666106456279522 0 -6.4666106456279522 -493.41416183741967 0 0 0 0 29.484246606647503 -29.965587660524761 0 -29.965587660524761 -483.95523022516136 0 0 0 0 -7.1210251122105319 12.805274328628439 0 12.805274328628439 -7.7369424988515618 0 0 0 0 0.96627233149229141 15.796033713703764 0 15.796033713703764 -2.1785839464428136 0 0 0 0 84.580216330272378 -10.646706614359573 0 -10.646706614359573 -476.1303716195689 0 0 0 0 67.693986105150543 -21.654234291854664 0 -21.654234291854664 -482.26610242931929 0 0 0 0 13.00038812981802 -13.135903244372457 0 -13.135903244372457 -450.9690334067418 0 0 0 0 12.92718062075437 -12.623784717550734 0 -12.623784717550734 -441.54660293782945 0 0 0 0 42.653425607946701 68.770564287056914 0 68.770564287056914 -356.78872046271135 0 0 0 0 29.473045837868995 33.006786290605305 0 33.006786290605305 -450.92779324440926 0 0 0 0 58.227374709647847 11.394809015931969 0 11.394809015931969 -437.67370071029291 0 0 0 0 6.2743315682558887 3.0436370193154687 0 3.0436370193154687 -1.3339902658921545 0 0 0 0 -15.626102956128307 211.70713642651754 0 211.70713642651754 334.82654784232 0 0 0 0 -97.756851139682112 180.44578039545013 0 180.44578039545013 -84.480433407261444 0 0 0 0 106.87049266765825 241.20622718375671 0 241.20622718375671 152.55303333596385 0 0 0 0 7.4551896159176749 5.1779769764034143 0 5.1779769764034143 -1.4913349967000755 0 0 0 0 171.92260926633026 198.28412280733755 0 198.28412280733755 -381.19932122788668 0 0 0 0 -334.16257344352198 971.86240025905136 0 971.86240025905136 -802.26514300465351 0 0 0 0 1.0900886669114698 -10.729116959329986 0 -10.729116959329986 -2130.5732773117488 0 0 0 0 -181.21089292134275 42.826687094966474 0 42.826687094966474 982.12304576156203 0 0 0 0 142.1085818286374 529.81634895847674 0 529.81634895847674 -786.66161388040928 0 0 0 0 -38.357507743807219 -237.86238168613272 0 -237.86238168613272 -561.66597176567302 0 0 0 0 -649.53454655699898 -1084.5209487132524 0 -1084.5209487132524 -1510.7197068023524 0 0 0 0 -483.78121777524939 613.21575482464687 0 613.21575482464687 -762.49146003002534 0 0 0 0 -2.2763160469127683 4.6348050347703804 0 4.6348050347703804 -1.3034170185475205 0 0 0 0 -3.1394100238637748 -1.6729988996019642 0 -1.6729988996019642 3.8033166294895864 0 0 0 0 0.010547716054134071 13.773082166899258 0 13.773082166899258 10.387644197748159 0 0 0 0 -7.2618371704133438 7.3249578381472702 0 7.3249578381472702 1.8270639173791778 0 0 0 0 4.3388440757989883 19.451057209902501 0 19.451057209902501 6.2536500680726022 0 0 0 0 7.7536060020793229 18.569808316664421 0 18.569808316664421 3.4689105253055459 0 0 0 0 0.021071667678086214 4.6060725376367841 0 4.6060725376367841 -9.461282051786327 0 0 0 0 184.10929553264577 -405.89166714069506 0 -405.89166714069506 -973.80607956601307 0 0 0 0 -6.6193181513870911 12.732161501427527 0 12.732161501427527 -3.6119626543471384 0 0 0 0 1.0102501815272262 16.26032635957381 0 16.26032635957381 2.6781079507745744 0 0 0 0 -0.48037118703359738 12.355452015894116 0 12.355452015894116 4.5438820785602729 0 0 0 0 4.4213384867471177 12.56127821827431 0 12.56127821827431 -38.401279771787813 0 0 0 0 -0.0089678157528396696 19.566151179744338 0 19.566151179744338 -11.286531695412123 0 0 0 0 -1.6666961742375861 21.15459216776253 0 21.15459216776253 -2.5905562602420105 0 0 0 0 11.244697092639399 23.404427316525471 0 23.404427316525471 -5.7709040381741943 0 0 0 0 0.55887138578668782 0.37439267813024912 0 0.37439267813024912 -2.112786964160108 0 0 0 0 -30.512297956243856 47.408638833188888 0 47.408638833188888 18.890791948502738 0 0 0 0 -7.776639360236004 23.901980069535057 0 23.901980069535057 11.674097992450697 0 0 0 0 -17.433756634098245 21.340751851777895 0 21.340751851777895 33.354794429709727 0 0 0 0 -16.287871845852351 12.013460801605106 0 12.013460801605106 -9.9871556574798888 0 0 0 0 -15.984119375119917 8.2839803901006235 0 8.2839803901006235 103.97662612071144 0 0 0 0 3.8066919663049248 -4.5688305739429325 0 -4.5688305739429325 -3.6822591416833035 0 0 0 0 5.5569834428533795 13.168393978583481 0 13.168393978583481 -92.721924775076332 0 0 0 0 -13.640966574399499 -10.452707893004117 0 -10.452707893004117 8.6543117566470755 0 0 0 0 11.28257841461982 10.726720336375564 0 10.726720336375564 0.10811938336890137 0 0 0 0 8.724406459776219 4.597022401067079 0 4.597022401067079 18.131761811404431 0 0 0 0 18.232717951992527 17.994381801327108 0 17.994381801327108 18.685198886450962 0 0 0 0 -11.317372056944635 16.575936812005835 0 16.575936812005835 13.801077184601354 0 0 0 0 63.849396577570587 21.599015587475151 0 21.599015587475151 11.53460928054119 0 0 0 0 89.301856399630196 20.358442963115522 0 20.358442963115522 2.0073103235190501 0 0 0 0 68.103086725372123 0.24644528674252797 0 0.24644528674252797 14.372144817025401 0 0 0 0 1.0828192468076168 4.6520514541246882 0 4.6520514541246882 4.0639895489973412 0 0 0 0 23.419205717160366 106.9889602204421 0 106.9889602204421 -25.838484662737756 0 0 0 0 19.89419172151247 88.512539323652163 0 88.512539323652163 -102.92269736086018 0 0 0 0 -6.4644196045410354 78.429208804864174 0 78.429208804864174 -45.303588333234075 0 0 0 0 14.28589798232133 3.4016873019536433 0 3.4016873019536433 -30.97144415146613 0 0 0 0 20.369132689782418 30.302928604680346 0 30.302928604680346 40.990519021666842 0 0 0 0 -36.542521573835984 67.922346177969303 0 67.922346177969303 -45.67966085941589 0 0 0 0 -258.28552502801176 83.238602227786032 0 83.238602227786032 -49.499825292848982 0 0 0 0 -44.749868396196689 130.65605150643569 0 130.65605150643569 -120.37790489886538 0 0 0 0 -238.15954271954251 36.554317609283316 0 36.554317609283316 47.332525125617394 0 0 0 0 -14.8959463355568 47.242992174943083 0 47.242992174943083 -58.547842190775555 0 0 0 0 -6.9119734108899138 99.591836309942664 0 99.591836309942664 -95.700626423044014 0 0 0 0 -16.636021636943042 62.923590550382869 0 62.923590550382869 -69.02208430981409 0 0 0 0 -21.653174992068671 45.906406027519552 0 45.906406027519552 23.201972347778792 0 0 0 0 -1.95233888590883 111.75088156545007 0 111.75088156545007 -7.5403503840061603 0 0 0 0 -15.056337055152994 -5.5605224214521911 0 -5.5605224214521911 -2.0259225854251568 0 0 0 0 -43.748875563702313 9.7064035682269605 0 9.7064035682269605 236.0418169983277 0 0 0 0 44.331317190022673 129.1011610093592 0 129.1011610093592 93.34340433581383 0 0 0 0 124.30845222311473 -62.196462982834419 0 -62.196462982834419 71.132854705894715 0 0 0 0 0.023624713168828748 43.554968684740743 0 43.554968684740743 24.07338622102543 0 0 0 0 -2.2898063428146997 26.902608457972747 0 26.902608457972747 -18.474573625098856 0 0 0 0 14.446074129950432 17.319204942193267 0 17.319204942193267 3.0452327104664505 0 0 0 0 -31.907506826915778 35.63267436777096 0 35.63267436777096 36.594837202537747 0 0 0 0 -66.926848815637641 37.242767927999012 0 37.242767927999012 44.209152486786479 0 0 0 0 -16.050793623900972 -8.4107348829675175 0 -8.4107348829675175 33.984663700681267 0 0 0 0 14.294824446223799 16.055231688496463 0 16.055231688496463 0.65045861089456025 0 0 0 0 -9.3866846888849977 40.854700261057587 0 40.854700261057587 -16.623927645071944 0 0 0 0 -0.02706974430475384 26.233038186466729 0 26.233038186466729 -23.034321270359214 0 0 0 0 0.080585653729826845 0.10424083728906908 0 0.10424083728906908 -1.3532877658434614 0 0 0 0 -0.39145330207747975 3.9062245686921528 0 3.9062245686921528 -1.4906183010497216 0 0 0 0 -0.07604269715375267 19.399672605919477 0 19.399672605919477 3.7640506737952819 0 0 0 0 8.529974534700159 -32.556342801017308 0 -32.556342801017308 129.59295299059886 0 0 0 0 152.99148480196891 -237.88189488399621 0 -237.88189488399621 398.22004817183915 0 0 0 0 -87.055040564155206 101.97576331249002 0 101.97576331249002 500.47229581053398 0 0 0 0 -180.82262145238201 179.67698162457054 0 179.67698162457054 -99.054284722362354 0 0 0 0 -55.679172952950466 166.01165950680297 0 166.01165950680297 20.406593738982338 0 0 0 0 -104.22496377222706 -5.6043400676717283 0 -5.6043400676717283 207.31921736139338 0 0 0 0 -19.672552825285607 -5.7753253769265314 0 -5.7753253769265314 -1.0695141425031522 0 0 0 0 -97.185778235667385 -90.682213864616642 0 -90.682213864616642 191.74957590304621 0 0 0 0 -23.511818728366052 -68.089357881171964 0 -68.089357881171964 1.446346133852785 0 0 0 0 -317.46808005028288 163.34796033911334 0 163.34796033911334 59.780765069224799 0 0 0 0 -312.44043089079059 101.07975878078469 0 101.07975878078469 -218.05198373889289 0 0 0 0 22.17522290302648 25.676569961599 0 25.676569961599 -9.4036495674187393 0 0 0 0 -726.39497664032388 466.17848719778158 0 466.17848719778158 -102.08656951980083 0 0 0 0 -370.58098391271778 264.4875823710754 0 264.4875823710754 56.674394280853448 0 0 0 0 -379.83528157374531 215.12607711274632 0 215.12607711274632 -205.14740191290912 0 0 0 0 -529.8340381517628 215.16637543874731 0 215.16637543874731 -128.10327471909113 0 0 0 0 21.25837008937927 22.435823285203242 0 22.435823285203242 -17.528926952320347 0 0 0 0 -531.2820054924814 451.38991138493293 0 451.38991138493293 -179.02344490188921 0 0 0 0 -434.24425560839882 269.13103885418241 0 269.13103885418241 -107.35385453035815 0 0 0 0 -0.028195732884341851 318.66491698723257 0 318.66491698723257 -182.16595363300985 0 0 0 0 -53.433421472756891 171.82070723504512 0 171.82070723504512 14.157114299669047 0 0 0 0 0.87332380436723178 347.67046915666936 0 347.67046915666936 181.965764264678 0 0 0 0 -169.47238413270679 218.96031620301983 0 218.96031620301983 -205.45777768512198 0 0 0 0 -153.63181518331112 289.14330875554515 0 289.14330875554515 80.606586481611885 0 0 0 0 -1361.5853612987848 -40.400464146532613 0 -40.400464146532613 -72.323902930846089 0 0 0 0 1239.909398692238 244.74546964635374 0 244.74546964635374 -108.14117334876209 0 0 0 0 -27.440492305897379 38.898918597617069 0 38.898918597617069 -47.228742580936199 0 0 0 0 -864.4553229853409 321.80243101204906 0 321.80243101204906 -1208.0708765836898 0 0 0 0 -1215.0656466731161 86.681481074094336 0 86.681481074094336 7.3787093582941452 0 0 0 0 -1117.3510780920187 75.6612613444413 0 75.6612613444413 -393.4343541767812 0 0 0 0 -879.56840850497247 364.49891780989492 0 364.49891780989492 -57.969350287945417 0 0 0 0 -530.1116268580663 180.56261053987782 0 180.56261053987782 166.84396949775692 0 0 0 0 -71.573623024960398 147.38773819355629 0 147.38773819355629 -141.18857160691277 0 0 0 0 -0.60059213660209743 10.688739246887451 0 10.688739246887451 -23.661927570495664 0 0 0 0 -611.66249247125234 360.2477046501408 0 360.2477046501408 -87.316883928450807 0 0 0 0 -1433.7019419934077 94.434127771113708 0 94.434127771113708 347.95779468150067 0 0 0 0 0.080083158501217611 9.8729077149100704 0 9.8729077149100704 -24.127213943286307 0 0 0 0 348.34305111659341 469.67113117920235 0 469.67113117920235 -600.96642440740106 0 0 0 0 -854.62304083438357 706.95934012583893 0 706.95934012583893 220.09911774651846 0 0 0 0 -881.69417805683406 1153.2225208383111 0 1153.2225208383111 -899.52278713152918 0 0 0 0 -520.85830332560363 266.33485483577522 0 266.33485483577522 -48.809666583372746 0 0 0 0 523.47942112834426 1826.6213995608705 0 1826.6213995608705 -1311.7989579555579 0 0 0 0 21.425237445868135 26.8655076054186 0 26.8655076054186 -5.2422124122728917 0 0 0 0 -805.52568620245438 619.74920164912328 0 619.74920164912328 -372.99296280771523 0 0 0 0 -1534.0699564662646 345.58285226451335 0 345.58285226451335 -41.765376810310272 0 0 0 0 -0.049152263108497962 4.3189307215525901 0 4.3189307215525901 -10.892539456067624 0 0 0 0 1233.3910523022932 92.932925699351472 0 92.932925699351472 -166.54998295626137 0 0 0 0 -328.41581208973366 -82.037292292985512 0 -82.037292292985512 -1065.6470993453695 0 0 0 0 -400.70003598032054 -472.29323778808612 0 -472.29323778808612 149.29725392495766 0 0 0 0 -1012.7837154720037 450.48640661433456 0 450.48640661433456 1589.0872605613549 0 0 0 0 -2225.6975826049893 -301.85269247099859 0 -301.85269247099859 1257.7073029031599 0 0 0 0 863.86122049609548 1188.5353830485401 0 1188.5353830485401 -569.30493411159114 0 0 0 0 -3346.2136588221765 88.220110521728202 0 88.220110521728202 367.51505786694906 0 0 0 0 1417.2918593271752 555.24965131011777 0 555.24965131011777 -126.1061407316156 0 0 0 0 -8.5390813085332411 13.250596906572468 0 13.250596906572468 -19.831836646993651 0 0 0 0 -25.189338218702346 31.582023588437465 0 31.582023588437465 -25.479298406698561 0 0 0 0 893.62907196779997 964.84308381707342 0 964.84308381707342 783.23418411934108 0 0 0 0 485.3287448186893 1107.8509264724453 0 1107.8509264724453 272.91989200510579 0 0 0 0 530.90805576117236 29.793596389241429 0 29.793596389241429 -907.16647589650529 0 0 0 0 -1484.2632472891128 1133.3857949952435 0 1133.3857949952435 1378.0287934270891 0 0 0 0 547.23092154222832 193.63625452937049 0 193.63625452937049 -2181.2829879926285 0 0 0 0 537.56082475224684 66.755486636604473 0 66.755486636604473 -1712.5110768717423 0 0 0 0 -8.9282549722012163 14.596165905460651 0 14.596165905460651 -13.665637056822391 0 0 0 0 147.59669969962852 941.37713164504203 0 941.37713164504203 -2092.7181269467401 0 0 0 0 207.68404489012028 637.01720792453489 0 637.01720792453489 -928.60358726451523 0 0 0 0 189.08335119647381 624.00750176776273 0 624.00750176776273 -918.62082813368761 0 0 0 0 -582.58233273419319 615.33138205485557 0 615.33138205485557 369.02408544650825 0 0 0 0 208.2356070361202 513.02185910632943 0 513.02185910632943 -425.66679804292653 0 0 0 0 521.1527851150895 24.971255915763322 0 24.971255915763322 -896.44882617787152 0 0 0 0 -5.1616112004414845 -3.6259325791623382 0 -3.6259325791623382 -2.2646711030081548 0 0 0 0 -333.07325253583258 -241.17055404293933 0 -241.17055404293933 432.32545321783982 0 0 0 0 -878.86569449934177 1331.2822193069442 0 1331.2822193069442 -205.04917558311718 0 0 0 0 -2740.4998259928543 1640.4932487162951 0 1640.4932487162951 914.09051532791636 0 0 0 0 -1335.9880047859624 1194.7419421600498 0 1194.7419421600498 552.48768306936836 0 0 0 0 -1087.9888027989655 1470.0234464143432 0 1470.0234464143432 354.85779807923245 0 0 0 0 -1250.5317963645648 70.914784488279111 0 70.914784488279111 -686.4596482081397 0 0 0 0 26.879034867872122 32.091999479203878 0 32.091999479203878 25.675566807405488 0 0 0 0 -99.69727239383792 -1197.2850704223965 0 -1197.2850704223965 -976.68187406918514 0 0 0 0 -1136.7289671134567 408.36475216606959 0 408.36475216606959 197.11470738140633 0 0 0 0 -784.59030927586718 1201.9611570676789 0 1201.9611570676789 -563.55470097850775 0 0 0 0 -856.50281064935552 -27.203316077901036 0 -27.203316077901036 347.56959190893394 0 0 0 0 -237.41341414343333 29.317834764638974 0 29.317834764638974 39.178171511695837 0 0 0 0 -611.99152579589281 61.948723675595829 0 61.948723675595829 53.00149908520325 0 0 0 0 -443.70726924284827 143.53375329879782 0 143.53375329879782 -17.166472926161077 0 0 0 0 -252.51135087633156 160.36558297179181 0 160.36558297179181 -53.695052923882031 0 0 0 0 -463.09076187125174 291.79675801951089 0 291.79675801951089 -122.4437839264574 0 0 0 0 -597.9394353335083 251.381993923962 0 251.381993923962 -0.45452488119917689 0 0 0 0 4.2471183645195367 64.725008159825848 0 64.725008159825848 80.633995209084929 0 0 0 0 -577.5657068260407 304.40627809968601 0 304.40627809968601 -48.692075505838147 0 0 0 0 -614.11099136000121 295.00692842965327 0 295.00692842965327 -5.5543507617112482 0 0 0 0 -936.57863784045912 362.81037847616244 0 362.81037847616244 118.42017569817835 0 0 0 0 -477.1390744112141 452.90763702092954 0 452.90763702092954 -306.20363151958736 0 0 0 0 -244.85799118643627 242.21910095671774 0 242.21910095671774 -137.47760916084371 0 0 0 0 -3.5725809608002237 2.5347895600405792 0 2.5347895600405792 13.462987425802055 0 0 0 0 -110.99296885929652 183.84774164555347 0 183.84774164555347 -164.30835648144421 0 0 0 0 -302.6294722679304 210.52274290136847 0 210.52274290136847 -42.426608151523396 0 0 0 0 -18.168031748267538 28.36243182735366 0 28.36243182735366 -41.371047321105095 0 0 0 0 143.35956586303655 263.03705501363584 0 263.03705501363584 49.128405742158066 0 0 0 0 273.56445760908537 358.58465697145402 0 358.58465697145402 -359.65827105070639 0 0 0 0 -124.34149298456032 43.021970148736727 0 43.021970148736727 136.23567777861899 0 0 0 0 -238.66184056441125 238.61621404753168 0 238.61621404753168 327.22297657252784 0 0 0 0 -36.951856990548549 64.827405315569194 0 64.827405315569194 364.8362577980588 0 0 0 0 -130.16730857445509 83.177109818774625 0 83.177109818774625 465.5380826465389 0 0 0 0 -30.568587285396291 53.128069947354192 0 53.128069947354192 -34.164812909252475 0 0 0 0 -63.558402746391948 131.87332448008601 0 131.87332448008601 364.40022914353904 0 0 0 0 28.294400417973748 60.444259324067787 0 60.444259324067787 6.1174826170649652 0 0 0 0 360.08586176956305 275.6713967245305 0 275.6713967245305 148.48526577019948 0 0 0 0 -247.17156979776337 -111.22668856992095 0 -111.22668856992095 -29.866301753594598 0 0 0 0 137.59915853961138 135.81650063297639 0 135.81650063297639 -93.201905855814402 0 0 0 0 -12.277525005157713 25.750196184623533 0 25.750196184623533 -4.1166074158105843 0 0 0 0 -731.93587337245117 -205.34242614122195 0 -205.34242614122195 755.01195226296113 0 0 0 0 -773.83881657739403 -466.58197051914613 0 -466.58197051914613 2146.0953323542726 0 0 0 0 -2.6292772629255978 5.0444413005920623 0 5.0444413005920623 -3.7798886854673981 0 0 0 0 2057.2320769499056 -282.27622909417187 0 -282.27622909417187 -374.07642695057439 0 0 0 0 211.10247879315284 85.72618093467463 0 85.72618093467463 -166.5506181023411 0 0 0 0 119.33866248328559 -86.426589708646134 0 -86.426589708646134 -278.73640612090821 0 0 0 0 -50.611710080964258 -74.616246850033349 0 -74.616246850033349 -120.57875461877848 0 0 0 0 -362.89266490875161 546.83110988231783 0 546.83110988231783 -1107.5983016779828 0 0 0 0 270.99161218740483 1053.0683094397973 0 1053.0683094397973 761.68469223221473 0 0 0 0 444.39783653177437 1416.9751777152469 0 1416.9751777152469 1497.3245105486276 0 0 0 0 -379.07795585112763 804.12731505307602 0 804.12731505307602 1543.8099190367138 0 0 0 0 -400.43275328187156 593.61374899579096 0 593.61374899579096 437.30287963822047 0 0 0 0 -839.54991198639618 619.02104735210742 0 619.02104735210742 699.16054686164716 0 0 0 0 27.270907215104671 1480.775346754519 0 1480.775346754519 -122.34608082174236 0 0 0 0 -732.50746590669041 1307.152613356629 0 1307.152613356629 -589.64856912427058 0 0 0 0 -185.34475765874959 658.9927142334418 0 658.9927142334418 61.002753504944849 0 0 0 0 -1.2173784252784685 8.6517724592495284 0 8.6517724592495284 -7.5495333405751524 0 0 0 0 -183.43072139744618 1328.1919038002779 0 1328.1919038002779 -50.257298734599317 0 0 0 0 245.39528640454228 530.0165305288574 0 530.0165305288574 -1222.7697666905333 0 0 0 0 -323.58126235791497 1345.4310072287217 0 1345.4310072287217 1646.723941801989 0 0 0 0 3.0011147257412176 5.8963405858817879 0 5.8963405858817879 -2.6426507783722002 0 0 0 0 -89.143983059228049 1407.0583939493918 0 1407.0583939493918 1207.0195363376879 0 0 0 0 -542.00346664081735 916.08039461636963 0 916.08039461636963 -537.12712986249244 0 0 0 0 -508.84494002456995 1114.4875547399279 0 1114.4875547399279 610.13986565826053 0 0 0 0 -97.907112058778921 804.0924471249275 0 804.0924471249275 66.137826483958634 0 0 0 0 -102.44355539648677 328.3316835632686 0 328.3316835632686 -439.01846521426341 0 0 0 0 -304.74222838490823 89.282519086536013 0 89.282519086536013 -1765.8195956002601 0 0 0 0 -246.53636545628251 372.94263462230083 0 372.94263462230083 -403.92240381617012 0 0 0 0 -491.83755994605599 -776.35263924456376 0 -776.35263924456376 -954.88958122357144 0 0 0 0 718.75149084284203 795.71383453569433 0 795.71383453569433 -1604.7773343878152 0 0 0 0 227.9675834835798 -655.55339200067829 0 -655.55339200067829 -1833.7647774958732 0 0 0 0 -4.5204263667165492 10.373937097890661 0 10.373937097890661 -17.381264943259026 0 0 0 0 -1011.0582049603399 670.31463167878246 0 670.31463167878246 42.623045351567271 0 0 0 0 -751.20054195192643 1083.0647850989262 0 1083.0647850989262 -662.87224474873801 0 0 0 0 356.83812891683556 421.89475177033091 0 421.89475177033091 -337.07917968952097 0 0 0 0 471.71429379757319 677.89045678826369 0 677.89045678826369 -64.59094373928383 0 0 0 0 501.06415406072665 260.3517583030748 0 260.3517583030748 -406.93178099433135 0 0 0 0 668.24087140835763 284.47201733986731 0 284.47201733986731 -464.8756059378502 0 0 0 0 541.04391281917196 412.0409526101339 0 412.0409526101339 18.617079612333328 0 0 0 0 769.91434243111871 455.37358403037797 0 455.37358403037797 -1.004701766951257 0 0 0 0 565.9733206450037 738.4479953354894 0 738.4479953354894 483.20935605134218 0 0 0 0 298.33382562403858 297.06313181147925 0 297.06313181147925 207.15976967815368 0 0 0 0 658.41695668458124 393.5036644590873 0 393.5036644590873 -386.12728923863324 0 0 0 0 287.42093289403419 441.32100310333408 0 441.32100310333408 -365.36860830238584 0 0 0 0 340.05954059386568 261.70139439477498 0 261.70139439477498 -534.79064119233362 0 0 0 0 -78.775208669729182 864.97742769022443 0 864.97742769022443 -496.17380092742678 0 0 0 0 694.9872493132134 307.96542619144748 0 307.96542619144748 375.96712537550775 0 0 0 0 616.55468006865704 595.36934364217086 0 595.36934364217086 -641.93167141819868 0 0 0 0 634.74464839567372 463.35032096792202 0 463.35032096792202 -988.24663278866501 0 0 0 0 398.92653375738882 711.59495484872241 0 711.59495484872241 127.32358842145914 0 0 0 0 -3.5024749890600333 15.714051738302018 0 15.714051738302018 -13.946955998379011 0 0 0 0 725.8841614377809 1114.8084654371773 0 1114.8084654371773 279.29572339279548 0 0 0 0 510.53865355737798 347.85896904296169 0 347.85896904296169 540.74735176426475 0 0 0 0 0.18636293581425889 8.5897048581194042 0 8.5897048581194042 -8.3810649003705322 0 0 0 0 696.99921972508673 421.73090560432684 0 421.73090560432684 -1697.5949312771481 0 0 0 0 -64.782813641973917 344.4083964097681 0 344.4083964097681 69.879951724840794 0 0 0 0 232.10616844616015 1021.8057768246144 0 1021.8057768246144 -1136.6672971707703 0 0 0 0 344.95737001203452 1344.5580313643113 0 1344.5580313643113 -220.84207046704978 0 0 0 0 302.61405680685129 1430.9553319146544 0 1430.9553319146544 1176.9022910825224 0 0 0 0 370.4750664025778 319.00679394567487 0 319.00679394567487 -475.34346952389751 0 0 0 0 619.45053550350713 322.82398416147771 0 322.82398416147771 -476.76278440098122 0 0 0 0 487.6618765778403 578.71022633244502 0 578.71022633244502 -642.79562603768136 0 0 0 0 929.67938001402945 313.09418242682295 0 313.09418242682295 -600.71277069954522 0 0 0 0 611.12753194730612 499.98368598553498 0 499.98368598553498 -698.09313536348418 0 0 0 0 991.43570845329668 746.2598673600005 0 746.2598673600005 -916.65326580266628 0 0 0 0 728.15777412941679 837.16653138477704 0 837.16653138477704 -935.06510614809758 0 0 0 0 776.60201479247189 772.13572996911898 0 772.13572996911898 -854.55512893681589 0 0 0 0 848.08268122121081 849.11304582807315 0 849.11304582807315 -1318.2540703810664 0 0 0 0 -521.21488752862206 899.13250988346408 0 899.13250988346408 -719.54675931927341 0 0 0 0 -370.43810867892171 1987.1911013081481 0 1987.1911013081481 -2373.6305943188636 0 0 0 0 2446.3458050474001 -1016.1659774901227 0 -1016.1659774901227 101.54853226280829 0 0 0 0 5.7218431092825313 2.6424394208783042 0 2.6424394208783042 -5.2735128497255914 0 0 0 0 1499.3923828246479 155.87718883221896 0 155.87718883221896 -453.89477700296266 0 0 0 0 898.25386228372372 -203.34904929209733 0 -203.34904929209733 -69.711508866472286 0 0 0 0 915.25799772450409 449.28149450063211 0 449.28149450063211 -377.69352020113001 0 0 0 0 1306.8537234172472 441.49075731752964 0 441.49075731752964 -450.56703214651498 0 0 0 0 2147.3709394454854 276.01681619886131 0 276.01681619886131 -735.19583529922238 0 0 0 0 927.31951812245825 400.45276152039878 0 400.45276152039878 -328.95138088946987 0 0 0 0 931.03379815859807 386.9998286971404 0 386.9998286971404 -516.42374393698992 0 0 0 0 609.62015229923418 332.77090047667298 0 332.77090047667298 -438.45219297097356 0 0 0 0 650.96607984918228 398.7411160516931 0 398.7411160516931 -391.749714370726 0 0 0 0 915.04450320168689 454.41377201798605 0 454.41377201798605 -488.62217359500937 0 0 0 0 661.92871047888366 405.60691854654669 0 405.60691854654669 -700.14201763608435 0 0 0 0 334.46247440784646 578.73849415591394 0 578.73849415591394 -495.74805401923004 0 0 0 0 534.16470429577021 228.90452579506382 0 228.90452579506382 -550.92267457851995 0 0 0 0 -30.435612499193098 31.898624274980428 0 31.898624274980428 -24.012943364053626 0 0 0 0 425.1376468205126 466.70611672066661 0 466.70611672066661 247.40200691101018 0 0 0 0 413.5390525655821 277.8526369519459 0 277.8526369519459 57.073800329795631 0 0 0 0 260.98462088486122 1384.933117461369 0 1384.933117461369 1135.3838986830524 0 0 0 0 -1223.6879261442518 269.64168834758311 0 269.64168834758311 678.7518653307925 0 0 0 0 -819.39174426125828 -362.86893862720535 0 -362.86893862720535 206.33648931533389 0 0 0 0 84.247674700402968 -403.33640469478473 0 -403.33640469478473 146.86460830863507 0 0 0 0 -973.31480207738059 -27.602406603684358 0 -27.602406603684358 -506.39394301233006 0 0 0 0 -287.75096125449636 486.91204508671944 0 486.91204508671944 -424.42573322172393 0 0 0 0 -1945.7385511773464 3091.3567658492102 0 3091.3567658492102 -2167.3746444326807 0 0 0 0 -1889.4340115484374 1031.8166457814004 0 1031.8166457814004 -312.36594103941934 0 0 0 0 -3410.7074598912732 2572.5936251493767 0 2572.5936251493767 -346.17035957128167 0 0 0 0 -2659.1195076152508 1085.0464410176937 0 1085.0464410176937 1230.3597156889857 0 0 0 0 -1779.7745575856534 -314.82615236708079 0 -314.82615236708079 1227.1405763173098 0 0 0 0 -1598.8902233795961 874.60180848740129 0 874.60180848740129 -330.31811011857644 0 0 0 0 -2846.941749352176 2864.9902828568374 0 2864.9902828568374 -1991.6891366320015 0 0 0 0 -357.54560697280249 1943.4209067177817 0 1943.4209067177817 -3164.4762783751794 0 0 0 0 -13.652460780328965 15.220924258693298 0 15.220924258693298 -12.59116169669187 0 0 0 0 -3468.9928338226164 1506.5658890459454 0 1506.5658890459454 -2508.871690585871 0 0 0 0 -1785.181328260951 2854.5519552067854 0 2854.5519552067854 -3177.266163593682 0 0 0 0 797.79781703299523 -44.910753090167418 0 -44.910753090167418 -56.164490852825111 0 0 0 0 22.210219643410483 8.5280136703851781 0 8.5280136703851781 -14.523209666638309 0 0 0 0 -1580.4528337044321 1718.8187407144978 0 1718.8187407144978 -1359.9322156604321 0 0 0 0 -1917.9537929903454 2760.9718370934352 0 2760.9718370934352 -1973.459415542995 0 0 0 0 404.6682775266454 756.77907694295391 0 756.77907694295391 -2420.4724251873413 0 0 0 0 -205.49018718018488 390.27767124502498 0 390.27767124502498 247.1179099189867 0 0 0 0 466.17272196034901 -3.8268786161424941 0 -3.8268786161424941 -150.16581365752427 0 0 0 0 879.95722199992451 1604.8474419478698 0 1604.8474419478698 -1051.1454126653116 0 0 0 0 -738.20329278591089 876.39070121313853 0 876.39070121313853 -1162.7434942043255 0 0 0 0 -13.563837642967798 50.254412138315303 0 50.254412138315303 -71.752133771525507 0 0 0 0 -716.03395069569524 2494.6862933829143 0 2494.6862933829143 -2095.9259201800451 0 0 0 0 -1437.4571774161886 1520.9875434246242 0 1520.9875434246242 -2688.9785616301251 0 0 0 0 44.759223618567773 56.29765082780483 0 56.29765082780483 -88.947129744128517 0 0 0 0 13.22272802121006 621.09800543305755 0 621.09800543305755 -3157.7029048973491 0 0 0 0 22.357184272105741 -15.958350662986561 0 -15.958350662986561 -5.5284473503331526 0 0 0 0 53.193593426447478 13.127861107077479 0 13.127861107077479 -121.85543770375079 0 0 0 0 39.118569844309434 24.368538745688738 0 24.368538745688738 -45.597153550304142 0 0 0 0 178.7075024695223 27.195846893038834 0 27.195846893038834 -50.470166927931132 0 0 0 0 39.148461936463946 12.993434221970574 0 12.993434221970574 -19.875324196737694 0 0 0 0 837.97607725064154 221.79466611793032 0 221.79466611793032 -242.58238901664299 0 0 0 0 168.9934982239356 51.840933607716579 0 51.840933607716579 -69.851959918079956 0 0 0 0 -522.61998122090881 374.53851350379409 0 374.53851350379409 -175.78558057237387 0 0 0 0 58.995028345696483 385.7328792804251 0 385.7328792804251 -270.47469788526359 0 0 0 0 0.20245308654486394 0.75790645346560837 0 0.75790645346560837 1.9664736832015706 0 0 0 0 25.985105513449525 45.332979185302975 0 45.332979185302975 -52.435747527269996 0 0 0 0 21.239137676704559 -18.605569418227788 0 -18.605569418227788 -187.467399365647 0 0 0 0 -75.139439869322814 143.78331655920192 0 143.78331655920192 -184.88003626052216 0 0 0 0 -257.60236411984079 307.31499536022602 0 307.31499536022602 -185.10566904157167 0 0 0 0 -33.296810967614874 194.08670765890201 0 194.08670765890201 -251.20635782345198 0 0 0 0 142.46484669925849 213.06850824884827 0 213.06850824884827 -43.29290353320539 0 0 0 0 0.90813980961269181 1.3936096661367685 0 1.3936096661367685 4.6798725387635329 0 0 0 0 -55.077662235824391 247.36946484581858 0 247.36946484581858 -8.792215776797093 0 0 0 0 150.46994703793462 -4.4851658571337794 0 -4.4851658571337794 4.4436451943183783 0 0 0 0 2.7102449493134486 1.8725190888288807 0 1.8725190888288807 3.3054523943302456 0 0 0 0 -334.74238505793619 -109.16794584212039 0 -109.16794584212039 -66.777407991379732 0 0 0 0 -174.09873505673022 -6.3086877610912779 0 -6.3086877610912779 68.199403741120477 0 0 0 0 -39.052898035908584 188.65721641143318 0 188.65721641143318 -117.34820555868646 0 0 0 0 -166.37854677167343 107.42058579896729 0 107.42058579896729 -66.950010711079813 0 0 0 0 129.94566422530625 35.237969397654524 0 35.237969397654524 -165.36139000649928 0 0 0 0 7.6488640150700746 32.307754756246197 0 32.307754756246197 -68.504629806797823 0 0 0 0 -1.7653331613908279 35.680670733117353 0 35.680670733117353 -76.841734977234154 0 0 0 0 55.603434460266726 15.650578608379874 0 15.650578608379874 -45.354770861915313 0 0 0 0 58.791518624675518 45.863485157220566 0 45.863485157220566 -179.06558853131719 0 0 0 0 106.90781633797451 106.83756257760979 0 106.83756257760979 -143.120525743705 0 0 0 0 540.07981431749067 407.82908647415024 0 407.82908647415024 -185.96292514029483 0 0 0 0 232.05821570113767 605.5878957367313 0 605.5878957367313 -84.406045001451275 0 0 0 0 262.95381940364496 572.97607058838003 0 572.97607058838003 -265.27172240054642 0 0 0 0 627.46639880511793 515.55682029153104 0 515.55682029153104 -495.58395411571109 0 0 0 0 707.8728426542948 514.89565055033017 0 514.89565055033017 -346.4222248707556 0 0 0 0 646.73892623739994 423.31825515314995 0 423.31825515314995 -316.27826692369126 0 0 0 0 817.41079911292763 344.69072575064274 0 344.69072575064274 -193.12894155732647 0 0 0 0 1018.5902803242207 339.82721683175623 0 339.82721683175623 -202.33231823990718 0 0 0 0 980.07249371791841 401.25066266903013 0 401.25066266903013 -77.11803165866877 0 0 0 0 1052.0478250216838 423.2327728560922 0 423.2327728560922 -423.11653942702105 0 0 0 0 1139.6126334315923 378.30068239541288 0 378.30068239541288 -430.70267989773129 0 0 0 0 828.1537238137098 264.22375074998126 0 264.22375074998126 -307.31738152052276 0 0 0 0 1115.2221272122988 231.08246280245658 0 231.08246280245658 -400.11295094175875 0 0 0 0 1256.7883514173154 429.64717693996499 0 429.64717693996499 -183.02334516172414 0 0 0 0 1020.0036844584465 407.00909034640063 0 407.00909034640063 -202.55637099471642 0 0 0 0 1207.8476960005646 472.86531401284446 0 472.86531401284446 -220.04562345182057 0 0 0 0 1361.2005905071128 -89.496369883156149 0 -89.496369883156149 -137.54781181231374 0 0 0 0 1220.1418101398158 415.64229466211691 0 415.64229466211691 -187.7262344219198 0 0 0 0 445.35504217853304 892.73812978256865 0 892.73812978256865 -481.42095079665887 0 0 0 0 708.71049681588192 37.560882443656737 0 37.560882443656737 -51.997087541349174 0 0 0 0 -354.65294829216964 1236.2631522279585 0 1236.2631522279585 392.4928793188883 0 0 0 0 3.0672319384869695 2.6667514115497966 0 2.6667514115497966 0.59249829889125749 0 0 0 0 -441.18250554416863 -350.15820000263284 0 -350.15820000263284 -610.23845853790408 0 0 0 0 2490.8885965239751 -335.34672223635425 0 -335.34672223635425 -53.987306399933004 0 0 0 0 1665.9456248287315 671.01426540442117 0 671.01426540442117 116.37869728085934 0 0 0 0 1060.659682284022 463.02016541096964 0 463.02016541096964 37.926687916573428 0 0 0 0 1091.8961911357692 114.16666329054351 0 114.16666329054351 244.61152289637539 0 0 0 0 1023.8753084552261 249.36434270780819 0 249.36434270780819 99.804667780816089 0 0 0 0 1019.7164531020098 499.93622051857528 0 499.93622051857528 436.23279244488367 0 0 0 0 1249.7774524698943 256.01736714381786 0 256.01736714381786 -4.8825016567425337 0 0 0 0 580.61560588220891 412.66530898107885 0 412.66530898107885 93.485277582716662 0 0 0 0 563.90436737674099 354.97954853971623 0 354.97954853971623 66.20281740372593 0 0 0 0 133.25783511719783 596.20425516380783 0 596.20425516380783 179.06184411342838 0 0 0 0 559.98969438271524 379.48759139438152 0 379.48759139438152 122.62460974334681 0 0 0 0 13.768978675667313 422.4575493735756 0 422.4575493735756 226.44770066575438 0 0 0 0 613.91693362005753 516.1175383794689 0 516.1175383794689 325.30632273071387 0 0 0 0 -35.083225214701088 714.31170100136933 0 714.31170100136933 89.774791634015855 0 0 0 0 80.523592451689183 526.11795455227548 0 526.11795455227548 172.24496027216082 0 0 0 0 -110.83842510241084 711.6928949845169 0 711.6928949845169 91.429179192381071 0 0 0 0 119.62930492725718 513.83318033394971 0 513.83318033394971 73.728680354121025 0 0 0 0 -24.966589164308971 785.74147696267755 0 785.74147696267755 -686.37144467560574 0 0 0 0 -415.31813286256693 883.50752064359222 0 883.50752064359222 -154.67647559703619 0 0 0 0 -154.78521290018398 632.68708368578518 0 632.68708368578518 35.168645043886499 0 0 0 0 469.80033225441002 523.86022221581516 0 523.86022221581516 -124.9169198771051 0 0 0 0 274.38907267822651 612.29716230079066 0 612.29716230079066 -763.8633479118289 0 0 0 0 -255.57815074932842 237.23201477519342 0 237.23201477519342 -227.19174847907561 0 0 0 0 412.76109209509741 290.94195638191013 0 290.94195638191013 -371.6170472393278 0 0 0 0 451.52093424380291 359.76430841346883 0 359.76430841346883 -276.28684260883892 0 0 0 0 950.47460992465494 36.222519281094719 0 36.222519281094719 -207.44031204273051 0 0 0 0 425.95677941870417 231.11481263287533 0 231.11481263287533 61.716106075764401 0 0 0 0 1188.6178936256038 -261.28677263452846 0 -261.28677263452846 212.46966475179943 0 0 0 0 8.5280887890539532 7.3828719987895113 0 7.3828719987895113 -0.49597585391916255 0 0 0 0 1118.2802384122624 -271.29679938086701 0 -271.29679938086701 -63.244070936416392 0 0 0 0 -400.29413270692748 388.04361405566306 0 388.04361405566306 63.100879231511499 0 0 0 0 791.62671658230829 63.442867245699745 0 63.442867245699745 18.154345145769184 0 0 0 0 583.15974753217597 -133.27738182216854 0 -133.27738182216854 81.405592953276937 0 0 0 0 744.14792853340623 -59.085912669761456 0 -59.085912669761456 -189.49540937112761 0 0 0 0 673.98152419744292 93.856257167964941 0 93.856257167964941 -320.80822944316606 0 0 0 0 514.05971941583266 19.941267781316128 0 19.941267781316128 -27.455794173481991 0 0 0 0 202.37380741626839 210.17445489720558 0 210.17445489720558 -235.34718409107154 0 0 0 0 527.19669720735692 26.508470730703266 0 26.508470730703266 -257.62985776325513 0 0 0 0 -174.02234467492963 367.20298899893896 0 367.20298899893896 -270.68772747665935 0 0 0 0 21.515676177688874 214.4816051157959 0 214.4816051157959 97.022032642801605 0 0 0 0 85.987593635566839 190.08690639577461 0 190.08690639577461 48.671264045060155 0 0 0 0 224.61929291527485 623.66120269832027 0 623.66120269832027 -864.36300469085108 0 0 0 0 209.90776933905727 551.66321276461531 0 551.66321276461531 -533.54509396148205 0 0 0 0 164.38042808855243 374.86262559030001 0 374.86262559030001 -627.20109362501171 0 0 0 0 439.03201946454647 384.99402048321645 0 384.99402048321645 -639.34744436081382 0 0 0 0 -54.685799724742537 522.40898681453837 0 522.40898681453837 -516.95390760825103 0 0 0 0 -123.67791437950655 440.28691050342968 0 440.28691050342968 -77.57486898341449 0 0 0 0 71.075465670462393 194.79877510966966 0 194.79877510966966 43.662532872082721 0 0 0 0 -49.048236661459669 310.50127344963039 0 310.50127344963039 32.068497520163874 0 0 0 0 203.68019789757091 303.22731415632188 0 303.22731415632188 -51.544811063502038 0 0 0 0 7.1017986623455869 68.099685148046092 0 68.099685148046092 13.896382900107668 0 0 0 0 145.73215325838828 266.65640445763347 0 266.65640445763347 -7.8565450727983261 0 0 0 0 11.422311056816767 58.569332883784256 0 58.569332883784256 27.270643350710316 0 0 0 0 226.85193607650217 202.56219139567111 0 202.56219139567111 -489.23764588423364 0 0 0 0 -646.54845181191922 767.91203188370127 0 767.91203188370127 -282.67234344188182 0 0 0 0 -63.3869099602598 75.457843428812339 0 75.457843428812339 -77.885516699978325 0 0 0 0 11.94464539399047 28.129358367855389 0 28.129358367855389 -34.044201734526609 0 0 0 0 -1.7479575557454154 77.410143069746255 0 77.410143069746255 -86.924582059204113 0 0 0 0 -25.591979295830242 128.86991031624348 0 128.86991031624348 -106.61081229784941 0 0 0 0 -20.285837418807205 73.027809827050078 0 73.027809827050078 -90.831138344190549 0 0 0 0 -1.3919382755490233 26.101236741517198 0 26.101236741517198 -35.186246128606967 0 0 0 0 -1.7479575559846126 77.410143069850164 0 77.410143069850164 -86.924582059000386 0 0 0 0 -1.7479575557099452 77.410143069913488 0 77.410143069913488 -86.924582059000386 0 0 0 0 1.7278504378354 57.599681545556471 0 57.599681545556471 -56.374437850717413 0 0 0 0 50.929907768586418 92.877906029516453 0 92.877906029516453 -143.27240078305476 0 0 0 0 -10.298012532116196 46.09871404325321 0 46.09871404325321 -78.544293860297671 0 0 0 0 50.544098652453613 37.452075685526324 0 37.452075685526324 -80.228870858853043 0 0 0 0 -13.92534048431844 92.96650949182731 0 92.96650949182731 -12.443522494977515 0 0 0 0 -20.81426627203237 41.569456087867437 0 41.569456087867437 -78.371659057543525 0 0 0 0 -22.418067849041108 52.284040316763821 0 52.284040316763821 -134.22302157095692 0 0 0 0 27.045509013478295 51.072963682869158 0 51.072963682869158 -175.5186542844458 0 0 0 0 -6.4289909963860339 16.059997032239608 0 16.059997032239608 -8.7720075117806005 0 0 0 0 -70.016130293777678 105.86945843594731 0 105.86945843594731 -80.751308013772359 0 0 0 0 -1.0169489948763157 14.666540062585995 0 14.666540062585995 -3.296575736695786 0 0 0 0 112.72122827430576 113.11550129423267 0 113.11550129423267 -66.433245443244232 0 0 0 0 -413.21675776288612 251.23158135504491 0 251.23158135504491 245.35009232137236 0 0 0 0 14.609977892949246 269.66634269163478 0 269.66634269163478 -173.9173744546024 0 0 0 0 556.38651317817857 4.7568871987787134 0 4.7568871987787134 -141.60893478854268 0 0 0 0 -163.47475259203929 156.93720047840907 0 156.93720047840907 -72.415236196044134 0 0 0 0 -4.1332214528628128 9.0094127741203067 0 9.0094127741203067 -9.9414424281903848 0 0 0 0 14.821100853398093 -55.157346844629501 0 -55.157346844629501 -110.27178213995649 0 0 0 0 0.94340006259133702 19.131116736138694 0 19.131116736138694 -9.5105501400746562 0 0 0 0 70.025630696443841 -27.037838871801796 0 -27.037838871801796 -274.82721809571376 0 0 0 0 -0.70222291263053194 84.829734707076568 0 84.829734707076568 -273.39273414506442 0 0 0 0 -50.530878779594786 160.64622411914752 0 160.64622411914752 -190.26036323937296 0 0 0 0 -48.503574024129193 71.163779685666668 0 71.163779685666668 -72.092415139850345 0 0 0 0 -1.5906803799251747 39.407977848235632 0 39.407977848235632 -50.484033557078078 0 0 0 0 8.4048333765694849 36.675257018324658 0 36.675257018324658 -55.594192443137501 0 0 0 0 -26.052796449774178 34.712063960683736 0 34.712063960683736 -37.94193026292487 0 0 0 0 -65.533260745403823 111.12973395462905 0 111.12973395462905 -39.481324189335282 0 0 0 0 5.6739108636661513 29.195099051568491 0 29.195099051568491 -38.771908554529134 0 0 0 0 -29.810045332254958 66.269213958890759 0 66.269213958890759 -82.486207370704506 0 0 0 0 -2.9457953025121242 47.215556149334589 0 47.215556149334589 -142.55412402579532 0 0 0 0 -8.9201165241843228 33.171774304961801 0 33.171774304961801 -27.409309557984912 0 0 0 0 -7.4181469680406735 39.615974792573979 0 39.615974792573979 -33.668721281486796 0 0 0 0 -17.566978317845837 42.947474393467019 0 42.947474393467019 -46.456401279028398 0 0 0 0 15.646453420020407 110.37598296313081 0 110.37598296313081 -71.947199712507427 0 0 0 0 -56.370739698439138 -84.019638474790554 0 -84.019638474790554 -392.63679300170043 0 0 0 0 -25.198658162522548 26.329115603735602 0 26.329115603735602 29.409981200481241 0 0 0 0 20.289084343996365 105.50835719849056 0 105.50835719849056 -269.92751810585469 0 0 0 0 -50.062618069467135 85.132889803084254 0 85.132889803084254 -484.11803091442926 0 0 0 0 592.17547809579992 155.51529510057298 0 155.51529510057298 -1.530908217857359 0 0 0 0 -40.106448809205403 72.269292239092337 0 72.269292239092337 -92.22696674860498 0 0 0 0 -97.68894704777631 61.527288408338791 0 61.527288408338791 -38.741308177297469 0 0 0 0 -256.34951514116256 144.90213395655155 0 144.90213395655155 174.21766167267197 0 0 0 0 11.287336839299087 16.763506577105332 0 16.763506577105332 -21.165852648889867 0 0 0 0 91.520100192069435 203.84366341868696 0 203.84366341868696 29.796357781783151 0 0 0 0 -55.247125029942254 -25.539114131766837 0 -25.539114131766837 -447.52453014250204 0 0 0 0 105.07345612098288 195.53029413750846 0 195.53029413750846 129.10617154588454 0 0 0 0 481.81447917406331 38.065120341678266 0 38.065120341678266 -963.35342951403436 0 0 0 0 48.707220472481282 50.375207731106428 0 50.375207731106428 -172.71827791406355 0 0 0 0 -37.540565846103561 110.09397834321811 0 110.09397834321811 16.351016881776737 0 0 0 0 -13.923501755867619 169.09057460037002 0 169.09057460037002 -101.47363658231916 0 0 0 0 39.561298159387661 199.57841881138665 0 199.57841881138665 -176.58621049776411 0 0 0 0 65.043078474380309 216.94203957868012 0 216.94203957868012 -421.54229070484325 0 0 0 0 -38.455357285187347 175.74818776208849 0 175.74818776208849 -232.11342752253404 0 0 0 0 -12.918923720750172 145.72275056556373 0 145.72275056556373 -196.86540499172406 0 0 0 0 -71.728744653693866 142.51088331118808 0 142.51088331118808 -143.80065839365125 0 0 0 0 -12.848859743971843 144.57151155494648 0 144.57151155494648 -178.16596310319437 0 0 0 0 4.9616630304954015 117.10003512378171 0 117.10003512378171 -176.76230929083135 0 0 0 0 15.868903043051546 26.889472470605625 0 26.889472470605625 -22.301506869120999 0 0 0 0 -18.291876044015225 88.67492496846171 0 88.67492496846171 -112.69106085914245 0 0 0 0 25.84122500884601 21.237520042141057 0 21.237520042141057 -39.581901721619573 0 0 0 0 -14.863413745624712 61.51613951676336 0 61.51613951676336 -63.384419163945495 0 0 0 0 -15.15194028469881 48.199089362958958 0 48.199089362958958 -22.741939814911362 0 0 0 0 -6.7186164781305706 86.659271666793984 0 86.659271666793984 -127.28681285804851 0 0 0 0 9.5297685626102862 33.129103156915392 0 33.129103156915392 -50.816888795516064 0 0 0 0 23.098810669471277 65.432379581001442 0 65.432379581001442 -81.334507457817381 0 0 0 0 19.80456863575877 50.886023898416312 0 50.886023898416312 -92.00585527102551 0 0 0 0 -32.151635369868018 69.731793812898104 0 69.731793812898104 -85.661357238073833 0 0 0 0 46.938209652488098 11.197513976251713 0 11.197513976251713 -44.371668678550563 0 0 0 0 -12.442763807601295 21.127632426214404 0 21.127632426214404 -54.686668005932006 0 0 0 0 36.063992931914981 91.070372829137341 0 91.070372829137341 -139.40149867377477 0 0 0 0 2.9595886776223779 53.298987172227953 0 53.298987172227953 -51.37624810449779 0 0 0 0 -52.350945289784079 82.537768855767496 0 82.537768855767496 17.797054365318353 0 0 0 0 -100.88398788310587 78.012705281827948 0 78.012705281827948 -182.32975422419258 0 0 0 0 -82.387713918693407 103.08779188502103 0 103.08779188502103 -103.36708574643853 0 0 0 0 33.903575808256619 22.976729221305874 0 22.976729221305874 -37.917184733106438 0 0 0 0 -55.038930917857215 -15.670312434245716 0 -15.670312434245716 -105.09429250044923 0 0 0 0 63.019346382992808 70.955958189268131 0 70.955958189268131 -147.29633278686379 0 0 0 0 -5.4173553515072399 10.727717896033056 0 10.727717896033056 -15.967752416203197 0 0 0 0 -50.261002548941178 112.20050055684624 0 112.20050055684624 -110.88863302060054 0 0 0 0 13.423564659136332 14.639908614909473 0 14.639908614909473 -30.969467624475953 0 0 0 0 -17.44601946123322 30.085210986790287 0 30.085210986790287 -43.189878278747472 0 0 0 0 13.543505137204193 0.11939574216376059 0 0.11939574216376059 -18.365888586064102 0 0 0 0 50.08277393540088 -0.3107443178448932 0 -0.3107443178448932 -49.719082110076741 0 0 0 0 18.983340575582531 -13.695721601335123 0 -13.695721601335123 -2.8805421639974043 0 0 0 0 -213.69165635301033 204.8589730202948 0 204.8589730202948 -144.55306907734484 0 0 0 0 78.49291459800952 64.178882379433162 0 64.178882379433162 -310.09902824297023 0 0 0 0 40.7438262953346 39.946950482194922 0 39.946950482194922 -93.430356232863161 0 0 0 0 -72.817552508146036 96.188859381461953 0 96.188859381461953 -115.75103538083204 0 0 0 0 54.758505593232712 25.78454155376707 0 25.78454155376707 -37.391266689116833 0 0 0 0 126.71095515410707 217.21743424148008 0 217.21743424148008 -96.254360811166407 0 0 0 0 49.519464157696348 37.761044299269997 0 37.761044299269997 69.979317371209618 0 0 0 0 49.251880086230813 -33.683956817973012 0 -33.683956817973012 -75.613189308104666 0 0 0 0 65.349081235645372 41.642974035376369 0 41.642974035376369 -197.2322686887419 0 0 0 0 37.567356670449954 78.92589155580572 0 78.92589155580572 -86.15985718442289 0 0 0 0 -125.87778087142215 161.11741026765594 0 161.11741026765594 -42.672440934282349 0 0 0 0 47.552801388432272 14.900036222035851 0 14.900036222035851 -174.23754180157266 0 0 0 0 3.9859404620282248 12.193826596012769 0 12.193826596012769 5.6266582546649744 0 0 0 0 66.108390586968198 78.22703092090228 0 78.22703092090228 -345.19325986156036 0 0 0 0 -33.780761658068513 191.07125565050592 0 191.07125565050592 -346.25366310765821 0 0 0 0 -58.318126178724924 117.7561601931302 0 117.7561601931302 188.5973594259558 0 0 0 0 -142.24687275424367 119.154722736439 0 119.154722736439 -499.81420171734135 0 0 0 0 -0.67941976910231006 -0.53277609640567647 0 -0.53277609640567647 0.073950338247721348 0 0 0 0 39.750790625694208 250.4211465083863 0 250.4211465083863 -474.82841876095335 0 0 0 0 -51.609906052646693 203.3209082495232 0 203.3209082495232 12.235688503191341 0 0 0 0 9.6118543042102829 107.87422752691782 0 107.87422752691782 -102.88442542316443 0 0 0 0 59.5418053517933 108.84081859150865 0 108.84081859150865 -171.44410582380078 0 0 0 0 -5.6850888804183342 187.51762673682606 0 187.51762673682606 -187.91224769854489 0 0 0 0 39.592901106923819 126.44862785139412 0 126.44862785139412 -179.87544846592664 0 0 0 0 67.040966633125208 139.4056725228802 0 139.4056725228802 -226.24717455724749 0 0 0 0 8.8589939984231023 145.69095280411148 0 145.69095280411148 -140.45915068404429 0 0 0 0 12.740695735876216 52.980589048525871 0 52.980589048525871 -63.001338776273769 0 0 0 0 3.0373237373160009 47.594530897791344 0 47.594530897791344 -42.696217123887081 0 0 0 0 -16.587658752134303 87.189992798819731 0 87.189992798819731 -111.50410471747546 0 0 0 0 -6.2145267156374757 47.92370089135963 0 47.92370089135963 -19.649469763209289 0 0 0 0 23.926394652502495 55.122084861485746 0 55.122084861485746 -14.733960608933558 0 0 0 0 -15.662606683734339 50.057234758080085 0 50.057234758080085 25.888561149183488 0 0 0 0 -3.3575355108769145 30.804367608734537 0 30.804367608734537 -74.083738532681309 0 0 0 0 -15.703794504326652 49.126428543604561 0 49.126428543604561 -96.003569539694581 0 0 0 0 -633.75798219590069 1037.7158488521122 0 1037.7158488521122 -982.97237903816858 0 0 0 0 -630.74091477732873 1122.3994863891057 0 1122.3994863891057 -1164.9866259757791 0 0 0 0 -568.82140083654303 1271.6946802749135 0 1271.6946802749135 -1545.4545941982869 0 0 0 0 -421.52991836692672 928.96758663970741 0 928.96758663970741 -1373.8002363858905 0 0 0 0 -703.6866974234581 1336.4181398531891 0 1336.4181398531891 -1314.510403390912 0 0 0 0 -795.98030011099763 1425.1245321285569 0 1425.1245321285569 -1398.8587570490599 0 0 0 0 -907.7451451952511 1199.0773876151761 0 1199.0773876151761 -1174.4478174332057 0 0 0 0 -679.48724496812792 941.88701503976699 0 941.88701503976699 -1129.2278062102159 0 0 0 0 -787.01575198324281 1019.2290735271381 0 1019.2290735271381 -1067.4585425606474 0 0 0 0 35.941418936255047 0.65605860798444837 0 0.65605860798444837 -47.794763743988383 0 0 0 0 -687.16167908080388 985.12440717380923 0 985.12440717380923 -1372.8167252927378 0 0 0 0 7.6231833133869031 14.672747913673891 0 14.672747913673891 -10.240489634254271 0 0 0 0 1.9853762453858508 76.041687971327519 0 76.041687971327519 25.884323057607617 0 0 0 0 22.695262237568386 13.302172820602209 0 13.302172820602209 71.137458159944799 0 0 0 0 14.156194075960229 30.558872327927844 0 30.558872327927844 4.493523156815769 0 0 0 0 -601.73117672212538 481.7775993938285 0 481.7775993938285 -346.03006541047307 0 0 0 0 -206.27826108442969 458.48979616990982 0 458.48979616990982 -1179.3597859873935 0 0 0 0 -612.08912234334275 774.14087407323314 0 774.14087407323314 -868.03522944219003 0 0 0 0 2.3911496420057574 9.2491143093740433 0 9.2491143093740433 -3.5851185890919339 0 0 0 0 30.005695625324734 44.138233004690846 0 44.138233004690846 -115.67941637749345 0 0 0 0 43.941798446991015 46.697329630747845 0 46.697329630747845 -474.16048896407301 0 0 0 0 -46.151946258018143 135.12644455861391 0 135.12644455861391 -132.31636475311461 0 0 0 0 46.021184175217059 65.484755870262234 0 65.484755870262234 -106.11541401844534 0 0 0 0 36.879386859131046 6.1640466637400095 0 6.1640466637400095 -230.57257402214964 0 0 0 0 27.766148095586686 42.244571044906479 0 42.244571044906479 -104.31948863488651 0 0 0 0 -9.2959169272216968 71.841004960397186 0 71.841004960397186 -105.14039728591882 0 0 0 0 37.29471966062988 -1.6474646515800089 0 -1.6474646515800089 -54.067997999351114 0 0 0 0 -968.9517889675335 325.66014523710737 0 325.66014523710737 -54.321731337670826 0 0 0 0 -72.917650199349737 -319.93439226398255 0 -319.93439226398255 -70.910478012329108 0 0 0 0 316.14765507733682 32.286910700547082 0 32.286910700547082 -585.01865314013776 0 0 0 0 -1467.334267283295 237.06186767161489 0 237.06186767161489 952.5158859846797 0 0 0 0 287.31375214667059 204.40222158040797 0 204.40222158040797 -8.329347997876539 0 0 0 0 -54.127890208538474 26.783365040216943 0 26.783365040216943 -2.2600643991465841 0 0 0 0 52.897868393058616 21.073099378460199 0 21.073099378460199 -28.412030299053242 0 0 0 0 -17.33146759509691 848.84430898568962 0 848.84430898568962 -1237.4001267775629 0 0 0 0 -1150.8800186382587 2380.7847120453598 0 2380.7847120453598 -3024.0966901558977 0 0 0 0 -153.9620349041943 649.94303307538655 0 649.94303307538655 -477.26457898101853 0 0 0 0 -997.87101582871401 454.96046321060294 0 454.96046321060294 -451.49149855633095 0 0 0 0 -513.28291802661261 609.90952990033747 0 609.90952990033747 -1152.2545613790808 0 0 0 0 -3644.97776639738 2633.0818731143045 0 2633.0818731143045 -1030.9780443890572 0 0 0 0 -2860.3017135912087 3739.6580887183381 0 3739.6580887183381 -2826.0444768902789 0 0 0 0 5.0138441892529215 8.576306837756448 0 8.576306837756448 -20.616754734617757 0 0 0 0 0.00058894912945106626 28.378097479790995 0 28.378097479790995 -62.630411955000454 0 0 0 0 -2186.5843381850791 2688.7764518437612 0 2688.7764518437612 -3369.8962778588175 0 0 0 0 -4183.5574467184197 1665.9066313970452 0 1665.9066313970452 -1194.5629850309997 0 0 0 0 11.920533803529281 9.7905493868988174 0 9.7905493868988174 -35.295220176343292 0 0 0 0 -1702.3978075261839 1210.8551313654189 0 1210.8551313654189 -1319.5833018113035 0 0 0 0 -35.04291333835863 78.38478173531621 0 78.38478173531621 -100.51290144023005 0 0 0 0 -0.11434255389031023 28.407324008090654 0 28.407324008090654 -62.633616465648402 0 0 0 0 -347.5555390677473 1277.7249359265188 0 1277.7249359265188 -2365.1941026457407 0 0 0 0 -463.15627063525608 838.11645350637264 0 838.11645350637264 -1420.477261734457 0 0 0 0 -526.26248941986705 1010.7623566390685 0 1010.7623566390685 -1417.3471404136872 0 0 0 0 -169.09953587625932 713.58123822682091 0 713.58123822682091 -1537.5574000215711 0 0 0 0 -211.96137821653974 761.71246406255341 0 761.71246406255341 -1901.0202264415857 0 0 0 0 -855.65755352395354 2309.3912890900847 0 2309.3912890900847 -5540.7145633951186 0 0 0 0 -23.201614974917675 2.0811786773041661 0 2.0811786773041661 -2.435213325999479 0 0 0 0 -2315.6096336314804 1425.4857588742107 0 1425.4857588742107 -759.44166975075859 0 0 0 0 -1239.2548994157696 2062.6427648033168 0 2062.6427648033168 -1956.9064799021635 0 0 0 0 -730.55706741227186 1513.9151102421511 0 1513.9151102421511 -1365.3449166163336 0 0 0 0 -1518.2058373687323 1477.8009899236858 0 1477.8009899236858 -1016.8964096019408 0 0 0 0 -927.13795176080021 1580.9554152417986 0 1580.9554152417986 -1369.0471459642577 0 0 0 0 -1230.1312799697916 879.45127864417645 0 879.45127864417645 -559.04922937784431 0 0 0 0 -962.44272349000676 826.13995404391244 0 826.13995404391244 -677.42429407594682 0 0 0 0 -1137.6084641267371 882.84542501553915 0 882.84542501553915 -449.87145331599459 0 0 0 0 -759.70696661630063 977.03028257697588 0 977.03028257697588 -799.86078460505269 0 0 0 0 -107.94741598406108 107.43266005026999 0 107.43266005026999 -103.85926500201026 0 0 0 0 -163.92791592581489 166.35817221100569 0 166.35817221100569 -139.55581059759061 0 0 0 0 16.635315363535028 13.688280911356458 0 13.688280911356458 -35.586117072302002 0 0 0 0 -0.042968683221261017 133.6669041132518 0 133.6669041132518 -181.93518559544464 0 0 0 0 -104.79594719267334 201.21505434095161 0 201.21505434095161 -219.63082714089251 0 0 0 0 -0.094858118303818628 215.1446888564933 0 215.1446888564933 -248.5888656099487 0 0 0 0 -127.14651777498511 158.63088546894778 0 158.63088546894778 -154.47824934170058 0 0 0 0 -142.89111605198559 256.30262859958316 0 256.30262859958316 -228.219518015223 0 0 0 0 -144.39512874866159 245.9848680965647 0 245.9848680965647 -213.92118766379281 0 0 0 0 19.611323320791115 18.012487818563272 0 18.012487818563272 -28.407265046993928 0 0 0 0 -348.8115015761141 276.31488450220058 0 276.31488450220058 -175.26914338866482 0 0 0 0 -515.77046730960137 301.28935003006336 0 301.28935003006336 -502.36169775799272 0 0 0 0 -644.01314540141902 367.78851115680845 0 367.78851115680845 -221.30139609774778 0 0 0 0 505.13877799887268 -45.074171489406581 0 -45.074171489406581 -723.39819179995902 0 0 0 0 -1.0153609231515883 6.4999819133907977 0 6.4999819133907977 -10.479003699879456 0 0 0 0 -1155.2081598949735 1321.4596968281367 0 1321.4596968281367 -1150.2886153258514 0 0 0 0 -151.70762542913872 728.85123357899101 0 728.85123357899101 -1538.7058293111259 0 0 0 0 -1055.6152644822432 1153.3063871511004 0 1153.3063871511004 -2005.6174046691849 0 0 0 0 -1692.4964817459841 867.07615870991867 0 867.07615870991867 -550.31180307116301 0 0 0 0 -2259.7056009066559 1457.6998593520379 0 1457.6998593520379 -1160.4843159026859 0 0 0 0 -871.92882930306951 891.73097976152712 0 891.73097976152712 -1760.9480016470843 0 0 0 0 -867.30817700520856 832.39431465091184 0 832.39431465091184 -1585.3710240508153 0 0 0 0 -675.58169634961814 826.19511516613784 0 826.19511516613784 -2131.6516137062426 0 0 0 0 -958.11441521541565 598.33962293961304 0 598.33962293961304 -1190.0909499078396 0 0 0 0 -729.3626474821649 910.80772195399913 0 910.80772195399913 -1774.2706113243257 0 0 0 0 -2022.5170144271033 2356.8836513923729 0 2356.8836513923729 -1849.762128075432 0 0 0 0 -672.33651310272398 1050.443558039522 0 1050.443558039522 -2593.9573830024383 0 0 0 0 -1070.8637895138345 981.05952136045744 0 981.05952136045744 -1693.8557138334727 0 0 0 0 -869.15003034306687 1028.6830729200635 0 1028.6830729200635 -1863.7252664480329 0 0 0 0 -869.14464184976532 1026.8273061595937 0 1026.8273061595937 -1704.4543211684031 0 0 0 0 -1080.7062907578074 1138.6222548309252 0 1138.6222548309252 -1227.002348267968 0 0 0 0 -1042.6184980910912 959.51890494321196 0 959.51890494321196 -1622.2805330442752 0 0 0 0 -1027.1115802413551 1235.2891104721966 0 1235.2891104721966 -1562.7897171850091 0 0 0 0 -1012.3743773830647 1282.19589849986 0 1282.19589849986 -1659.9626221121125 0 0 0 0 27.678246368118437 19.345833464290479 0 19.345833464290479 -30.074980288558535 0 0 0 0 -0.32322705397382379 48.100837153586326 0 48.100837153586326 -61.46816311123257 0 0 0 0 37.814769800850627 43.528485232718594 0 43.528485232718594 -77.854948634863831 0 0 0 0 -2.3930652553972322 62.991979368191096 0 62.991979368191096 -94.940429376669272 0 0 0 0 -935.31540230145038 1002.8358281016772 0 1002.8358281016772 -1200.0310368848659 0 0 0 0 34.548729432948107 3.5931584570522546 0 3.5931584570522546 -30.596224520074685 0 0 0 0 -939.08317666866424 1117.8278519222745 0 1117.8278519222745 -1280.3123530128432 0 0 0 0 -1058.2618055406201 1180.600844897308 0 1180.600844897308 -1144.4926701408567 0 0 0 0 -1028.6401965341356 1368.8002832427337 0 1368.8002832427337 -1173.6605402375062 0 0 0 0 -858.60531712936063 1414.0744069173934 0 1414.0744069173934 -1239.5277006837132 0 0 0 0 -882.93213495719101 1341.7384865042231 0 1341.7384865042231 -1271.0676400509328 0 0 0 0 -1117.6707917519379 1160.6938917456828 0 1160.6938917456828 -1289.4153883584549 0 0 0 0 -1327.8440551501699 856.70100183113391 0 856.70100183113391 -1572.8800532494024 0 0 0 0 -258.99075256903598 145.13184898359759 0 145.13184898359759 -41.282913185103098 0 0 0 0 -487.15516935198139 -136.93126022625074 0 -136.93126022625074 242.37967922047028 0 0 0 0 503.32097667830203 301.75235193740627 0 301.75235193740627 169.68953720850914 0 0 0 0 -238.840819446159 28.490259702355615 0 28.490259702355615 582.88499727617454 0 0 0 0 -312.06258911220357 89.541913894874597 0 89.541913894874597 240.3197556933992 0 0 0 0 -157.37406389708485 80.156674901244514 0 80.156674901244514 -8.3075066845340189 0 0 0 0 -664.3350806728522 74.020493680198342 0 74.020493680198342 220.23239538173402 0 0 0 0 -188.53692817659794 -76.546112279941553 0 -76.546112279941553 79.690065908893303 0 0 0 0 26.1972186125227 149.2157703033304 0 149.2157703033304 194.72323001936195 0 0 0 0 125.64743905769865 158.78266414587415 0 158.78266414587415 292.25228393992438 0 0 0 0 95.44192270032363 179.89125810427504 0 179.89125810427504 108.53881487302351 0 0 0 0 -53.205396583852334 13.63033402433647 0 13.63033402433647 41.512536461050928 0 0 0 0 235.02436660525564 236.09135409954615 0 236.09135409954615 231.42032543513051 0 0 0 0 60.716318268409566 29.492257364913371 0 29.492257364913371 -33.828368761609283 0 0 0 0 220.52185814427503 245.65281086675532 0 245.65281086675532 262.32669927374809 0 0 0 0 37.328104814019753 83.179799499572255 0 83.179799499572255 245.2093233391679 0 0 0 0 212.15077945609664 48.19930304648733 0 48.19930304648733 210.4131050858341 0 0 0 0 19.445941914491414 336.8407540770786 0 336.8407540770786 -36.283920050031156 0 0 0 0 -179.86106093091075 -21.692373387493717 0 -21.692373387493717 232.59377836977364 0 0 0 0 -242.46422107039143 128.00512299531511 0 128.00512299531511 -272.09661373756535 0 0 0 0 52.442225576813982 153.63530730604722 0 153.63530730604722 188.81600953238961 0 0 0 0 -1223.9694037241607 475.99394271111532 0 475.99394271111532 928.10063739655743 0 0 0 0 885.44833283951084 -52.252135617214662 0 -52.252135617214662 333.60447495396147 0 0 0 0 756.80065579931033 794.00565001818359 0 794.00565001818359 -380.38381058079904 0 0 0 0 -37.62356418258787 809.54323552046662 0 809.54323552046662 1329.5175056973803 0 0 0 0 535.25421656456638 358.16280946449297 0 358.16280946449297 -610.03671429921997 0 0 0 0 11.717594970934229 7.8063025418397132 0 7.8063025418397132 5.8789499092887922 0 0 0 0 -23.215024487204573 261.33464257886772 0 261.33464257886772 1039.0386750056605 0 0 0 0 -7.156397615406604 534.68594334928275 0 534.68594334928275 2114.3430554861534 0 0 0 0 926.2375395496681 975.24616615001742 0 975.24616615001742 821.72343196458678 0 0 0 0 95.303733933728836 185.51444467778038 0 185.51444467778038 393.83039615209054 0 0 0 0 -44.425857286478276 51.662740750671219 0 51.662740750671219 26.365814209896598 0 0 0 0 0.012845718396150119 16.166933206146155 0 16.166933206146155 -6.232717655934394 0 0 0 0 33.038466999276466 25.011996401320449 0 25.011996401320449 2.3808106267102076 0 0 0 0 124.79759026435931 260.45913215330984 0 260.45913215330984 440.36175313535023 0 0 0 0 54.523945596039994 243.81247754200194 0 243.81247754200194 478.89311089219336 0 0 0 0 132.67112510843981 387.49092281554749 0 387.49092281554749 715.20400110891933 0 0 0 0 208.978488161114 282.34001542815486 0 282.34001542815486 333.81634821583066 0 0 0 0 435.40927852525419 491.75222907478928 0 491.75222907478928 510.70022492992939 0 0 0 0 142.87730104221919 559.373160445959 0 559.373160445959 672.64490927635052 0 0 0 0 103.77898049082796 533.80544355404891 0 533.80544355404891 568.1444912510633 0 0 0 0 91.135814215202117 498.09399708412457 0 498.09399708412457 710.43374837653982 0 0 0 0 85.150703524665005 352.84416577626689 0 352.84416577626689 411.46325610205895 0 0 0 0 78.173096152517246 450.36263045650048 0 450.36263045650048 590.74431346964866 0 0 0 0 154.44138270793337 472.10349983429478 0 472.10349983429478 638.74919190988112 0 0 0 0 58.607293416651373 441.41913547281365 0 441.41913547281365 728.25610615632104 0 0 0 0 211.62826315975872 621.52865428465793 0 621.52865428465793 808.43107796229742 0 0 0 0 252.35074095746677 361.80988597775649 0 361.80988597775649 579.3730207729659 0 0 0 0 376.22535002663426 540.62340890013365 0 540.62340890013365 435.43724981993 0 0 0 0 164.15089692101174 649.9697305063637 0 649.9697305063637 781.05763711859436 0 0 0 0 161.31129446360137 412.53369476470107 0 412.53369476470107 438.56319263658963 0 0 0 0 184.97731617118734 367.52821480211969 0 367.52821480211969 286.35722527226608 0 0 0 0 125.21248530975572 341.43093008178039 0 341.43093008178039 308.30800165691835 0 0 0 0 187.94981583826302 102.70498240075904 0 102.70498240075904 -24.042978539324395 0 0 0 0 445.94973197349827 344.847769273827 0 344.847769273827 113.14598231542914 0 0 0 0 -2.4734394177864942 -1.5718620747029153 0 -1.5718620747029153 2.7183901043809726 0 0 0 0 24.543387461297243 -17.782005706765631 0 -17.782005706765631 -6.3220966951594164 0 0 0 0 -76.164061702977051 87.802416246542634 0 87.802416246542634 -3.1434516601220821 0 0 0 0 5.4300500144890975 13.292411914451804 0 13.292411914451804 -50.010891160214669 0 0 0 0 -53.929316663517966 45.339799937541102 0 45.339799937541102 76.376169907700387 0 0 0 0 -49.323201902763685 166.77343588724398 0 166.77343588724398 180.44502105566062 0 0 0 0 105.53972071197495 209.6758929630123 0 209.6758929630123 140.47724297079549 0 0 0 0 -943.09661048056478 958.13781187759605 0 958.13781187759605 -1481.9777119894397 0 0 0 0 -785.40307427370863 60.654971857904002 0 60.654971857904002 335.31798075781808 0 0 0 0 -402.27509776420675 72.714645551644935 0 72.714645551644935 117.89820669356004 0 0 0 0 -49.222905234244536 62.428917946486763 0 62.428917946486763 79.884676113393652 0 0 0 0 -526.51025437801218 -26.534165831360951 0 -26.534165831360951 315.70579732224587 0 0 0 0 -41.708174542264004 49.771738960108621 0 49.771738960108621 -1.508333509392223 0 0 0 0 130.31505088512222 -100.33921197614472 0 -100.33921197614472 163.15715352997267 0 0 0 0 -41.84818162984191 75.294591265706657 0 75.294591265706657 -7.2546107184365862 0 0 0 0 134.11712854688085 346.24894529656194 0 346.24894529656194 563.19149004055726 0 0 0 0 7.0374408995648992 221.47822555873586 0 221.47822555873586 697.77729301751606 0 0 0 0 25.949229945181287 73.911552179011778 0 73.911552179011778 229.02511052429691 0 0 0 0 55.292567641873575 332.12848071395547 0 332.12848071395547 435.05210132653156 0 0 0 0 -65.9408152588164 65.143697350159869 0 65.143697350159869 -17.210111240810249 0 0 0 0 110.71224356237872 194.78031358351291 0 194.78031358351291 37.770712515644846 0 0 0 0 -29.367148993944284 1031.1559437329379 0 1031.1559437329379 -1.4302938727805667 0 0 0 0 32.138817767004994 53.689893798879616 0 53.689893798879616 -7.1133986130499842 0 0 0 0 413.26513807652373 172.73893127407609 0 172.73893127407609 -1280.4716223281494 0 0 0 0 658.31300392872618 -100.20320445198922 0 -100.20320445198922 -1576.4546830601903 0 0 0 0 39.2309583325098 40.127657549489342 0 40.127657549489342 10.852833034126281 0 0 0 0 631.35425352255697 -660.48633745394045 0 -660.48633745394045 -2253.300801065725 0 0 0 0 -907.38721919941599 -84.206629286761199 0 -84.206629286761199 -522.8639955190738 0 0 0 0 -38.947008911679944 41.902307004468881 0 41.902307004468881 -27.298145038393436 0 0 0 0 424.11614163031345 711.81585381039349 0 711.81585381039349 -656.30139217116812 0 0 0 0 5.3813758907617739 597.29172880728083 0 597.29172880728083 -1145.960253824649 0 0 0 0 270.21455321113535 -66.398128367791287 0 -66.398128367791287 -182.50876492220414 0 0 0 0 -197.82119296992096 1041.104683274154 0 1041.104683274154 1175.2722651707063 0 0 0 0 296.55491519851148 -184.44342086654171 0 -184.44342086654171 -578.95270622571843 0 0 0 0 -366.52813022938972 907.07776037308622 0 907.07776037308622 -1721.2264372588988 0 0 0 0 -4.3368839240797197 15.266711343766744 0 15.266711343766744 -6.0948946934214723 0 0 0 0 -959.68693439595063 819.07136012614683 0 819.07136012614683 -801.59313658773317 0 0 0 0 -288.81525636141669 909.28752404134502 0 909.28752404134502 -1041.0597961946278 0 0 0 0 -153.2244202265174 -42.45593148067519 0 -42.45593148067519 -10.996385486509098 0 0 0 0 179.26122006344849 210.03298630817153 0 210.03298630817153 -848.77458006311826 0 0 0 0 -2179.4308588120475 1120.08044938288 0 1120.08044938288 -727.53436985128428 0 0 0 0 2136.8945386489795 125.08732886126018 0 125.08732886126018 -1567.801015398893 0 0 0 0 -1003.8264738699431 933.69470399105739 0 933.69470399105739 -793.04809263066045 0 0 0 0 -5.6821277180105341 10.484721962687313 0 10.484721962687313 3.7553117257784194 0 0 0 0 518.36286189770954 375.09758363152741 0 375.09758363152741 173.86492564338005 0 0 0 0 -8.5159977171283572 61.986316952320664 0 61.986316952320664 47.390327723898451 0 0 0 0 -25.465873456702735 54.018482615634611 0 54.018482615634611 -26.407116809331221 0 0 0 0 -21.371906245434275 99.064402369515733 0 99.064402369515733 -5.767544508436572 0 0 0 0 -666.16882674072076 1221.4432999886903 0 1221.4432999886903 -988.60946909158702 0 0 0 0 2.3055326092154562 48.17546398998482 0 48.17546398998482 67.782489490112198 0 0 0 0 -416.26633923885674 664.72431991215308 0 664.72431991215308 -528.98592412072321 0 0 0 0 -561.86637894952582 1321.5927511214868 0 1321.5927511214868 -1063.7522343159471 0 0 0 0 -749.80823487792804 963.46110235694505 0 963.46110235694505 388.14132913568392 0 0 0 0 -412.69181532201401 758.51424864435739 0 758.51424864435739 -195.91359731059129 0 0 0 0 -750.86113768177984 907.2823528258541 0 907.2823528258541 -461.95193056081189 0 0 0 0 26.190441776634131 17.235138881196434 0 17.235138881196434 -42.979209509539245 0 0 0 0 -184.12024578877026 212.13566189673293 0 212.13566189673293 -136.61994950132612 0 0 0 0 -178.33293460859568 -1070.6104304408168 0 -1070.6104304408168 794.33248007617658 0 0 0 0 -137.23958068668435 119.36359018422445 0 119.36359018422445 -96.581863383944437 0 0 0 0 -186.24985196292982 162.10021445951861 0 162.10021445951861 -91.709832923432259 0 0 0 0 -75.2973268398855 415.98183731639256 0 415.98183731639256 -158.09441741624505 0 0 0 0 -101.8870428695227 189.50628119495991 0 189.50628119495991 -183.82255720368266 0 0 0 0 -118.8004065226196 213.37172905948711 0 213.37172905948711 -195.06703947082065 0 0 0 0 -74.809395160453278 178.74925540010918 0 178.74925540010918 -182.21341555304389 0 0 0 0 -425.74998792486804 351.5758117064197 0 351.5758117064197 -210.64762323114064 0 0 0 0 -320.33055136578332 244.52987836450166 0 244.52987836450166 -199.81845134783589 0 0 0 0 -87.986547105145291 371.71324698604508 0 371.71324698604508 -360.0893673299388 0 0 0 0 22.92810391812236 82.267698551988133 0 82.267698551988133 -447.19983545030664 0 0 0 0 8.1937768850184725 56.708300965195257 0 56.708300965195257 -37.459074211551453 0 0 0 0 66.570577450260316 11.63923273123828 0 11.63923273123828 -121.59425931704527 0 0 0 0 -315.05954929989025 401.63060293083362 0 401.63060293083362 -384.18310775929785 0 0 0 0 -195.97766293109453 489.13348703342308 0 489.13348703342308 -654.84492773535112 0 0 0 0 -330.70324668686953 404.29669439800909 0 404.29669439800909 -236.75912614879053 0 0 0 0 -240.10404818376264 163.08186306465541 0 163.08186306465541 239.55958112142071 0 0 0 0 70.998003753778903 163.86981582498629 0 163.86981582498629 -100.54538981501264 0 0 0 0 -161.91710424161283 71.147238803279834 0 71.147238803279834 -95.83020958916795 0 0 0 0 -255.64784884692926 140.20167186340905 0 140.20167186340905 218.83669586853011 0 0 0 0 -54.67628234019503 54.579259217587605 0 54.579259217587605 -132.0869199952997 0 0 0 0 -182.49929115749546 203.22153884950649 0 203.22153884950649 -100.41168055626258 0 0 0 0 -85.822980381650268 256.86466088298494 0 256.86466088298494 -504.66675462117382 0 0 0 0 -19.538997009389277 241.46582562351296 0 241.46582562351296 89.069409262392583 0 0 0 0 -133.86978241686666 103.51669353321631 0 103.51669353321631 51.276860407630011 0 0 0 0 -216.0243247779872 208.8874238164808 0 208.8874238164808 237.37193830748811 0 0 0 0 -44.705985836221622 81.720942724392259 0 81.720942724392259 32.268843223486634 0 0 0 0 -16.345000702471825 32.634732618301754 0 32.634732618301754 33.902774355099517 0 0 0 0 100.56894496820757 189.38937484645589 0 189.38937484645589 309.40940269787001 0 0 0 0 -106.68634648488728 106.676781664999 0 106.676781664999 49.856327598414282 0 0 0 0 -94.548416691031861 -15.780813908358976 0 -15.780813908358976 69.856390451086511 0 0 0 0 -179.60072521513212 228.90474448703389 0 228.90474448703389 179.32088119285618 0 0 0 0 5.4599122540095379 258.81623890880115 0 258.81623890880115 91.780333761460398 0 0 0 0 -761.76690589284408 237.63579181971727 0 237.63579181971727 565.25927953887731 0 0 0 0 -57.153502211427956 197.03455008733005 0 197.03455008733005 87.868564355774708 0 0 0 0 -23.705941175436777 129.9258688318281 0 129.9258688318281 34.2918780050273 0 0 0 0 -226.08140557428123 320.1779142450323 0 320.1779142450323 -312.17286636108111 0 0 0 0 -24.736552687973017 115.01008213304885 0 115.01008213304885 295.01035953847531 0 0 0 0 -217.38537173419536 201.0675557985669 0 201.0675557985669 375.54328108107438 0 0 0 0 -338.26477596005134 458.29276531828327 0 458.29276531828327 -13.851037080137758 0 0 0 0 -24.579259925806241 75.261723330248188 0 75.261723330248188 48.233402890929511 0 0 0 0 -19.019611093504551 42.281309199331318 0 42.281309199331318 83.488476654407279 0 0 0 0 -163.26022534276086 31.960948488206867 0 31.960948488206867 96.239100211119194 0 0 0 0 -302.12254341809239 120.43169820240291 0 120.43169820240291 169.68117281090963 0 0 0 0 -294.67629851824677 0.2705713619980088 0 0.2705713619980088 24.794494197416498 0 0 0 0 -137.77801103933885 45.628065988991324 0 45.628065988991324 87.636192602059651 0 0 0 0 -279.32492554666533 8.4166000800905749 0 8.4166000800905749 22.119330493471352 0 0 0 0 -278.22428807667166 66.290361427389144 0 66.290361427389144 10.852715258559329 0 0 0 0 -15.971546561795215 4.9360570668494308 0 4.9360570668494308 -0.56747197714400954 0 0 0 0 -388.59124870507367 129.67519373942196 0 129.67519373942196 17.169474246897153 0 0 0 0 -367.36328588745528 127.49986494424957 0 127.49986494424957 -3.934368797940806 0 0 0 0 -471.84072292024575 275.53563816112 0 275.53563816112 -144.6687376377522 0 0 0 0 -425.39498538059706 8.4826473617868032 0 8.4826473617868032 12.204504461900797 0 0 0 0 -5.1926131888219373 -6.6434300254035037 0 -6.6434300254035037 5.846115425262596 0 0 0 0 -356.46197961526195 164.78601459659149 0 164.78601459659149 -92.800256790927961 0 0 0 0 -345.84808657420945 119.88500532114995 0 119.88500532114995 69.05593385460088 0 0 0 0 -430.30092776759739 73.662567872338514 0 73.662567872338514 38.861917260233895 0 0 0 0 85.403402377211023 129.81814337067044 0 129.81814337067044 101.9463937185501 0 0 0 0 6.6488860163008212 34.197169664435933 0 34.197169664435933 128.40294530117535 0 0 0 0 116.93574614074896 269.0375230092468 0 269.0375230092468 231.82041128766696 0 0 0 0 142.78755976037792 190.69863213510689 0 190.69863213510689 109.28345140039892 0 0 0 0 -57.285495397852799 21.787172010166742 0 21.787172010166742 49.080280339938611 0 0 0 0 188.47616717664641 235.45950500899926 0 235.45950500899926 233.60612477065297 0 0 0 0 -62.519177893962478 138.51324551107245 0 138.51324551107245 211.26208616959048 0 0 0 0 -9.7911353934535299 -6.6085704627866306 0 -6.6085704627866306 2.8369292487693656 0 0 0 0 24.586777490659387 182.22228668003112 0 182.22228668003112 53.703588434551314 0 0 0 0 24.798542298580287 161.34396419631958 0 161.34396419631958 449.09096254550241 0 0 0 0 4.0012788608582923 169.37991717690602 0 169.37991717690602 501.15358762541291 0 0 0 0 5.918605764360052 21.702821554607738 0 21.702821554607738 21.727640471780333 0 0 0 0 5.6872516791190719 123.51779680974869 0 123.51779680974869 469.25520768735441 0 0 0 0 -51.007285358480289 29.180048553501443 0 29.180048553501443 216.39597166813169 0 0 0 0 17.160295489331475 183.0978875894798 0 183.0978875894798 477.28155029394838 0 0 0 0 10.512818222900933 75.809187444974214 0 75.809187444974214 497.67547306547931 0 0 0 0 -119.09663698698569 -310.06597481447329 0 -310.06597481447329 -481.81175464641365 0 0 0 0 964.97068365352607 -0.45826737119352856 0 -0.45826737119352856 -786.28175239499978 0 0 0 0 732.78816197716515 386.63010850016815 0 386.63010850016815 -455.73455012950149 0 0 0 0 76.312616842624266 261.14973249897275 0 261.14973249897275 -91.907133766657125 0 0 0 0 252.19472699199105 413.48348914544238 0 413.48348914544238 -175.22408491133544 0 0 0 0 82.521475478308275 247.03254032944113 0 247.03254032944113 -305.01088492531414 0 0 0 0 1.2898042075976264 274.97167514348075 0 274.97167514348075 -305.17563909737027 0 0 0 0 116.08476863388205 193.30450523811078 0 193.30450523811078 -267.58085177913199 0 0 0 0 112.57375554448936 139.85267667452942 0 139.85267667452942 -254.31058929183382 0 0 0 0 44.15663896346814 156.71494714982146 0 156.71494714982146 -211.83084451947889 0 0 0 0 22.647231021299376 113.82096403205287 0 113.82096403205287 -257.23308565766229 0 0 0 0 33.274913454224588 195.95041674892491 0 195.95041674892491 -250.62832606867505 0 0 0 0 13.782285914552631 107.55663410053876 0 107.55663410053876 -155.62112940831503 0 0 0 0 213.30294522118129 -16.24694013396828 0 -16.24694013396828 -223.251718846107 0 0 0 0 178.76489611706347 107.34651620333034 0 107.34651620333034 -453.10664447501955 0 0 0 0 -138.98249601890711 178.01378139934411 0 178.01378139934411 -74.527744838441777 0 0 0 0 -1680.4065694957171 608.53790246729 0 608.53790246729 -90.860996676203285 0 0 0 0 -355.51658097550535 -734.69064835695679 0 -734.69064835695679 -569.46418757388346 0 0 0 0 -2559.3274066835293 87.640335000853156 0 87.640335000853156 -388.025545604125 0 0 0 0 -0.7173435291693977 178.40858759516075 0 178.40858759516075 44.399612011137151 0 0 0 0 0.29082740280166774 -1.4877206078869847 0 -1.4877206078869847 -17.579889006248717 0 0 0 0 425.93866418507241 -492.74342856995804 0 -492.74342856995804 -986.32144080156286 0 0 0 0 199.50445492062136 1853.3283683643197 0 1853.3283683643197 -780.60768561050395 0 0 0 0 885.26189527173119 135.52700118450889 0 135.52700118450889 -497.19817529445754 0 0 0 0 -39.106330200185766 356.22852677606699 0 356.22852677606699 -689.20912325307188 0 0 0 0 368.94958943585516 447.92102187705268 0 447.92102187705268 -671.59453963434817 0 0 0 0 -98.329919213487301 126.71282389642488 0 126.71282389642488 -585.30921269790429 0 0 0 0 82.672175780229736 367.22801558327865 0 367.22801558327865 -608.1786900376253 0 0 0 0 227.20525926336995 19.17278317974683 0 19.17278317974683 -1678.1026897902748 0 0 0 0 -112.46132153036888 -46.934098033985265 0 -46.934098033985265 -809.52523248345244 0 0 0 0 127.88657947906177 215.50259023548551 0 215.50259023548551 -814.06047808781591 0 0 0 0 -0.061118977307501154 179.37606043653548 0 179.37606043653548 45.637689078796299 0 0 0 0 -195.42149171893107 139.86831518726922 0 139.86831518726922 -149.12035035606868 0 0 0 0 -41.739245418721111 102.66270204044122 0 102.66270204044122 448.69970456976625 0 0 0 0 264.86846746140509 11.964764806800531 0 11.964764806800531 -100.08938678288905 0 0 0 0 139.08536179008297 110.57910233932159 0 110.57910233932159 -149.897756101308 0 0 0 0 -7.6523114746111105 177.30940453493287 0 177.30940453493287 45.588880315035048 0 0 0 0 -18.824799983791308 97.080477998562856 0 97.080477998562856 407.31579627792235 0 0 0 0 -56.154634095335496 266.78005827731249 0 266.78005827731249 250.47034342436382 0 0 0 0 -29.243963962652742 235.47640713854162 0 235.47640713854162 240.49648480092583 0 0 0 0 -80.521941416765912 184.10425548541389 0 184.10425548541389 146.37110885781294 0 0 0 0 -179.97387853481632 295.11688500594028 0 295.11688500594028 247.74454268725458 0 0 0 0 -5.3458008299785433 72.899608606559923 0 72.899608606559923 -178.55578650856478 0 0 0 0 0.73915397552065087 3.2717545791231117 0 3.2717545791231117 -0.92740598118865591 0 0 0 0 -47.935033208021196 144.18423588883888 0 144.18423588883888 653.82674388697342 0 0 0 0 -20.170814185097697 66.817369016607699 0 66.817369016607699 71.20902933623438 0 0 0 0 64.069701143511338 50.873573033604771 0 50.873573033604771 -37.400687832327094 0 0 0 0 -0.59254855110754079 2.6253286519768437 0 2.6253286519768437 -2.451409990782949 0 0 0 0 91.472852192622668 126.44985810539583 0 126.44985810539583 484.81756061836495 0 0 0 0 77.149956277717138 143.64258987287758 0 143.64258987287758 404.12182596185812 0 0 0 0 23.881649246235611 170.71791493584169 0 170.71791493584169 582.4127715315044 0 0 0 0 -2.5079382681142306 148.36556300330994 0 148.36556300330994 479.71071550816123 0 0 0 0 -55.827023385185498 212.64123939535818 0 212.64123939535818 518.2039956918743 0 0 0 0 13.512565894037834 85.677744493463251 0 85.677744493463251 440.81070469616679 0 0 0 0 55.810293550483948 186.69107139435087 0 186.69107139435087 41.095379255980781 0 0 0 0 33.580825042532524 235.66934568143915 0 235.66934568143915 -34.45953414046744 0 0 0 0 95.697716354770819 266.11250793739964 0 266.11250793739964 63.56576577099986 0 0 0 0 64.951656139848637 -32.366829996834895 0 -32.366829996834895 394.90087243868174 0 0 0 0 366.81795680987125 -23.282398771444605 0 -23.282398771444605 -428.92582166950831 0 0 0 0 74.789965113275684 259.47360930729337 0 259.47360930729337 -59.574793028557906 0 0 0 0 69.843580647175258 288.79132157004642 0 288.79132157004642 -180.05746008802089 0 0 0 0 19.973613040578073 181.03506692538468 0 181.03506692538468 46.491444533398251 0 0 0 0 -28.861799193429761 257.67549439884897 0 257.67549439884897 194.26190630342353 0 0 0 0 443.93661051397794 -253.67914818576082 0 -253.67914818576082 -2413.0132210509305 0 0 0 0 -6.9313748916364943 5.1081271651940909 0 5.1081271651940909 -1.4822813692898391 0 0 0 0 -829.54997773791547 734.50868426369584 0 734.50868426369584 109.6444607344024 0 0 0 0 -21.940671198244672 588.19496135548638 0 588.19496135548638 -766.63032324624419 0 0 0 0 -67.843467379017966 183.02782073967683 0 183.02782073967683 370.73829423035386 0 0 0 0 -117.10736665138393 316.14778745570584 0 316.14778745570584 162.69683072599582 0 0 0 0 -223.70219756309234 454.54876660613809 0 454.54876660613809 115.95468771320157 0 0 0 0 -77.804527914064238 357.29907748377445 0 357.29907748377445 170.66300834781578 0 0 0 0 -4.6051462453360728 294.52259232741017 0 294.52259232741017 103.58310837919998 0 0 0 0 4.3750140764459502 428.11380346445367 0 428.11380346445367 26.612066100820812 0 0 0 0 -68.220698764894678 480.58175779992598 0 480.58175779992598 -11.308714791710372 0 0 0 0 -8.8828083845401125 478.78595796196532 0 478.78595796196532 -161.89168165481533 0 0 0 0 -199.87192659376888 579.58649679741939 0 579.58649679741939 61.189470891920791 0 0 0 0 -152.25692206007807 681.64098375091271 0 681.64098375091271 78.979287299487623 0 0 0 0 -141.40597638873442 775.39027234613604 0 775.39027234613604 -149.91492026366359 0 0 0 0 79.334797381001408 551.54805889562704 0 551.54805889562704 -173.03620163091728 0 0 0 0 -128.77976222542202 671.37882465814073 0 671.37882465814073 71.079570900838007 0 0 0 0 -279.68868929212476 655.18765715840709 0 655.18765715840709 73.097266769924317 0 0 0 0 -299.05186025254079 705.96219498157006 0 705.96219498157006 112.89844265546708 0 0 0 0 -308.40911023647641 416.89654502099438 0 416.89654502099438 159.98111364296346 0 0 0 0 -153.80290142761078 511.6709120038322 0 511.6709120038322 158.22378770988144 0 0 0 0 -424.68703769495914 569.15843092589057 0 569.15843092589057 148.29895061664138 0 0 0 0 -366.99002366890636 359.65073392806153 0 359.65073392806153 163.30765751301078 0 0 0 0 -622.04341606260277 513.15116202963691 0 513.15116202963691 133.37989559413109 0 0 0 0 -294.09645528595138 204.7467461983324 0 204.7467461983324 132.93961776644937 0 0 0 0 -465.12980940007401 216.17861921169606 0 216.17861921169606 136.26551013079006 0 0 0 0 -11.583045881718533 4.468325862695707 0 4.468325862695707 1.9623603349288032 0 0 0 0 -708.46332584871561 1078.8190355800325 0 1078.8190355800325 -1652.993420485589 0 0 0 0 -436.00852344397572 -247.75732482889725 0 -247.75732482889725 879.09711638411682 0 0 0 0 -997.57089285637085 222.94733844980055 0 222.94733844980055 536.61368491769827 0 0 0 0 -1163.7879674034557 989.27704166889453 0 989.27704166889453 -168.1156515043549 0 0 0 0 -608.61328144984145 578.56903704088472 0 578.56903704088472 -764.5957887423283 0 0 0 0 -591.55490333712078 532.32852665560495 0 532.32852665560495 145.38962522871589 0 0 0 0 -177.05405095718743 790.20241215213173 0 790.20241215213173 -368.11850765645795 0 0 0 0 -675.31210269297662 805.76267247669784 0 805.76267247669784 15.793155189414392 0 0 0 0 -647.52693596523022 847.6393085078671 0 847.6393085078671 -331.15503408369841 0 0 0 0 269.85070106511967 664.90448376682525 0 664.90448376682525 -537.99442697437189 0 0 0 0 -156.49704637708783 707.90396981889353 0 707.90396981889353 -134.47404970879506 0 0 0 0 -10.325948188154143 727.67979456104149 0 727.67979456104149 -154.7734068804275 0 0 0 0 -48.684065286666737 105.81657023254957 0 105.81657023254957 94.41001181788306 0 0 0 0 49.15706410402538 17.616822511893744 0 17.616822511893744 -49.062043105217526 0 0 0 0 -47.803019685256004 158.66420486914285 0 158.66420486914285 173.7572233176179 0 0 0 0 -51.288967918962598 13.084433424559634 0 13.084433424559634 51.240733299189458 0 0 0 0 253.52955937561637 287.88747798882468 0 287.88747798882468 279.83171507971565 0 0 0 0 93.161927211232182 69.372488753144467 0 69.372488753144467 33.51706302416278 0 0 0 0 -153.80139014092856 149.30417508773462 0 149.30417508773462 78.119802161760163 0 0 0 0 -166.69086373573373 208.04766005525744 0 208.04766005525744 142.81424690909625 0 0 0 0 -241.33309519787872 183.14591363206637 0 183.14591363206637 147.41086711197568 0 0 0 0 -211.3905340757774 255.99665256242588 0 255.99665256242588 138.80656490854744 0 0 0 0 -291.52333846973488 183.13616677759273 0 183.13616677759273 146.85645412141457 0 0 0 0 -343.56523492284759 288.4073442402223 0 288.4073442402223 131.65616132178911 0 0 0 0 -255.59205836890033 201.051623041727 0 201.051623041727 143.91539133234437 0 0 0 0 -234.75544435546271 51.750700427723586 0 51.750700427723586 152.70737841293158 0 0 0 0 -313.84011109847779 93.959279192575195 0 93.959279192575195 113.71443310161703 0 0 0 0 -467.69756853271974 225.53246157719695 0 225.53246157719695 141.49157285204183 0 0 0 0 -338.44957345908915 292.92579813172415 0 292.92579813172415 91.12274637723749 0 0 0 0 309.73521153497859 -44.7439921835321 0 -44.7439921835321 55.197642321062631 0 0 0 0 -566.42628860390687 1644.696852803052 0 1644.696852803052 221.14325504886801 0 0 0 0 -1545.3032751925348 -296.33639248932013 0 -296.33639248932013 142.55862331677736 0 0 0 0 674.35729922283826 819.6464915384413 0 819.6464915384413 39.752206224293332 0 0 0 0 -2.4292561354652946 3.4365858348061096 0 3.4365858348061096 -5.8002448169408467 0 0 0 0 556.01055726450249 172.52655255845821 0 172.52655255845821 25.23358604007808 0 0 0 0 -207.96269994520117 66.777613050027867 0 66.777613050027867 88.424753054641769 0 0 0 0 335.29905658608914 606.09923535943744 0 606.09923535943744 402.24850025014166 0 0 0 0 0.92272742805806729 21.056189263443642 0 21.056189263443642 0.044801767526337244 0 0 0 0 -310.77563785365055 106.89119823370493 0 106.89119823370493 152.54418164085655 0 0 0 0 34.63254174929898 109.32979836842424 0 109.32979836842424 238.56505855611249 0 0 0 0 143.57215073634325 351.84096766642506 0 351.84096766642506 392.28930682814098 0 0 0 0 -10.094201078972816 8.3288302462844968 0 8.3288302462844968 4.1766585157879774 0 0 0 0 215.3435101492214 316.051449701823 0 316.051449701823 -745.45878602452285 0 0 0 0 -20.467331200881745 253.85228292374086 0 253.85228292374086 117.50781157649908 0 0 0 0 -207.10647473354766 14.42253781841282 0 14.42253781841282 389.51403574204596 0 0 0 0 -44.429643049272272 416.39749708899035 0 416.39749708899035 -365.66171772302187 0 0 0 0 -18.220975329565874 8.7559183460864745 0 8.7559183460864745 4.6838070203565252 0 0 0 0 450.63663310812262 685.64799921244048 0 685.64799921244048 129.18248658435186 0 0 0 0 -1231.3888896970311 156.67036902584368 0 156.67036902584368 -36.980582062911708 0 0 0 0 -300.23914149371558 339.87051021674415 0 339.87051021674415 -212.93989078537561 0 0 0 0 -182.36149036469578 667.20619476915363 0 667.20619476915363 -1385.7184008959593 0 0 0 0 -100.53073180015781 256.25628360271367 0 256.25628360271367 -602.02088263456244 0 0 0 0 -626.7820518551016 772.13124417329527 0 772.13124417329527 -467.39202285114152 0 0 0 0 -700.62432425147563 961.31140202900315 0 961.31140202900315 -826.48513285214722 0 0 0 0 -261.58448259925353 452.83729154798493 0 452.83729154798493 -229.72391878026247 0 0 0 0 -521.49589054388343 784.29022386464931 0 784.29022386464931 -221.19568359662048 0 0 0 0 -432.71153541459353 818.93826853595237 0 818.93826853595237 -567.54671124932793 0 0 0 0 -408.97007433034014 761.16535804461455 0 761.16535804461455 -640.79839597061618 0 0 0 0 -579.07449567676667 1110.3699014653321 0 1110.3699014653321 -592.99127884620975 0 0 0 0 -663.85195989673957 1027.3231553442165 0 1027.3231553442165 -442.41148192389664 0 0 0 0 -745.98992576961609 895.40755063293909 0 895.40755063293909 -653.73839559718908 0 0 0 0 -595.63595773123961 975.94105812359703 0 975.94105812359703 -580.90124270963133 0 0 0 0 -725.9134124847551 1079.8623233187282 0 1079.8623233187282 -634.19757389115284 0 0 0 0 -601.38437403494754 1090.447251681202 0 1090.447251681202 -610.62407398292271 0 0 0 0 -802.2314167824079 1262.4352084507918 0 1262.4352084507918 -578.02773906704351 0 0 0 0 -1018.2939473737097 557.27865583049515 0 557.27865583049515 356.2987070103627 0 0 0 0 -138.85982046961726 366.4371190329548 0 366.4371190329548 92.548265285939124 0 0 0 0 -592.6294999693946 397.64435637763563 0 397.64435637763563 273.09351024526404 0 0 0 0 -642.69197128869928 940.54292716761938 0 940.54292716761938 -135.03808042164019 0 0 0 0 -334.01508087958064 746.36803107516971 0 746.36803107516971 -339.5303770518658 0 0 0 0 413.2634094592504 378.65436358652369 0 378.65436358652369 -665.96012241895369 0 0 0 0 256.06337867506954 510.77688797704468 0 510.77688797704468 -432.73958057020718 0 0 0 0 -735.58320712819113 845.05159985059436 0 845.05159985059436 -662.3909964970735 0 0 0 0 76.883703233921551 813.02328703482453 0 813.02328703482453 -768.69593128422275 0 0 0 0 625.05561510739062 729.52601086502909 0 729.52601086502909 -1008.3642378125733 0 0 0 0 -1066.6551998430223 1066.5875195745684 0 1066.5875195745684 -1248.0385014478597 0 0 0 0 -1422.5776004959771 671.11860261396578 0 671.11860261396578 -553.07041331280197 0 0 0 0 -761.07775943303977 570.26905525527764 0 570.26905525527764 -869.23103478742996 0 0 0 0 -1252.6263385945786 1110.5903158914589 0 1110.5903158914589 -1122.2227697484486 0 0 0 0 -997.20485177375667 812.17496519092674 0 812.17496519092674 -774.19153765192459 0 0 0 0 -1060.1867706032426 948.09940690553049 0 948.09940690553049 -538.90800721980486 0 0 0 0 -981.37549853211385 722.92297628532651 0 722.92297628532651 -335.73824742720171 0 0 0 0 -737.5758486243576 355.1959136712685 0 355.1959136712685 -83.564237797589158 0 0 0 0 -2280.5061919309737 983.21527713894466 0 983.21527713894466 -326.54467150483833 0 0 0 0 -1.5406455578635838 1.5909017118519273 0 1.5909017118519273 -9.610852439388168 0 0 0 0 1215.0002379582606 108.3152816226596 0 108.3152816226596 -432.75554357770307 0 0 0 0 863.77982791606337 518.67832190637273 0 518.67832190637273 -912.01588294174144 0 0 0 0 799.6318014812714 599.27673362869973 0 599.27673362869973 -114.46600047805259 0 0 0 0 844.83980354298546 275.77474795126545 0 275.77474795126545 -397.6411336208148 0 0 0 0 793.66046435221506 96.128340309049236 0 96.128340309049236 -503.01579947408754 0 0 0 0 463.59219070219115 153.18593161765057 0 153.18593161765057 -302.53136950740009 0 0 0 0 429.70395330738393 1341.3654240795731 0 1341.3654240795731 -354.95165501898737 0 0 0 0 1.5455307379319834 9.7828845858612397 0 9.7828845858612397 -0.6960389300281804 0 0 0 0 272.74466020498949 384.34495721101121 0 384.34495721101121 444.95298890066988 0 0 0 0 522.27202024456801 452.22390298312962 0 452.22390298312962 -414.92479741838906 0 0 0 0 14.822922633708799 19.041799927818801 0 19.041799927818801 3.0618035812625806 0 0 0 0 -432.75191654408991 171.33059615696766 0 171.33059615696766 -27.17726717259211 0 0 0 0 4.4363241581657267 9.2535348313126917 0 9.2535348313126917 -25.880640123739568 0 0 0 0 -564.35294023863389 376.80745370402121 0 376.80745370402121 -337.44702512174263 0 0 0 0 -301.20820759941853 410.31280443556898 0 410.31280443556898 -310.41782314359216 0 0 0 0 -171.16778061450168 253.94334897250519 0 253.94334897250519 -215.5999991999015 0 0 0 0 -444.97100492282334 626.55435540422695 0 626.55435540422695 -497.79147254007694 0 0 0 0 140.17588363077812 150.75287355891578 0 150.75287355891578 -716.65041136129003 0 0 0 0 7.1048747662570406 8.1219146861944864 0 8.1219146861944864 6.8945700608983316 0 0 0 0 -43.382201468746644 510.44468585172945 0 510.44468585172945 -1223.4897007336986 0 0 0 0 -550.25465813680785 923.1138100204189 0 923.1138100204189 -1132.0252920332805 0 0 0 0 -136.26411516930966 -160.54353245294624 0 -160.54353245294624 -240.08038137440599 0 0 0 0 4.0428364711784841 -0.18083342297839522 0 -0.18083342297839522 -18.84331346532494 0 0 0 0 173.01708107227387 311.95521932313432 0 311.95521932313432 -1614.9011609404115 0 0 0 0 -1132.20242006841 747.45732756139478 0 747.45732756139478 -299.81522116756969 0 0 0 0 187.66390960608987 567.11740373879366 0 567.11740373879366 -1689.3428960758029 0 0 0 0 -831.54451044149755 -162.84136600808415 0 -162.84136600808415 -678.70650768735868 0 0 0 0 522.01612894063874 219.84209187598481 0 219.84209187598481 -1025.0051225618226 0 0 0 0 178.57363062090735 565.30509455606443 0 565.30509455606443 -419.51575767277245 0 0 0 0 -793.45555836214771 515.2381530798084 0 515.2381530798084 -1472.0804734123267 0 0 0 0 -698.30164594852977 853.89019737825947 0 853.89019737825947 -873.48216217536537 0 0 0 0 -1820.7230485672408 1123.1175363096918 0 1123.1175363096918 -1012.7901610264089 0 0 0 0 -1574.5022102160256 1176.6712446141064 0 1176.6712446141064 -56.378302181052277 0 0 0 0 -817.70712429346167 1551.1755634227629 0 1551.1755634227629 -1718.0093983528495 0 0 0 0 -687.81903024388157 1122.2732790377413 0 1122.2732790377413 -631.92083672871013 0 0 0 0 -451.07956942743476 1045.3655983769095 0 1045.3655983769095 -603.01848038399476 0 0 0 0 -543.7848236693244 1243.6329834380558 0 1243.6329834380558 -1016.5822039787017 0 0 0 0 -323.93318300630199 765.11954341871751 0 765.11954341871751 -566.18084998830727 0 0 0 0 -424.35807220358402 942.9870754182557 0 942.9870754182557 -878.53091491141095 0 0 0 0 -270.87599179665267 649.52683487183094 0 649.52683487183094 -656.00066593864176 0 0 0 0 -289.12441792176105 814.5446043159609 0 814.5446043159609 -1145.1489178241682 0 0 0 0 -42.279863570171983 621.37678331541088 0 621.37678331541088 -1018.7259232797223 0 0 0 0 -190.11083690843952 563.24842363762946 0 563.24842363762946 -772.34854082598031 0 0 0 0 -0.22529662063138289 3.9368789414019147 0 3.9368789414019147 3.6927280102578379 0 0 0 0 9.538028074617614 156.34512327559787 0 156.34512327559787 -391.01333039414749 0 0 0 0 0.52236534758412745 652.71208873709838 0 652.71208873709838 -973.01458661850484 0 0 0 0 -271.78016005925019 83.353331809445081 0 83.353331809445081 -951.4374592002132 0 0 0 0 -711.95932323080069 792.09668024540997 0 792.09668024540997 -1116.4131031060097 0 0 0 0 -677.01665554259671 623.06653156534958 0 623.06653156534958 -633.03539438126245 0 0 0 0 -815.88253077237459 819.39369159449052 0 819.39369159449052 -952.93293747281132 0 0 0 0 -362.81671400777122 593.38031627513556 0 593.38031627513556 -1067.3320016917623 0 0 0 0 -722.28599194459821 1181.8256109037975 0 1181.8256109037975 -1175.0819279111347 0 0 0 0 -744.34375615495082 1313.3033732280965 0 1313.3033732280965 -1379.1329561413113 0 0 0 0 -866.33783012082131 1342.1930314389829 0 1342.1930314389829 -1237.1714715831913 0 0 0 0 -585.82230027006881 1159.9246147064769 0 1159.9246147064769 -1135.7554513457508 0 0 0 0 -698.10561491762201 1080.7053746444508 0 1080.7053746444508 -989.92937443824485 0 0 0 0 -732.01877285454975 1370.7875507620265 0 1370.7875507620265 -1164.0383183143786 0 0 0 0 -1034.3830786509279 1226.6859591506509 0 1226.6859591506509 -1153.5184932737538 0 0 0 0 -2067.699745043783 1491.6731316555361 0 1491.6731316555361 -623.97372272430221 0 0 0 0 -1618.1008653079916 78.791282311387477 0 78.791282311387477 276.24503196757723 0 0 0 0 -2315.6363349024468 686.23539502509084 0 686.23539502509084 139.30183702340582 0 0 0 0 -1470.2099458329249 1384.5218263910501 0 1384.5218263910501 -1284.3072327106493 0 0 0 0 -1406.927329099155 1641.2187063599558 0 1641.2187063599558 -1286.9537410997036 0 0 0 0 -859.79569196230682 1183.0479197541415 0 1183.0479197541415 -1037.6422231563192 0 0 0 0 -1073.8521691309434 825.6704445129144 0 825.6704445129144 -555.46758070542819 0 0 0 0 -1106.321445994603 1086.2596988173755 0 1086.2596988173755 -1008.7874427831557 0 0 0 0 -573.8417881703208 916.91691518120206 0 916.91691518120206 -959.64437831112809 0 0 0 0 251.0853407447139 375.86423655229737 0 375.86423655229737 -750.1698748496965 0 0 0 0 -575.94670805764326 845.33950769473449 0 845.33950769473449 -944.06082348388736 0 0 0 0 -1130.2519671933487 793.6719948211321 0 793.6719948211321 -371.93974704021821 0 0 0 0 -154.46702350437408 174.01167849906051 0 174.01167849906051 -598.91822696619784 0 0 0 0 5.8766221768088691 -10.191027041078499 0 -10.191027041078499 -88.972280788196599 0 0 0 0 6.8619955173589346 27.210944320810668 0 27.210944320810668 43.639216221540437 0 0 0 0 471.09000284952708 67.972882949830819 0 67.972882949830819 -823.12048604426673 0 0 0 0 1315.4439677668793 -121.23025029556993 0 -121.23025029556993 -57.531371013930766 0 0 0 0 -449.29423374407634 -11.063928256917279 0 -11.063928256917279 -357.74678104405757 0 0 0 0 99.139237028139178 -538.24534543491609 0 -538.24534543491609 152.92101227985404 0 0 0 0 -124.53912074484833 16.576298784504615 0 16.576298784504615 145.53945908448077 0 0 0 0 81.318382941557502 -18.133168244559783 0 -18.133168244559783 143.62754658631547 0 0 0 0 1.1810859265523774 -2.4635043816300097 0 -2.4635043816300097 -3.1643688629148983 0 0 0 0 -1022.2925300986826 716.6205769935932 0 716.6205769935932 -421.80881230716477 0 0 0 0 -286.36873146143625 -85.586991917196428 0 -85.586991917196428 117.88642312002776 0 0 0 0 -519.80556107232405 295.50102130449886 0 295.50102130449886 -81.206154763902305 0 0 0 0 -130.43261288349458 135.6034051708848 0 135.6034051708848 -34.44944399637825 0 0 0 0 -110.65241072048957 33.44718725830171 0 33.44718725830171 -76.421515826368704 0 0 0 0 51.816992485597439 64.04301706032129 0 64.04301706032129 -0.044305718067334965 0 0 0 0 99.217122294954606 -72.21455508004874 0 -72.21455508004874 36.088832935078244 0 0 0 0 -17.975426833440629 37.262275791225235 0 37.262275791225235 19.407576416690176 0 0 0 0 12.669977058391733 1.1503014510021643 0 1.1503014510021643 -3.8739788423072241 0 0 0 0 -78.678653546747228 95.545315140047023 0 95.545315140047023 13.498435324785532 0 0 0 0 174.28547377138602 41.419371290154231 0 41.419371290154231 -166.61884822363209 0 0 0 0 65.532590587584053 67.698138499762123 0 67.698138499762123 42.627915551065087 0 0 0 0 17.813347751062807 21.970974172035639 0 21.970974172035639 -18.248615237242007 0 0 0 0 -46.841868195637289 205.16351480414232 0 205.16351480414232 14.527350081007171 0 0 0 0 -341.36963983609348 259.28390080575628 0 259.28390080575628 139.78366011556136 0 0 0 0 67.750623192710918 14.173498916890821 0 14.173498916890821 -10.599284459953196 0 0 0 0 350.51061007896806 256.3546017986373 0 256.3546017986373 -368.75867779592227 0 0 0 0 7.3219119571809017 25.783620596606724 0 25.783620596606724 -32.016766598035474 0 0 0 0 41.359499293831114 17.810970486934572 0 17.810970486934572 -9.1882370296301588 0 0 0 0 -1056.4851304680269 1657.2703105305591 0 1657.2703105305591 -1926.343494758723 0 0 0 0 -776.04519878910651 1149.7468002507921 0 1149.7468002507921 -1027.4806102361472 0 0 0 0 -200.19351523293153 150.36116897650936 0 150.36116897650936 -239.1365729473473 0 0 0 0 70.285514264214726 569.00398771546315 0 569.00398771546315 -1882.5768049978215 0 0 0 0 -256.75331341041601 437.27140739219612 0 437.27140739219612 -920.18341240649715 0 0 0 0 -36.214574183968438 27.115765593650835 0 27.115765593650835 -3.7299649579651941 0 0 0 0 -367.63549138454982 221.29466585426053 0 221.29466585426053 -5.2450124501046957 0 0 0 0 -201.9546897360633 993.12277248475584 0 993.12277248475584 -2540.6240912764915 0 0 0 0 -607.72182943041844 103.58423732294614 0 103.58423732294614 655.55490105878926 0 0 0 0 -13.781572806065213 10.414257809572263 0 10.414257809572263 -7.6016016021400645 0 0 0 0 -235.0453034536913 190.40295990404411 0 190.40295990404411 387.32415159689845 0 0 0 0 -7.8418691175756976 91.193550208066881 0 91.193550208066881 233.98514403232548 0 0 0 0 114.20926445300574 148.38002111909736 0 148.38002111909736 313.10288428919739 0 0 0 0 103.63922789537173 157.5615495176171 0 157.5615495176171 525.15701051786891 0 0 0 0 100.97440216266841 220.40000906870409 0 220.40000906870409 349.43030324095889 0 0 0 0 240.75089511309488 332.0913668565845 0 332.0913668565845 232.02409472675936 0 0 0 0 120.41201111208647 443.41407065268868 0 443.41407065268868 143.45950195961632 0 0 0 0 243.52966998320335 419.62156122440865 0 419.62156122440865 401.26546973860241 0 0 0 0 186.74633547927078 263.98415053939971 0 263.98415053939971 76.420606625157234 0 0 0 0 -20.707748969532403 3.6214103688352282 0 3.6214103688352282 5.0305749129406081 0 0 0 0 -167.37101696227728 27.756513608542264 0 27.756513608542264 -91.803830246790312 0 0 0 0 463.66833616413351 310.71816422775737 0 310.71816422775737 208.20886292081195 0 0 0 0 93.596690697653685 81.126373876060825 0 81.126373876060825 2.0193225553593948 0 0 0 0 -29.344342156199815 93.131647107875906 0 93.131647107875906 44.776522550888146 0 0 0 0 -186.14925177393889 149.68035855868948 0 149.68035855868948 78.841408456530189 0 0 0 0 -311.12007635840564 39.665791371458909 0 39.665791371458909 -17.327472302829847 0 0 0 0 7.2388031408971258 84.291960233995411 0 84.291960233995411 48.77071832812004 0 0 0 0 -171.95462549290096 15.772382590301277 0 15.772382590301277 -115.45306706501287 0 0 0 0 62.929586088476142 92.162753196161361 0 92.162753196161361 -29.73151103061241 0 0 0 0 163.49478198647921 129.70087940315716 0 129.70087940315716 -86.437592474627309 0 0 0 0 105.42765525744773 121.61596964813243 0 121.61596964813243 -7.2787659542424592 0 0 0 0 82.173812562396051 102.00535127945477 0 102.00535127945477 -36.240295550058363 0 0 0 0 65.84447321169236 151.6374869036442 0 151.6374869036442 21.90413940248726 0 0 0 0 133.5124570944858 104.78925511273619 0 104.78925511273619 -2.5913638694053134 0 0 0 0 265.03734516997974 212.14951793054024 0 212.14951793054024 102.69109704642688 0 0 0 0 -211.24471492611337 99.674635120027233 0 99.674635120027233 31.853810264612548 0 0 0 0 -41.64956598437422 94.699864282874785 0 94.699864282874785 104.54813693877769 0 0 0 0 50.280524123652214 23.86847746074563 0 23.86847746074563 26.332868544068361 0 0 0 0 415.82422682139804 67.400211777016011 0 67.400211777016011 -107.36054922249605 0 0 0 0 189.18609179688065 94.603129083057866 0 94.603129083057866 238.16899534339245 0 0 0 0 217.55300768123197 3.9391230511682807 0 3.9391230511682807 8.714003640357987 0 0 0 0 288.06987656151614 18.021190664683672 0 18.021190664683672 5.7974164056067821 0 0 0 0 -67.319618130997696 403.6131878540109 0 403.6131878540109 428.09836460338556 0 0 0 0 100.91884538890736 354.80452299580247 0 354.80452299580247 366.00208693982131 0 0 0 0 64.554242386950577 157.34884234308993 0 157.34884234308993 151.73037880244496 0 0 0 0 361.42082417185884 139.30100709614635 0 139.30100709614635 299.16739888500888 0 0 0 0 -66.766143953836206 -0.89930446927471053 0 -0.89930446927471053 28.879111315310126 0 0 0 0 91.639496366347885 703.94166382370167 0 703.94166382370167 634.21733522639261 0 0 0 0 102.33789095527027 292.45084395234881 0 292.45084395234881 236.44917768453161 0 0 0 0 125.16767145480844 277.98773800837807 0 277.98773800837807 18.504266253967216 0 0 0 0 33.612040418400284 217.98537311944528 0 217.98537311944528 155.86375857118401 0 0 0 0 0.47181528342184009 -2.4117030069823429 0 -2.4117030069823429 5.562243553649509 0 0 0 0 246.21079216956059 64.724863714054663 0 64.724863714054663 -45.904075320904667 0 0 0 0 1120.9056224117467 747.34000893847042 0 747.34000893847042 -370.81716527368553 0 0 0 0 273.92375828268996 271.27275809146886 0 271.27275809146886 220.6884412815707 0 0 0 0 289.20965401457215 -138.19047303289517 0 -138.19047303289517 214.52441551789343 0 0 0 0 623.26859965913263 669.72229070173307 0 669.72229070173307 -465.73656706279144 0 0 0 0 325.85844883135542 97.406039346327816 0 97.406039346327816 -65.891141702857567 0 0 0 0 -573.26398978932048 732.49687519963209 0 732.49687519963209 320.08342327402352 0 0 0 0 48.680633705866938 154.80863655649037 0 154.80863655649037 176.6050782762033 0 0 0 0 -30.076125300663989 522.30983639202896 0 522.30983639202896 -117.14331389853032 0 0 0 0 -3.680702547061145 4.4180687894193511 0 4.4180687894193511 2.1324844492654904 0 0 0 0 -330.52532580553088 76.685453895421233 0 76.685453895421233 -151.5948580934637 0 0 0 0 170.12915460426302 383.60454424513591 0 383.60454424513591 -1033.6955983158623 0 0 0 0 14.847196828020969 302.38520671716105 0 302.38520671716105 430.24314235553175 0 0 0 0 -115.00173843432458 -91.995400847354176 0 -91.995400847354176 900.07075953409367 0 0 0 0 66.13998816566891 263.33992810351265 0 263.33992810351265 196.087220280373 0 0 0 0 743.43547112329543 1734.0609119078144 0 1734.0609119078144 -1725.6724012176419 0 0 0 0 565.22552300687676 -5.5863082528594532 0 -5.5863082528594532 -1739.0182273731157 0 0 0 0 -464.24189435325388 2202.5017141747958 0 2202.5017141747958 -743.20678806913202 0 0 0 0 -2482.3186791266562 -328.85089430598237 0 -328.85089430598237 737.02076193767425 0 0 0 0 98.993663275519793 -9.6647701054316713 0 -9.6647701054316713 -135.6515885896988 0 0 0 0 240.1035103100221 202.23301362662824 0 202.23301362662824 -643.32244194719533 0 0 0 0 160.90990439747111 207.53949191682477 0 207.53949191682477 -311.78810446827265 0 0 0 0 42.946442920576374 13.122371437530091 0 13.122371437530091 -303.8572346787405 0 0 0 0 12.683079893650444 52.094082185339289 0 52.094082185339289 14.679120644289654 0 0 0 0 135.76291212665819 196.24321092485843 0 196.24321092485843 -629.79096797506645 0 0 0 0 2.7742682474650451 22.858209325925841 0 22.858209325925841 -26.521338409216298 0 0 0 0 -445.38423104601316 113.52903003638494 0 113.52903003638494 13.720888801981346 0 0 0 0 -291.69489481591881 -484.39968064943605 0 -484.39968064943605 -922.09214393496222 0 0 0 0 -691.18037340047522 290.94876926476172 0 290.94876926476172 -91.927115272432275 0 0 0 0 -113.77096517978316 329.60747895763234 0 329.60747895763234 -254.28450091061677 0 0 0 0 -148.72254878593071 522.70304083406654 0 522.70304083406654 -358.85363770034019 0 0 0 0 317.66216098335281 137.13330426251196 0 137.13330426251196 -742.93259749341087 0 0 0 0 325.49580706668712 249.57628422327252 0 249.57628422327252 -142.03120124447014 0 0 0 0 279.40562248300921 -42.366255859429657 0 -42.366255859429657 -200.41465307923863 0 0 0 0 64.052658675682324 -23.148173347717602 0 -23.148173347717602 -168.86951284375391 0 0 0 0 -647.02311776724787 712.64748441868301 0 712.64748441868301 -529.42094617328985 0 0 0 0 77.479435837576602 30.90436294875326 0 30.90436294875326 -2401.8481803881841 0 0 0 0 -1584.5824423314843 -1387.9981989872394 0 -1387.9981989872394 528.12032877827005 0 0 0 0 271.68896051093179 -247.22006499567942 0 -247.22006499567942 -637.22823386934624 0 0 0 0 41.181991365600879 80.091460518844286 0 80.091460518844286 -49.349579525522223 0 0 0 0 264.26747692172648 598.77027666103095 0 598.77027666103095 978.96038358536316 0 0 0 0 -573.39789852768263 85.506451556782849 0 85.506451556782849 1658.9775212709574 0 0 0 0 -736.68193001415057 -1073.3031635656007 0 -1073.3031635656007 479.48346325169041 0 0 0 0 158.44920286181878 -152.76625201840943 0 -152.76625201840943 -30.820163166303246 0 0 0 0 182.27218599177286 13.411751392806764 0 13.411751392806764 -174.29036346196517 0 0 0 0 181.86981045912398 -94.528623499179957 0 -94.528623499179957 8.0514838894887362 0 0 0 0 118.65798512105175 -155.39328124278109 0 -155.39328124278109 392.17710500649991 0 0 0 0 217.60354918906978 -0.12512010924274364 0 -0.12512010924274364 55.977647797379177 0 0 0 0 -210.64109502619476 -349.43874582059652 0 -349.43874582059652 704.25692388511379 0 0 0 0 -113.03701082384578 -231.27823409309349 0 -231.27823409309349 -271.14518367545679 0 0 0 0 62.50053170928733 81.722489615787026 0 81.722489615787026 -32.222832501152787 0 0 0 0 84.475460536672472 104.6542596962172 0 104.6542596962172 409.3382029600034 0 0 0 0 774.24238616137518 179.80755718261935 0 179.80755718261935 -635.34785114599799 0 0 0 0 776.67317860746698 551.59819198582409 0 551.59819198582409 -348.36051245700219 0 0 0 0 374.98141873795794 630.47231913746509 0 630.47231913746509 577.91303375370626 0 0 0 0 13.166095304910414 128.0049093190828 0 128.0049093190828 409.58473641706223 0 0 0 0 -89.532990829782648 69.562471154160448 0 69.562471154160448 377.31888574420736 0 0 0 0 -78.080412490788149 63.522371020357241 0 63.522371020357241 8.2574668049637694 0 0 0 0 26.431132415404136 268.61789828338078 0 268.61789828338078 183.15470989748428 0 0 0 0 -52.972154895116546 -102.05050911993021 0 -102.05050911993021 31.772741007051081 0 0 0 0 -31.445408353880339 402.47694269206113 0 402.47694269206113 -405.2199714021408 0 0 0 0 -428.27286398395881 234.24626898579299 0 234.24626898579299 -57.421650313553982 0 0 0 0 604.23512966155977 979.50908705898109 0 979.50908705898109 -844.0282264397465 0 0 0 0 613.4023947334133 260.26582112890014 0 260.26582112890014 1161.6954458112741 0 0 0 0 855.83717696993699 408.84125667648186 0 408.84125667648186 878.33873895828765 0 0 0 0 4.5011724048571295 2.8225193629843446 0 2.8225193629843446 -33.253689337662436 0 0 0 0 -270.9586179017424 1467.1660941130467 0 1467.1660941130467 5097.2632567117544 0 0 0 0 71.323416573704932 71.918616296786652 0 71.918616296786652 -20.28288525688777 0 0 0 0 135.39203240573988 302.77533211054106 0 302.77533211054106 -57.58619883108986 0 0 0 0 244.51504858035332 189.97402344831789 0 189.97402344831789 -576.63997264939826 0 0 0 0 27.915243679504783 1006.3086011979158 0 1006.3086011979158 551.73904805967322 0 0 0 0 -11.693770417563115 49.064967211697962 0 49.064967211697962 -10.520070179783296 0 0 0 0 150.20757698184025 146.70547011274903 0 146.70547011274903 -246.70298554285546 0 0 0 0 177.15917439115583 214.31349862831121 0 214.31349862831121 -248.83719135858701 0 0 0 0 228.46282491201418 -20.938632354445872 0 -20.938632354445872 -479.95511389487365 0 0 0 0 145.93649632764755 178.47410811797454 0 178.47410811797454 0.93280604344909079 0 0 0 0 114.02076699062945 20.499440692352437 0 20.499440692352437 -48.866149899957236 0 0 0 0 87.801249304800876 233.71521412448783 0 233.71521412448783 64.443181361384632 0 0 0 0 -34.15235221534158 321.42428144093901 0 321.42428144093901 -51.681239396595629 0 0 0 0 124.35604526138923 74.068027231784072 0 74.068027231784072 133.71608302732056 0 0 0 0 -32.802112587291049 198.45303150863401 0 198.45303150863401 286.46269118474447 0 0 0 0 89.499683883739635 76.376324116979958 0 76.376324116979958 407.74661821930204 0 0 0 0 -14.086343653609219 248.35088137436105 0 248.35088137436105 991.96567146763846 0 0 0 0 153.16916790462255 272.23602645612618 0 272.23602645612618 277.99160031409701 0 0 0 0 142.87490525165049 65.360022138105705 0 65.360022138105705 268.65210989846673 0 0 0 0 297.07268296642724 334.10309569821402 0 334.10309569821402 399.33058606524719 0 0 0 0 43.213073421673471 -23.293123051842485 0 -23.293123051842485 -83.46152691313182 0 0 0 0 28.191878469480734 11.016684899169718 0 11.016684899169718 -24.196535846644061 0 0 0 0 1.9228227503692494 3.2979412299946489 0 3.2979412299946489 -12.417177612445176 0 0 0 0 14.718838877975941 142.99820172160253 0 142.99820172160253 388.23515633010538 0 0 0 0 122.36042812986125 239.17407131979417 0 239.17407131979417 473.35986402653361 0 0 0 0 -96.923950912223745 17.983557492514592 0 17.983557492514592 1223.9036624435394 0 0 0 0 15.703500463667297 49.729960079886951 0 49.729960079886951 -147.2825846140986 0 0 0 0 1.3407457331632031 49.563048492731468 0 49.563048492731468 -57.193754412903218 0 0 0 0 131.46687639127958 40.850320327444933 0 40.850320327444933 -128.06350151010429 0 0 0 0 166.69400650229363 15.288149544991029 0 15.288149544991029 -125.14813213673187 0 0 0 0 14.797310780026237 -31.158925623618416 0 -31.158925623618416 -28.659989763691556 0 0 0 0 -231.40868995473193 22.342562073979934 0 22.342562073979934 640.14171794633148 0 0 0 0 -224.48982817812066 86.117772488752962 0 86.117772488752962 858.39398349396652 0 0 0 0 147.85595714625515 -99.872143014872563 0 -99.872143014872563 -133.71852306547225 0 0 0 0 7.3629911888128845 -2.6849034982660669 0 -2.6849034982660669 -116.88927367588622 0 0 0 0 -3.902288995629533 211.731934723015 0 211.731934723015 700.71768681955291 0 0 0 0 843.55244594048418 337.21003691939404 0 337.21003691939404 -119.23397085454462 0 0 0 0 51.805448168326947 45.953525652360639 0 45.953525652360639 -89.090256356194573 0 0 0 0 60.845513766845897 276.60046861573755 0 276.60046861573755 144.39607226793305 0 0 0 0 229.95832420829129 187.07602615564974 0 187.07602615564974 -188.66868621578033 0 0 0 0 -317.96567480858721 179.68500131179826 0 179.68500131179826 319.33802280946111 0 0 0 0 21.281345266850622 524.24219622841338 0 524.24219622841338 652.94116358736937 0 0 0 0 234.31239318873668 -143.22703418845413 0 -143.22703418845413 -20.092900784518861 0 0 0 0 7.1240851220875285 7.729500917745014 0 7.729500917745014 4.4209753599011847 0 0 0 0 605.23437589910282 508.35290660314786 0 508.35290660314786 84.605433011398418 0 0 0 0 634.27961936814791 37.065680878804415 0 37.065680878804415 -156.22138481552247 0 0 0 0 169.91944604106402 14.201493614404171 0 14.201493614404171 -145.62097387698304 0 0 0 0 85.498479841837252 106.84369710018655 0 106.84369710018655 -172.83508343682479 0 0 0 0 235.89503603756566 44.354394973357557 0 44.354394973357557 -146.87989447770815 0 0 0 0 225.7108219927452 290.40076731785211 0 290.40076731785211 -211.49565509652894 0 0 0 0 61.327131794638817 73.869922443272515 0 73.869922443272515 66.219515842198319 0 0 0 0 -6.2743350108994491 285.37615723099589 0 285.37615723099589 -131.42255127082899 0 0 0 0 -517.73057735139446 384.20587819087086 0 384.20587819087086 395.67702803996508 0 0 0 0 -340.08568205553001 880.77222115488439 0 880.77222115488439 242.88609428229393 0 0 0 0 6.1690723972933483 795.01397635496687 0 795.01397635496687 857.89038665074622 0 0 0 0 350.59879082499538 1082.612408495479 0 1082.612408495479 2171.1532340343983 0 0 0 0 124.52371431388747 370.75729871866497 0 370.75729871866497 181.8234777378384 0 0 0 0 1187.4951699449512 983.52857732259872 0 983.52857732259872 512.41309673705837 0 0 0 0 850.51265035945835 545.97071759501705 0 545.97071759501705 253.49889409233583 0 0 0 0 -133.02579829013848 359.29068625279615 0 359.29068625279615 -485.9884435182903 0 0 0 0 -684.30201717073942 -1307.5176673795504 0 -1307.5176673795504 -318.95129171066401 0 0 0 0 370.51997187443521 204.41613612237779 0 204.41613612237779 -646.30856677269912 0 0 0 0 218.82284910618182 285.41192014129774 0 285.41192014129774 142.69438872780302 0 0 0 0 82.8946560529739 15.693726965082334 0 15.693726965082334 -69.425232330600409 0 0 0 0 21.474972790238098 39.086150220215131 0 39.086150220215131 20.994950486114249 0 0 0 0 -156.53473359269265 249.01439461717382 0 249.01439461717382 194.91342032211833 0 0 0 0 188.05836451082541 39.434371285497036 0 39.434371285497036 21.2433510539704 0 0 0 0 252.55674787917815 449.73440972913886 0 449.73440972913886 -539.15503098358749 0 0 0 0 203.42717739168984 677.93034676204479 0 677.93034676204479 -1108.2724203784892 0 0 0 0 562.91966135737312 660.16291615236696 0 660.16291615236696 -1446.4756446363899 0 0 0 0 -0.96583995968907033 -0.66557136887395529 0 -0.66557136887395529 18.041441849453463 0 0 0 0 -597.22497726085385 227.32388655836985 0 227.32388655836985 1308.5291403404408 0 0 0 0 1455.3766307558471 -1706.3949133256683 0 -1706.3949133256683 -2560.8726283387077 0 0 0 0 244.72908123126967 -187.5666639108963 0 -187.5666639108963 -1695.2361860266828 0 0 0 0 17.71847706802928 24.74497966783224 0 24.74497966783224 1.7013824248575986 0 0 0 0 1118.0953592796759 192.87319624674274 0 192.87319624674274 -1861.9292702332023 0 0 0 0 1674.9052242665566 595.21692943460948 0 595.21692943460948 -1573.9436065298796 0 0 0 0 -864.6082644012713 -987.85043115440931 0 -987.85043115440931 1589.4460441734554 0 0 0 0 -718.26181686081691 -672.0531022392679 0 -672.0531022392679 2081.6060460977396 0 0 0 0 123.40353303290081 -79.322251882666023 0 -79.322251882666023 -38.017120869058999 0 0 0 0 3.450442823087351 8.2838648716734724 0 8.2838648716734724 4.3065196661717522 0 0 0 0 259.02423230101704 -70.066302470942901 0 -70.066302470942901 -76.360169004678028 0 0 0 0 -22.306896435064118 105.45309089041257 0 105.45309089041257 -36.684027721876191 0 0 0 0 638.7116100205767 257.40864699032682 0 257.40864699032682 -3.493234469438903 0 0 0 0 64.84634251186209 19.41356659903937 0 19.41356659903937 -83.886060161656559 0 0 0 0 -20.795285730255273 462.86673967821116 0 462.86673967821116 747.9983108948727 0 0 0 0 -214.29944802566752 78.669340255466523 0 78.669340255466523 319.67746156209614 0 0 0 0 -27.542073057931702 369.31740652397275 0 369.31740652397275 317.78107950941194 0 0 0 0 -111.19134417200803 217.46202280444413 0 217.46202280444413 126.55792930154712 0 0 0 0 -7.2780894246789103 410.26325666430057 0 410.26325666430057 -544.63687278865837 0 0 0 0 -143.8137409495248 312.18459909582452 0 312.18459909582452 84.390281773354218 0 0 0 0 171.78448373403444 213.83117438966292 0 213.83117438966292 -308.83743969516945 0 0 0 0 -501.17964699321055 728.56100029897789 0 728.56100029897789 -265.10508829650234 0 0 0 0 -67.774142884164576 1127.5684237970272 0 1127.5684237970272 -1456.1824494278626 0 0 0 0 -3.9684559607663008 13.604051091788463 0 13.604051091788463 -17.162079777219532 0 0 0 0 -254.41048061192987 285.44066726711026 0 285.44066726711026 118.88004958681995 0 0 0 0 216.95725913599762 -32.777474337599415 0 -32.777474337599415 -75.108883285603952 0 0 0 0 712.81343114378433 798.28219931442072 0 798.28219931442072 -2715.6600219685206 0 0 0 0 23.377411130253847 1294.2785679670787 0 1294.2785679670787 -1540.0286884646193 0 0 0 0 336.12837208080032 -436.89760809477048 0 -436.89760809477048 -2144.9928984033759 0 0 0 0 1221.8925964089522 1208.7508614308099 0 1208.7508614308099 -1533.9257188822512 0 0 0 0 -44.804522825515733 934.95423974440837 0 934.95423974440837 186.74878343261662 0 0 0 0 -777.6029490930141 383.14782398160605 0 383.14782398160605 -79.726671003449155 0 0 0 0 829.16152454028452 11.50194461832416 0 11.50194461832416 8.1475435958564049 0 0 0 0 1711.7524972656065 2384.4223440541318 0 2384.4223440541318 387.69528259892832 0 0 0 0 -12.002898207492406 2.554143045293948 0 2.554143045293948 19.879057200522453 0 0 0 0 -1179.9237689744505 99.959142624509695 0 99.959142624509695 241.82220782236982 0 0 0 0 2797.2390976615243 2151.542953039625 0 2151.542953039625 74.486153038938937 0 0 0 0 -784.07122386271476 -18.617818064078165 0 -18.617818064078165 147.56966064471635 0 0 0 0 -85.458090093958504 85.092777086200044 0 85.092777086200044 -15.648796539042799 0 0 0 0 -145.32094049988063 127.36953272709798 0 127.36953272709798 -90.128165491929394 0 0 0 0 -597.6504555372303 1754.8626888823928 0 1754.8626888823928 -1268.8542282575072 0 0 0 0 324.66171876513181 731.8176335893786 0 731.8176335893786 -626.73815457611636 0 0 0 0 1435.3583350154258 2312.476357154068 0 2312.476357154068 193.41214453574867 0 0 0 0 1490.1661610295014 1747.0467280109478 0 1747.0467280109478 2618.2888725495286 0 0 0 0 1225.2774541072531 747.45209026521752 0 747.45209026521752 -878.73642811441096 0 0 0 0 -211.7794392150463 1152.1919739626101 0 1152.1919739626101 -805.16025106693996 0 0 0 0 -699.33349636213097 50.139256285169722 0 50.139256285169722 -1626.1032319804508 0 0 0 0 -2852.321110790268 558.08265766757177 0 558.08265766757177 -1333.9076699583165 0 0 0 0 43.342296769341374 1343.2081875787435 0 1343.2081875787435 -3666.1641031119507 0 0 0 0 343.9889774384983 197.79125114678209 0 197.79125114678209 -1974.7141031891661 0 0 0 0 1255.2931876813382 618.03078373692551 0 618.03078373692551 -1872.2474944284331 0 0 0 0 885.61521373820506 49.315980848594336 0 49.315980848594336 -1738.5487800342071 0 0 0 0 1024.6124336186222 78.677030571117939 0 78.677030571117939 -2028.5183095218599 0 0 0 0 830.65690440380058 -230.59134498601634 0 -230.59134498601634 -2686.9556268975575 0 0 0 0 646.25701852830025 491.93658931169193 0 491.93658931169193 -2551.6743649570562 0 0 0 0 656.98665480947238 285.62740216864768 0 285.62740216864768 -1228.4733119177836 0 0 0 0 299.88250192527812 -330.64626918445538 0 -330.64626918445538 -1695.6654959285806 0 0 0 0 1367.0185159091634 -544.26679755283112 0 -544.26679755283112 -3654.0500316766097 0 0 0 0 675.18367839920393 -867.69156062898401 0 -867.69156062898401 -1445.8655084912752 0 0 0 0 769.44747373276186 547.21735311327211 0 547.21735311327211 -657.34456433664309 0 0 0 0 -3357.76437500662 1838.7866173235852 0 1838.7866173235852 -906.59317994990852 0 0 0 0 -2391.8784246975702 2274.0976825724174 0 2274.0976825724174 -2130.5197609273455 0 0 0 0 -5.3302079288846045 -7.4976258601893591 0 -7.4976258601893591 -33.604771833204893 0 0 0 0 -1313.411720072414 1528.8725325507185 0 1528.8725325507185 -3377.7997677497624 0 0 0 0 -769.92077951192186 1465.3812698636029 0 1465.3812698636029 -1906.7219112281673 0 0 0 0 -1302.5118855813416 1375.9770160204935 0 1375.9770160204935 -1862.5934966908681 0 0 0 0 -988.38022422371432 1165.6326408647001 0 1165.6326408647001 -1799.9014123575325 0 0 0 0 -792.13745770196692 1452.6215375918255 0 1452.6215375918255 -2311.6825616503629 0 0 0 0 -310.42677802845719 764.56310767599643 0 764.56310767599643 -2312.6313800914672 0 0 0 0 -2531.0179449043135 179.31211447485111 0 179.31211447485111 -2289.5075621286633 0 0 0 0 -347.74370452676521 988.61740671197913 0 988.61740671197913 -1387.4440442432169 0 0 0 0 -544.92996614048752 1216.3155048420958 0 1216.3155048420958 -1648.0111982784802 0 0 0 0 -735.29499995303922 1304.7808005303305 0 1304.7808005303305 -1374.7544341193243 0 0 0 0 -354.13854012155934 402.1127599482279 0 402.1127599482279 -1341.6525287990444 0 0 0 0 -446.69099200848541 1052.5248489123787 0 1052.5248489123787 -1757.4423020581453 0 0 0 0 -398.42428054667835 1136.3188265643985 0 1136.3188265643985 -2147.2514944439463 0 0 0 0 -194.82630652467924 807.21090547911081 0 807.21090547911081 -1559.2982037636384 0 0 0 0 -347.09169785147969 727.33984420320667 0 727.33984420320667 -1015.1642624818123 0 0 0 0 -189.90010604920099 190.27131524900233 0 190.27131524900233 -362.47581385458761 0 0 0 0 -82.047495092177996 264.23823620516487 0 264.23823620516487 -1006.5603880877177 0 0 0 0 -59.766675432947522 408.81722524299039 0 408.81722524299039 -1411.3918311269808 0 0 0 0 -238.08307326726208 -205.64318238998749 0 -205.64318238998749 -248.82874968123724 0 0 0 0 -254.75973253889242 208.95359958616245 0 208.95359958616245 303.40665351682401 0 0 0 0 -149.41950990650366 8.3512558311631437 0 8.3512558311631437 -353.79051104137034 0 0 0 0 -3237.9113287128494 881.75311722738297 0 881.75311722738297 36.150156749190501 0 0 0 0 -1603.5904195849507 1176.7023980070007 0 1176.7023980070007 -1440.7108491146573 0 0 0 0 412.34444607079786 741.42303105391329 0 741.42303105391329 -1575.2874189746299 0 0 0 0 -5.6882798381479063 9.6556013463928707 0 9.6556013463928707 -17.015323942339819 0 0 0 0 34.078034603138804 394.87723895070667 0 394.87723895070667 -281.38756437155098 0 0 0 0 -1653.179564245911 698.20144489624181 0 698.20144489624181 31.523530775666586 0 0 0 0 -418.09024125811629 -59.375021928753995 0 -59.375021928753995 -39.814409612488816 0 0 0 0 -476.34333525715101 123.53874132901819 0 123.53874132901819 -60.726335648621898 0 0 0 0 346.36926686712832 -436.63860449990534 0 -436.63860449990534 -135.63452894001966 0 0 0 0 -843.85502089928195 539.36504883303132 0 539.36504883303132 630.03076537905508 0 0 0 0 527.0491105019828 407.79162821126374 0 407.79162821126374 -333.45519202771538 0 0 0 0 -11.892729612236934 10.114114753490902 0 10.114114753490902 -8.6489713957530228 0 0 0 0 -1307.2613257980447 -1155.6923900334805 0 -1155.6923900334805 495.32884077736526 0 0 0 0 -264.43234068343008 -126.95830564774587 0 -126.95830564774587 53.368305322546803 0 0 0 0 -129.32996912630915 104.66131725050218 0 104.66131725050218 155.23336994353667 0 0 0 0 -18.664985919645915 24.831878440552035 0 24.831878440552035 -35.583575305261917 0 0 0 0 208.04041037250136 408.9069593063432 0 408.9069593063432 204.92406240257515 0 0 0 0 98.271726514991315 -75.407116085443704 0 -75.407116085443704 -27.32335826866165 0 0 0 0 29.464462036135956 35.529540984326559 0 35.529540984326559 108.90633040588 0 0 0 0 -91.152164819577592 83.378366346452822 0 83.378366346452822 198.25119093223839 0 0 0 0 -93.412576816018827 39.863896880190168 0 39.863896880190168 18.290979621291626 0 0 0 0 57.521510626227609 103.43580970698122 0 103.43580970698122 3.8844440573302563 0 0 0 0 -40.929198611534957 197.2993203549413 0 197.2993203549413 117.31254931088006 0 0 0 0 -32.748136993892331 172.92572967761862 0 172.92572967761862 48.347778219344036 0 0 0 0 -24.874504429425812 38.504075403710146 0 38.504075403710146 -34.135871794865295 0 0 0 0 -116.59204408737423 -111.36520530772214 0 -111.36520530772214 67.038235198604525 0 0 0 0 -2.9896565683953042 18.301576174208982 0 18.301576174208982 -6.087061969072181 0 0 0 0 -187.76198869047948 -53.25823397035856 0 -53.25823397035856 332.31989527241967 0 0 0 0 -381.21870373045385 -220.47974734021409 0 -220.47974734021409 -30.658712259319145 0 0 0 0 -3.0651890505754693 2.9626586908555552 0 2.9626586908555552 -4.4766350464490188 0 0 0 0 455.77660660126276 17.439525689853326 0 17.439525689853326 -250.35983599080646 0 0 0 0 -40.279859813341737 52.745358050514639 0 52.745358050514639 -26.749537638712098 0 0 0 0 -8.3208905123392469 215.70586093359452 0 215.70586093359452 161.10946392411279 0 0 0 0 202.55424019520706 228.65241659367166 0 228.65241659367166 45.484579231633688 0 0 0 0 183.82035388106033 263.11818824217335 0 263.11818824217335 23.455983861524146 0 0 0 0 -97.924770323021221 117.43561938326457 0 117.43561938326457 289.91669254500812 0 0 0 0 60.863866332045291 72.596945862664143 0 72.596945862664143 47.475413386244327 0 0 0 0 -22.959238953615568 61.096271943042666 0 61.096271943042666 -36.494478436405188 0 0 0 0 -17.89886776782523 46.927147346346842 0 46.927147346346842 28.924815015044601 0 0 0 0 33.364705195868737 155.71324517481844 0 155.71324517481844 15.161601300991606 0 0 0 0 -47.163768417780375 58.574589222444047 0 58.574589222444047 8.3723533252777997 0 0 0 0 -47.470946033694418 59.480032736630164 0 59.480032736630164 8.3848739776294678 0 0 0 0 -17.425196511273825 41.632003532645882 0 41.632003532645882 25.344515550583424 0 0 0 0 -21.957084178334199 37.932399545239122 0 37.932399545239122 28.413993472097815 0 0 0 0 30.268736142235866 62.721742631012603 0 62.721742631012603 57.999680081411498 0 0 0 0 -68.656916687780466 71.680891787916522 0 71.680891787916522 1.2419443074946628 0 0 0 0 -90.028652159955527 757.36868904945732 0 757.36868904945732 338.24627707844775 0 0 0 0 483.06564253127362 584.97567995755526 0 584.97567995755526 9.5528840793776908 0 0 0 0 -51.901384710770799 490.84490933966299 0 490.84490933966299 171.08166258786514 0 0 0 0 -29.5996087036674 408.64157184839769 0 408.64157184839769 -30.094942806346808 0 0 0 0 -492.71275880713802 503.51133806876169 0 503.51133806876169 302.49719829931564 0 0 0 0 -34.501327527868519 28.645172616661974 0 28.645172616661974 -23.88380135902932 0 0 0 0 -428.62489133604686 180.21136575355922 0 180.21136575355922 190.28417090186849 0 0 0 0 -6.6925030848069582 713.64715739282838 0 713.64715739282838 264.66304265568033 0 0 0 0 -179.61345390300448 400.27804870005093 0 400.27804870005093 106.87953388076858 0 0 0 0 -81.715399406955839 198.38569271043525 0 198.38569271043525 166.93106946364423 0 0 0 0 174.98914199456522 230.85863144229825 0 230.85863144229825 54.871005328372121 0 0 0 0 93.946468420872407 247.51597833049891 0 247.51597833049891 54.470761966062128 0 0 0 0 -133.60077635125344 366.19265227833239 0 366.19265227833239 131.1529966382368 0 0 0 0 -81.657770268488093 328.96953556298831 0 328.96953556298831 49.103226937273575 0 0 0 0 -135.61994452690124 320.99204836482386 0 320.99204836482386 66.420345276419539 0 0 0 0 -238.26153592023184 162.63888586030953 0 162.63888586030953 37.112051496513232 0 0 0 0 -93.089544897082305 103.67455248447368 0 103.67455248447368 -30.832240474352147 0 0 0 0 -95.979764564481229 109.73440078359636 0 109.73440078359636 -10.238906961400062 0 0 0 0 -3.5220769045117777 198.929571069144 0 198.929571069144 40.655168415549269 0 0 0 0 386.30235153843387 93.062227503691247 0 93.062227503691247 -146.20566038835386 0 0 0 0 -91.512779333752405 129.51008848450874 0 129.51008848450874 -0.067132189411495347 0 0 0 0 9.2437722684263122 5.9439895668379279 0 5.9439895668379279 1.8246419760908736 0 0 0 0 47.186356921381957 303.54698307930084 0 303.54698307930084 1071.725360555487 0 0 0 0 -13.860792279752786 -20.341210334205243 0 -20.341210334205243 -101.90583014090953 0 0 0 0 -17.57595009238112 71.085155266904152 0 71.085155266904152 -56.716149261082478 0 0 0 0 278.94082188809443 122.472431233924 0 122.472431233924 -101.18425290392042 0 0 0 0 -91.40459829602014 121.17242651302934 0 121.17242651302934 -26.512959045459866 0 0 0 0 -67.617615961120464 70.330621316679753 0 70.330621316679753 -14.652004344170564 0 0 0 0 1.5350796239655153 30.327634811631782 0 30.327634811631782 5.4947632615986208 0 0 0 0 190.58135905239214 62.940034627008572 0 62.940034627008572 1.5507396089233225 0 0 0 0 21.373238496427582 57.585508667773396 0 57.585508667773396 -25.214116011783801 0 0 0 0 -95.411249806464184 72.218540099245729 0 72.218540099245729 10.423632413985615 0 0 0 0 -17.359101720247303 58.945124218641631 0 58.945124218641631 -9.5401109116474174 0 0 0 0 -95.278233387338332 66.480155220557208 0 66.480155220557208 -11.441471069847466 0 0 0 0 -8.7085888178602833 45.226921940840356 0 45.226921940840356 -10.95566970131793 0 0 0 0 40.404953043702335 75.735029575240333 0 75.735029575240333 7.7560621313168667 0 0 0 0 13.901403152529383 58.942524657642934 0 58.942524657642934 9.7924593322677538 0 0 0 0 -47.87994475442629 57.13909234578081 0 57.13909234578081 -6.4158286840552137 0 0 0 0 33.521211971262389 81.089022345320672 0 81.089022345320672 -3.3328419435083561 0 0 0 0 32.63231197834466 -80.960659649244917 0 -80.960659649244917 35.307303024499561 0 0 0 0 -30.68250377934919 58.909796066534909 0 58.909796066534909 -17.786627551045967 0 0 0 0 155.80754359274579 71.24702173647529 0 71.24702173647529 7.6483971725756419 0 0 0 0 23.655158117405719 45.377105513251294 0 45.377105513251294 5.9361899375413714 0 0 0 0 -186.22090807922359 -59.340160564664984 0 -59.340160564664984 15.874366458243458 0 0 0 0 -15.577445094499623 30.04710904572643 0 30.04710904572643 2.5570039011388417 0 0 0 0 -229.61236113401537 -15.86600335528783 0 -15.86600335528783 0.018973017620737664 0 0 0 0 -4.5292392818155349 169.55210497760709 0 169.55210497760709 83.703874059843656 0 0 0 0 160.42690311168917 88.845403016865021 0 88.845403016865021 -657.89312909204455 0 0 0 0 -137.44642894466324 688.82733945131804 0 688.82733945131804 -1152.1402568112535 0 0 0 0 -218.31818380458981 317.99680069102669 0 317.99680069102669 -307.1724237309536 0 0 0 0 -157.81563153320894 276.11340324346384 0 276.11340324346384 -349.16410442543565 0 0 0 0 -508.17160377709661 830.26166678289883 0 830.26166678289883 -827.92933490061841 0 0 0 0 -110.39416073615939 722.81242550060415 0 722.81242550060415 -1126.4328398150974 0 0 0 0 382.76521645874163 67.921460540164844 0 67.921460540164844 -136.94296911005222 0 0 0 0 31.579789074709524 9.4976358128767941 0 9.4976358128767941 -21.352798757650248 0 0 0 0 238.14740273344069 -110.65322160514188 0 -110.65322160514188 -104.28951772618166 0 0 0 0 -1026.1218046155118 876.31317555830174 0 876.31317555830174 -463.5949543501265 0 0 0 0 -474.75401422123832 127.48106292579087 0 127.48106292579087 161.42012497337419 0 0 0 0 1.1127776104410536 1.1243061629218687 0 1.1243061629218687 -9.1331809695694801 0 0 0 0 298.27097706916356 -37.318013456817425 0 -37.318013456817425 -1720.4454400481482 0 0 0 0 -441.66270503775013 1197.3804726141716 0 1197.3804726141716 -1843.8880176223174 0 0 0 0 -583.86241313254868 390.32398263602954 0 390.32398263602954 -2062.3587150628373 0 0 0 0 -1298.9498102719208 990.51028768932156 0 990.51028768932156 -1492.6392619341204 0 0 0 0 -131.79340158842024 982.99714451168256 0 982.99714451168256 -1592.0365409824881 0 0 0 0 -349.18940754944197 790.55024350402527 0 790.55024350402527 -861.73312756753148 0 0 0 0 -335.140938861834 800.48810887212312 0 800.48810887212312 -1499.728271500644 0 0 0 0 -281.5234668955236 811.76637407694216 0 811.76637407694216 -1617.2459065955627 0 0 0 0 -252.97099686314414 325.42849589992147 0 325.42849589992147 -1011.8484773403761 0 0 0 0 -572.28773827303303 673.25920705091994 0 673.25920705091994 -1808.6210375842929 0 0 0 0 -287.98571976018047 486.92330422454324 0 486.92330422454324 -1711.5637617415196 0 0 0 0 -39.45117379843785 81.237691528353537 0 81.237691528353537 -62.893646267409025 0 0 0 0 -506.61914321898985 800.25243259749186 0 800.25243259749186 -1589.5266749115908 0 0 0 0 83.092101012094645 370.72002983749553 0 370.72002983749553 -2099.2712037134261 0 0 0 0 1481.4919758111209 1035.9164554406671 0 1035.9164554406671 -4268.4510323268769 0 0 0 0 14.145069243657275 30.177340454079598 0 30.177340454079598 -12.475878890973377 0 0 0 0 703.67091853236343 1643.7494373942682 0 1643.7494373942682 -1601.7700439219807 0 0 0 0 2040.3383057852843 2551.3856895435802 0 2551.3856895435802 -1237.1584516693256 0 0 0 0 379.62994929781416 1430.988487369119 0 1430.988487369119 -1270.6577020675031 0 0 0 0 -579.35263122853212 1750.5270491040719 0 1750.5270491040719 337.61039412785613 0 0 0 0 -1293.8858568523901 572.25729051623421 0 572.25729051623421 -799.71719545048836 0 0 0 0 -1000.2028145754621 1540.7338240940321 0 1540.7338240940321 985.41371493038605 0 0 0 0 -113.48518740398504 1586.0682764040066 0 1586.0682764040066 -1026.2119503819995 0 0 0 0 642.28395589334468 554.96087521631125 0 554.96087521631125 354.32000660324411 0 0 0 0 -274.92875417546838 463.06482568221872 0 463.06482568221872 -975.25718938402133 0 0 0 0 -18.648363584133389 9.0219329743190428 0 9.0219329743190428 1.9829852461657822 0 0 0 0 568.75875974903465 1230.8392560012726 0 1230.8392560012726 -580.57501188354217 0 0 0 0 73.573316771769896 224.13322915212484 0 224.13322915212484 870.63617072349007 0 0 0 0 22.178829590912301 11.077045782362333 0 11.077045782362333 -18.130800382250168 0 0 0 0 225.52412807021756 -214.71578062146 0 -214.71578062146 263.15767250589488 0 0 0 0 -32.03408698993735 30.609031135449186 0 30.609031135449186 597.77461638418026 0 0 0 0 35.999647760414518 27.081762785011961 0 27.081762785011961 551.17770371898951 0 0 0 0 -67.946153283809963 63.608365355630866 0 63.608365355630866 -7.3575227185763161 0 0 0 0 -130.54631370912102 117.54182938556369 0 117.54182938556369 452.37868302888819 0 0 0 0 44.649978149187518 -33.71764034161879 0 -33.71764034161879 558.35759871326445 0 0 0 0 -1.7779503151741114 11.732415105393102 0 11.732415105393102 -1.0384896014897151 0 0 0 0 38.126754608458214 48.63610277862017 0 48.63610277862017 397.29086784689571 0 0 0 0 21.709743966755923 184.13962372614333 0 184.13962372614333 402.44221036613135 0 0 0 0 -48.358817139291205 23.98928948658795 0 23.98928948658795 121.54619900444231 0 0 0 0 252.20845510804793 163.98630509241048 0 163.98630509241048 134.40070106492203 0 0 0 0 63.157715559762437 145.88133879644738 0 145.88133879644738 132.70513938778004 0 0 0 0 21.66947339658509 160.53912848815526 0 160.53912848815526 512.57220959191181 0 0 0 0 488.04819780529942 23.66451774055713 0 23.66451774055713 -320.41971482473309 0 0 0 0 87.719794319040375 -117.87083042143786 0 -117.87083042143786 -534.75176329827809 0 0 0 0 29.533951789170715 237.59185057094896 0 237.59185057094896 -516.32624373574072 0 0 0 0 -169.95363176539104 -17.293005433079088 0 -17.293005433079088 -229.88859507447705 0 0 0 0 124.67523530640756 225.34774074325105 0 225.34774074325105 -42.933658028607169 0 0 0 0 -300.63543531049436 367.06096492427559 0 367.06096492427559 -55.546722257218789 0 0 0 0 -3.2198450957330351 630.59949695929663 0 630.59949695929663 -1110.8437487966585 0 0 0 0 -104.77748974628048 435.31818678729906 0 435.31818678729906 -599.20997000723582 0 0 0 0 -70.197616226985701 369.40247985740552 0 369.40247985740552 -264.49124248688895 0 0 0 0 -45.437565745873144 320.64921730276183 0 320.64921730276183 -612.15804192530868 0 0 0 0 -142.40125121802885 223.35150051571782 0 223.35150051571782 258.58328704595624 0 0 0 0 -27.741508935665479 65.946803382954386 0 65.946803382954386 -6.4762133476660892 0 0 0 0 -195.24363474407437 75.302023911772267 0 75.302023911772267 430.47727537753963 0 0 0 0 -511.48884491404897 132.07387158620986 0 132.07387158620986 480.31867489923752 0 0 0 0 434.02873568666109 23.207332260921248 0 23.207332260921248 -265.60200104766409 0 0 0 0 72.966088399436558 117.05124843133672 0 117.05124843133672 -88.760791985689139 0 0 0 0 -42.902531850768128 59.209470345562792 0 59.209470345562792 -3.9401653223610467 0 0 0 0 -37.955607034171408 89.148533212006441 0 89.148533212006441 30.034789040468695 0 0 0 0 49.115387992969772 144.23889321729257 0 144.23889321729257 45.789865084654593 0 0 0 0 -19.883418422196939 60.16016594912324 0 60.16016594912324 0.80197080115938846 0 0 0 0 202.47788350121118 115.10709088368458 0 115.10709088368458 -66.863884487604082 0 0 0 0 93.036132166016614 216.49333890505295 0 216.49333890505295 -160.71949481267802 0 0 0 0 -17.811456347997591 215.9305085490123 0 215.9305085490123 -29.152566177966946 0 0 0 0 -36.99696966924239 91.321253265716223 0 91.321253265716223 -129.81007738796325 0 0 0 0 173.26126125166047 248.32538573722559 0 248.32538573722559 -750.72122982257133 0 0 0 0 181.03792254584164 421.8014389146681 0 421.8014389146681 -1419.1751918090158 0 0 0 0 19.586542821401963 727.67819434088233 0 727.67819434088233 -1136.8177722209803 0 0 0 0 -3.5489370256608481 -5.8717613631895631 0 -5.8717613631895631 -4.3489514806669547 0 0 0 0 367.85160563212412 -191.91007413899206 0 -191.91007413899206 -324.41257863175269 0 0 0 0 -909.14178619241648 932.7037688788987 0 932.7037688788987 -898.58250503266754 0 0 0 0 -448.32148220509407 287.81346674737142 0 287.81346674737142 -99.28493738664838 0 0 0 0 -301.55466450945823 659.08617747910466 0 659.08617747910466 -865.20521384484164 0 0 0 0 -372.85822361656028 435.64665767629413 0 435.64665767629413 -1562.7036347573812 0 0 0 0 -305.94764976146689 758.96599589448306 0 758.96599589448306 -1547.7053904909189 0 0 0 0 -530.19014753789088 784.35689017413461 0 784.35689017413461 -1262.8750019604267 0 0 0 0 -174.6526198581123 691.41078005919917 0 691.41078005919917 -1284.3204372296286 0 0 0 0 -292.35373522305963 588.09581894951225 0 588.09581894951225 -947.36913593771897 0 0 0 0 -245.48242052545902 181.01529242257857 0 181.01529242257857 -164.68042031370715 0 0 0 0 -181.00217984693154 156.83702633104986 0 156.83702633104986 -483.02311292564264 0 0 0 0 -20.999541326076724 16.628442957066 0 16.628442957066 25.880072526226286 0 0 0 0 -2.6866329799617574 1.4549664020143211 0 1.4549664020143211 -21.723015634502332 0 0 0 0 43.427134821147774 18.015585030509101 0 18.015585030509101 -322.51222315538325 0 0 0 0 -226.55345391843002 268.20692166805384 0 268.20692166805384 -92.161824523413088 0 0 0 0 -148.37027877527726 64.09680469668092 0 64.09680469668092 -3.3872347974051991 0 0 0 0 -13.171768314109158 -1.4587537862384465 0 -1.4587537862384465 37.584181869947287 0 0 0 0 91.938647420582129 -61.65382852179755 0 -61.65382852179755 31.094524078489485 0 0 0 0 -22.493040927132824 6.8523565965006128 0 6.8523565965006128 -20.568264412984718 0 0 0 0 -0.78515652104375988 3.1173949618535346 0 3.1173949618535346 -1.8588180307936852 0 0 0 0 -20.045548037885567 23.425745185487386 0 23.425745185487386 41.031335967980027 0 0 0 0 -49.587579788349103 -46.506085937642638 0 -46.506085937642638 -1.2923375775790191 0 0 0 0 1.2262805654721092 4.651359735894161 0 4.651359735894161 5.2653637078853794 0 0 0 0 -216.62611516309698 191.35355497001001 0 191.35355497001001 -163.27999540548626 0 0 0 0 -78.894054414413404 -57.891534852715267 0 -57.891534852715267 -3.9197794039864675 0 0 0 0 -164.86600609180459 -41.131070481467759 0 -41.131070481467759 36.570266991075187 0 0 0 0 -196.58314962693112 -6.8802478931120277 0 -6.8802478931120277 79.802171857263602 0 0 0 0 -80.946876290196087 -0.84362157450595987 0 -0.84362157450595987 55.147030641099263 0 0 0 0 -2.5649341070017329 23.940700283544402 0 23.940700283544402 48.744262503043529 0 0 0 0 -73.090224450093956 101.33696369741483 0 101.33696369741483 53.948504855259671 0 0 0 0 -134.02126556109579 92.323117428713886 0 92.323117428713886 -28.404778487951262 0 0 0 0 -107.3710077636897 25.151723256582045 0 25.151723256582045 98.807742901146412 0 0 0 0 -50.26623646220105 41.963973801954126 0 41.963973801954126 31.002265723851451 0 0 0 0 -129.52692216082505 76.463381824803946 0 76.463381824803946 40.428024723703857 0 0 0 0 -6.2722849796211193 3.4232976693688499 0 3.4232976693688499 56.152900240195464 0 0 0 0 -181.58594733108475 72.181678771492443 0 72.181678771492443 51.915134018971003 0 0 0 0 -211.44267825670249 48.006494148074125 0 48.006494148074125 131.21095274908294 0 0 0 0 -214.95836115937709 57.934115263873537 0 57.934115263873537 80.50095802121723 0 0 0 0 4.083381572150671 10.721007476462376 0 10.721007476462376 52.871841784632352 0 0 0 0 -15.497941585585906 17.343071882533536 0 17.343071882533536 68.777759646217817 0 0 0 0 -119.02895100732712 52.113613889581757 0 52.113613889581757 12.695026077853981 0 0 0 0 -108.39675526611245 10.271399809629656 0 10.271399809629656 64.281894627594738 0 0 0 0 -130.04840719393542 53.349756618174069 0 53.349756618174069 43.404026765434537 0 0 0 0 -14.013480022461863 17.096568221638449 0 17.096568221638449 46.287661123646444 0 0 0 0 -138.63415727151732 58.651515715770074 0 58.651515715770074 51.473907696796232 0 0 0 0 -91.041650726554508 42.190404942441091 0 42.190404942441091 20.00606770120794 0 0 0 0 -88.651884973893175 46.823100131354295 0 46.823100131354295 16.13776326138759 0 0 0 0 -40.415016074166573 37.076753822426063 0 37.076753822426063 22.135713101080881 0 0 0 0 -49.491215548427135 30.90045694757282 0 30.90045694757282 20.097801397139847 0 0 0 0 -645.67063073090685 2100.3953458879696 0 2100.3953458879696 569.64694417861028 0 0 0 0 -106.46564748382661 71.606466881956294 0 71.606466881956294 -18.910935347550549 0 0 0 0 -34.610827602537199 18.897984720466866 0 18.897984720466866 13.345337997184089 0 0 0 0 16.066640855277342 13.935926015751079 0 13.935926015751079 -9.283528364945056 0 0 0 0 -1604.0579525511421 -635.37100068366271 0 -635.37100068366271 -1079.0555579005668 0 0 0 0 -77.27459921042464 132.29873256088467 0 132.29873256088467 -153.88193873625278 0 0 0 0 -18.128890310173972 12.517519465010167 0 12.517519465010167 23.576557475095825 0 0 0 0 5.0265539264364634 6.0010998631769326 0 6.0010998631769326 26.223595828123507 0 0 0 0 -50.38873668998167 14.116018875470218 0 14.116018875470218 37.359542793303262 0 0 0 0 -53.467491964926012 46.347827274628798 0 46.347827274628798 57.721751016237249 0 0 0 0 -251.8805829280027 617.50073145609349 0 617.50073145609349 -362.94476970228425 0 0 0 0 20.786547880095895 -26.59383079971667 0 -26.59383079971667 53.061613583267899 0 0 0 0 3.3969606606260641 -49.794276428867306 0 -49.794276428867306 125.07008570971084 0 0 0 0 -1.2247333375233325 3.5412229964029791 0 3.5412229964029791 -1.7763182726059767 0 0 0 0 4.3894818093604044 14.716809411400362 0 14.716809411400362 15.14427118762859 0 0 0 0 -292.47835819608008 597.06400577204477 0 597.06400577204477 -580.77971053708461 0 0 0 0 -254.47012208477463 480.85140687114836 0 480.85140687114836 -305.35696060140617 0 0 0 0 -262.45545444879099 394.24596448796001 0 394.24596448796001 -308.09926588734379 0 0 0 0 -265.25731845200062 364.75224722868006 0 364.75224722868006 -458.46066147633246 0 0 0 0 -11.582570096477866 493.62033439107472 0 493.62033439107472 -713.54208860994549 0 0 0 0 80.045126804179745 210.56787577457726 0 210.56787577457726 -534.07753854712792 0 0 0 0 66.038719640462659 382.30697176151443 0 382.30697176151443 -667.41532944270148 0 0 0 0 -147.80974050646182 338.0161144106969 0 338.0161144106969 -491.63154853484593 0 0 0 0 -402.36620652637794 328.06364483075595 0 328.06364483075595 -296.89051834888232 0 0 0 0 482.96164511464303 159.64481940091355 0 159.64481940091355 -111.67858982986218 0 0 0 0 124.65374114504266 29.302979102031713 0 29.302979102031713 15.103110451673274 0 0 0 0 1.4829176123571415 0.35575437035416257 0 0.35575437035416257 3.1179291982462587 0 0 0 0 -95.070844414105522 272.31185586491483 0 272.31185586491483 -55.18833228526637 0 0 0 0 -248.1932547075121 695.77532874565804 0 695.77532874565804 -90.507413766012178 0 0 0 0 46.805071441980544 -11.215590617561247 0 -11.215590617561247 -146.1525519414281 0 0 0 0 -232.80361500027607 40.062880361543193 0 40.062880361543193 -345.58604980830569 0 0 0 0 1.9874661063440726 -55.088973003560568 0 -55.088973003560568 221.66883994884847 0 0 0 0 -24.597013263100962 46.259535491835777 0 46.259535491835777 320.59898284385417 0 0 0 0 38.028688261110801 59.922417967922229 0 59.922417967922229 121.99579216291022 0 0 0 0 -47.757521580642788 66.010346846705943 0 66.010346846705943 135.61218458492658 0 0 0 0 -29.375189232203411 30.110063811822329 0 30.110063811822329 185.89256761262368 0 0 0 0 -24.234766260036849 17.352237152284943 0 17.352237152284943 84.283709580820869 0 0 0 0 -50.918132301216247 3.5186462015262805 0 3.5186462015262805 118.06098495020706 0 0 0 0 -15.69529650808181 26.713432938151527 0 26.713432938151527 104.17345928473515 0 0 0 0 -38.887763669152264 10.16569036564124 0 10.16569036564124 99.074258114909753 0 0 0 0 -59.741545768381911 95.088249425898539 0 95.088249425898539 85.082188990141731 0 0 0 0 59.618726332511869 -296.30407719468349 0 -296.30407719468349 494.14345379278711 0 0 0 0 -64.561312459729379 51.836292947700713 0 51.836292947700713 155.89223711914383 0 0 0 0 1.6462718374149006 3.3677176606355204 0 3.3677176606355204 4.118390772005796 0 0 0 0 -14.440538675101521 308.49487897686402 0 308.49487897686402 -421.45657587093592 0 0 0 0 -137.30612017512613 115.54030765704374 0 115.54030765704374 -250.44914994669307 0 0 0 0 -103.95293300389312 377.78856123836886 0 377.78856123836886 -654.83716593655117 0 0 0 0 5.7947550191723565 9.5067583778173343 0 9.5067583778173343 10.581262057375653 0 0 0 0 -223.08780214731814 315.13771455315145 0 315.13771455315145 -294.18899957530084 0 0 0 0 -89.822580690917675 152.69774408251396 0 152.69774408251396 -18.056713660116657 0 0 0 0 -92.323066532335361 44.064563011161226 0 44.064563011161226 -254.51979027608922 0 0 0 0 -28.157922129401413 105.52446391671765 0 105.52446391671765 15.428754791399115 0 0 0 0 76.976200640958268 142.30868245774764 0 142.30868245774764 -20.364675257551426 0 0 0 0 -6.0630130531426403 94.710365903596539 0 94.710365903596539 -15.192986728041433 0 0 0 0 -6.4369848548667505 180.86304548995395 0 180.86304548995395 -237.06715184713539 0 0 0 0 -81.710782408160867 41.426180078358129 0 41.426180078358129 -51.553712606124463 0 0 0 0 159.31997502464219 128.44443601931562 0 128.44443601931562 -106.22007898765878 0 0 0 0 -5.8587340225234357 87.012226341787084 0 87.012226341787084 -77.535593316686573 0 0 0 0 33.024449308995202 80.282280907002985 0 80.282280907002985 -87.912093391166707 0 0 0 0 30.801274370602073 64.588226571696481 0 64.588226571696481 36.19717750952347 0 0 0 0 -14.30323431477882 72.701732321267627 0 72.701732321267627 20.530040067616937 0 0 0 0 -137.96421435460798 274.65164378855843 0 274.65164378855843 -4.7566915450788656 0 0 0 0 -171.50259365936449 274.01881147624499 0 274.01881147624499 -4.7473808469803771 0 0 0 0 53.487063185631996 72.066291957853537 0 72.066291957853537 -63.765258237559465 0 0 0 0 78.338372180883141 113.91157344199797 0 113.91157344199797 77.666366706705134 0 0 0 0 126.93670983595985 298.30539920484148 0 298.30539920484148 -221.0273248116282 0 0 0 0 485.49997218576027 26.144510277619702 0 26.144510277619702 -342.17884988000878 0 0 0 0 -155.01155048319197 385.21046188608489 0 385.21046188608489 -298.61944747588132 0 0 0 0 268.9984699144261 63.498528193726088 0 63.498528193726088 -404.23608262577181 0 0 0 0 257.6793322761223 101.80690930655328 0 101.80690930655328 -199.86232294865476 0 0 0 0 7.7525500626143184 219.95167069243325 0 219.95167069243325 -235.78837330547685 0 0 0 0 4.833023010918863 60.116464762778378 0 60.116464762778378 -95.064016825711263 0 0 0 0 -410.04670236504899 171.52426767313591 0 171.52426767313591 164.44112362426677 0 0 0 0 4.9445629673939315 65.714263460668377 0 65.714263460668377 -102.19522138481045 0 0 0 0 -14.582523129893389 285.82984436016761 0 285.82984436016761 -137.33048376305669 0 0 0 0 176.08406804291917 -83.727545859856491 0 -83.727545859856491 34.44402311592421 0 0 0 0 239.03661153322901 -42.139766102998692 0 -42.139766102998692 -179.60241187398424 0 0 0 0 296.80572346206463 -122.03040912301003 0 -122.03040912301003 -137.56239507051214 0 0 0 0 -212.20303353553754 64.152505762205692 0 64.152505762205692 74.481562570552342 0 0 0 0 -110.19434739675489 148.84594615147671 0 148.84594615147671 -198.03429396761931 0 0 0 0 -93.380013842185349 10.826901346112379 0 10.826901346112379 5.0078787905270872 0 0 0 0 0.33742947120186351 96.049253312217445 0 96.049253312217445 11.273632548136334 0 0 0 0 -265.02448759427898 36.869429140604097 0 36.869429140604097 77.553754498134367 0 0 0 0 40.644655122052427 92.945858307903336 0 92.945858307903336 6.7078334535326576 0 0 0 0 -200.32423026207834 154.17235960975813 0 154.17235960975813 31.884792157183028 0 0 0 0 -190.70608204847667 33.592401820838859 0 33.592401820838859 28.666291004425148 0 0 0 0 -117.09909439299372 80.56485894407524 0 80.56485894407524 43.302320206028526 0 0 0 0 -116.05620360963803 226.21247342559946 0 226.21247342559946 35.541921769370674 0 0 0 0 -183.11090751942538 171.41160528017645 0 171.41160528017645 2.24224631319521 0 0 0 0 -37.303243273318003 154.18717776179255 0 154.18717776179255 -54.266351622616639 0 0 0 0 32.71916626756191 103.50280424830314 0 103.50280424830314 -8.7772160824487173 0 0 0 0 6.5542761163733392 87.879493432198331 0 87.879493432198331 2.738358848353414 0 0 0 0 -285.23223806107126 131.46729569035233 0 131.46729569035233 67.278105113553465 0 0 0 0 33.801449060798404 105.0810979481771 0 105.0810979481771 -21.383074947501882 0 0 0 0 -10.298098621919053 101.12779370615317 0 101.12779370615317 -26.973258574238571 0 0 0 0 -36.830883493554211 145.70747774383653 0 145.70747774383653 -37.121013960088021 0 0 0 0 -27.316280388768064 91.300454116768378 0 91.300454116768378 -8.8746591502058436 0 0 0 0 7.2407597216570139 61.069629914128654 0 61.069629914128654 17.532848166767508 0 0 0 0 54.328138024569711 41.735188499335777 0 41.735188499335777 38.923653243135561 0 0 0 0 2.245299772839644 133.66917579101209 0 133.66917579101209 -6.4065198888238228 0 0 0 0 -19.15634132741252 91.592078273635707 0 91.592078273635707 14.985400947742164 0 0 0 0 -15.91153449533158 95.22659184839722 0 95.22659184839722 18.216233849867422 0 0 0 0 -15.318560861058359 113.14086280694028 0 113.14086280694028 8.9007658427217393 0 0 0 0 -7.9502952795570536 75.961009007108714 0 75.961009007108714 5.7814278086367636 0 0 0 0 25.249535025948717 94.002165307079849 0 94.002165307079849 -6.7462527802417753 0 0 0 0 -55.202755352496354 54.017019824366763 0 54.017019824366763 -19.133441520214092 0 0 0 0 -24.464150248793885 97.849851522783865 0 97.849851522783865 20.633336304512341 0 0 0 0 -30.399575059309427 69.188748204760486 0 69.188748204760486 41.580639886204153 0 0 0 0 -6.7086969508818584 123.15459073027887 0 123.15459073027887 49.095048828605286 0 0 0 0 -65.630190582334762 117.0260550652165 0 117.0260550652165 50.574468351867836 0 0 0 0 -33.590156101774483 65.873623063285777 0 65.873623063285777 48.082766966195777 0 0 0 0 -16.262904915741188 12.10853004826771 0 12.10853004826771 2.5739430872064304 0 0 0 0 -33.019812095080852 62.193122626078548 0 62.193122626078548 11.407467933531734 0 0 0 0 -16.5261731967705 45.948799964039722 0 45.948799964039722 14.404788553770231 0 0 0 0 -34.222358613033776 27.53669545890844 0 27.53669545890844 30.361432862959845 0 0 0 0 -85.915832581122231 52.982677861386037 0 52.982677861386037 16.379271203069948 0 0 0 0 23.74536074442949 91.154114088330971 0 91.154114088330971 -27.890689767169533 0 0 0 0 -9.8456502503591423 40.626361703673126 0 40.626361703673126 22.001593796948441 0 0 0 0 -5.5428816442177435 55.900362262712576 0 55.900362262712576 8.1087894558996823 0 0 0 0 9.8255480277493916 122.83044279725436 0 122.83044279725436 13.306481776584405 0 0 0 0 -2.0132340864438447 53.629500304188696 0 53.629500304188696 11.807328698574565 0 0 0 0 -5.420782328998591 39.080339147105946 0 39.080339147105946 7.7194127052232488 0 0 0 0 14.88334926601965 45.766444981039967 0 45.766444981039967 14.834467980253976 0 0 0 0 -1.2314888932575059 43.369427628107267 0 43.369427628107267 -6.3995522842713228 0 0 0 0 -57.595959412629476 45.240963953047839 0 45.240963953047839 4.9433927899278274 0 0 0 0 -23.021719780015701 59.498157439717033 0 59.498157439717033 -7.6400166575913318 0 0 0 0 -13.668739822507632 108.58668908510663 0 108.58668908510663 -4.1962919967627386 0 0 0 0 14.793662238953402 63.417608688250766 0 63.417608688250766 23.67902038426837 0 0 0 0 -33.9836322978922 46.118720442008879 0 46.118720442008879 -24.245121613131374 0 0 0 0 37.817318023297929 47.295566468619484 0 47.295566468619484 27.779831170366464 0 0 0 0 54.996672553912504 106.88947997607465 0 106.88947997607465 -61.13139173919626 0 0 0 0 18.355552018736489 121.75437233351113 0 121.75437233351113 -47.3700332113076 0 0 0 0 50.162093452877798 40.58857523586812 0 40.58857523586812 -17.968296908948105 0 0 0 0 44.868858118774369 66.423761338708573 0 66.423761338708573 -44.028725210511766 0 0 0 0 17.788893243952771 80.760975787416101 0 80.760975787416101 51.960292448304244 0 0 0 0 69.325841637524718 104.38390215026448 0 104.38390215026448 12.680218826280907 0 0 0 0 195.75031707304879 222.80641160774394 0 222.80641160774394 -473.01374235628464 0 0 0 0 65.7472459772398 -99.296344998569111 0 -99.296344998569111 -67.210363336052978 0 0 0 0 -263.46039380518778 155.98056214120152 0 155.98056214120152 -223.91711580511765 0 0 0 0 -148.41836734352546 87.639908864028257 0 87.639908864028257 -94.591050653660204 0 0 0 0 -8.4564532383950848 10.467129436449596 0 10.467129436449596 5.561730856003237 0 0 0 0 116.63130693403946 58.710889521164063 0 58.710889521164063 -34.151967452737154 0 0 0 0 -90.793099639769935 95.180866232978588 0 95.180866232978588 114.39618342387985 0 0 0 0 -122.13802317916998 36.020385745709063 0 36.020385745709063 24.496737570152618 0 0 0 0 -16.610977493489955 14.413421202374494 0 14.413421202374494 -25.573375662626745 0 0 0 0 8.6275410515328304 29.324609888708032 0 29.324609888708032 -36.727489877880373 0 0 0 0 23.749901971081272 18.93348255463934 0 18.93348255463934 -7.5234362070914358 0 0 0 0 -55.849744201811802 40.011854796085885 0 40.011854796085885 -12.514270901984702 0 0 0 0 -28.670628190321352 39.311224481939767 0 39.311224481939767 -10.641386285058502 0 0 0 0 -179.99104629780777 124.90956411380466 0 124.90956411380466 41.30356981047953 0 0 0 0 -192.34291493400087 213.26142513439117 0 213.26142513439117 -76.320313951349817 0 0 0 0 -384.57857309659448 177.99190317364992 0 177.99190317364992 -119.44935618364252 0 0 0 0 -192.72442890193634 194.85386799627304 0 194.85386799627304 -129.2437528076116 0 0 0 0 -1655.446323555072 262.25321982370224 0 262.25321982370224 206.19140967953717 0 0 0 0 -1.933740116888707 4.0189955352955309 0 4.0189955352955309 -9.7105076942164033 0 0 0 0 -363.05453617620515 -32.639066487499804 0 -32.639066487499804 -134.71788390382426 0 0 0 0 -75.042732917936064 52.691744003531404 0 52.691744003531404 -14.449937688166358 0 0 0 0 -421.17949542354654 431.31162422806028 0 431.31162422806028 -227.99442112898396 0 0 0 0 -0.72005756582740332 35.427610145319761 0 35.427610145319761 2.0668667734132669 0 0 0 0 -357.26363415735068 302.83312806281174 0 302.83312806281174 -274.75550469951122 0 0 0 0 -71.077127674230724 51.505478668568685 0 51.505478668568685 5.1774632713058963 0 0 0 0 6.3796710323658772 47.630868424894288 0 47.630868424894288 51.254244913288858 0 0 0 0 -28.773659049605712 26.418237534848458 0 26.418237534848458 21.300454609474713 0 0 0 0 -81.180887762646307 85.622525368948118 0 85.622525368948118 -45.476231759152142 0 0 0 0 -77.963402295992921 61.428316077753834 0 61.428316077753834 5.5871669300847486 0 0 0 0 -55.23085759192854 57.280213422036908 0 57.280213422036908 -11.25447165474975 0 0 0 0 -183.44843819580274 260.08397870490444 0 260.08397870490444 -57.014385915535968 0 0 0 0 -124.82330299688329 -60.802406499773497 0 -60.802406499773497 102.65264061000198 0 0 0 0 -25.878101036529529 9.1834676650998475 0 9.1834676650998475 26.178462850293954 0 0 0 0 -212.2533909590129 122.04250524380768 0 122.04250524380768 -75.762817539813113 0 0 0 0 -95.410853812911228 117.54571248605134 0 117.54571248605134 -140.47501539344375 0 0 0 0 -33.751457658741941 19.675723609941883 0 19.675723609941883 17.41498461854232 0 0 0 0 -118.76601765757368 157.7651973325992 0 157.7651973325992 -100.76350528883631 0 0 0 0 -386.33683460913653 311.7065824472063 0 311.7065824472063 -107.96553994680289 0 0 0 0 -317.91305568010284 377.97481793173938 0 377.97481793173938 -166.29534816060914 0 0 0 0 -141.65279046287469 124.63442424192908 0 124.63442424192908 -106.56447981725796 0 0 0 0 -18.410923032832088 11.183745728884389 0 11.183745728884389 -4.7696758700077169 0 0 0 0 -222.25320714015106 271.25430643376603 0 271.25430643376603 -145.56700337398797 0 0 0 0 -292.81751433869795 235.61882328394131 0 235.61882328394131 -62.659808569660527 0 0 0 0 -171.47307876033301 297.67047515333979 0 297.67047515333979 -206.98664128945529 0 0 0 0 -235.22120223805905 295.36381227541278 0 295.36381227541278 -103.89121116304887 0 0 0 0 -152.32756092745694 245.58897969316604 0 245.58897969316604 -130.06421816642978 0 0 0 0 -127.06336158816703 181.651709900063 0 181.651709900063 -79.556297990478924 0 0 0 0 -209.28407372473157 223.5174738013302 0 223.5174738013302 -49.255837917982717 0 0 0 0 -156.55962217990964 213.37216653646465 0 213.37216653646465 -91.443009211303433 0 0 0 0 -216.096930914533 149.97244849206254 0 149.97244849206254 4.3545058905147016 0 0 0 0 -112.05972519422357 56.422304482402978 0 56.422304482402978 4.9453910352967796 0 0 0 0 -77.029209232496214 147.35153691390587 0 147.35153691390587 -33.439577077690046 0 0 0 0 -134.65475734507345 108.85888609508402 0 108.85888609508402 8.0351726979206433 0 0 0 0 -4.6907668889290619 34.945542443953656 0 34.945542443953656 61.376382980994833 0 0 0 0 -100.83622708771145 129.80686721827078 0 129.80686721827078 20.890685925522121 0 0 0 0 -72.035251123990747 50.878649248166766 0 50.878649248166766 28.250754893324483 0 0 0 0 -54.217053246109572 129.68473328000982 0 129.68473328000982 -53.511660198564641 0 0 0 0 -140.4458424565255 146.00449176813254 0 146.00449176813254 -31.81686580349924 0 0 0 0 -138.55543610134191 154.48194900519593 0 154.48194900519593 4.5264975905301981 0 0 0 0 18.711706720905113 43.623485248692347 0 43.623485248692347 -4.6716598883970164 0 0 0 0 -39.188109925424214 120.38437993248226 0 120.38437993248226 -42.288591849486693 0 0 0 0 15.429598755676892 65.892340617829632 0 65.892340617829632 -52.154351653740548 0 0 0 0 -33.833918154501589 47.290365691180341 0 47.290365691180341 0.56983357184799388 0 0 0 0 -1.2924681501002908 34.815277137785529 0 34.815277137785529 35.383797542273726 0 0 0 0 -21.802008362210472 79.820240426739474 0 79.820240426739474 -64.5611858862394 0 0 0 0 -5.9438542070164715 48.967100105700354 0 48.967100105700354 47.913864128924629 0 0 0 0 3.2545545325265266 55.208556053112261 0 55.208556053112261 -43.417201512027532 0 0 0 0 10.50441092104316 48.572912855378661 0 48.572912855378661 14.208645423638217 0 0 0 0 -3.9384909736800182 60.320820460110554 0 60.320820460110554 -42.577375568216667 0 0 0 0 -0.043139178804061373 111.88558547278171 0 111.88558547278171 -62.669315776963231 0 0 0 0 -14.296044425580476 45.766115501115564 0 45.766115501115564 -38.577658637485001 0 0 0 0 -67.707968125876505 153.45006387776084 0 153.45006387776084 -21.087112324516056 0 0 0 0 -33.790659079735633 139.0364487732586 0 139.0364487732586 -106.45372392918216 0 0 0 0 67.714752199004579 196.09383323290967 0 196.09383323290967 -15.423052207159344 0 0 0 0 -28.852898034761893 145.79700736372615 0 145.79700736372615 -71.94121472567349 0 0 0 0 14.353645439051689 58.755726053833399 0 58.755726053833399 44.146307199329726 0 0 0 0 12.845177086934441 46.250764497506054 0 46.250764497506054 24.884343998552481 0 0 0 0 4.8448625441087643 21.033110474614659 0 21.033110474614659 12.610332835261943 0 0 0 0 5.4108560148086724 35.563251202753179 0 35.563251202753179 -87.985173810174217 0 0 0 0 -1.4060000270686146 37.234271385734502 0 37.234271385734502 27.21466982431329 0 0 0 0 -14.239105985159455 20.613980083892585 0 20.613980083892585 48.040048329741524 0 0 0 0 -85.609014474770447 79.185034507339878 0 79.185034507339878 32.102117137663299 0 0 0 0 -64.078637243503181 183.32540121673628 0 183.32540121673628 284.99984598698211 0 0 0 0 -38.957181520621816 35.312807218375383 0 35.312807218375383 1.3869569459202467 0 0 0 0 -36.840844216938422 -171.45313882088521 0 -171.45313882088521 -155.97784340236103 0 0 0 0 -0.15304556206746156 3.97159620122099 0 3.97159620122099 -3.9968775688372773 0 0 0 0 -151.21240737206972 -264.80671380308922 0 -264.80671380308922 327.28931403998286 0 0 0 0 -298.33744936287985 2.6328979680256452 0 2.6328979680256452 -0.28284698179049883 0 0 0 0 13.994761149784608 258.34445638420584 0 258.34445638420584 -73.751451625430491 0 0 0 0 -122.72421473174472 372.98724304213829 0 372.98724304213829 136.96567552321358 0 0 0 0 209.87286996203329 172.22870342383976 0 172.22870342383976 1.7767512173450086 0 0 0 0 -5.0298004701617955 9.699632402036741 0 9.699632402036741 0.50474809191439363 0 0 0 0 -87.771372510473157 54.011416793713579 0 54.011416793713579 172.41084139223676 0 0 0 0 -84.517433715125662 180.07368432794465 0 180.07368432794465 286.4196862372919 0 0 0 0 -61.117475755301712 166.85498956481752 0 166.85498956481752 100.34249826380983 0 0 0 0 33.498688098363345 197.9844568497283 0 197.9844568497283 103.3272399402631 0 0 0 0 243.3273763795296 153.87011496702326 0 153.87011496702326 -3.9426492237398634 0 0 0 0 113.50126908535822 194.65034401782032 0 194.65034401782032 0.16247660441149492 0 0 0 0 2.3255918400715814 -4.3258310622970981 0 -4.3258310622970981 -4.4558172637264306 0 0 0 0 69.032010638722568 93.306053953041555 0 93.306053953041555 59.542144872015342 0 0 0 0 -109.38715593265806 7.5634061147866305 0 7.5634061147866305 93.724788579740562 0 0 0 0 8.6927878005226376 86.491821895520843 0 86.491821895520843 60.686263593588592 0 0 0 0 -151.98827887471998 64.813690496641357 0 64.813690496641357 28.434336437436286 0 0 0 0 -3.3286371087524671 8.9197934837758481 0 8.9197934837758481 -1.9888158907336901 0 0 0 0 -11.355663457208721 55.260143273242647 0 55.260143273242647 -33.74205162578437 0 0 0 0 -0.43530698361064424 52.684727583364293 0 52.684727583364293 -22.610953883471666 0 0 0 0 -16.42891076640592 45.519502552255744 0 45.519502552255744 19.470528345432285 0 0 0 0 -21.275017524805662 73.790138824919268 0 73.790138824919268 -29.197373534247163 0 0 0 0 -8.576191832013933 48.08817817478544 0 48.08817817478544 13.862968752502496 0 0 0 0 -8.4629250734629693 37.770645053695318 0 37.770645053695318 23.847390194850078 0 0 0 0 -25.68174503291084 80.924666912818793 0 80.924666912818793 -28.164413318925654 0 0 0 0 -37.365379857852531 73.845596228049544 0 73.845596228049544 -3.0542189892876195 0 0 0 0 -19.643153633689508 62.791300116747152 0 62.791300116747152 -31.997894416184863 0 0 0 0 -33.725584807783889 74.553489121910388 0 74.553489121910388 -29.002676746371435 0 0 0 0 -29.925755069532897 78.149426364252577 0 78.149426364252577 -53.723710378122632 0 0 0 0 -23.352276918107236 99.241574525003671 0 99.241574525003671 -5.6055998812080361 0 0 0 0 -15.348879270020255 58.606218909932167 0 58.606218909932167 -32.751204403666009 0 0 0 0 -22.751867583347149 56.27310187732536 0 56.27310187732536 12.187049468139534 0 0 0 0 -38.224287632679626 97.927618615932658 0 97.927618615932658 25.279509401852749 0 0 0 0 -17.860731831971918 59.331288716641211 0 59.331288716641211 7.1907008467007074 0 0 0 0 -27.869402582990006 67.980710864241701 0 67.980710864241701 -28.460380577553224 0 0 0 0 -43.822958835633472 84.198479111422785 0 84.198479111422785 6.1951365591376089 0 0 0 0 -43.843726257994149 61.660760436012737 0 61.660760436012737 8.7609436922232646 0 0 0 0 -66.516355284198653 94.439191074678092 0 94.439191074678092 46.382548451059847 0 0 0 0 -26.099700089493922 108.63527775532168 0 108.63527775532168 -8.128947024795707 0 0 0 0 -47.775536347646266 109.65881727947271 0 109.65881727947271 -63.932313501645694 0 0 0 0 -26.627297957367972 87.646850936310415 0 87.646850936310415 50.960685737667177 0 0 0 0 -65.40559298138092 47.770702523185307 0 47.770702523185307 14.956141538578891 0 0 0 0 -36.189749625264085 64.199054714561498 0 64.199054714561498 -88.500069474408519 0 0 0 0 -41.376622060590307 53.803939242956403 0 53.803939242956403 16.580588838551193 0 0 0 0 -65.020352054699742 123.09470385606437 0 123.09470385606437 26.274712529499084 0 0 0 0 -83.515318232399295 122.51663630209805 0 122.51663630209805 17.317836909831385 0 0 0 0 -46.678306055509893 57.221496915561147 0 57.221496915561147 -11.390088049403857 0 0 0 0 -110.28615054586771 124.68138736124092 0 124.68138736124092 -68.728296384215355 0 0 0 0 -105.4370630162739 43.504351770461653 0 43.504351770461653 -176.09699373817421 0 0 0 0 -69.700046488760563 122.54768533826427 0 122.54768533826427 -145.87535384701914 0 0 0 0 -357.20380737902451 280.88035273143032 0 280.88035273143032 200.60344322468154 0 0 0 0 -103.64097358286381 236.92242428613827 0 236.92242428613827 -0.49892027159512509 0 0 0 0 -548.16048462450271 -136.91097659933439 0 -136.91097659933439 322.41158894936962 0 0 0 0 -115.30307730936693 240.37549156657769 0 240.37549156657769 31.428916611621389 0 0 0 0 0.38734178587023393 3.4387435163586701 0 3.4387435163586701 2.5163251459163121 0 0 0 0 63.066514501027996 70.565753507165937 0 70.565753507165937 -72.505746909126174 0 0 0 0 -173.68586753794807 60.043358718859963 0 60.043358718859963 328.71769877670158 0 0 0 0 0.060108123105095501 13.3127352656212 0 13.3127352656212 2.8802046657733342 0 0 0 0 -75.692270665720571 142.34392985366867 0 142.34392985366867 -109.40272339415969 0 0 0 0 -12.690224393227254 118.12192944172421 0 118.12192944172421 -257.96762934284925 0 0 0 0 -89.035460679922835 228.45833397560637 0 228.45833397560637 -50.192882451578043 0 0 0 0 -200.67707815436006 248.89770884143945 0 248.89770884143945 0.054362331036827527 0 0 0 0 -211.87794786733866 344.32685399637558 0 344.32685399637558 -158.82956961315358 0 0 0 0 -261.77786641725106 256.72662588022649 0 256.72662588022649 0.22696886275212266 0 0 0 0 -228.63327537231817 297.71391940404283 0 297.71391940404283 -24.426134704553988 0 0 0 0 -249.17311183421407 322.69292854233936 0 322.69292854233936 17.70813291403465 0 0 0 0 -504.51331331874826 315.07160445445334 0 315.07160445445334 -779.03371560689993 0 0 0 0 -418.63390047143912 623.38293541033636 0 623.38293541033636 -273.44108612841228 0 0 0 0 -9.6506015459431183 216.3150141784763 0 216.3150141784763 -937.05316478415625 0 0 0 0 -8.0716028812558989 -2.4344399021115777 0 -2.4344399021115777 1.6964448077448537 0 0 0 0 -447.51792871393263 447.39567380660446 0 447.39567380660446 -667.52751429760247 0 0 0 0 -381.20577689423226 524.58349398274731 0 524.58349398274731 -691.31918997046887 0 0 0 0 -80.077505170949735 44.636224222966121 0 44.636224222966121 211.52276608938701 0 0 0 0 -69.405652488247142 32.451978604891337 0 32.451978604891337 170.31425805008621 0 0 0 0 -44.546769116934058 -0.9286429836760135 0 -0.9286429836760135 2.4266673351141321 0 0 0 0 -68.611182751061278 52.418641253738315 0 52.418641253738315 97.041557743767044 0 0 0 0 -8.2162453535420354 84.463141226122389 0 84.463141226122389 -33.644835655504721 0 0 0 0 -56.127350705426124 25.750710369324324 0 25.750710369324324 -7.0223876520000772 0 0 0 0 -78.414960058791621 78.922840914310655 0 78.922840914310655 128.48563012928935 0 0 0 0 -41.131760866759578 134.63804353258456 0 134.63804353258456 113.89013467455516 0 0 0 0 -47.286299772473285 113.05453134674462 0 113.05453134674462 -59.929722961154766 0 0 0 0 -32.49858098969937 75.573822428451109 0 75.573822428451109 -74.859199427696353 0 0 0 0 -78.57484879239928 109.30835764091171 0 109.30835764091171 -187.46235155087925 0 0 0 0 -97.937173956495371 95.173234359110268 0 95.173234359110268 48.261535149954767 0 0 0 0 -69.347767813422251 93.68765035571414 0 93.68765035571414 92.112489343373454 0 0 0 0 -94.983374234212533 108.76727952353758 0 108.76727952353758 134.4117401879048 0 0 0 0 -20.841433310525645 37.396365340740886 0 37.396365340740886 42.150341585016577 0 0 0 0 71.53731661857546 38.204363170691067 0 38.204363170691067 -162.94445598678431 0 0 0 0 42.714762605120995 126.11644437038922 0 126.11644437038922 -193.81873855986123 0 0 0 0 59.24840853306614 104.74019275756291 0 104.74019275756291 -196.34182148108084 0 0 0 0 -800.84359613880224 -449.64374635507556 0 -449.64374635507556 -61.715325449564261 0 0 0 0 -26.780231127249863 -81.958880435195169 0 -81.958880435195169 -292.57004906606744 0 0 0 0 -39.283098036099545 130.43368740884762 0 130.43368740884762 -72.222900149819907 0 0 0 0 -20.50705429764422 43.707449813439993 0 43.707449813439993 -42.46323917334422 0 0 0 0 -15.298788879788844 117.5819640627451 0 117.5819640627451 -195.70941072935238 0 0 0 0 -94.692433300977427 86.096718165623315 0 86.096718165623315 -1354.4101676940336 0 0 0 0 -190.86861252066683 731.9017005264177 0 731.9017005264177 -2857.0199811284401 0 0 0 0 115.23947881592176 -22.324697878211737 0 -22.324697878211737 -2700.9827462454559 0 0 0 0 -608.81107038452319 536.72779571129649 0 536.72779571129649 -1230.2473730934435 0 0 0 0 -0.033006266744719071 -0.20600428826978856 0 -0.20600428826978856 -0.93543146736470817 0 0 0 0 -469.2902201364268 239.52714741912496 0 239.52714741912496 -1631.7688966582646 0 0 0 0 -679.78787575702154 359.26515174438828 0 359.26515174438828 -1131.5140968114138 0 0 0 0 -462.98307348678645 296.07343075243989 0 296.07343075243989 -1131.2346575434203 0 0 0 0 -481.78324541769689 448.32661866553826 0 448.32661866553826 -703.11130850900372 0 0 0 0 -589.62537742770292 625.81059162195743 0 625.81059162195743 -814.48499833937967 0 0 0 0 -693.02014029378915 782.76131512163556 0 782.76131512163556 -1330.5763000438747 0 0 0 0 -677.85065626712822 478.5424771324324 0 478.5424771324324 -532.30125827109441 0 0 0 0 -31.836996720652678 363.13975907294662 0 363.13975907294662 -1381.6429595725203 0 0 0 0 -312.99506769381696 488.06768576751347 0 488.06768576751347 -1225.9146211232874 0 0 0 0 -293.34571033344764 403.09034572176461 0 403.09034572176461 -873.13358748564497 0 0 0 0 -277.59456638227857 471.75285105020157 0 471.75285105020157 -899.58103119237785 0 0 0 0 -241.35318047411783 315.75566795017949 0 315.75566795017949 -472.73368677817052 0 0 0 0 119.02363245434208 42.381001336085319 0 42.381001336085319 -1278.3670475416438 0 0 0 0 -12.707686379369989 175.18573663025745 0 175.18573663025745 -820.97406210302142 0 0 0 0 -102.84471621999546 437.81950760513428 0 437.81950760513428 -720.33659738900315 0 0 0 0 27.456108935868841 8.748414521477514 0 8.748414521477514 -4.1523064539741981 0 0 0 0 93.35542724750303 146.09021638162812 0 146.09021638162812 -1355.8363524698798 0 0 0 0 -163.01924031883027 40.377395136187261 0 40.377395136187261 -503.72832271830703 0 0 0 0 142.46438095922713 405.12735364823311 0 405.12735364823311 -688.16084109678923 0 0 0 0 334.0738774111619 140.77491194632603 0 140.77491194632603 -1090.2480279119627 0 0 0 0 20.352401331530761 5.5761259384189827 0 5.5761259384189827 -0.2650070689130466 0 0 0 0 -48.529966146857532 38.294049629053916 0 38.294049629053916 -139.56331311079339 0 0 0 0 -162.60763987139489 -27.589855405327398 0 -27.589855405327398 -464.4726966087328 0 0 0 0 307.11262365098446 389.3398846310447 0 389.3398846310447 -337.24261554477562 0 0 0 0 140.75145831425652 478.4541880339093 0 478.4541880339093 50.44944282558572 0 0 0 0 7.2909510595542031 6.7425908549965357 0 6.7425908549965357 0.65597549325853777 0 0 0 0 214.52959250626736 -192.96883445819549 0 -192.96883445819549 79.156160531842033 0 0 0 0 95.500659976674797 471.98480711344018 0 471.98480711344018 60.885940573367407 0 0 0 0 113.07050664550502 539.9269677309203 0 539.9269677309203 -48.548833076041774 0 0 0 0 -122.58403866703065 348.12783782387851 0 348.12783782387851 -6.737603925041185 0 0 0 0 255.78236374401354 -83.649289660126669 0 -83.649289660126669 -186.01502646936569 0 0 0 0 234.97584791266672 -169.96552333784348 0 -169.96552333784348 -121.82131038022635 0 0 0 0 107.6673902978855 -71.633690521455719 0 -71.633690521455719 -24.565469933644636 0 0 0 0 247.78046871289217 -30.036486506342044 0 -30.036486506342044 -158.1127178928291 0 0 0 0 17.349577727560131 81.756425659863453 0 81.756425659863453 -161.64211884644465 0 0 0 0 381.94245063077824 -77.28242756180407 0 -77.28242756180407 -191.20469384433818 0 0 0 0 213.49960587602891 -81.960102122742683 0 -81.960102122742683 -40.757348227751208 0 0 0 0 211.28058220160256 -42.755989825323923 0 -42.755989825323923 -187.09304455039091 0 0 0 0 217.97430307767627 -127.64346833807213 0 -127.64346833807213 -174.79483369336231 0 0 0 0 198.22823797847559 -78.611191491509089 0 -78.611191491509089 -179.10523235669825 0 0 0 0 191.313228064947 -1.9393226366628369 0 -1.9393226366628369 -286.03089095192263 0 0 0 0 188.30485227255849 -70.687718892673729 0 -70.687718892673729 -134.75873570752447 0 0 0 0 421.95732728886719 -178.65000284890266 0 -178.65000284890266 -118.40600846766029 0 0 0 0 -206.4556130044715 214.75298697594553 0 214.75298697594553 -148.68373931039969 0 0 0 0 -3.2565874610070473 -5.117051921785972 0 -5.117051921785972 2.555100703573089 0 0 0 0 22.96205091569027 138.99608661608363 0 138.99608661608363 -251.86741119837097 0 0 0 0 -14.634584770073161 73.261721625713108 0 73.261721625713108 -23.219630126637639 0 0 0 0 1.7076449792830317 36.071382725422154 0 36.071382725422154 -78.21045162678638 0 0 0 0 244.98048153453283 26.096763709545485 0 26.096763709545485 -80.160825794329867 0 0 0 0 3.093838580173947 6.8245363390429929 0 6.8245363390429929 -6.1032982908976123 0 0 0 0 -68.399008182896068 79.872705078771105 0 79.872705078771105 -93.54038016096456 0 0 0 0 229.98042181438723 -58.244043488259194 0 -58.244043488259194 101.83142349495029 0 0 0 0 214.96513561514962 84.154200338947703 0 84.154200338947703 -56.789014994821628 0 0 0 0 211.32862008197128 76.440745185012929 0 76.440745185012929 -72.324700901575852 0 0 0 0 174.75906372032841 45.423768710890727 0 45.423768710890727 -330.23172774285194 0 0 0 0 221.03854825039343 -53.389502899051877 0 -53.389502899051877 -233.15602996398229 0 0 0 0 139.56680747060454 66.006064297660487 0 66.006064297660487 -173.29052882329415 0 0 0 0 227.81888502064328 10.342993059749006 0 10.342993059749006 -148.33972185506718 0 0 0 0 194.79909624086667 -3.1218915017379913 0 -3.1218915017379913 -129.74312695933622 0 0 0 0 85.526531135591881 33.501011790588564 0 33.501011790588564 -172.864832878171 0 0 0 0 197.81837673044629 124.35459510634246 0 124.35459510634246 -117.63724428695241 0 0 0 0 119.00648590905787 30.674930254134679 0 30.674930254134679 -62.374703104039668 0 0 0 0 101.7125826152394 175.35595185011016 0 175.35595185011016 -242.02818626156659 0 0 0 0 -193.56924590487688 60.240536006807815 0 60.240536006807815 71.424696365284035 0 0 0 0 123.9023182853598 186.1791277116281 0 186.1791277116281 -40.69055397111515 0 0 0 0 60.794174408964608 99.281748400768294 0 99.281748400768294 17.022906695797673 0 0 0 0 19.825179115344824 48.699368099064316 0 48.699368099064316 -16.833020758587637 0 0 0 0 -9.7543142472327418 71.423042510057712 0 71.423042510057712 -10.886914830945898 0 0 0 0 83.298072354213673 127.84724353431375 0 127.84724353431375 -68.951056036728914 0 0 0 0 120.13082625073821 35.041790439994656 0 35.041790439994656 -34.916317079390865 0 0 0 0 36.459327146863224 55.904718888538838 0 55.904718888538838 -7.1347529215046279 0 0 0 0 -5.9211256904210536 36.25268663729554 0 36.25268663729554 -10.526975096820934 0 0 0 0 -25.065568560806057 49.907301394758932 0 49.907301394758932 -18.831269706917737 0 0 0 0 70.009856880105872 66.793117706474732 0 66.793117706474732 -13.62033573363442 0 0 0 0 8.9865320836161651 37.038209878241183 0 37.038209878241183 -4.9929489285619866 0 0 0 0 40.483839405073667 47.35126015266178 0 47.35126015266178 -11.156271404470317 0 0 0 0 69.363213600256586 77.626032813879647 0 77.626032813879647 -6.6120119374827482 0 0 0 0 11.689648504460157 25.734979201224462 0 25.734979201224462 -23.080867884144766 0 0 0 0 -23.204627317010363 73.75862553837942 0 73.75862553837942 23.794110417278716 0 0 0 0 -4.0523040911111821 27.880137708358234 0 27.880137708358234 0.51294137391232653 0 0 0 0 31.859054340440458 54.417349337247884 0 54.417349337247884 -63.593711493481408 0 0 0 0 12.643568038492958 -8.3308859603712335 0 -8.3308859603712335 71.51068450207822 0 0 0 0 65.401662572657642 38.450246692642395 0 38.450246692642395 -158.27345614455407 0 0 0 0 -3.7660239094263037 6.6611637253507894 0 6.6611637253507894 4.7031487200982269 0 0 0 0 -750.56493818098807 229.63347730797068 0 229.63347730797068 153.94710684138408 0 0 0 0 9.797843209631111 7.7931072456612469 0 7.7931072456612469 -14.158342702726344 0 0 0 0 -586.83242731647624 -219.41957016730157 0 -219.41957016730157 -129.81570403120713 0 0 0 0 -149.92475388941966 36.516453613901831 0 36.516453613901831 -23.506121623911895 0 0 0 0 -475.97320336189296 57.647845460320241 0 57.647845460320241 68.482534250186291 0 0 0 0 -228.32517944403662 -60.388639466007589 0 -60.388639466007589 -62.656167695880868 0 0 0 0 -203.99426086589665 21.99601919350971 0 21.99601919350971 4.2883811827487079 0 0 0 0 -207.0585031365822 123.94196521298568 0 123.94196521298568 84.549319258047035 0 0 0 0 -178.45707405161556 307.24895231357914 0 307.24895231357914 116.34502836001047 0 0 0 0 -354.75003404889139 271.57827296822143 0 271.57827296822143 106.80007604058483 0 0 0 0 -288.43050585787205 243.82564980725874 0 243.82564980725874 85.05135342713038 0 0 0 0 -264.04651423237374 414.02118298572168 0 414.02118298572168 116.70729685787228 0 0 0 0 -27.907549365798332 345.70562483084359 0 345.70562483084359 77.211559829229373 0 0 0 0 52.368883878312772 477.3079471152887 0 477.3079471152887 17.0539822580904 0 0 0 0 -20.818206883915991 358.00141825927858 0 358.00141825927858 41.422979416689486 0 0 0 0 186.00753621816716 342.54437187339863 0 342.54437187339863 -18.637691222655121 0 0 0 0 182.49098547360927 260.51729113202191 0 260.51729113202191 11.435469418385765 0 0 0 0 250.88708217987005 316.79471719091816 0 316.79471719091816 -8.448860361793777 0 0 0 0 243.75359971837133 258.36022016861352 0 258.36022016861352 3.54354805406183 0 0 0 0 -326.75467067135833 364.99621494887833 0 364.99621494887833 103.97836115137397 0 0 0 0 -316.23340279770855 385.43781718242099 0 385.43781718242099 -93.060136376181617 0 0 0 0 -821.12741434880991 197.92324777046633 0 197.92324777046633 115.75661522729206 0 0 0 0 7.8906701049104093 49.008699224172986 0 49.008699224172986 45.905402618194046 0 0 0 0 -18.948560849255642 33.995141482879333 0 33.995141482879333 8.7354467602602881 0 0 0 0 -203.2924877383889 283.45863351410026 0 283.45863351410026 1.2426842286076862 0 0 0 0 -45.884562543469656 58.797018634308188 0 58.797018634308188 8.0013572447642218 0 0 0 0 -59.597649786621332 38.512824343051761 0 38.512824343051761 -17.818298342055641 0 0 0 0 -14.525487727567736 54.718029219307525 0 54.718029219307525 -17.002510630786503 0 0 0 0 11.609096575499279 29.654001587499806 0 29.654001587499806 -51.181944727810333 0 0 0 0 9.7063009244719396 48.322687253440108 0 48.322687253440108 -51.457135855782553 0 0 0 0 -45.830029457713408 59.705777599154771 0 59.705777599154771 8.0980720056977589 0 0 0 0 -168.90170150011545 61.132425844814861 0 61.132425844814861 -53.828864073264413 0 0 0 0 439.6840510649381 111.39632780612737 0 111.39632780612737 -13.162929638539936 0 0 0 0 229.7919312024751 194.2922297522673 0 194.2922297522673 67.384426426746359 0 0 0 0 209.75750211894774 282.29141666619398 0 282.29141666619398 -17.606780400630669 0 0 0 0 246.14098171599471 223.94393803442654 0 223.94393803442654 28.033361612383487 0 0 0 0 326.17401052623063 259.32497847868945 0 259.32497847868945 -133.64447663315514 0 0 0 0 1203.7062217397579 -102.05866404096741 0 -102.05866404096741 -64.197870908433288 0 0 0 0 -283.68570515313331 -68.760897826825385 0 -68.760897826825385 -195.92789241413993 0 0 0 0 -109.96666562521568 64.499965029710438 0 64.499965029710438 -61.167997011456464 0 0 0 0 -5.8233846795674964 9.2148757688487706 0 9.2148757688487706 -3.8153267338919079 0 0 0 0 361.01404757982527 652.13766503884108 0 652.13766503884108 31.026184319867752 0 0 0 0 4.0474661514454056 142.28754694484815 0 142.28754694484815 276.42959098541178 0 0 0 0 -52.458586368637043 317.39889565587509 0 317.39889565587509 -171.79388514521997 0 0 0 0 762.86758786237624 -142.06873887148686 0 -142.06873887148686 -438.06970187470142 0 0 0 0 -166.12288081327279 345.18634154538449 0 345.18634154538449 -140.17945392368711 0 0 0 0 80.048846221114218 556.88219854325871 0 556.88219854325871 29.664458588638809 0 0 0 0 -166.64144795519178 325.97706221334374 0 325.97706221334374 -66.399396262946539 0 0 0 0 -171.43826516912668 288.38004127574095 0 288.38004127574095 -130.43530209222808 0 0 0 0 -276.93887103237648 172.11947954095376 0 172.11947954095376 -93.479326821376162 0 0 0 0 -6.9586179439954918 6.4731908613022426 0 6.4731908613022426 -4.2180043642592295 0 0 0 0 2.2356298234954011 298.05500963234226 0 298.05500963234226 -82.196303599339444 0 0 0 0 -184.0427790297108 242.30065598095098 0 242.30065598095098 -127.05490875291434 0 0 0 0 -160.70050014037406 266.27508852869505 0 266.27508852869505 -161.71621922383201 0 0 0 0 -137.48079462432361 290.44488504860783 0 290.44488504860783 -139.70009024895262 0 0 0 0 -132.05665819878959 253.77067509000699 0 253.77067509000699 -218.01133110653609 0 0 0 0 -210.94393315881462 210.14120288351114 0 210.14120288351114 -162.7157664610786 0 0 0 0 15.2830983847157 21.555856817117771 0 21.555856817117771 29.659988132478588 0 0 0 0 -575.24142338590173 289.37326076891623 0 289.37326076891623 -79.201530756981811 0 0 0 0 -224.30038829366822 312.56728467134963 0 312.56728467134963 -166.50961212201219 0 0 0 0 -205.11655878778402 401.20067915702384 0 401.20067915702384 -86.848098422757175 0 0 0 0 -622.79061140468912 301.71055105253618 0 301.71055105253618 -63.666709457949764 0 0 0 0 -136.60593190877262 113.44441499181994 0 113.44441499181994 -67.714996123468154 0 0 0 0 -130.40783497704524 204.73028327232396 0 204.73028327232396 -159.9402333356993 0 0 0 0 -740.93104545486995 124.13796382035798 0 124.13796382035798 112.40743967216986 0 0 0 0 -416.95997691404773 1526.16484109257 0 1526.16484109257 -914.41583350212022 0 0 0 0 -1977.3902738977413 -44.743438244826393 0 -44.743438244826393 218.06092647517653 0 0 0 0 413.86021847387019 234.01025053195917 0 234.01025053195917 254.95662038507726 0 0 0 0 649.34948039176015 659.79907492287384 0 659.79907492287384 -211.43394523442839 0 0 0 0 2870.9114194725225 -1194.1683749618896 0 -1194.1683749618896 -871.36732843153004 0 0 0 0 5.5830504280280522 6.3430208156727304 0 6.3430208156727304 8.1309749149954769 0 0 0 0 1038.072007525172 804.38401006675485 0 804.38401006675485 5.3152138119767187 0 0 0 0 -19.379354779137927 7.9721102134915043 0 7.9721102134915043 -3.2549411196691409 0 0 0 0 -750.98781622872411 -1118.7869741677714 0 -1118.7869741677714 -1375.8454202642606 0 0 0 0 -896.09307769315637 1383.5589347954665 0 1383.5589347954665 -2480.5443663554397 0 0 0 0 -1728.1403472723541 284.79892592589022 0 284.79892592589022 150.75942665561161 0 0 0 0 -2167.8062857595614 1119.4459910600635 0 1119.4459910600635 -590.18838802000391 0 0 0 0 -578.9755875462215 -156.40461294646229 0 -156.40461294646229 -3.3529482174635632 0 0 0 0 -573.58138203882118 -86.692031936468993 0 -86.692031936468993 212.59307822064147 0 0 0 0 -1003.4726672784054 133.43230813142873 0 133.43230813142873 225.25337785159354 0 0 0 0 -493.13004096048826 -177.4212301283842 0 -177.4212301283842 268.54807149628323 0 0 0 0 -315.11539898987394 225.68331250951815 0 225.68331250951815 426.66590823672595 0 0 0 0 841.65024848934627 -94.074421945530048 0 -94.074421945530048 -126.80249051284045 0 0 0 0 54.18297787643678 -873.01098876193282 0 -873.01098876193282 204.4039082322488 0 0 0 0 60.738640583909728 10.904398347243841 0 10.904398347243841 -120.38432790233765 0 0 0 0 117.2941597703666 -68.997370382479858 0 -68.997370382479858 -16.008125084372296 0 0 0 0 156.93015828222633 51.602445566655661 0 51.602445566655661 347.23985731749053 0 0 0 0 -93.161268173971621 148.89118480659818 0 148.89118480659818 5.2057962322232925 0 0 0 0 -110.32636226366594 236.15435225235342 0 236.15435225235342 9.2093134017486591 0 0 0 0 286.84856403255253 326.1101233049194 0 326.1101233049194 -77.825472652486496 0 0 0 0 -94.910591310850577 139.82363117579371 0 139.82363117579371 -321.12818870824412 0 0 0 0 -5.9339209662526855 73.617078076201665 0 73.617078076201665 57.636952234925985 0 0 0 0 156.63804900502601 214.49159561011584 0 214.49159561011584 -100.58412441507971 0 0 0 0 -2.0531072758083866 29.598458470461537 0 29.598458470461537 -7.4753674222314288 0 0 0 0 -115.25492804298119 127.09478408269933 0 127.09478408269933 135.3623204769101 0 0 0 0 -23.975474031770403 59.038696644242037 0 59.038696644242037 69.455394308596311 0 0 0 0 19.30847480407283 95.874074793831824 0 95.874074793831824 -139.69847458373988 0 0 0 0 -78.819452377341804 24.527905262337299 0 24.527905262337299 131.33139773170114 0 0 0 0 2.53632235326657 37.240968935655445 0 37.240968935655445 33.014404506247047 0 0 0 0 -77.519112874739221 26.311533625950688 0 26.311533625950688 46.644307700553327 0 0 0 0 19.971618590751191 36.470963670147 0 36.470963670147 -23.006029559221247 0 0 0 0 -5.1512486515566707 69.730987740200362 0 69.730987740200362 -161.91986501878273 0 0 0 0 -34.325828784552868 85.780637382413261 0 85.780637382413261 -81.221232567739207 0 0 0 0 -10.62175672578249 37.89045235458164 0 37.89045235458164 5.1183874613361411 0 0 0 0 -7.1929332802853878 14.361353098594918 0 14.361353098594918 13.913487415789859 0 0 0 0 14.32867874900694 7.1071280463365838 0 7.1071280463365838 0.073866789908574898 0 0 0 0 -5.5094661643084493 8.8881233271743838 0 8.8881233271743838 3.8906274839532387 0 0 0 0 12.704831618910248 127.51924732275074 0 127.51924732275074 -229.9670669970219 0 0 0 0 -56.886410594452173 64.830902022280497 0 64.830902022280497 -114.92003467760514 0 0 0 0 -31.689592802802508 149.8267749127408 0 149.8267749127408 -194.81105489394395 0 0 0 0 -19.321934388950467 77.22190723643871 0 77.22190723643871 -117.15304974064929 0 0 0 0 2.7985290040051041 96.140822521119844 0 96.140822521119844 -136.10302067181328 0 0 0 0 -68.087744101780117 86.072904902684968 0 86.072904902684968 -242.5480793826282 0 0 0 0 -0.31282137018234835 5.7082003749918613 0 5.7082003749918613 -40.590220126214263 0 0 0 0 -16.144054336960835 51.315994642151054 0 51.315994642151054 -128.57401412870968 0 0 0 0 -53.028389597595378 89.687314533613971 0 89.687314533613971 -298.27834473142866 0 0 0 0 -8.4166220925302753 85.164157093754483 0 85.164157093754483 0.44987391149518885 0 0 0 0 9.9271135498093486 31.050911018054933 0 31.050911018054933 -17.687813125070349 0 0 0 0 -2.1865401189265867 87.873205745701853 0 87.873205745701853 -102.99826339358697 0 0 0 0 -1.8139390194264706 22.464224883267889 0 22.464224883267889 -60.237341394866235 0 0 0 0 9.4464576628936072 77.960332954170383 0 77.960332954170383 -31.891489429252076 0 0 0 0 -18.090958531101933 98.038806842756458 0 98.038806842756458 -309.66797072862391 0 0 0 0 87.985911068859423 90.358801776194014 0 90.358801776194014 -334.34764301319956 0 0 0 0 -5.9863814622750766 54.968694878760459 0 54.968694878760459 -16.787580267011748 0 0 0 0 5.3674548452763702 62.111135937273502 0 62.111135937273502 -135.67273935704725 0 0 0 0 -0.74655928335668875 2.1204265623032086 0 2.1204265623032086 -12.533758967178983 0 0 0 0 -7.2889925272857283 8.685417917258718 0 8.685417917258718 5.5746316585291424 0 0 0 0 -23.869163723309612 37.980991574979271 0 37.980991574979271 -37.058822557766689 0 0 0 0 -19.867812432494247 11.271805868833326 0 11.271805868833326 -0.028394864450092427 0 0 0 0 -7.7148011399560801 19.714589686931959 0 19.714589686931959 -1.9811860645422712 0 0 0 0 42.682612944474386 -6.1814043596532429 0 -6.1814043596532429 -80.072256407234818 0 0 0 0 18.707974971930525 93.860235328742419 0 93.860235328742419 -35.446723483968526 0 0 0 0 308.3842583423102 18.556297103947145 0 18.556297103947145 -15.894814196886728 0 0 0 0 -11.272709196291039 3.5254437493397859 0 3.5254437493397859 7.7506142168992369 0 0 0 0 79.784560648342449 64.738586395913444 0 64.738586395913444 -94.638021838036366 0 0 0 0 3.7704367979895324 42.720470776344882 0 42.720470776344882 -97.362403732986422 0 0 0 0 16.873193422637996 112.98569709928233 0 112.98569709928233 -123.40930716396542 0 0 0 0 25.06283720661304 64.420314734947169 0 64.420314734947169 -96.657686705482774 0 0 0 0 -23.933224063393936 133.30781096004648 0 133.30781096004648 -0.012486412422731519 0 0 0 0 -38.895060781233042 127.25317944260314 0 127.25317944260314 -2.1312962332740426 0 0 0 0 -60.180926278233528 63.054305447614752 0 63.054305447614752 -81.398085488966899 0 0 0 0 -50.82358467389372 81.63718003163558 0 81.63718003163558 -75.482227733402397 0 0 0 0 -136.62884850408227 240.64818932456546 0 240.64818932456546 -447.0457507015235 0 0 0 0 -81.550272426795345 280.00746052671457 0 280.00746052671457 -418.95656076513842 0 0 0 0 -12.845616943523446 13.680027669689139 0 13.680027669689139 10.193443362576176 0 0 0 0 -99.462769931255025 -35.356390772707528 0 -35.356390772707528 -350.61169787327526 0 0 0 0 36.186599253779605 112.47037965821801 0 112.47037965821801 -226.25441139034228 0 0 0 0 -21.177235408488912 15.859370587939679 0 15.859370587939679 -40.570165874088616 0 0 0 0 62.555830409180999 116.94336853959976 0 116.94336853959976 -380.91361461384804 0 0 0 0 -361.50740900405253 291.19640279900705 0 291.19640279900705 685.33320365722466 0 0 0 0 -89.700288337509846 -15.779601687740069 0 -15.779601687740069 -354.56343054000899 0 0 0 0 21.729377963920982 142.27083764188026 0 142.27083764188026 -92.187512275666506 0 0 0 0 -314.35813890663849 173.52318374099559 0 173.52318374099559 647.15159724209661 0 0 0 0 -578.45081304937776 182.77526551828487 0 182.77526551828487 653.98941366276995 0 0 0 0 -262.25700249323563 160.8844261134509 0 160.8844261134509 489.79027123487322 0 0 0 0 -175.44458712392952 280.95869371070876 0 280.95869371070876 526.39157498181521 0 0 0 0 -254.42599978141061 359.19904842196593 0 359.19904842196593 450.69876326026861 0 0 0 0 399.32085794996237 365.73920749229728 0 365.73920749229728 513.83970579574816 0 0 0 0 -321.51352488442353 162.09556875680573 0 162.09556875680573 -383.79896031558746 0 0 0 0 7.6520074072949171 84.753682746223859 0 84.753682746223859 -64.278389803073452 0 0 0 0 -131.8833998005548 937.92420090155429 0 937.92420090155429 895.84215972424136 0 0 0 0 -213.41424029572227 159.49230132316006 0 159.49230132316006 -574.0376858622767 0 0 0 0 -74.798458796254636 276.24326202081284 0 276.24326202081284 -343.96395558828954 0 0 0 0 8.3516999295899623 80.356226428198738 0 80.356226428198738 -28.638371918340397 0 0 0 0 -77.75161608947019 265.68979768300778 0 265.68979768300778 -417.54563610756304 0 0 0 0 -185.59228131632699 245.47251458477695 0 245.47251458477695 -352.39488288160646 0 0 0 0 15.201364627946511 145.15800167720522 0 145.15800167720522 -114.76012780879645 0 0 0 0 358.17881763126934 194.3406776394695 0 194.3406776394695 1908.5172710851475 0 0 0 0 304.25616674940829 872.38896477513481 0 872.38896477513481 716.95145795244025 0 0 0 0 2.5072901615858427 606.53560478342115 0 606.53560478342115 708.20614662337539 0 0 0 0 -272.83110608636525 620.11112860166759 0 620.11112860166759 1060.5456690982974 0 0 0 0 -152.4251244341649 431.27132126322249 0 431.27132126322249 383.02052072173683 0 0 0 0 249.87242278905615 512.71319104780559 0 512.71319104780559 354.74093932105461 0 0 0 0 155.92045531194162 603.70024987004581 0 603.70024987004581 399.38594299685792 0 0 0 0 -79.29318359195895 624.1444802339829 0 624.1444802339829 420.99662553900271 0 0 0 0 3.5314570184928016 506.26374191996001 0 506.26374191996001 81.985061761486577 0 0 0 0 42.428737057780381 450.84282899047685 0 450.84282899047685 145.89502188412007 0 0 0 0 -170.16294249674684 533.36643300944706 0 533.36643300944706 116.39901256241137 0 0 0 0 10.608049553868113 860.4044104019631 0 860.4044104019631 614.9032133204455 0 0 0 0 -129.93310629392363 598.35992398770759 0 598.35992398770759 486.12231123597303 0 0 0 0 -217.50472331920173 494.05378495436162 0 494.05378495436162 570.31537507098255 0 0 0 0 -170.60101485968698 429.71683831990231 0 429.71683831990231 577.3014108594507 0 0 0 0 -105.17584120306492 534.01673036186548 0 534.01673036186548 534.10435848144698 0 0 0 0 0.42381869529071992 480.95754711204427 0 480.95754711204427 -241.31279171883943 0 0 0 0 55.674057551452279 247.06832625150855 0 247.06832625150855 -67.813851390397758 0 0 0 0 -95.47332925678711 562.88281436555553 0 562.88281436555553 178.06782154666143 0 0 0 0 -76.176908343979449 366.17002166657403 0 366.17002166657403 -120.80182486778358 0 0 0 0 -120.67419707445515 567.93220453863614 0 567.93220453863614 52.25438281163224 0 0 0 0 -169.09240342725025 286.36689890731941 0 286.36689890731941 -124.89192626258591 0 0 0 0 -64.959458604669635 234.2076861494279 0 234.2076861494279 -530.11724133137614 0 0 0 0 -190.68260539964103 460.93188820924843 0 460.93188820924843 -189.75184917644947 0 0 0 0 -166.36923953121732 345.60936266326462 0 345.60936266326462 -371.23275641456712 0 0 0 0 -352.77356150862033 497.71026042435551 0 497.71026042435551 -322.24080620985478 0 0 0 0 -156.95749682487804 402.1215381823713 0 402.1215381823713 -502.0007106536068 0 0 0 0 -295.45014089533652 353.11972180753946 0 353.11972180753946 -57.511076431372203 0 0 0 0 -255.53851164829393 458.34568650583969 0 458.34568650583969 -48.345573036596761 0 0 0 0 -410.87751223630039 342.78016480934457 0 342.78016480934457 -88.846415797612281 0 0 0 0 -443.48664037689014 470.48744356175303 0 470.48744356175303 -405.12009001383558 0 0 0 0 -266.40738935954869 300.88758637255523 0 300.88758637255523 -77.335619798730477 0 0 0 0 -457.76202944100078 330.97299638975528 0 330.97299638975528 -349.14228312944761 0 0 0 0 -592.65325962322095 314.52637837165094 0 314.52637837165094 -450.32222607225413 0 0 0 0 -711.27128260569589 471.98293586327054 0 471.98293586327054 -274.65992830952746 0 0 0 0 -613.60976195679541 287.03324689398141 0 287.03324689398141 71.755166617687792 0 0 0 0 -446.62628965896147 227.80997688157368 0 227.80997688157368 90.87102715583751 0 0 0 0 -586.79242864769913 1.9338002686854452 0 1.9338002686854452 265.70321699998749 0 0 0 0 -545.60678673356233 343.10374412286365 0 343.10374412286365 316.27948913990986 0 0 0 0 -410.27086452228832 183.5015939292789 0 183.5015939292789 487.18310156762163 0 0 0 0 -388.78682168641535 382.34241075819591 0 382.34241075819591 447.35788958278135 0 0 0 0 -245.1240565727785 271.38189538558072 0 271.38189538558072 273.3418969414779 0 0 0 0 -124.03183793692733 476.14999487169553 0 476.14999487169553 181.48336372961057 0 0 0 0 -174.954153751425 334.72135228630077 0 334.72135228630077 112.58744289563037 0 0 0 0 -407.48464189787046 423.34910841964302 0 423.34910841964302 157.18774123341427 0 0 0 0 -0.64515411083627328 156.16433627306583 0 156.16433627306583 -9.4474662105785683 0 0 0 0 2.7168895499283634 77.025846343820064 0 77.025846343820064 -63.437495736516809 0 0 0 0 34.434039647230748 47.882010389424977 0 47.882010389424977 -26.182760707144553 0 0 0 0 135.06268060743241 539.50650217879593 0 539.50650217879593 48.70870562690834 0 0 0 0 373.16247156252393 471.8826037607796 0 471.8826037607796 -29.915475728901583 0 0 0 0 -77.974725361204037 439.00892383220344 0 439.00892383220344 -24.404547582642408 0 0 0 0 65.061894739676973 150.86877813607862 0 150.86877813607862 -185.10132287885062 0 0 0 0 540.90795701066054 -19.069450114198844 0 -19.069450114198844 153.71611650186242 0 0 0 0 469.71592997518746 223.24485405864834 0 223.24485405864834 -178.0544955006917 0 0 0 0 -70.679276644772472 302.77253388226382 0 302.77253388226382 407.7807167544961 0 0 0 0 -33.880870998407772 186.23390656289121 0 186.23390656289121 232.01341034274083 0 0 0 0 -207.97860818370464 278.7596379684328 0 278.7596379684328 1050.4793786778901 0 0 0 0 215.8130920415897 -129.20287293130241 0 -129.20287293130241 709.46848029931425 0 0 0 0 -9.7290748177365458 20.167431522888364 0 20.167431522888364 20.292985676875105 0 0 0 0 243.59548855421281 8.1355105927868863 0 8.1355105927868863 -254.53439527552109 0 0 0 0 56.586039297391835 251.78385714424076 0 251.78385714424076 -364.35243769007502 0 0 0 0 105.38360855741121 251.39738259659498 0 251.39738259659498 -425.42392135713089 0 0 0 0 -71.180696805451589 284.63113616599003 0 284.63113616599003 -363.50194011937128 0 0 0 0 -44.83493476366948 152.2659226315227 0 152.2659226315227 -267.80999084014911 0 0 0 0 -149.54339001249537 149.52937262807973 0 149.52937262807973 165.64783920525224 0 0 0 0 47.080766946200129 307.57187266215624 0 307.57187266215624 -172.126855776718 0 0 0 0 11.558457048392484 268.28043362213066 0 268.28043362213066 -454.24973634476191 0 0 0 0 15.361934572770299 87.30730608057894 0 87.30730608057894 -24.020538209897524 0 0 0 0 -28.365369517729789 66.572922444760479 0 66.572922444760479 -257.21985792994383 0 0 0 0 -3.8485955042339857 13.249598074002279 0 13.249598074002279 3.6725685254332063 0 0 0 0 84.718955639968271 282.04839468070713 0 282.04839468070713 -842.93843710406509 0 0 0 0 -138.24724707055225 274.78858533153834 0 274.78858533153834 -418.02743473951705 0 0 0 0 -131.9450307668867 208.45248678138887 0 208.45248678138887 -429.46642893831813 0 0 0 0 -4.5135548697217018 79.613618086354109 0 79.613618086354109 -563.9787143576541 0 0 0 0 -34.810755118282032 36.492949729254178 0 36.492949729254178 -0.081303091690642759 0 0 0 0 -24.817276748916477 38.12932408334018 0 38.12932408334018 -24.740565674364916 0 0 0 0 -2.8587288535500193 16.124587814614642 0 16.124587814614642 -5.9051315990436706 0 0 0 0 1.3612263698532239 11.68740748427615 0 11.68740748427615 3.4992027930309177 0 0 0 0 -7.5551619561974803 17.19693166999059 0 17.19693166999059 -0.0018673875747481361 0 0 0 0 1.3423803357090947 11.090336146233312 0 11.090336146233312 -0.0069660047593060881 0 0 0 0 -93.625547108203591 95.226631544528573 0 95.226631544528573 -345.02769676853495 0 0 0 0 10.423137133289856 -25.499654018945876 0 -25.499654018945876 -439.1651903505408 0 0 0 0 32.530647692065031 270.96113473313744 0 270.96113473313744 -864.75203151160167 0 0 0 0 1.0033682125667838 8.1077406782860635 0 8.1077406782860635 -0.002547283103922382 0 0 0 0 105.52938873289895 195.11162938841153 0 195.11162938841153 -837.77509590941918 0 0 0 0 2.6385135805014457 9.2014392641846712 0 9.2014392641846712 2.4967105304994277 0 0 0 0 1.0993211215027259 8.9987129472428933 0 8.9987129472428933 -1.9188085970672546 0 0 0 0 135.5066667638348 199.05274515864585 0 199.05274515864585 -324.525673608543 0 0 0 0 -40.993717662920972 -16.410665352312208 0 -16.410665352312208 -496.17661479991511 0 0 0 0 113.77038321267992 -36.839954235070763 0 -36.839954235070763 -141.26681579175056 0 0 0 0 -17.836616947112361 132.51263416446454 0 132.51263416446454 164.53680435018032 0 0 0 0 42.202261914728297 101.13275225674442 0 101.13275225674442 -66.868029973597004 0 0 0 0 47.020059183625008 94.445147660845407 0 94.445147660845407 -13.922465240191357 0 0 0 0 19.548265891655319 828.75497786104097 0 828.75497786104097 -2021.3114612900245 0 0 0 0 100.94891114651217 94.111717443819245 0 94.111717443819245 55.606632655582587 0 0 0 0 -17.181487227716389 34.030849819100695 0 34.030849819100695 203.90691974171204 0 0 0 0 128.85435528059406 51.993001339433249 0 51.993001339433249 -339.83476883783624 0 0 0 0 -21.307675968275362 279.83765875462268 0 279.83765875462268 -174.63209869475395 0 0 0 0 26.456335896779059 81.618016439315113 0 81.618016439315113 -28.279953382442812 0 0 0 0 48.422215406437317 90.480706581452978 0 90.480706581452978 -53.180240765650524 0 0 0 0 -17.768675845463804 132.81359179386345 0 132.81359179386345 -3.0647192922770046 0 0 0 0 299.89106575459846 472.09922180346621 0 472.09922180346621 -3.782782914393465 0 0 0 0 262.40199267061155 -459.47193963144514 0 -459.47193963144514 444.81825004710117 0 0 0 0 156.49224765308463 389.18104968107946 0 389.18104968107946 207.76869012415409 0 0 0 0 809.6229948245491 227.57913289700446 0 227.57913289700446 -288.95673765282845 0 0 0 0 517.09225431374944 -235.30500349793874 0 -235.30500349793874 -113.19799582485575 0 0 0 0 215.12342426709802 -113.30157630462782 0 -113.30157630462782 -206.60593254031846 0 0 0 0 386.19274948315979 155.62519055683515 0 155.62519055683515 -350.92605853360146 0 0 0 0 327.64062506892515 267.85815621892834 0 267.85815621892834 -563.93531905300915 0 0 0 0 150.71230205996471 188.20519742631586 0 188.20519742631586 -269.95108654619253 0 0 0 0 60.413273110889349 476.91476648118987 0 476.91476648118987 -485.60403109672916 0 0 0 0 100.15736921668937 23.258663964708759 0 23.258663964708759 -65.122888531858877 0 0 0 0 68.24423720035702 439.50481010507792 0 439.50481010507792 -821.32654345501214 0 0 0 0 -139.42171410268384 188.65891177034064 0 188.65891177034064 -251.28431077634013 0 0 0 0 -673.40043883601902 620.46252500891569 0 620.46252500891569 -616.35608910911833 0 0 0 0 -334.78424679217278 593.27171324103256 0 593.27171324103256 -860.20993267343147 0 0 0 0 20.652290377824585 -17.942841413545025 0 -17.942841413545025 13.021809977626617 0 0 0 0 -570.43598606454907 998.92570385226281 0 998.92570385226281 -807.06276246678317 0 0 0 0 -58.796111762694636 72.435959799928241 0 72.435959799928241 -238.96105998754501 0 0 0 0 -220.5583713617234 629.11404193838825 0 629.11404193838825 -859.61648010599311 0 0 0 0 104.6764702156579 1.0086365624331251 0 1.0086365624331251 -83.138833343491825 0 0 0 0 4.8416267891133273 88.941981313695607 0 88.941981313695607 -65.806474376150874 0 0 0 0 -330.26024975973814 338.91219707067648 0 338.91219707067648 -124.65865380511968 0 0 0 0 63.460249339663278 -74.170587956348754 0 -74.170587956348754 -232.46562187830568 0 0 0 0 -591.45730783497856 393.55382566676417 0 393.55382566676417 -200.50254396928358 0 0 0 0 63.697905969143477 53.182376950105592 0 53.182376950105592 -24.04834795595815 0 0 0 0 27.980954161148446 32.669637738855215 0 32.669637738855215 -38.607058980363917 0 0 0 0 -223.27580787087209 776.6081938547868 0 776.6081938547868 -1658.4623389228072 0 0 0 0 -352.88747733009222 851.4655851428688 0 851.4655851428688 -1118.5617484924587 0 0 0 0 -165.09056040072755 738.93125190804494 0 738.93125190804494 -1200.1822280103515 0 0 0 0 -690.08769286422466 819.11385884199262 0 819.11385884199262 -364.10570164634555 0 0 0 0 -431.26186619033297 299.24502639872935 0 299.24502639872935 -82.42931390189915 0 0 0 0 -487.20199036338454 754.84579148341709 0 754.84579148341709 -475.50415529837483 0 0 0 0 -659.82203797523107 544.52925549302017 0 544.52925549302017 -651.29148542389157 0 0 0 0 -142.52080850824132 371.36537039760151 0 371.36537039760151 -72.708548781331046 0 0 0 0 -760.28391059851856 944.9000961604761 0 944.9000961604761 -639.47983002994442 0 0 0 0 -590.27453142451122 448.06415445012681 0 448.06415445012681 -44.59418708254816 0 0 0 0 -349.71212741025374 644.67288826327422 0 644.67288826327422 -590.82296803628924 0 0 0 0 -452.28819124538131 741.94627417697484 0 741.94627417697484 -503.5629935082834 0 0 0 0 -477.3258609380282 354.33462557592429 0 354.33462557592429 344.14375684366678 0 0 0 0 -210.29750141115801 325.44762832313427 0 325.44762832313427 -229.79727778895176 0 0 0 0 -440.17483770549006 415.46151107882906 0 415.46151107882906 -185.76128820421582 0 0 0 0 -343.29517221196778 134.07252054459718 0 134.07252054459718 374.40981085080421 0 0 0 0 -344.2656174388103 527.58266887636273 0 527.58266887636273 -20.712506550058606 0 0 0 0 -222.37703511475411 154.20213964188588 0 154.20213964188588 234.47528013607371 0 0 0 0 156.84936900883622 169.92800347571028 0 169.92800347571028 339.66248370739049 0 0 0 0 -287.09035588358529 224.64071936575056 0 224.64071936575056 692.43454016564647 0 0 0 0 -59.432173348682142 85.060582069564475 0 85.060582069564475 -24.056547213699844 0 0 0 0 -205.25080297311433 11.829122087241558 0 11.829122087241558 543.62994788565265 0 0 0 0 22.092348660364223 -177.54041592030262 0 -177.54041592030262 689.67763716907666 0 0 0 0 38.010251537838485 85.681048589758575 0 85.681048589758575 398.9250730763888 0 0 0 0 -488.1576434311246 415.87611634602581 0 415.87611634602581 727.73632824797824 0 0 0 0 -70.044119967404725 83.183384127223007 0 83.183384127223007 -30.56725752271764 0 0 0 0 -663.45340876571572 496.13639671191049 0 496.13639671191049 380.05025037680753 0 0 0 0 -279.83950312990055 -0.31059407767315861 0 -0.31059407767315861 269.49530705876532 0 0 0 0 -230.31434131640162 46.413911530493351 0 46.413911530493351 320.90249590795429 0 0 0 0 -63.476794494740773 100.54225141584791 0 100.54225141584791 -24.2940078095681 0 0 0 0 -245.88236766649061 574.84966736931528 0 574.84966736931528 -36.833405282683088 0 0 0 0 -461.72904948872747 441.64500410274195 0 441.64500410274195 -93.677832367371593 0 0 0 0 86.614693373836417 -45.139142457468552 0 -45.139142457468552 -269.71843616047408 0 0 0 0 -239.99680359866761 584.02741920374683 0 584.02741920374683 -468.95541972090723 0 0 0 0 -443.27859601780074 362.85220874011429 0 362.85220874011429 -173.0999218498182 0 0 0 0 -146.02732399038359 513.15104552799312 0 513.15104552799312 -860.75579275094788 0 0 0 0 -421.45045268218382 562.03884475717496 0 562.03884475717496 34.971797043115657 0 0 0 0 -388.39105760747043 678.73518947014236 0 678.73518947014236 -628.37503642321099 0 0 0 0 255.90052416615799 -350.15057376858022 0 -350.15057376858022 840.78849291260121 0 0 0 0 46.922452294980758 -11.622077198480838 0 -11.622077198480838 -27.633501581265591 0 0 0 0 23.348558421054861 11.120321273416266 0 11.120321273416266 8.6596868659587791 0 0 0 0 7.6245846956433923 1.9868291661562409 0 1.9868291661562409 2.292520661176809 0 0 0 0 103.60520955442189 -776.72768943672418 0 -776.72768943672418 2170.1765383344318 0 0 0 0 349.52872912377643 -69.336368791060522 0 -69.336368791060522 4204.4520833072893 0 0 0 0 101.8399133655621 -88.094400351837976 0 -88.094400351837976 48.634291252747062 0 0 0 0 545.89063443710256 1318.732106404088 0 1318.732106404088 3924.9736165885115 0 0 0 0 2.337296597156822 1.4409932987250613 0 1.4409932987250613 3.3442769878953982 0 0 0 0 -268.28669034817722 1091.8825072417421 0 1091.8825072417421 -995.36366818675015 0 0 0 0 -548.37936227932369 283.97838428754403 0 283.97838428754403 -231.38915701759106 0 0 0 0 -362.24844172657322 318.21348104050412 0 318.21348104050412 -322.65487924586341 0 0 0 0 70.55292654420191 -80.81850266350375 0 -80.81850266350375 -170.38182147272892 0 0 0 0 238.10504642213346 -68.313969746071962 0 -68.313969746071962 -185.57064263143548 0 0 0 0 311.08639919169946 83.74244472765713 0 83.74244472765713 -203.99514845285012 0 0 0 0 19.609792104627189 24.466506829451646 0 24.466506829451646 20.375269588630175 0 0 0 0 149.90163224640128 67.90036065937602 0 67.90036065937602 -190.34417023039714 0 0 0 0 -20.47123242473026 222.90977162238414 0 222.90977162238414 93.785025397381105 0 0 0 0 6.8322299075996114 -2.5131406219695691 0 -2.5131406219695691 7.510719686150555 0 0 0 0 -2.8714432175693219 9.35456751268066 0 9.35456751268066 124.07913743762765 0 0 0 0 28.020551220091875 59.253163655652315 0 59.253163655652315 69.060027267711121 0 0 0 0 12.533335017336782 49.804250214786819 0 49.804250214786819 -0.85409283348889176 0 0 0 0 -195.1271527932513 -267.73061024829076 0 -267.73061024829076 1152.7999028240156 0 0 0 0 128.85141940551694 -358.35936531859625 0 -358.35936531859625 643.88908502538106 0 0 0 0 136.19085202079805 -424.25476760893071 0 -424.25476760893071 1153.2775655660662 0 0 0 0 -70.400837791989034 -24.268218902434455 0 -24.268218902434455 817.085929170702 0 0 0 0 -419.33924300651415 675.17748679936631 0 675.17748679936631 215.82416980795824 0 0 0 0 -220.71696478665399 94.095664380314702 0 94.095664380314702 851.12172611776623 0 0 0 0 -126.37244974041096 -144.82208326290129 0 -144.82208326290129 670.74722768156789 0 0 0 0 -377.45561605384864 126.46321141539374 0 126.46321141539374 561.38928402214697 0 0 0 0 -191.70866034563005 369.76079157949425 0 369.76079157949425 -350.31948446999013 0 0 0 0 -1429.4456754390412 1356.0106734765432 0 1356.0106734765432 -601.87821358971996 0 0 0 0 552.2129704008039 969.74212461731804 0 969.74212461731804 -89.694898021945846 0 0 0 0 209.63016075692576 266.98668726465985 0 266.98668726465985 -1520.2698145950853 0 0 0 0 785.79724589656689 835.24337540348643 0 835.24337540348643 -183.38450628449937 0 0 0 0 2064.3684525650606 1483.53830105011 0 1483.53830105011 -309.02481195630389 0 0 0 0 820.04236701336049 1027.3168565948636 0 1027.3168565948636 869.28525489251479 0 0 0 0 1271.7885674965364 1249.9038238907378 0 1249.9038238907378 976.77958221377048 0 0 0 0 143.39983456987829 330.77073429439042 0 330.77073429439042 2019.5861276835931 0 0 0 0 661.96609780678409 772.45196688536089 0 772.45196688536089 2394.5007220827683 0 0 0 0 155.20377082501363 338.96357721765526 0 338.96357721765526 1004.3644423699006 0 0 0 0 1835.4406004392295 1720.784129379128 0 1720.784129379128 3122.3906622337527 0 0 0 0 2065.3462954295537 2986.2154119479201 0 2986.2154119479201 4741.5263826792943 0 0 0 0 1400.768004448415 1708.6172319507459 0 1708.6172319507459 3829.8641526697756 0 0 0 0 745.83904245774465 686.5698282616504 0 686.5698282616504 2361.2491520163021 0 0 0 0 2501.7471190083525 1397.454736943735 0 1397.454736943735 651.93241546448553 0 0 0 0 1553.0311803738587 1910.0117491304118 0 1910.0117491304118 2481.4615156227064 0 0 0 0 3660.0563298925263 2867.0484681515372 0 2867.0484681515372 2487.791492277931 0 0 0 0 3511.1095604930542 3870.2561426274187 0 3870.2561426274187 3500.0894500845461 0 0 0 0 2701.9553317989776 218.09051776687556 0 218.09051776687556 -1107.9836199433194 0 0 0 0 2546.6138807368698 1794.1654582415358 0 1794.1654582415358 568.33570616908401 0 0 0 0 1984.7096440186197 1117.4031961863839 0 1117.4031961863839 -238.84222052467521 0 0 0 0 2594.456345593062 1228.1952227506845 0 1228.1952227506845 -774.66432251484366 0 0 0 0 3239.4160813326671 839.77240522974171 0 839.77240522974171 -868.70219887956046 0 0 0 0 2306.4604174592714 336.61198006832274 0 336.61198006832274 -1138.7880311215413 0 0 0 0 1085.3446132318495 641.14017716418311 0 641.14017716418311 -827.16111214045668 0 0 0 0 1686.721626894473 254.1111818760055 0 254.1111818760055 -1017.6644386557164 0 0 0 0 1251.2062380679708 1049.9089926237211 0 1049.9089926237211 -1003.5635745801555 0 0 0 0 1612.0241141012375 834.12093351787189 0 834.12093351787189 -931.0248798426037 0 0 0 0 1924.3370466416382 1117.698598660143 0 1117.698598660143 -1026.5375329925737 0 0 0 0 1346.2587735306079 1163.1607301034237 0 1163.1607301034237 -451.9266083194525 0 0 0 0 1365.779310850965 1090.8136719569484 0 1090.8136719569484 -1141.6487200260744 0 0 0 0 1178.0837224735005 1431.2355787126216 0 1431.2355787126216 -957.75931083472096 0 0 0 0 1440.3152573245752 1333.1316660996672 0 1333.1316660996672 -1037.1373211315367 0 0 0 0 1528.1875415554896 1344.6904152105999 0 1344.6904152105999 -1042.8473315508454 0 0 0 0 1024.2240693058338 1603.1363303217659 0 1603.1363303217659 -1128.7658033878688 0 0 0 0 1383.3135286399338 909.5921813228706 0 909.5921813228706 -858.75821676813939 0 0 0 0 786.15138376275718 980.81833420026669 0 980.81833420026669 -772.35243397799786 0 0 0 0 -386.39071896915993 132.34363981448405 0 132.34363981448405 127.79433865558894 0 0 0 0 -872.15831191327379 874.86710981898796 0 874.86710981898796 -256.87718623633555 0 0 0 0 -12.478704638454417 20.589724857427456 0 20.589724857427456 12.331360764805538 0 0 0 0 435.78219721423375 1599.7071771441115 0 1599.7071771441115 -1358.1638846854457 0 0 0 0 731.19110870946315 1060.3050484274136 0 1060.3050484274136 -845.8131482465833 0 0 0 0 495.25323222603038 715.79712734264467 0 715.79712734264467 -528.20713902788702 0 0 0 0 509.03083322237217 488.88887873177009 0 488.88887873177009 -153.62131483503617 0 0 0 0 1478.0642628985261 947.40379600230335 0 947.40379600230335 -849.80066727203666 0 0 0 0 69.224199428007921 53.8702272801535 0 53.8702272801535 41.265096089296776 0 0 0 0 135.29590555072144 188.90633157775574 0 188.90633157775574 -656.47524298194912 0 0 0 0 -339.113020131128 -26.832317490363494 0 -26.832317490363494 -461.27587256851257 0 0 0 0 28.545254136445976 18.831231061699157 0 18.831231061699157 11.849360969050736 0 0 0 0 613.67302920913062 720.64100913539005 0 720.64100913539005 -1.1231870914925821 0 0 0 0 157.47449394526393 1477.3662720709253 0 1477.3662720709253 -70.872399667685386 0 0 0 0 0.25881741625276788 6.2993828677555257 0 6.2993828677555257 1.5361990173228293 0 0 0 0 224.35474746895125 103.86915321146807 0 103.86915321146807 -819.04999392248283 0 0 0 0 587.64771816107896 712.80940238259791 0 712.80940238259791 28.183312756285886 0 0 0 0 -1810.8425537205858 1225.3283060546237 0 1225.3283060546237 87.782798921194626 0 0 0 0 -4028.500148563613 3185.0684290711797 0 3185.0684290711797 631.12690077257867 0 0 0 0 518.12583748931502 3358.0148192190827 0 3358.0148192190827 -569.64754276775056 0 0 0 0 3836.2651412723062 1756.8666099716647 0 1756.8666099716647 -1444.5930339484767 0 0 0 0 6481.4167143401573 -1013.831438680907 0 -1013.831438680907 -895.64303889646544 0 0 0 0 1970.6151891064292 -86.634612185225706 0 -86.634612185225706 -147.48359522802639 0 0 0 0 4059.6663060620613 3994.8548006829187 0 3994.8548006829187 756.01807778322836 0 0 0 0 5432.5013008949027 2453.1158127067902 0 2453.1158127067902 102.68672225656337 0 0 0 0 6449.3347546224486 -682.86021655043078 0 -682.86021655043078 928.41659558046376 0 0 0 0 1424.6111058646929 1550.1367295945092 0 1550.1367295945092 1.2036108694010181 0 0 0 0 1421.8847308880722 1797.076424461673 0 1797.076424461673 -586.96006756039924 0 0 0 0 438.4630526740184 3688.6862335872283 0 3688.6862335872283 -1796.0858695734933 0 0 0 0 -1777.3743340455403 774.37277971989533 0 774.37277971989533 251.69776533854019 0 0 0 0 -479.63362070589938 1485.0729987855229 0 1485.0729987855229 -1.0129775776294991 0 0 0 0 -1864.5043126231722 2411.824422668778 0 2411.824422668778 -528.31842626415892 0 0 0 0 1228.0429464058179 2234.2214115239767 0 2234.2214115239767 -519.69325195728288 0 0 0 0 3446.2145302475292 943.67555122875638 0 943.67555122875638 -838.22063276838162 0 0 0 0 -1.2736163269044596 13.068613248238364 0 13.068613248238364 -24.445065391349885 0 0 0 0 832.54680679048579 118.54577493447869 0 118.54577493447869 -334.32906562098651 0 0 0 0 973.97205416397628 882.12383494520327 0 882.12383494520327 17.259640557058447 0 0 0 0 539.90744436314708 804.68285517900949 0 804.68285517900949 -85.263915494273533 0 0 0 0 -1720.7039167498588 889.93715617939597 0 889.93715617939597 -43.983916095356108 0 0 0 0 2129.488481287799 748.69428861974757 0 748.69428861974757 -105.65914991541649 0 0 0 0 0.45594143772151519 1.6980954665575325 0 1.6980954665575325 -0.44757021666691799 0 0 0 0 585.60383840288705 1331.7896470863561 0 1331.7896470863561 0.77289262348494958 0 0 0 0 42.299127658450743 998.27325244924577 0 998.27325244924577 78.375177257228643 0 0 0 0 -8.0054857095237821 1483.5072446644335 0 1483.5072446644335 71.671801945744392 0 0 0 0 -92.336283089054632 1362.406899673093 0 1362.406899673093 -94.401191442128038 0 0 0 0 -78.208423865944496 821.87657944807142 0 821.87657944807142 189.19205780018819 0 0 0 0 271.70287585412007 1270.3011139920345 0 1270.3011139920345 128.25597763969563 0 0 0 0 -206.10623074385512 384.51483349354021 0 384.51483349354021 -86.448009094427107 0 0 0 0 -824.06080946381553 1376.9778190765501 0 1376.9778190765501 167.93781418208528 0 0 0 0 -1808.8570241783127 903.20475196312691 0 903.20475196312691 4.5569533518864773 0 0 0 0 422.26930886601622 1124.2486086853169 0 1124.2486086853169 -110.16688688042416 0 0 0 0 -41.755593626854534 1731.8978447399131 0 1731.8978447399131 -108.19736504546017 0 0 0 0 321.59863447034149 1464.0384592161718 0 1464.0384592161718 -97.499967923038639 0 0 0 0 54.436250810849373 49.145800370567429 0 49.145800370567429 -9.078330892624237 0 0 0 0 174.63242245565198 546.85674353293143 0 546.85674353293143 989.05118320022302 0 0 0 0 10.88292361641652 970.32603516877862 0 970.32603516877862 1111.503707648837 0 0 0 0 228.77725664179889 589.11843418102944 0 589.11843418102944 899.62733762814605 0 0 0 0 635.08107876788563 664.17616874777013 0 664.17616874777013 463.22836080203706 0 0 0 0 -1685.3563441932893 1068.5280935281771 0 1068.5280935281771 -427.89197896493715 0 0 0 0 -0.4073496442291642 21.139465365786521 0 21.139465365786521 3.1210365824875907 0 0 0 0 -1702.0223887855245 1125.8732339978742 0 1125.8732339978742 -518.14181639798335 0 0 0 0 -1999.0678060262653 1135.9443344297033 0 1135.9443344297033 -276.63185318667092 0 0 0 0 2185.4032347799948 862.48206309253146 0 862.48206309253146 -1049.8460587437148 0 0 0 0 0.051729849587319521 3.7956243533889733 0 3.7956243533889733 -2.4009265092838632 0 0 0 0 1741.731478538175 401.80109927836747 0 401.80109927836747 -330.41776607272914 0 0 0 0 1273.5749884257384 948.49801485784701 0 948.49801485784701 -958.83842543890933 0 0 0 0 1406.6702215018013 1430.1617762826245 0 1430.1617762826245 -1283.3244549228111 0 0 0 0 1172.8130248386587 639.12246188259451 0 639.12246188259451 -1302.5326067985734 0 0 0 0 1141.1947842461159 748.44591383473016 0 748.44591383473016 -344.55908677185653 0 0 0 0 1215.3113677184083 577.06623516210675 0 577.06623516210675 -1214.6312254091608 0 0 0 0 1.4165883994518804 26.873376445216408 0 26.873376445216408 -69.450474419644479 0 0 0 0 1116.3556577171839 692.3886995720386 0 692.3886995720386 -270.76837198012799 0 0 0 0 979.49677389088174 620.35744503982278 0 620.35744503982278 -252.26350274286233 0 0 0 0 1285.8677467632151 32.157776890617242 0 32.157776890617242 698.31928601927939 0 0 0 0 966.70358147872685 648.24116405775567 0 648.24116405775567 406.07924651171197 0 0 0 0 0.25002462980049422 7.170300589459373 0 7.170300589459373 -2.7268642795933147 0 0 0 0 254.2494612552764 371.21255097835092 0 371.21255097835092 438.63285391480895 0 0 0 0 1194.8568623860956 458.84270439902321 0 458.84270439902321 392.13079151813872 0 0 0 0 -5.9372854690736858 36.869186543117394 0 36.869186543117394 34.057088775545708 0 0 0 0 -4.9651114912558114 37.151594755348924 0 37.151594755348924 23.953761779586785 0 0 0 0 5.2033617254329272 13.311328119682571 0 13.311328119682571 -21.94167621352949 0 0 0 0 123.82349704724038 120.4692397636536 0 120.4692397636536 0.056439127452904359 0 0 0 0 133.99203703141211 131.65237321316818 0 131.65237321316818 16.760704260552302 0 0 0 0 209.83732820494333 69.104066314830561 0 69.104066314830561 16.468551018391736 0 0 0 0 -2.8260895569434297 -0.51027302396438046 0 -0.51027302396438046 1.1579507146449259 0 0 0 0 -3804.2773657613579 -469.12834521339391 0 -469.12834521339391 127.99240672701853 0 0 0 0 -3549.2535715863924 385.96995470608817 0 385.96995470608817 -0.97754451353102922 0 0 0 0 -8.0996813894053048 48.898226846264151 0 48.898226846264151 -167.33249947833247 0 0 0 0 -0.31798329250804613 6.7310135110285501 0 6.7310135110285501 -2.8945367444347312 0 0 0 0 -2223.7368874739477 808.73000622043037 0 808.73000622043037 200.5897980935988 0 0 0 0 -3576.4718865669038 776.40908973553087 0 776.40908973553087 233.84006878873333 0 0 0 0 -1.0107615291694145 16.345474369943368 0 16.345474369943368 19.697296931608548 0 0 0 0 -2572.1825845881258 693.02718371758272 0 693.02718371758272 356.8619543313398 0 0 0 0 -1598.4714623301697 308.17612393539457 0 308.17612393539457 -100.25440897967201 0 0 0 0 -2573.6003662907024 -155.45537897557369 0 -155.45537897557369 201.71628791137482 0 0 0 0 -2748.1752572261321 275.87399423430907 0 275.87399423430907 209.22492458423949 0 0 0 0 -2159.8619508219708 518.1461975061975 0 518.1461975061975 296.24940697776037 0 0 0 0 -1682.1080463136605 460.06116215526708 0 460.06116215526708 -46.646607994793158 0 0 0 0 -932.91537862250698 792.77752951352159 0 792.77752951352159 -127.64190524583682 0 0 0 0 -1780.7979443680815 936.19751246122178 0 936.19751246122178 34.128271304361988 0 0 0 0 -909.36772710204241 840.55383582905051 0 840.55383582905051 -115.11398147052387 0 0 0 0 -2057.0211597190937 649.69295440401766 0 649.69295440401766 173.02166357758688 0 0 0 0 -1978.1138426577381 743.92770482877677 0 743.92770482877677 223.53779437806224 0 0 0 0 -2162.3284625478118 1262.9714620789164 0 1262.9714620789164 -198.17162016464863 0 0 0 0 -1460.3648369521034 691.42026807554794 0 691.42026807554794 -220.27383415726945 0 0 0 0 -363.43301363482533 1383.6869514366917 0 1383.6869514366917 -0.50518259168893564 0 0 0 0 -1263.5714691834728 1042.3798920018307 0 1042.3798920018307 -18.262363699410344 0 0 0 0 -116.87424713968358 1394.2302511442685 0 1394.2302511442685 -85.754464090357942 0 0 0 0 -947.52223085492733 993.46580230616382 0 993.46580230616382 -57.06930708521395 0 0 0 0 -25.733252261365124 1203.437105596473 0 1203.437105596473 249.73469290186767 0 0 0 0 31.630086568839033 1265.5366016883054 0 1265.5366016883054 -71.397815016632194 0 0 0 0 -848.27551970412605 634.83758510988264 0 634.83758510988264 143.7936874605366 0 0 0 0 24.027037386234952 675.88753559924589 0 675.88753559924589 939.42158984721755 0 0 0 0 41.513997687376104 864.6572505359145 0 864.6572505359145 1474.7970081147505 0 0 0 0 324.91597376276331 1667.0624673512939 0 1667.0624673512939 442.44500554371916 0 0 0 0 17.036730520988698 9.3690906221572732 0 9.3690906221572732 2.0688083461085398 0 0 0 0 -654.96301311579009 667.6374827548716 0 667.6374827548716 4604.3296088683419 0 0 0 0 250.6936580704787 499.16741727058979 0 499.16741727058979 1264.2601519434829 0 0 0 0 -2050.1963936727552 1898.4880516028497 0 1898.4880516028497 -6003.4783434436395 0 0 0 0 -12.273461943775601 17.274860176075578 0 17.274860176075578 16.142614143247471 0 0 0 0 378.28863141646434 4435.5697208560596 0 4435.5697208560596 -3553.3046745065367 0 0 0 0 329.18235599185573 2713.8720838245936 0 2713.8720838245936 1404.2510325373441 0 0 0 0 166.64869376155548 688.5864844409225 0 688.5864844409225 -982.82977878540987 0 0 0 0 -1259.4374871230102 -62.956021825200878 0 -62.956021825200878 -1345.3040805379569 0 0 0 0 105.62009308897541 74.425203611201141 0 74.425203611201141 866.75911771261599 0 0 0 0 -1872.1186986965331 695.00180116680713 0 695.00180116680713 -263.6798994865967 0 0 0 0 -1757.4641453044278 1019.4020808004498 0 1019.4020808004498 434.51272375998087 0 0 0 0 -1818.6634739880756 836.78822772476269 0 836.78822772476269 79.67341877752915 0 0 0 0 -1715.1497571534055 559.31542256393732 0 559.31542256393732 581.39580418402329 0 0 0 0 -2856.7658827390114 1222.3526615745213 0 1222.3526615745213 -30.452499857055955 0 0 0 0 -518.98483477281115 810.64103254146175 0 810.64103254146175 -409.35883791715605 0 0 0 0 -646.68230516678886 1297.7367718056776 0 1297.7367718056776 376.11666147661163 0 0 0 0 -1640.0257592102002 559.33879922357232 0 559.33879922357232 94.189385410863906 0 0 0 0 -1638.4716899262394 361.23263229053725 0 361.23263229053725 -948.37425773596624 0 0 0 0 -1964.6294617375097 117.58984307959327 0 117.58984307959327 97.764663845839095 0 0 0 0 -2368.151115773253 1479.3134985278448 0 1479.3134985278448 -319.9701238978887 0 0 0 0 -3530.5287814227049 -426.78332197893178 0 -426.78332197893178 101.71995788108325 0 0 0 0 -2.4768877237105187 8.4768476067887377 0 8.4768476067887377 6.9822444382580926 0 0 0 0 -29.138304800248221 29.155930761897366 0 29.155930761897366 34.816001544976416 0 0 0 0 -26.040303794845386 39.346156840692856 0 39.346156840692856 17.69689013849711 0 0 0 0 -28.065746067068176 16.874847015746127 0 16.874847015746127 105.19717302235949 0 0 0 0 -13.829499757967127 20.13164827651218 0 20.13164827651218 39.4332254477373 0 0 0 0 -2255.9879392341827 698.43283259752207 0 698.43283259752207 267.90375089948066 0 0 0 0 -11.453225230739918 11.607384032919072 0 11.607384032919072 10.375336867640726 0 0 0 0 -13.910189928002865 26.494814872048153 0 26.494814872048153 14.96934796189214 0 0 0 0 -3639.9866348427313 754.67752488929546 0 754.67752488929546 -33.785500176076312 0 0 0 0 -39.460617465884212 32.302236210234994 0 32.302236210234994 31.950197826176293 0 0 0 0 14.042039706284413 -252.77558689736179 0 -252.77558689736179 -284.1040112238552 0 0 0 0 -22.096627305598986 13.214353865449937 0 13.214353865449937 33.1657050243669 0 0 0 0 -61.872491599460773 28.365089744358556 0 28.365089744358556 101.8146303952235 0 0 0 0 -78.432986748701296 88.698771003073489 0 88.698771003073489 34.090918375062756 0 0 0 0 -41.139006479133968 15.556017702023382 0 15.556017702023382 69.843437312345486 0 0 0 0 -19.229552546781633 58.905470426321699 0 58.905470426321699 48.954107689234661 0 0 0 0 -23.640537968957204 28.006722206574238 0 28.006722206574238 6.4251969295144704 0 0 0 0 -241.00537535807962 332.9305074489821 0 332.9305074489821 61.480927287491795 0 0 0 0 -35.228396686761698 431.28212585712026 0 431.28212585712026 86.089454534725519 0 0 0 0 -109.27415672789539 151.76759996938199 0 151.76759996938199 448.12371826556046 0 0 0 0 -115.5437659877789 170.18526195900631 0 170.18526195900631 470.02234927267273 0 0 0 0 -44.726294459427152 -2.4398645926163169 0 -2.4398645926163169 11.360764910611636 0 0 0 0 -62.942349199613091 -21.939521431180765 0 -21.939521431180765 998.87888436461799 0 0 0 0 -5.6972976954687766 7.9389448217421226 0 7.9389448217421226 -1.6722615935086651 0 0 0 0 45.797484301379882 363.96420078078518 0 363.96420078078518 632.35882148565724 0 0 0 0 114.18823280019569 380.43449654150754 0 380.43449654150754 498.76442579904688 0 0 0 0 -110.69400325362221 374.16292983676249 0 374.16292983676249 534.24653886856686 0 0 0 0 145.45033138889994 274.6902762723912 0 274.6902762723912 133.65161654730036 0 0 0 0 122.78221033293812 473.11865606835636 0 473.11865606835636 111.85089660353333 0 0 0 0 99.534245180271682 478.62178807251621 0 478.62178807251621 390.22183932506596 0 0 0 0 146.01704416211396 80.484488297870485 0 80.484488297870485 808.33347540616523 0 0 0 0 -9.0236645458935527 130.96520082901407 0 130.96520082901407 1089.8046893702995 0 0 0 0 -86.621511642617406 316.50929678720422 0 316.50929678720422 1059.5896528196172 0 0 0 0 -50.129968386027031 213.86785503162537 0 213.86785503162537 1120.988536693796 0 0 0 0 40.148202926822705 280.77192756741715 0 280.77192756741715 1070.0813498245843 0 0 0 0 -23.060016187449946 175.65374075199361 0 175.65374075199361 900.49974704970373 0 0 0 0 -49.516876364563359 456.04903294701944 0 456.04903294701944 892.54784574540099 0 0 0 0 158.90784849686315 203.60589778934082 0 203.60589778934082 956.75827883648162 0 0 0 0 1.4654056168193108 3.7958919107332747 0 3.7958919107332747 -1.8565737083920908 0 0 0 0 -661.22979316412966 -342.44389559333649 0 -342.44389559333649 3152.0423788478074 0 0 0 0 810.19083293282893 2723.3814054135291 0 2723.3814054135291 -7383.6518575702357 0 0 0 0 -124.62669736425346 352.46559304546133 0 352.46559304546133 -650.47459540414275 0 0 0 0 -113.96261281731859 961.91624594850873 0 961.91624594850873 293.49031230730179 0 0 0 0 -24.381474400139268 339.10804017616465 0 339.10804017616465 1105.73136163858 0 0 0 0 -1357.5270941517301 838.45754753583606 0 838.45754753583606 1481.1462614207703 0 0 0 0 -1130.6451160344295 -1449.8098763233356 0 -1449.8098763233356 -24.360721955512417 0 0 0 0 941.69518339396745 1580.1202023935184 0 1580.1202023935184 540.65881400297803 0 0 0 0 497.38630553008988 873.29738230269868 0 873.29738230269868 -224.31362356316822 0 0 0 0 524.0211687534802 708.04461125477883 0 708.04461125477883 -602.77414734108606 0 0 0 0 26.541266464497397 4.9331189756303502 0 4.9331189756303502 1.077701576944861 0 0 0 0 56.359063873849664 113.43257908984378 0 113.43257908984378 -665.97725982074917 0 0 0 0 536.89808278881537 470.75320420258504 0 470.75320420258504 -1177.4234157646715 0 0 0 0 -1118.4442295235349 976.4534172747808 0 976.4534172747808 3531.2651592050315 0 0 0 0 388.62876755260368 790.26879072155134 0 790.26879072155134 422.75259338394972 0 0 0 0 1098.2866061358654 1226.9976494257717 0 1226.9976494257717 565.7224775105642 0 0 0 0 541.92861960893424 495.66233643965097 0 495.66233643965097 349.75133011685102 0 0 0 0 754.77154858045105 701.93334597420471 0 701.93334597420471 -59.602170777434367 0 0 0 0 594.8904713216325 429.16849600600835 0 429.16849600600835 206.74696596583817 0 0 0 0 -27.604150811697764 350.89837555713166 0 350.89837555713166 -307.82707601173024 0 0 0 0 529.23905463470874 437.89688238527742 0 437.89688238527742 426.51673728011519 0 0 0 0 71.480700490056336 29.91756330737735 0 29.91756330737735 17.243340411724901 0 0 0 0 -196.52858925011242 387.03756497809081 0 387.03756497809081 195.64083748398116 0 0 0 0 108.24743821559969 1013.1154715503944 0 1013.1154715503944 541.05898526578676 0 0 0 0 -296.38671048310061 523.11569058115856 0 523.11569058115856 155.21413669385947 0 0 0 0 -52.247468149545966 416.29828844748772 0 416.29828844748772 199.98968499369221 0 0 0 0 -186.46040270823869 737.9068462169671 0 737.9068462169671 1843.5798922356917 0 0 0 0 -11.577691859552509 23.617979635201635 0 23.617979635201635 26.340440346907883 0 0 0 0 -850.54097220020776 1092.2734066510457 0 1092.2734066510457 3422.6483011237378 0 0 0 0 -1105.4558906026432 -42.717389575846028 0 -42.717389575846028 1191.2022133352584 0 0 0 0 6387.6742257215737 2443.9421394673118 0 2443.9421394673118 228.8483613889548 0 0 0 0 36.834767382562859 901.9814120742958 0 901.9814120742958 767.95848644315265 0 0 0 0 38.260432973474963 517.77956363366684 0 517.77956363366684 733.52384323001752 0 0 0 0 -14.443202022206123 75.684410682353416 0 75.684410682353416 22.762944945137122 0 0 0 0 292.18088164176152 602.50328725512372 0 602.50328725512372 -1016.7174270433825 0 0 0 0 61.545848681686039 18.432966190383013 0 18.432966190383013 -680.47044941730564 0 0 0 0 958.83874301656033 1031.5048882790725 0 1031.5048882790725 -2355.1470139810117 0 0 0 0 -842.63713993459533 1018.9801946553553 0 1018.9801946553553 -1466.833899603982 0 0 0 0 14.744493636604552 49.521852730529091 0 49.521852730529091 -95.555012074526246 0 0 0 0 802.37011684908066 392.22498838370666 0 392.22498838370666 -1289.5863982161391 0 0 0 0 1086.4940384383954 1105.1775256872279 0 1105.1775256872279 -1867.2938923048205 0 0 0 0 1138.488272750692 613.1894557933847 0 613.1894557933847 -2193.7267543540802 0 0 0 0 -736.38855502769002 763.31375564628979 0 763.31375564628979 -1325.7397528110305 0 0 0 0 -291.2924910801521 727.74632170217228 0 727.74632170217228 -457.09929892710352 0 0 0 0 221.02085717907175 561.18519529845798 0 561.18519529845798 -500.73738946940284 0 0 0 0 -98.437897291019908 -106.29640756908339 0 -106.29640756908339 -1174.2796932788042 0 0 0 0 -196.04426206979406 289.28366547478799 0 289.28366547478799 -627.56276746682124 0 0 0 0 -263.88509742714814 700.03095684165601 0 700.03095684165601 -268.74841895472491 0 0 0 0 -643.66658214181371 -1.6339280582906213 0 -1.6339280582906213 -654.21745224349979 0 0 0 0 -700.17698509465845 367.34923280272051 0 367.34923280272051 -414.32704925858707 0 0 0 0 -142.11383569397731 625.45812077045775 0 625.45812077045775 -604.04738635439571 0 0 0 0 -29.983194819545105 83.483178331907766 0 83.483178331907766 22.695064389808707 0 0 0 0 -997.03403336242627 272.71476731537769 0 272.71476731537769 -500.16537939049886 0 0 0 0 356.23813809138665 321.10685293126153 0 321.10685293126153 -1450.0570892425021 0 0 0 0 -22.375792170751083 509.40697933160118 0 509.40697933160118 -744.04750493069878 0 0 0 0 -1617.6758528128703 1902.2408113422862 0 1902.2408113422862 -2527.0752049176735 0 0 0 0 -1424.3313478536875 349.5637525274069 0 349.5637525274069 -488.04304731951561 0 0 0 0 -32.602597421510602 88.864932267632767 0 88.864932267632767 -53.985488981062247 0 0 0 0 -994.1684786287442 1500.2569955578583 0 1500.2569955578583 1323.6077816242832 0 0 0 0 334.75285610537685 681.2751391990314 0 681.2751391990314 -139.13937976075977 0 0 0 0 -90.581901571546041 246.81400971145194 0 246.81400971145194 140.76022563726292 0 0 0 0 315.90383585747622 1343.8349516713133 0 1343.8349516713133 1174.8802229912762 0 0 0 0 893.8419511092834 1304.3161155951821 0 1304.3161155951821 516.26005275560601 0 0 0 0 -2514.8603944962815 -688.43463528782013 0 -688.43463528782013 412.23223357363167 0 0 0 0 -33.444410940729369 57.099508549012228 0 57.099508549012228 -31.693957829721342 0 0 0 0 938.5593953185853 1315.6114113127333 0 1315.6114113127333 499.61175211548834 0 0 0 0 937.57640299825289 1711.4664602570192 0 1711.4664602570192 -239.47934238072776 0 0 0 0 918.91093154738337 2322.9436805071673 0 2322.9436805071673 1152.6074175692775 0 0 0 0 429.80518608006605 1320.0380136940003 0 1320.0380136940003 1065.9609941292438 0 0 0 0 1038.4273433748167 2105.3978669230783 0 2105.3978669230783 1562.447034786248 0 0 0 0 584.95475053121481 3197.7822048482849 0 3197.7822048482849 3317.2104980019781 0 0 0 0 11.006486146438789 5.3818383069252604 0 5.3818383069252604 -0.017228750823807815 0 0 0 0 2207.3080679512641 2364.4062303557257 0 2364.4062303557257 3079.8225685423095 0 0 0 0 1210.9205907249016 2026.6519021872591 0 2026.6519021872591 -1086.3883795367874 0 0 0 0 331.84967357668938 1004.2879298655607 0 1004.2879298655607 -2174.9553058133224 0 0 0 0 891.29327595603536 764.16872107935342 0 764.16872107935342 -1724.5187886422427 0 0 0 0 90.479771348578652 617.1120039443158 0 617.1120039443158 -1088.5413080513972 0 0 0 0 834.3175243134101 729.35317536010552 0 729.35317536010552 -1470.835932945236 0 0 0 0 1084.0721530566943 1495.2565500993951 0 1495.2565500993951 -75.723177156352904 0 0 0 0 904.26976088525771 540.98812547979469 0 540.98812547979469 -1005.4455198674405 0 0 0 0 1040.7375148215979 948.16483503465133 0 948.16483503465133 165.89394599205116 0 0 0 0 1901.0871950759756 828.62204365089565 0 828.62204365089565 -166.48178133855254 0 0 0 0 2629.2782871966137 1716.5288705782114 0 1716.5288705782114 295.14224637043662 0 0 0 0 1338.1229695940565 708.69740972892168 0 708.69740972892168 589.4900362581684 0 0 0 0 1402.2716519239693 352.92075499050407 0 352.92075499050407 -809.67199470138439 0 0 0 0 899.61823002370511 -84.110243441791681 0 -84.110243441791681 -853.69966109662346 0 0 0 0 739.52521190441621 67.557740136475331 0 67.557740136475331 -627.31856986964704 0 0 0 0 1337.4500137507639 551.39512150907467 0 551.39512150907467 -1531.8255698098365 0 0 0 0 -484.33499691638281 1007.8726815032351 0 1007.8726815032351 -1285.1347522410324 0 0 0 0 374.87809063687746 338.65605808543478 0 338.65605808543478 -1237.6332309548707 0 0 0 0 909.1945233432416 -1.0571061516493501 0 -1.0571061516493501 -1142.4777783096215 0 0 0 0 421.34540360231767 -214.59103968688578 0 -214.59103968688578 -1034.6967626722872 0 0 0 0 248.47469910751533 -264.09796944171103 0 -264.09796944171103 -1205.4463140545813 0 0 0 0 726.99501078637422 -7.6834652549368911 0 -7.6834652549368911 -1116.3856539809785 0 0 0 0 761.44219573411829 131.81594829339519 0 131.81594829339519 -866.06898693703988 0 0 0 0 1650.5966650841801 -355.61839535750914 0 -355.61839535750914 -231.4475863759144 0 0 0 0 1101.7129414192514 1326.2613132933566 0 1326.2613132933566 -841.9261992831307 0 0 0 0 -0.67383062547200723 3.3108767573042925 0 3.3108767573042925 19.365153808084415 0 0 0 0 3362.8422764096467 27.491843204214092 0 27.491843204214092 -959.76719478913583 0 0 0 0 1907.0333051951966 1242.3131525998688 0 1242.3131525998688 -1017.9869947341504 0 0 0 0 1843.889850322339 833.89325343209021 0 833.89325343209021 -3382.998037681813 0 0 0 0 -400.53978665605246 2925.1460996807218 0 2925.1460996807218 -1311.4541004985076 0 0 0 0 1041.8980099159817 -681.23814192319696 0 -681.23814192319696 -245.37815403467539 0 0 0 0 1034.792461408877 -788.44641772835166 0 -788.44641772835166 -1779.6883398770005 0 0 0 0 -7.8683854529490134 16.724798683739664 0 16.724798683739664 -33.029775719047166 0 0 0 0 -2440.2921774505849 2443.3636420720268 0 2443.3636420720268 -715.55039248305548 0 0 0 0 -2888.6467789057806 1168.578611156805 0 1168.578611156805 -998.21289501014689 0 0 0 0 -1056.1035086371558 -499.87131615606631 0 -499.87131615606631 -2001.0189803441463 0 0 0 0 -3419.7859654312197 -146.26821595357615 0 -146.26821595357615 -76.943608487432357 0 0 0 0 -21.553251820472369 42.117514105121586 0 42.117514105121586 -23.752741016616483 0 0 0 0 -1973.3269473530672 -898.61607387032564 0 -898.61607387032564 -377.30891270028224 0 0 0 0 -5609.2499958421395 885.71952398041321 0 885.71952398041321 687.42705200644559 0 0 0 0 -9.0702139105500024 16.677097542256234 0 16.677097542256234 -11.707846718779535 0 0 0 0 3668.6735771712847 1303.9387820593802 0 1303.9387820593802 -918.81425426124042 0 0 0 0 -207.8991773885391 1781.7650138587414 0 1781.7650138587414 -851.41123003774555 0 0 0 0 -2047.8842748933312 1173.8388383254569 0 1173.8388383254569 -772.37388526598806 0 0 0 0 686.67697706913532 1270.3014568839753 0 1270.3014568839753 -1093.7528461962647 0 0 0 0 -2063.7639771376853 1145.8112714202798 0 1145.8112714202798 -128.82175006125181 0 0 0 0 -1102.375372481396 -316.59935740690526 0 -316.59935740690526 1388.3057864631992 0 0 0 0 -2250.3471349523716 2632.108207864927 0 2632.108207864927 -1962.9843078526173 0 0 0 0 428.04744816680613 207.81836776231648 0 207.81836776231648 -624.64261934204114 0 0 0 0 1618.7567458665217 1103.5675399751744 0 1103.5675399751744 -1218.3551775339147 0 0 0 0 -14.673564157922272 37.125232809167727 0 37.125232809167727 -75.156506167011571 0 0 0 0 615.7774662668071 729.17594542009465 0 729.17594542009465 -146.08376711883466 0 0 0 0 1121.5424343240375 1957.3308003971542 0 1957.3308003971542 -780.80695482276496 0 0 0 0 8.1734807596157566 23.261655525327825 0 23.261655525327825 -8.8746161866731939 0 0 0 0 302.8388267307455 273.79333621247497 0 273.79333621247497 29.262122313753935 0 0 0 0 -149.82138129602231 -41.315727372707897 0 -41.315727372707897 1191.6952753122314 0 0 0 0 440.74372101322842 782.08875051492214 0 782.08875051492214 -1596.7906498368829 0 0 0 0 -19.603207819266061 47.648779025939547 0 47.648779025939547 -71.97653462677539 0 0 0 0 198.98339324591871 -27.182894342324289 0 -27.182894342324289 -837.56846443723771 0 0 0 0 665.27844085905963 -204.06221913375339 0 -204.06221913375339 -1377.1482107302581 0 0 0 0 1228.3585010760726 447.96529822753655 0 447.96529822753655 -891.44329046830535 0 0 0 0 1362.776806873997 913.8501421023102 0 913.8501421023102 -2419.4365307454136 0 0 0 0 6.2623941224647979 7.2627901541883091 0 7.2627901541883091 2.0408899628345125 0 0 0 0 263.69912218189711 1184.5197179857714 0 1184.5197179857714 3196.8287945475604 0 0 0 0 -170.74636281724088 737.4475807864219 0 737.4475807864219 2737.2632227235299 0 0 0 0 1353.5603068099881 2036.5701370354509 0 2036.5701370354509 2946.2554577255378 0 0 0 0 260.44771586201387 1782.6437139935442 0 1782.6437139935442 2929.2956984516932 0 0 0 0 797.20772860008583 1013.1397002342637 0 1013.1397002342637 1399.7203121384809 0 0 0 0 -190.92768736675498 2.4207449382811319 0 2.4207449382811319 -104.46400112271658 0 0 0 0 -956.78995824942103 -374.7956409338949 0 -374.7956409338949 -54.143826027473551 0 0 0 0 1371.4756431476903 1314.4821527587424 0 1314.4821527587424 927.97566801449284 0 0 0 0 1757.0173119403944 1073.4718955408607 0 1073.4718955408607 -1123.9072595957696 0 0 0 0 -8.9384479240405028 10.807659804275573 0 10.807659804275573 -9.8682703661990558 0 0 0 0 356.49868815853551 347.86533758188307 0 347.86533758188307 -898.73073371636565 0 0 0 0 1524.125288469324 179.15383439628931 0 179.15383439628931 -767.64716664246225 0 0 0 0 -2748.6381236590532 -151.89014421380125 0 -151.89014421380125 -24.144113264628686 0 0 0 0 -464.77623971736466 1300.9351215688293 0 1300.9351215688293 -1965.3198191409756 0 0 0 0 -2607.1833879757864 1364.0515130734766 0 1364.0515130734766 -528.80306718629436 0 0 0 0 -1008.3535292219385 725.84677364841627 0 725.84677364841627 -331.1514994090976 0 0 0 0 -905.54132900173136 216.75923642193084 0 216.75923642193084 199.42983021353575 0 0 0 0 -1746.529003467047 456.93193404571502 0 456.93193404571502 131.35206806828501 0 0 0 0 -1095.8989723081504 463.60433232660216 0 463.60433232660216 240.43658297145157 0 0 0 0 -712.08883358520688 266.69635587299126 0 266.69635587299126 166.3929611613712 0 0 0 0 -787.0325183048044 253.31699564119481 0 253.31699564119481 255.09461189690046 0 0 0 0 -725.26276822188629 438.79986627969993 0 438.79986627969993 210.98042571017868 0 0 0 0 -621.80154020744521 366.94904447942827 0 366.94904447942827 224.71310586838808 0 0 0 0 -664.73047620768921 309.44686824038217 0 309.44686824038217 258.47182138706557 0 0 0 0 -530.96787118081556 272.09204308584594 0 272.09204308584594 268.72743299574358 0 0 0 0 -438.92303542909212 234.08588205790147 0 234.08588205790147 200.86571434518555 0 0 0 0 -290.75809633727476 175.62977146136836 0 175.62977146136836 183.69222745118532 0 0 0 0 -434.39054547799606 300.08255943183758 0 300.08255943183758 158.98718624364119 0 0 0 0 -289.95966259133274 195.83939226263465 0 195.83939226263465 200.99789819750004 0 0 0 0 -193.46497757048928 255.92019023769535 0 255.92019023769535 133.79649824545959 0 0 0 0 -174.06566482156632 101.29385072557488 0 101.29385072557488 178.88784710882464 0 0 0 0 -249.04072443285258 160.08818616910139 0 160.08818616910139 181.84646729457472 0 0 0 0 -294.54831638104224 120.924828906107 0 120.924828906107 194.86179718736093 0 0 0 0 -216.53235977029181 133.89571976127081 0 133.89571976127081 -10.242092316679191 0 0 0 0 -23.07866452391707 27.625434175978597 0 27.625434175978597 -22.534672120526693 0 0 0 0 -262.27672076562158 24.598104796561529 0 24.598104796561529 160.37800596930902 0 0 0 0 -11.731020451268705 -4.8906102571927477 0 -4.8906102571927477 134.91798248470877 0 0 0 0 -433.20563565880002 182.99352565254958 0 182.99352565254958 192.88107857713976 0 0 0 0 -434.27919932188524 177.92203856042761 0 177.92203856042761 173.93058760245913 0 0 0 0 -558.64976750699134 152.41638860213425 0 152.41638860213425 219.92031119047897 0 0 0 0 -385.49098281306215 -39.966077992983628 0 -39.966077992983628 -40.272713649494108 0 0 0 0 -791.25145515320401 101.92778024107974 0 101.92778024107974 164.74163596317521 0 0 0 0 -309.03780662566533 117.1581356910101 0 117.1581356910101 93.555664304600214 0 0 0 0 286.03438529168488 -238.52728301502066 0 -238.52728301502066 284.69779542635661 0 0 0 0 27.653517873535748 2508.4593523675139 0 2508.4593523675139 1932.1426093961491 0 0 0 0 1.1145717773932233 2.0282919061708355 0 2.0282919061708355 0.56196600750564585 0 0 0 0 2431.9229671684734 2134.7356505937933 0 2134.7356505937933 1359.7911922949424 0 0 0 0 1007.4278037324548 1325.4925036148052 0 1325.4925036148052 1844.1975844230037 0 0 0 0 816.55098672000167 1400.7370339089102 0 1400.7370339089102 1765.7233861403365 0 0 0 0 1032.4385722415718 1132.4007837778008 0 1132.4007837778008 1294.9867226901115 0 0 0 0 2472.9274291635229 1867.6703158000892 0 1867.6703158000892 970.55167861722293 0 0 0 0 958.32621574630321 349.85022667031444 0 349.85022667031444 241.61464631001581 0 0 0 0 2196.4733059710125 1016.2229176818328 0 1016.2229176818328 489.6590859364369 0 0 0 0 -13.44958303091326 9.1074536034043092 0 9.1074536034043092 5.1284099413437048 0 0 0 0 -16.345261526003014 168.80434060873813 0 168.80434060873813 -97.127830532568623 0 0 0 0 251.37098449130104 345.69679888449082 0 345.69679888449082 93.522051166219171 0 0 0 0 254.50979033457406 377.40407091984525 0 377.40407091984525 469.28391130849195 0 0 0 0 248.58577150125348 122.67625797516666 0 122.67625797516666 23.938601549132727 0 0 0 0 -20.272524650691167 34.611408216227289 0 34.611408216227289 -33.503981478042078 0 0 0 0 41.207086503432947 261.02102879633821 0 261.02102879633821 73.051210184014053 0 0 0 0 -40.804819511678943 270.28087555474485 0 270.28087555474485 132.19673070081626 0 0 0 0 283.01673715890502 641.68105611560168 0 641.68105611560168 434.03422664245591 0 0 0 0 445.39192961348454 940.38985470221814 0 940.38985470221814 607.50530994098517 0 0 0 0 228.35760162986116 654.03260666600545 0 654.03260666600545 496.75760489309323 0 0 0 0 206.43408194767835 592.71754293729464 0 592.71754293729464 339.2492670029751 0 0 0 0 -87.035690740536666 805.12303308337869 0 805.12303308337869 615.70939697767608 0 0 0 0 189.65022254783253 970.83014027087484 0 970.83014027087484 605.49819619808113 0 0 0 0 74.410645851108711 1030.9643381685455 0 1030.9643381685455 761.53848813366312 0 0 0 0 341.06431370685459 1184.6091332836804 0 1184.6091332836804 739.72349440172547 0 0 0 0 244.52158357195731 1072.7975610032299 0 1072.7975610032299 716.65596814191667 0 0 0 0 484.89819471166993 1004.0367091946246 0 1004.0367091946246 809.2063663820154 0 0 0 0 378.91919438994955 940.41212975897361 0 940.41212975897361 775.70863579391153 0 0 0 0 986.80927261439501 1004.5755208294431 0 1004.5755208294431 620.10791192193574 0 0 0 0 487.2635577609617 968.49070472766471 0 968.49070472766471 1154.0262581896968 0 0 0 0 741.14621232400532 944.50056832042173 0 944.50056832042173 999.18348004762083 0 0 0 0 356.88098180935776 988.22046838265669 0 988.22046838265669 1440.2181731758174 0 0 0 0 246.2662768087248 579.15835269065428 0 579.15835269065428 539.36027536177426 0 0 0 0 86.983892502874369 682.62494596105535 0 682.62494596105535 1137.9646539609676 0 0 0 0 384.47212644516549 199.42828913114499 0 199.42828913114499 -336.94111243475345 0 0 0 0 428.07904545087695 191.48421124976812 0 191.48421124976812 -246.72272813766904 0 0 0 0 492.22519858191299 168.45081102454424 0 168.45081102454424 -733.22867142962059 0 0 0 0 538.24418767943007 95.212636760532405 0 95.212636760532405 -882.2525875960273 0 0 0 0 531.0590112362479 62.70432017694111 0 62.70432017694111 -649.14215973638056 0 0 0 0 -326.2556842041522 941.7746111955712 0 941.7746111955712 -1085.8848106505784 0 0 0 0 406.20820630924572 416.20620703748682 0 416.20620703748682 -1047.1539349759987 0 0 0 0 -1028.5919505517377 734.37727810497745 0 734.37727810497745 -191.43489556520944 0 0 0 0 -713.87661313606804 672.45133997240919 0 672.45133997240919 -184.22232697588515 0 0 0 0 134.3484463081877 392.98638407172257 0 392.98638407172257 -445.38694876358204 0 0 0 0 241.06009705081669 461.11163852553 0 461.11163852553 -798.08404308521312 0 0 0 0 -266.63236341524316 656.42018440104584 0 656.42018440104584 -394.91524381565432 0 0 0 0 76.689953693829011 239.06230019499344 0 239.06230019499344 86.475226446360466 0 0 0 0 -568.9201639259918 467.71913853363731 0 467.71913853363731 99.420975413740962 0 0 0 0 -590.28458255216538 572.11235460367607 0 572.11235460367607 143.26808903009078 0 0 0 0 -703.51895355923625 405.82411734920606 0 405.82411734920606 258.37162744498346 0 0 0 0 -571.43358196403278 457.16943990265281 0 457.16943990265281 278.3160203418156 0 0 0 0 -563.44002647449815 491.06067562414319 0 491.06067562414319 194.35173722333275 0 0 0 0 -344.5791905983715 396.91508278930996 0 396.91508278930996 241.7254984304891 0 0 0 0 -223.08229705042322 548.29236890716857 0 548.29236890716857 169.51104359192141 0 0 0 0 132.50393054166125 38.848788413608418 0 38.848788413608418 736.24567955359817 0 0 0 0 354.21388371991634 443.17716592746729 0 443.17716592746729 -355.11496345487558 0 0 0 0 697.63815205495484 414.5247850591586 0 414.5247850591586 -258.59779648843687 0 0 0 0 397.22885161274826 290.53009207089417 0 290.53009207089417 20.97346386652498 0 0 0 0 1048.8497557651426 474.26860088292597 0 474.26860088292597 31.646468481162174 0 0 0 0 237.23785954823688 309.92920203998801 0 309.92920203998801 209.68202965460659 0 0 0 0 522.48052351982187 818.04336860277544 0 818.04336860277544 924.26695793214458 0 0 0 0 339.08920356402632 183.63820779570779 0 183.63820779570779 92.139368138261489 0 0 0 0 40.516225314640792 -4.4909948311409096 0 -4.4909948311409096 -4.3750119429382011 0 0 0 0 612.04285146799248 132.00397923788887 0 132.00397923788887 -45.518735895486316 0 0 0 0 571.24244170646125 529.72977246392111 0 529.72977246392111 136.8429807662651 0 0 0 0 558.33803608435846 256.1589948698529 0 256.1589948698529 -44.464286609028932 0 0 0 0 1111.6256993541792 192.40327300194986 0 192.40327300194986 -186.06607082200935 0 0 0 0 584.50481157383183 418.81317053159728 0 418.81317053159728 -105.5098809091287 0 0 0 0 716.55723070758904 415.28839296413571 0 415.28839296413571 -32.040929463531938 0 0 0 0 589.03805588363684 258.89577783749701 0 258.89577783749701 -466.12747302917705 0 0 0 0 -450.55269369523376 1097.8813338650889 0 1097.8813338650889 -1201.3365466830437 0 0 0 0 -430.10443816478073 1313.9277566963865 0 1313.9277566963865 -1450.0011324188063 0 0 0 0 -323.7800389677941 1160.618644103437 0 1160.618644103437 -1231.7297048799082 0 0 0 0 -210.98100516905834 1305.3861759724387 0 1305.3861759724387 -1278.3877218558264 0 0 0 0 -339.36809162472491 556.45719349529099 0 556.45719349529099 -524.44137678305742 0 0 0 0 -1316.5122970226585 1119.3032317529869 0 1119.3032317529869 -655.7817937113432 0 0 0 0 -99.868618536682334 521.38872596982401 0 521.38872596982401 -698.21832918211294 0 0 0 0 3.7603273876414463 9.3878248933696682 0 9.3878248933696682 -27.846900017558653 0 0 0 0 -169.37693364697043 258.32536478651309 0 258.32536478651309 -122.4563776209252 0 0 0 0 26.765999501105398 552.75622493942501 0 552.75622493942501 -1158.9322728035768 0 0 0 0 -311.2513980521544 790.40186511030333 0 790.40186511030333 -896.64119791025587 0 0 0 0 -163.44364371861593 887.36763708428407 0 887.36763708428407 -1423.795014882402 0 0 0 0 174.72775564978656 -50.395409868542629 0 -50.395409868542629 -527.10858134184673 0 0 0 0 -107.76176307473361 79.011322409336572 0 79.011322409336572 -178.67477668928041 0 0 0 0 100.16941003566899 -132.32904446166503 0 -132.32904446166503 -142.25520774781398 0 0 0 0 239.57298120100313 149.59606899137725 0 149.59606899137725 92.408044846342818 0 0 0 0 16.469953919204503 6.5800841759881266 0 6.5800841759881266 -32.536962074606777 0 0 0 0 257.94233265240473 -161.60397116985405 0 -161.60397116985405 -130.00739245505247 0 0 0 0 106.25013648884487 -207.45534034912998 0 -207.45534034912998 -106.36238679263488 0 0 0 0 25.451570470177103 3.0382994535029866 0 3.0382994535029866 -10.442491085057554 0 0 0 0 82.140679431340686 -45.873645073756052 0 -45.873645073756052 178.53489176278526 0 0 0 0 33.850935438205028 -3.8332318346254795 0 -3.8332318346254795 -5.6208901000871094 0 0 0 0 17.133547984816865 11.683524720469009 0 11.683524720469009 -2.8756709178268807 0 0 0 0 -312.95623884639645 -418.9193480379181 0 -418.9193480379181 49.361717981548281 0 0 0 0 575.99759462305519 203.97035454012803 0 203.97035454012803 -247.23241014975065 0 0 0 0 18.731908275285761 -2.2431935922236619 0 -2.2431935922236619 -8.5993810009259164 0 0 0 0 16.319691871854133 -1.5427211055029204 0 -1.5427211055029204 -3.4750029586552387 0 0 0 0 -48.254583019850543 -135.69489887290911 0 -135.69489887290911 615.1833389448002 0 0 0 0 -233.47499172246899 281.88681064906996 0 281.88681064906996 -95.908363725873642 0 0 0 0 -555.65304219276732 -16.000975085771643 0 -16.000975085771643 166.75258566997945 0 0 0 0 -168.71219273743918 -102.16150352195837 0 -102.16150352195837 106.50973482121481 0 0 0 0 -367.0473868475965 -136.99864255468128 0 -136.99864255468128 122.4061943165143 0 0 0 0 284.22422448376892 181.39658136790968 0 181.39658136790968 64.439547514819424 0 0 0 0 496.03020265689702 6.5969868233878515 0 6.5969868233878515 5.3109026952297427 0 0 0 0 -83.253699315100675 -3.5765416228387039 0 -3.5765416228387039 18.506714805611409 0 0 0 0 45.861367215940845 305.62686945474707 0 305.62686945474707 -94.44752092793351 0 0 0 0 -490.40385545260506 193.03026966635662 0 193.03026966635662 -6.5041291693923995 0 0 0 0 984.2809693517047 77.624342183633416 0 77.624342183633416 -297.48496971843997 0 0 0 0 -707.6954333707763 -1269.8186164065119 0 -1269.8186164065119 118.23530836998543 0 0 0 0 1161.4685091626816 -377.29457300153626 0 -377.29457300153626 -67.092100556081277 0 0 0 0 -1266.0539166912658 246.76628337099464 0 246.76628337099464 330.67036010336597 0 0 0 0 -1514.0168278546225 -723.31796612104517 0 -723.31796612104517 -2173.6181973923431 0 0 0 0 -2117.2175874756358 1169.7109430204546 0 1169.7109430204546 -1214.2935561515478 0 0 0 0 -11.332160136274673 -11.232513189895922 0 -11.232513189895922 -21.884150837114476 0 0 0 0 -3457.8730285078855 4285.8110312227655 0 4285.8110312227655 -3618.1158239891029 0 0 0 0 196.78005085513792 816.02090967405945 0 816.02090967405945 -1693.7065788460168 0 0 0 0 1231.3641348651799 -345.1433276410753 0 -345.1433276410753 -860.79429685900686 0 0 0 0 -69.680807524375268 2138.8813727667002 0 2138.8813727667002 -1930.8105523471422 0 0 0 0 724.77699918928465 653.25099038184271 0 653.25099038184271 -1204.4660917465371 0 0 0 0 157.72369866564986 1573.5690102391345 0 1573.5690102391345 -2479.3809799296723 0 0 0 0 -1859.5606472044492 1302.6901911821551 0 1302.6901911821551 -393.74640869631548 0 0 0 0 392.76774477514482 122.60765957129843 0 122.60765957129843 -2470.5955603418042 0 0 0 0 10.931049707395005 585.04202157472082 0 585.04202157472082 -542.92723139950249 0 0 0 0 53.036026678026246 274.29933947399513 0 274.29933947399513 -430.50683387844037 0 0 0 0 111.16723559667662 -472.91014847308543 0 -472.91014847308543 -309.9535636106375 0 0 0 0 -43.361984076131087 75.835812387860614 0 75.835812387860614 -12.115233789042858 0 0 0 0 -144.07382234430747 128.56289177295275 0 128.56289177295275 -371.09293711351347 0 0 0 0 -275.67072824276875 44.724698714271653 0 44.724698714271653 82.415404135230347 0 0 0 0 -1284.5169252090272 1705.7973306048807 0 1705.7973306048807 -2169.6041848925815 0 0 0 0 -911.97761334996903 1012.8524146779382 0 1012.8524146779382 -1460.9018922683317 0 0 0 0 -587.42845784735982 1301.908060443413 0 1301.908060443413 -1464.636143468575 0 0 0 0 -868.74059448771004 982.28964635013836 0 982.28964635013836 -1265.4417204626952 0 0 0 0 -797.78573322797456 1023.971713724939 0 1023.971713724939 -1467.0464123297716 0 0 0 0 -1129.9400776895636 1852.1935137794499 0 1852.1935137794499 -2483.5099380159081 0 0 0 0 -2374.0024013186485 2263.8363584757608 0 2263.8363584757608 -1576.1975921941048 0 0 0 0 -2.4552129419655984 -23.108452324918677 0 -23.108452324918677 -90.002310745894704 0 0 0 0 9.9466861431207292 69.354360279506238 0 69.354360279506238 -26.439489145450366 0 0 0 0 204.79100261721396 79.884729660128869 0 79.884729660128869 -182.10466671660106 0 0 0 0 -392.21752168163948 100.89895080519636 0 100.89895080519636 293.82671726402441 0 0 0 0 0.16027350616599279 8.2051830460224551 0 8.2051830460224551 -18.87679896709918 0 0 0 0 -1946.4009416128829 1716.3588442676992 0 1716.3588442676992 -2156.6082403915498 0 0 0 0 -2207.4770798819736 1530.2591725430284 0 1530.2591725430284 -1320.4376058616326 0 0 0 0 -1877.9687901688012 1390.3860131994225 0 1390.3860131994225 -1236.9445222772774 0 0 0 0 -551.97633923719695 1066.0375632108626 0 1066.0375632108626 -1581.8120788385277 0 0 0 0 -835.79041969813989 1424.9291739834589 0 1424.9291739834589 -1723.5880373630353 0 0 0 0 -1110.9584993702883 1103.9691749292979 0 1103.9691749292979 -1139.0848371281027 0 0 0 0 11.235653953031594 15.034674592652564 0 15.034674592652564 -29.496589388494272 0 0 0 0 -396.21657941280864 1158.0087320088714 0 1158.0087320088714 -1137.9333522817142 0 0 0 0 -918.80997834710433 252.22549611001159 0 252.22549611001159 -136.27720029114244 0 0 0 0 240.58641016087859 -37.864757478771935 0 -37.864757478771935 -266.79475735305459 0 0 0 0 -337.50219035358168 -52.556023377714155 0 -52.556023377714155 -207.93146884758244 0 0 0 0 7.8976297208544395 -0.54209197269684495 0 -0.54209197269684495 -30.484423374123082 0 0 0 0 124.70365337808107 217.85690172083378 0 217.85690172083378 -930.05345296987798 0 0 0 0 -301.29373043063242 868.15200877327152 0 868.15200877327152 -1086.0209855453213 0 0 0 0 -418.81260193685739 502.77377219685877 0 502.77377219685877 -293.37738035648908 0 0 0 0 -187.07762031057791 703.21747384982154 0 703.21747384982154 -911.40085766099219 0 0 0 0 -316.89686314943992 666.30555989491722 0 666.30555989491722 -1098.0155024268752 0 0 0 0 -1.8907586878995062 -110.65849688481831 0 -110.65849688481831 -324.55039386441058 0 0 0 0 -310.54693843434143 111.05399686893361 0 111.05399686893361 -1701.3442471592716 0 0 0 0 -201.69056607272432 534.44468475371104 0 534.44468475371104 -1053.511853046708 0 0 0 0 -962.48416649570572 950.42486636721878 0 950.42486636721878 -1278.6332220609693 0 0 0 0 -345.51394494589476 839.38239991608862 0 839.38239991608862 -1467.9297184708921 0 0 0 0 -85.443509378901126 929.21777806434966 0 929.21777806434966 -1632.7603387779964 0 0 0 0 96.946617049961787 618.52734096636414 0 618.52734096636414 -1222.2422331595371 0 0 0 0 0.21323522959515628 -3.7050016930383123 0 -3.7050016930383123 -3.0972992583687642 0 0 0 0 -334.35561296172818 1412.3626258510412 0 1412.3626258510412 -2683.0654852386215 0 0 0 0 -855.08650354857673 -891.333725511784 0 -891.333725511784 -411.59711197768047 0 0 0 0 -371.41496658027609 795.4750579558895 0 795.4750579558895 -381.2771435873874 0 0 0 0 -833.10805407931366 605.51897107083641 0 605.51897107083641 342.19879492299515 0 0 0 0 -9.8103614629073377 5.4484012548542751 0 5.4484012548542751 -5.730356559088932 0 0 0 0 51.938339216931126 391.44044011202823 0 391.44044011202823 -1392.2806215972232 0 0 0 0 -623.11354673978349 -320.7140785509946 0 -320.7140785509946 -21.991600656438095 0 0 0 0 -787.7900422058301 832.41076773398891 0 832.41076773398891 -660.45136890145659 0 0 0 0 -307.33386138154128 957.50071991258665 0 957.50071991258665 -2205.9303978146054 0 0 0 0 -545.92168198381842 711.53374070695281 0 711.53374070695281 -1180.9090068863734 0 0 0 0 204.77365164174989 309.57397799230966 0 309.57397799230966 14.601836181711406 0 0 0 0 189.27575845105025 110.95367013949317 0 110.95367013949317 -172.627079773476 0 0 0 0 -26.95067786717118 656.30297136608715 0 656.30297136608715 -2142.9689569947168 0 0 0 0 254.92298407122871 825.60391339746275 0 825.60391339746275 -3255.0034279645188 0 0 0 0 -3.734916251855509 0.40211408406254634 0 0.40211408406254634 -31.403139705558019 0 0 0 0 -59.161809138755558 31.304752548507793 0 31.304752548507793 -11.076282239838562 0 0 0 0 -83.024884443082556 1744.4532344264881 0 1744.4532344264881 -4457.0636185081094 0 0 0 0 -1609.3965565872786 376.35873955277202 0 376.35873955277202 -2768.862437546486 0 0 0 0 -1672.8313675235986 2658.7207164989086 0 2658.7207164989086 -2977.2561499418225 0 0 0 0 2233.9167074509278 -1576.8083773323451 0 -1576.8083773323451 -1934.9713491246221 0 0 0 0 2.4797524050438824 -0.51275264980344559 0 -0.51275264980344559 -16.331970659530043 0 0 0 0 -1596.0458215235485 1851.6455375609366 0 1851.6455375609366 -1916.8587726418846 0 0 0 0 367.51274522091262 -574.0091825195268 0 -574.0091825195268 21.181101329329977 0 0 0 0 -285.03992825476598 746.65598637853327 0 746.65598637853327 -2545.2775686181267 0 0 0 0 529.03884283388834 -943.26942990352836 0 -943.26942990352836 -2502.9976036316366 0 0 0 0 1086.8301063957479 -212.3632550397524 0 -212.3632550397524 -3107.5777444396808 0 0 0 0 -747.76549529542535 224.91805697498057 0 224.91805697498057 498.54807473746769 0 0 0 0 -21.41908766756859 8.9497145080287908 0 8.9497145080287908 -6.2456125610024884 0 0 0 0 461.05164825978864 11.08935985021526 0 11.08935985021526 -5331.0805716695868 0 0 0 0 -1579.7229946178995 1011.3169629065378 0 1011.3169629065378 -135.11043137682282 0 0 0 0 74.631695337906876 441.63309641591331 0 441.63309641591331 -2976.4156113065546 0 0 0 0 -900.54659704952064 1798.1529021395982 0 1798.1529021395982 -1356.6621983326113 0 0 0 0 -1731.2595242170792 492.31927263849502 0 492.31927263849502 -1457.2574390852533 0 0 0 0 -813.87816080823541 567.82291513301607 0 567.82291513301607 -1387.5574480832274 0 0 0 0 -1083.7114954985936 1613.5302373760023 0 1613.5302373760023 -3258.767249824843 0 0 0 0 -1052.5267263791029 899.93139934606006 0 899.93139934606006 -1133.9590009410604 0 0 0 0 -883.8149730483492 1092.0825847528176 0 1092.0825847528176 -1292.1427137255796 0 0 0 0 115.20152343114023 416.54864992884632 0 416.54864992884632 -1383.8188239251467 0 0 0 0 -131.48317228230735 174.03142946759908 0 174.03142946759908 -1594.2452902908626 0 0 0 0 323.07361324680369 37.250990509579424 0 37.250990509579424 -416.75052289431915 0 0 0 0 471.21865642759803 -177.86913655141689 0 -177.86913655141689 -1003.2999126976792 0 0 0 0 471.05416393316386 835.50209366083163 0 835.50209366083163 -1358.2174607900233 0 0 0 0 1814.2556902516662 -251.92308270902868 0 -251.92308270902868 -566.62183511543844 0 0 0 0 1.4238137838633094 4.6394981102550403 0 4.6394981102550403 -11.76349643549878 0 0 0 0 -811.38099046385469 1908.3527894058279 0 1908.3527894058279 -1746.6764875720473 0 0 0 0 -2558.9105171628726 1953.0829397913585 0 1953.0829397913585 -799.8335434840119 0 0 0 0 -358.87136330387875 1509.9241510329593 0 1509.9241510329593 -1449.9131310325611 0 0 0 0 -502.14940077267238 1300.8389559173775 0 1300.8389559173775 -980.60195599577855 0 0 0 0 -384.73423812487454 923.08812697917165 0 923.08812697917165 -529.91842821642058 0 0 0 0 -84.947520461500972 1081.067898219153 0 1081.067898219153 -1377.2968650522398 0 0 0 0 -172.71353356499458 1165.4458638362848 0 1165.4458638362848 -469.34427334276734 0 0 0 0 1133.5983988801745 143.49824884199552 0 143.49824884199552 -759.77967240884027 0 0 0 0 -413.7102840203479 682.24824492210246 0 682.24824492210246 -1333.2680033440993 0 0 0 0 1038.3899766455725 2396.9467675212509 0 2396.9467675212509 1613.2305687236003 0 0 0 0 1764.3068424046141 2173.6239361493717 0 2173.6239361493717 554.75964167003258 0 0 0 0 1183.1754559766923 2124.3530659397729 0 2124.3530659397729 1570.3388782921975 0 0 0 0 1706.1189891364993 3306.1582978873867 0 3306.1582978873867 72.588563001976581 0 0 0 0 2616.3340320346106 2395.4331206865427 0 2395.4331206865427 429.67204038918135 0 0 0 0 1106.5138201591762 2652.848894165174 0 2652.848894165174 1345.5899212324621 0 0 0 0 -0.24215272056972026 3747.0642577501203 0 3747.0642577501203 1191.0000261662426 0 0 0 0 1212.0440739914484 4769.5529488544453 0 4769.5529488544453 458.67001272500784 0 0 0 0 2831.9734147350246 4961.7066802097033 0 4961.7066802097033 -5.5400671638926724 0 0 0 0 2436.0865479104032 3861.1395399374214 0 3861.1395399374214 52.799796215855167 0 0 0 0 3608.4426640934107 4203.9735558155298 0 4203.9735558155298 -28.556097298074747 0 0 0 0 2416.267352988325 3440.8276253112344 0 3440.8276253112344 46.535195485121221 0 0 0 0 4395.8779570930674 2472.9885223612837 0 2472.9885223612837 -1288.4652342866611 0 0 0 0 3050.2067273522989 2080.6809652739175 0 2080.6809652739175 -811.28479515985237 0 0 0 0 5078.9354823031172 2591.5939180153655 0 2591.5939180153655 -1564.4504764677486 0 0 0 0 5230.8594371403669 4931.187369211606 0 4931.187369211606 2.3703893915808294 0 0 0 0 9781.4401110081817 2649.1359209684015 0 2649.1359209684015 -1596.1865227590461 0 0 0 0 2700.6056128829659 1003.584220581055 0 1003.584220581055 -3480.7922651662666 0 0 0 0 40.952504682361337 18.12851231716725 0 18.12851231716725 -1.4697987682161511 0 0 0 0 -2756.5260284341202 3991.2484792573377 0 3991.2484792573377 -4.3134704862022772 0 0 0 0 9002.6144646512748 -2665.6692259835372 0 -2665.6692259835372 84.620110572985141 0 0 0 0 1792.0532099668344 -293.97961389851116 0 -293.97961389851116 -374.98959427869704 0 0 0 0 80.386585398423733 38.537681422772707 0 38.537681422772707 -5.0602721986276151 0 0 0 0 -209.22024853511539 2578.9259213640908 0 2578.9259213640908 -3389.7037428670446 0 0 0 0 1718.6842196328616 586.39928380751098 0 586.39928380751098 -732.47516663803253 0 0 0 0 950.50917800013849 -193.8345035977909 0 -193.8345035977909 -613.86618431453826 0 0 0 0 4673.6686573901097 -41.467008123079722 0 -41.467008123079722 -1302.0058513786644 0 0 0 0 2145.9684901377186 958.28535095966799 0 958.28535095966799 -958.26607167233306 0 0 0 0 2461.0940883189905 658.63563864354364 0 658.63563864354364 -1103.7886718014452 0 0 0 0 868.8954875649797 1436.2704376419642 0 1436.2704376419642 -575.2771678876743 0 0 0 0 1576.9066161795636 2575.5437313560178 0 2575.5437313560178 626.29564802538152 0 0 0 0 1528.946028351158 986.7928532404876 0 986.7928532404876 -621.04346645699115 0 0 0 0 -42.127077893636852 51.651480571559659 0 51.651480571559659 -54.008643632220128 0 0 0 0 1782.9790236246336 1682.7505472551202 0 1682.7505472551202 353.38372301538766 0 0 0 0 2532.1698617411166 2075.7654266671525 0 2075.7654266671525 -749.32622443978835 0 0 0 0 2262.9001572344787 1823.8931407102209 0 1823.8931407102209 377.0063608706696 0 0 0 0 1993.2718210670209 1749.7912704055379 0 1749.7912704055379 1330.5134359356598 0 0 0 0 1074.5124481876555 934.50963519321522 0 934.50963519321522 1102.0039631676209 0 0 0 0 1701.9976763163868 1861.5172546238682 0 1861.5172546238682 1145.1520289311875 0 0 0 0 599.5077448047814 572.85113843189174 0 572.85113843189174 689.56966718517651 0 0 0 0 1491.719919905041 1180.2036706002491 0 1180.2036706002491 197.55847957590595 0 0 0 0 1065.1036967098044 1373.7027678422892 0 1373.7027678422892 837.44100463573704 0 0 0 0 -32.867928930591574 49.560927164518148 0 49.560927164518148 -55.028220635698062 0 0 0 0 -668.53510981824365 1195.2310764256836 0 1195.2310764256836 -694.1196258951677 0 0 0 0 429.1518198910635 462.45730154726334 0 462.45730154726334 -2372.5835560143751 0 0 0 0 1088.0859799345781 1086.2266092315767 0 1086.2266092315767 -822.74275898984342 0 0 0 0 472.25253389206773 827.64792734063667 0 827.64792734063667 -120.24080858212255 0 0 0 0 354.12055648458772 -80.575512082548812 0 -80.575512082548812 -676.97406194503128 0 0 0 0 707.760537685288 525.32520221851883 0 525.32520221851883 358.52890287793707 0 0 0 0 -251.16936328139855 -509.75023759386386 0 -509.75023759386386 -718.51073440078471 0 0 0 0 -439.64120232342975 -244.47176917188335 0 -244.47176917188335 -538.29613173319376 0 0 0 0 -3433.3359158043459 -898.28713151680131 0 -898.28713151680131 -316.20694184294553 0 0 0 0 -546.10386645596009 -889.63126780518724 0 -889.63126780518724 -3685.5205794283538 0 0 0 0 -742.82807725116436 1400.9009962384371 0 1400.9009962384371 -702.36131470178952 0 0 0 0 -1683.5746398568372 3036.442608115447 0 3036.442608115447 -3120.8090610966465 0 0 0 0 -3156.9388006009394 -867.49069392182719 0 -867.49069392182719 -1750.9328449280874 0 0 0 0 -375.20483782350493 574.67832555074528 0 574.67832555074528 -1328.9178313251905 0 0 0 0 -477.79964969790308 72.545894186732767 0 72.545894186732767 -3771.0779917651216 0 0 0 0 -14.234151037839979 15.472298218991909 0 15.472298218991909 -21.716582905865465 0 0 0 0 -947.26681912891218 2097.583723182739 0 2097.583723182739 -3362.5506531461506 0 0 0 0 -3490.4244496820902 943.30318061589787 0 943.30318061589787 -750.7411509580852 0 0 0 0 -605.6289036621456 824.11178358185134 0 824.11178358185134 -165.84680992458016 0 0 0 0 -986.26414896459028 1315.9836912633764 0 1315.9836912633764 -767.50634033360984 0 0 0 0 -1919.8496791562939 463.94774321548175 0 463.94774321548175 -78.409205061179819 0 0 0 0 -1831.7407627148787 -673.78449010093027 0 -673.78449010093027 -1233.8837840302149 0 0 0 0 -2125.1190245461185 -289.03396977004741 0 -289.03396977004741 -904.63473370025167 0 0 0 0 -35.20486048058217 63.337664306391332 0 63.337664306391332 -38.279716338390131 0 0 0 0 -1374.5168818352977 -61.989923108281801 0 -61.989923108281801 -976.75073122865433 0 0 0 0 -1933.4292454713868 184.57219144821283 0 184.57219144821283 -927.6258167642809 0 0 0 0 -1537.6465844214545 63.721878640470095 0 63.721878640470095 -902.64784800368943 0 0 0 0 -1072.3178074127645 915.37176719476702 0 915.37176719476702 34.806157843668188 0 0 0 0 -1260.2851861715317 457.49050096140127 0 457.49050096140127 -337.88999714044621 0 0 0 0 -1701.0384460770001 78.116869985256926 0 78.116869985256926 -412.89243513823021 0 0 0 0 -1169.5725156037661 331.07573465660971 0 331.07573465660971 -667.10377411602531 0 0 0 0 -1514.411857344443 345.90662951747072 0 345.90662951747072 198.34997891314561 0 0 0 0 -1580.7684518005117 -328.5049714079214 0 -328.5049714079214 -986.60459261853248 0 0 0 0 -1286.8870508708642 251.28394809149904 0 251.28394809149904 227.25930207636702 0 0 0 0 -1383.3642372198228 284.42066217414686 0 284.42066217414686 192.27196180424653 0 0 0 0 -1310.4361104975906 605.82999002145061 0 605.82999002145061 524.80087253078818 0 0 0 0 -913.55083262297558 537.41953967942391 0 537.41953967942391 505.25120795710245 0 0 0 0 -1049.555898003382 800.68071639621849 0 800.68071639621849 952.58169763136539 0 0 0 0 -1266.8059583762079 502.47428612873773 0 502.47428612873773 581.95740813174052 0 0 0 0 -1291.5276651520981 416.4294109822149 0 416.4294109822149 833.82636388426181 0 0 0 0 -533.44763170517399 1435.0163857354928 0 1435.0163857354928 314.88613095364417 0 0 0 0 -594.95031794396346 530.85381866870739 0 530.85381866870739 322.99758503417252 0 0 0 0 -338.61897357489215 709.47017435221642 0 709.47017435221642 1068.8316079995711 0 0 0 0 -405.01873265212635 837.77520087719313 0 837.77520087719313 820.96349232274224 0 0 0 0 594.50845859211404 789.22411456634291 0 789.22411456634291 594.65054653314291 0 0 0 0 8.3595552311744541 1379.4810068540246 0 1379.4810068540246 1311.7047339737619 0 0 0 0 541.59851929981323 1894.8852828317954 0 1894.8852828317954 604.45502138187294 0 0 0 0 1078.2498417127354 1751.849020663758 0 1751.849020663758 -146.50717126615928 0 0 0 0 -181.3725005950364 2078.5106294036796 0 2078.5106294036796 -111.17471221665619 0 0 0 0 521.90359506485402 1255.5369930033776 0 1255.5369930033776 -1085.3667639953055 0 0 0 0 599.6931428758453 1941.3195485021588 0 1941.3195485021588 158.67597876655054 0 0 0 0 1432.1727233215643 1876.5504117920718 0 1876.5504117920718 -51.33504089620692 0 0 0 0 791.1547782452617 2338.1966344943921 0 2338.1966344943921 965.19657696626382 0 0 0 0 1050.3754421626509 2361.7702239615755 0 2361.7702239615755 935.4347629928925 0 0 0 0 -41.878330424890009 57.240066923667257 0 57.240066923667257 -44.69433877924638 0 0 0 0 2.3243800739801372 328.6762855927409 0 328.6762855927409 -514.23691536538536 0 0 0 0 1147.1745473896299 3127.3829333650428 0 3127.3829333650428 2382.5201589331264 0 0 0 0 2563.3824519219343 1491.2458744951437 0 1491.2458744951437 661.17611867586675 0 0 0 0 905.24131370036048 1178.7551142113225 0 1178.7551142113225 3055.6234476914397 0 0 0 0 3.7712027564163577 13.761102403841022 0 13.761102403841022 -14.034204659786951 0 0 0 0 3534.0458135715744 2523.9747321813338 0 2523.9747321813338 1588.5892205666169 0 0 0 0 3237.8740232788259 903.63899925528676 0 903.63899925528676 715.97178340524624 0 0 0 0 5207.6882437695749 813.14583532913821 0 813.14583532913821 703.79453015292529 0 0 0 0 1381.6982257110649 1584.8803460307536 0 1584.8803460307536 509.28512330603553 0 0 0 0 9.2134277348341129 -348.5541203458356 0 -348.5541203458356 -2532.9981904852757 0 0 0 0 1.5217613692704504 11.682142103759645 0 11.682142103759645 -8.9848879167460041 0 0 0 0 26.877166908379877 -164.93738088708778 0 -164.93738088708778 -1495.8616336826963 0 0 0 0 72.933415242344722 42.23954273986962 0 42.23954273986962 -18.523995397990802 0 0 0 0 -305.33745655446546 943.96872866799822 0 943.96872866799822 -575.68420986500041 0 0 0 0 238.82845832648673 601.40503438585802 0 601.40503438585802 -1985.3452130869846 0 0 0 0 300.38843911879303 624.60529642402616 0 624.60529642402616 -2664.1662485354755 0 0 0 0 234.5766119491891 656.19124662699323 0 656.19124662699323 -1894.9778400499345 0 0 0 0 37.97657778635039 43.337083936668932 0 43.337083936668932 -0.055317761983056567 0 0 0 0 775.56494713270513 -476.46130923162855 0 -476.46130923162855 -1088.6567244467878 0 0 0 0 32.657641351407676 11.9688029261672 0 11.9688029261672 3.6049049965836844 0 0 0 0 75.162471423005627 86.424758524093704 0 86.424758524093704 -61.254107465589186 0 0 0 0 76.469761407919577 93.2633270110382 0 93.2633270110382 -45.756008274824126 0 0 0 0 37.979966132427762 43.352878850299021 0 43.352878850299021 -0.050539590170956217 0 0 0 0 97.711076418672008 39.917675939994893 0 39.917675939994893 13.675966080444823 0 0 0 0 402.4924409140076 970.81855770562834 0 970.81855770562834 -2907.5925262101082 0 0 0 0 -564.5279887397337 530.28670235758182 0 530.28670235758182 -1862.2775781938981 0 0 0 0 167.18940495231072 1382.5425027197925 0 1382.5425027197925 -652.27226789382985 0 0 0 0 -144.2708316508797 1776.5107069348232 0 1776.5107069348232 617.03325396199943 0 0 0 0 -205.40677261119708 1442.2990075724229 0 1442.2990075724229 -635.49813578172325 0 0 0 0 -619.32931922760326 1091.6455223212979 0 1091.6455223212979 437.00526430190075 0 0 0 0 778.06693070596339 2292.5448425351142 0 2292.5448425351142 284.37256686791079 0 0 0 0 768.94322251397534 2176.1388174301537 0 2176.1388174301537 -465.65480375019251 0 0 0 0 34.888627796259243 1562.3333376136579 0 1562.3333376136579 400.35770709376084 0 0 0 0 340.59475741101778 1953.7403753932886 0 1953.7403753932886 858.76591811235994 0 0 0 0 558.05335349187953 1650.8903457376291 0 1650.8903457376291 848.13166654066299 0 0 0 0 1139.4602769484627 1888.465300834614 0 1888.465300834614 937.74409734806977 0 0 0 0 1226.4377669175446 2186.9361977129738 0 2186.9361977129738 1615.6824411645648 0 0 0 0 335.17615776590537 1906.3324854879465 0 1906.3324854879465 1957.6973159845802 0 0 0 0 109.86327154602623 989.2457167962566 0 989.2457167962566 1958.20648461263 0 0 0 0 -278.02179593086476 1518.8056490836461 0 1518.8056490836461 1451.721075460955 0 0 0 0 82.221926459053066 1399.7778493125807 0 1399.7778493125807 972.09122003021184 0 0 0 0 81.632140931047616 1155.8066589846385 0 1155.8066589846385 1073.0847952913318 0 0 0 0 -623.01916036580224 919.43060318220523 0 919.43060318220523 1349.8899347682018 0 0 0 0 938.53858497503097 1209.6514797943055 0 1209.6514797943055 1059.1262849799241 0 0 0 0 -593.83688688793336 1232.7377076726552 0 1232.7377076726552 694.85701777032227 0 0 0 0 -508.39321784963249 1099.7893165006972 0 1099.7893165006972 754.83370986295267 0 0 0 0 -891.38610136696661 663.30697275728744 0 663.30697275728744 897.28166354750283 0 0 0 0 -692.3033898716676 1052.0855229173321 0 1052.0855229173321 1095.9089760636998 0 0 0 0 -920.92770542186918 794.28102817072067 0 794.28102817072067 1032.8478700919368 0 0 0 0 -870.03352150545106 792.6198244648258 0 792.6198244648258 827.13304403953953 0 0 0 0 -827.55418835085584 678.79659403837286 0 678.79659403837286 702.20873688509164 0 0 0 0 -1002.9930638588121 546.30525394256983 0 546.30525394256983 422.17816046709777 0 0 0 0 -860.58579791960074 511.28055681870319 0 511.28055681870319 284.7419459396624 0 0 0 0 -3.8499734426478653 -6.834012873496647 0 -6.834012873496647 2.8399674350454234 0 0 0 0 -79.823142871335222 143.18593110240272 0 143.18593110240272 31.656034608226037 0 0 0 0 745.7192644441966 1229.9684539895097 0 1229.9684539895097 -324.60796045180177 0 0 0 0 -279.43939413332555 641.57185228133312 0 641.57185228133312 -955.48863243401865 0 0 0 0 -128.92283413105179 479.72629730399058 0 479.72629730399058 -782.99924403161822 0 0 0 0 1073.0700636467081 -752.40428091271315 0 -752.40428091271315 -1020.7888182776587 0 0 0 0 216.41058919163947 103.69042700157098 0 103.69042700157098 36.790843395593782 0 0 0 0 -479.1811947885144 411.85094199099694 0 411.85094199099694 887.7210231613135 0 0 0 0 142.9518794589967 622.28903766510484 0 622.28903766510484 -246.7277959943458 0 0 0 0 -441.52698753935692 542.17923411860102 0 542.17923411860102 -517.92504869218101 0 0 0 0 -575.61707134950848 914.48353156184021 0 914.48353156184021 273.6961498260207 0 0 0 0 121.86231465620949 183.78975343112688 0 183.78975343112688 -23.549798564636149 0 0 0 0 166.55664876004448 181.33085117670998 0 181.33085117670998 -137.21483455374255 0 0 0 0 101.94696412342455 1179.3330954026424 0 1179.3330954026424 -1221.8924395877693 0 0 0 0 165.30870414143681 66.565514949958185 0 66.565514949958185 25.603589131212402 0 0 0 0 283.57129942187748 26.583960367730469 0 26.583960367730469 -35.428024280467071 0 0 0 0 316.21331404703233 141.33408859815972 0 141.33408859815972 0.11756108538247645 0 0 0 0 112.34943824502989 141.7485191054875 0 141.7485191054875 -0.050157804599597303 0 0 0 0 178.8718356800091 74.776774102298077 0 74.776774102298077 0.027435348572907969 0 0 0 0 22.193939263484936 128.30068394522459 0 128.30068394522459 -0.14920077077113092 0 0 0 0 49.463670889934292 75.017042385356035 0 75.017042385356035 16.092282501849695 0 0 0 0 -169.65726418924169 48.626671483973041 0 48.626671483973041 44.013625255989609 0 0 0 0 -2.9532124228597212 -7.4463272188322236 0 -7.4463272188322236 2.0437639659487559 0 0 0 0 633.00279103525099 57.864194637935725 0 57.864194637935725 -91.104673737529083 0 0 0 0 45.354045247671763 14.755107468349323 0 14.755107468349323 -2.6552273328137517 0 0 0 0 313.48307021067012 141.13053662668972 0 141.13053662668972 -131.11221749754623 0 0 0 0 35.175064868075424 142.62440699068247 0 142.62440699068247 96.101045161631191 0 0 0 0 98.238861648831517 89.446471142524388 0 89.446471142524388 -19.087897072255146 0 0 0 0 126.60787489041104 176.26889863422548 0 176.26889863422548 110.73959603111143 0 0 0 0 139.82420237362385 109.06699844128889 0 109.06699844128889 -21.939566971617751 0 0 0 0 1.4889999318052105 19.332328059467727 0 19.332328059467727 -25.173665197622825 0 0 0 0 -31.025950871905735 38.930476242313034 0 38.930476242313034 16.678499545453576 0 0 0 0 33.55350774031831 71.264971277065342 0 71.264971277065342 43.901094868575456 0 0 0 0 16.498773887775315 75.342594462541456 0 75.342594462541456 58.604477490240242 0 0 0 0 -11.311153884640021 26.806982558431287 0 26.806982558431287 11.421701039204123 0 0 0 0 154.53503018597257 152.36657050758367 0 152.36657050758367 39.861299848707858 0 0 0 0 6.8515841500338865 101.54676776303677 0 101.54676776303677 91.092958122084383 0 0 0 0 23.042309131973752 45.655707987347796 0 45.655707987347796 -6.1769465089761297 0 0 0 0 26.446427010407206 94.344020207587164 0 94.344020207587164 52.333967952174135 0 0 0 0 -63.935248677618205 105.51766652921123 0 105.51766652921123 30.801624001969529 0 0 0 0 9.2738032783245217 101.21168719726253 0 101.21168719726253 4.5159660939407047 0 0 0 0 3.6294032392038389 14.725746310694859 0 14.725746310694859 7.7119731023154543 0 0 0 0 -94.062356551061384 121.88514682289679 0 121.88514682289679 257.81620963306341 0 0 0 0 56.808072002544463 102.54991060604056 0 102.54991060604056 5.3792109534664974 0 0 0 0 29.551815609040204 82.019443666707957 0 82.019443666707957 -10.575629769591615 0 0 0 0 86.873015905382388 138.59210435435278 0 138.59210435435278 14.968821667488498 0 0 0 0 85.934956183405745 106.56573552789797 0 106.56573552789797 45.632915301402988 0 0 0 0 54.638956084284587 230.16832840892374 0 230.16832840892374 15.294105488409954 0 0 0 0 -166.71190129581373 317.23890895789373 0 317.23890895789373 36.522943360047066 0 0 0 0 -127.45277501760575 164.85080724172076 0 164.85080724172076 7.1391561737982556 0 0 0 0 -80.292746118231094 69.333455077136307 0 69.333455077136307 11.196521429959319 0 0 0 0 4.2823394659742462 16.298675132181643 0 16.298675132181643 8.5137188596443139 0 0 0 0 578.51166326948442 650.45460814295802 0 650.45460814295802 734.79107085545547 0 0 0 0 -132.65978083320806 202.95504787034815 0 202.95504787034815 67.003656751097878 0 0 0 0 -33.846873776251122 84.020494708667897 0 84.020494708667897 34.135203586525336 0 0 0 0 -102.78407505307405 97.983737030022894 0 97.983737030022894 30.555689496773994 0 0 0 0 -163.95327946225007 127.05956239582883 0 127.05956239582883 55.543939186522039 0 0 0 0 -87.26548653478676 109.33053341858613 0 109.33053341858613 -46.996277833593922 0 0 0 0 -166.23630290006167 331.1561923077752 0 331.1561923077752 249.60864256721106 0 0 0 0 -141.32642921397201 95.152628378666122 0 95.152628378666122 96.591695070936112 0 0 0 0 -83.807959529098014 44.27623179547038 0 44.27623179547038 18.418219872379041 0 0 0 0 -160.46819087337644 201.0563069099444 0 201.0563069099444 96.49188837116526 0 0 0 0 -73.118566351844493 67.974581937320181 0 67.974581937320181 26.807336886238772 0 0 0 0 25.957160620357897 80.387638120505812 0 80.387638120505812 64.777392372742099 0 0 0 0 -105.18810112745996 265.89168820535997 0 265.89168820535997 126.71432453664602 0 0 0 0 19.786866261180208 48.523386090997832 0 48.523386090997832 68.202942519067165 0 0 0 0 -18.915486357494956 -15.341453368746443 0 -15.341453368746443 253.84272537265497 0 0 0 0 -81.642225910087291 54.713164937114925 0 54.713164937114925 356.28599757193297 0 0 0 0 -56.892416045826394 84.711808460197062 0 84.711808460197062 205.90936196198163 0 0 0 0 -39.260898668144364 138.0448918484617 0 138.0448918484617 64.21190031527658 0 0 0 0 -44.035126645867422 220.5527283304782 0 220.5527283304782 346.33314699516632 0 0 0 0 -45.474589580837289 98.794157403184045 0 98.794157403184045 -17.04952242748098 0 0 0 0 -26.799195574451005 118.05685761800851 0 118.05685761800851 47.280053436479648 0 0 0 0 -166.95093311689561 132.91428803803865 0 132.91428803803865 65.317803102370817 0 0 0 0 3.6519414688672853 118.55696044051469 0 118.55696044051469 36.13339313848104 0 0 0 0 -296.60395220969804 112.40094926624442 0 112.40094926624442 -17.379360185237601 0 0 0 0 -84.712924577150744 67.744043779450266 0 67.744043779450266 124.73653856320391 0 0 0 0 -347.34856810537167 22.447045736480504 0 22.447045736480504 70.193593314994359 0 0 0 0 -40.028947839346074 7.9045959020019012 0 7.9045959020019012 -0.45608635256257912 0 0 0 0 -5.077504777475724 181.58633059299581 0 181.58633059299581 104.65994169842253 0 0 0 0 25.381422910882975 188.6483944363863 0 188.6483944363863 144.6011021657032 0 0 0 0 -778.41261115510133 -204.9114473478985 0 -204.9114473478985 826.2123691393208 0 0 0 0 18.652683800726663 125.80103708931711 0 125.80103708931711 36.481394081332837 0 0 0 0 -1101.7851915132487 171.32409786080825 0 171.32409786080825 444.19382562228566 0 0 0 0 -1100.9064170034544 474.18111750911339 0 474.18111750911339 15.591165105695836 0 0 0 0 -105.92921393706172 41.375012170320986 0 41.375012170320986 29.376416349895919 0 0 0 0 -1064.069489756017 329.85343562229536 0 329.85343562229536 558.28843106790737 0 0 0 0 -1274.5771601223369 160.70463353369746 0 160.70463353369746 538.47918736262363 0 0 0 0 2.0218005858366723 75.617364680974845 0 75.617364680974845 -55.121806397113048 0 0 0 0 -1232.5681329010986 40.661226154992619 0 40.661226154992619 -1150.8828628347255 0 0 0 0 -436.04356100605219 587.70593804419332 0 587.70593804419332 -905.29233450599713 0 0 0 0 -1218.3059863615199 -326.79909844524809 0 -326.79909844524809 -1450.2006144112675 0 0 0 0 -675.03400215451256 986.92331858557009 0 986.92331858557009 -402.61885108298156 0 0 0 0 83.914844436774729 85.797017236447573 0 85.797017236447573 272.1218176981929 0 0 0 0 -436.17674616670411 939.1304555161696 0 939.1304555161696 -1256.8487781655786 0 0 0 0 -7.2606170931800875 9.729235141874284 0 9.729235141874284 2.8989419494012765 0 0 0 0 -546.95212581005762 1269.7525770256234 0 1269.7525770256234 -1700.0001592216286 0 0 0 0 -345.48537727880466 838.2689490357734 0 838.2689490357734 -1199.8825880759105 0 0 0 0 -738.09709104528156 927.7120020535458 0 927.7120020535458 -1258.1055367984227 0 0 0 0 -268.31488808584982 1016.1404539673676 0 1016.1404539673676 -1247.2147018218384 0 0 0 0 -257.81803255755221 935.70354513684288 0 935.70354513684288 -2125.4489535699686 0 0 0 0 -612.78579019282188 1629.9743984390843 0 1629.9743984390843 -433.34187756798929 0 0 0 0 -345.58859030975145 2001.8979169234517 0 2001.8979169234517 -1669.1371165688943 0 0 0 0 -664.62816423607001 1209.0791461284907 0 1209.0791461284907 -767.22901692215237 0 0 0 0 -668.25816994378692 1167.3470246903016 0 1167.3470246903016 -1204.360157110088 0 0 0 0 -750.81657533691032 1506.0623522035312 0 1506.0623522035312 -622.43662323139142 0 0 0 0 -601.23957771048299 1511.854224311086 0 1511.854224311086 -1055.3769116493349 0 0 0 0 -845.99345231498592 1357.0273764453596 0 1357.0273764453596 -854.74830987957102 0 0 0 0 -807.15640380466357 1225.3016388393371 0 1225.3016388393371 -434.95695499420981 0 0 0 0 -856.85621729683771 1035.4043666375364 0 1035.4043666375364 -783.04049070856126 0 0 0 0 -823.43492591029462 796.93131231691768 0 796.93131231691768 -153.50588317486108 0 0 0 0 27.880782030389852 25.887038145553838 0 25.887038145553838 44.17365900281925 0 0 0 0 0.88198608097445685 390.83359252240916 0 390.83359252240916 -151.81977564605768 0 0 0 0 -862.36490612108901 1077.7090860819371 0 1077.7090860819371 -432.8058360934956 0 0 0 0 588.99739794535708 408.05110881329165 0 408.05110881329165 337.6346777806466 0 0 0 0 -994.07721191493329 384.249140577449 0 384.249140577449 -11.02564349178283 0 0 0 0 -766.46610823542869 646.91102194463019 0 646.91102194463019 -478.22487088802154 0 0 0 0 1.5937340589184643 -3.4795559899186514 0 -3.4795559899186514 1.9358622631803541 0 0 0 0 142.35286212523715 5.3617420680348005 0 5.3617420680348005 -46.874567784776445 0 0 0 0 3.717145757950675 78.384150856152672 0 78.384150856152672 94.292929863352285 0 0 0 0 -17.601491689356294 18.978184650606565 0 18.978184650606565 13.367038489793238 0 0 0 0 -648.32826397057943 529.63685575620184 0 529.63685575620184 -406.41151651648397 0 0 0 0 -4.4123477725952398 62.612079035563511 0 62.612079035563511 86.404894834166043 0 0 0 0 -390.22263507828757 674.99942330244812 0 674.99942330244812 -594.28247241659847 0 0 0 0 -980.83384222681343 1872.7870353167054 0 1872.7870353167054 -2787.0584054081119 0 0 0 0 -1164.69643807596 -612.97281300969189 0 -612.97281300969189 -2023.7358406838321 0 0 0 0 -1669.3564216643717 222.19601575059642 0 222.19601575059642 -605.90977424726771 0 0 0 0 -2832.6991457626282 1143.1084802289697 0 1143.1084802289697 -159.54472735923628 0 0 0 0 -1139.2399547588575 1070.2936794575035 0 1070.2936794575035 -465.1924830552889 0 0 0 0 -927.9393430899654 589.11400717280776 0 589.11400717280776 -447.56069205323001 0 0 0 0 -1281.7439482690843 1444.7463205265158 0 1444.7463205265158 -525.00399921229109 0 0 0 0 -1212.5757484574278 989.61043329416862 0 989.61043329416862 -339.14561399206286 0 0 0 0 -845.78844153827231 1562.4399344550402 0 1562.4399344550402 -850.01115553845011 0 0 0 0 -657.54339645031723 1326.0072289696836 0 1326.0072289696836 -626.24842987984425 0 0 0 0 -760.44866338561405 1411.3577008099674 0 1411.3577008099674 -456.20877378066052 0 0 0 0 -756.51895051111933 1281.4170552586511 0 1281.4170552586511 -30.585850135510555 0 0 0 0 -1018.3408474925818 1494.2895191414718 0 1494.2895191414718 1050.1322551113844 0 0 0 0 -73.855587443293189 69.338916246742883 0 69.338916246742883 -46.514865864868625 0 0 0 0 -535.93652326493975 427.91299275960955 0 427.91299275960955 18.724652108474402 0 0 0 0 -493.91690665397982 520.02651562070969 0 520.02651562070969 -144.61879313952522 0 0 0 0 -543.8687982288684 574.65510064228147 0 574.65510064228147 -203.62853131158045 0 0 0 0 -396.34108795608336 775.2403232409124 0 775.2403232409124 -750.15864731206511 0 0 0 0 -91.107588548553849 30.950311853065415 0 30.950311853065415 11.946735089307914 0 0 0 0 -324.30851061115391 408.88621552014956 0 408.88621552014956 -504.31240315973992 0 0 0 0 -137.59255438241235 132.96481665706233 0 132.96481665706233 166.8056017844192 0 0 0 0 -57.254371781302325 73.839378948137892 0 73.839378948137892 2.5774090385530144 0 0 0 0 -1.1889021877481127 45.152854106933219 0 45.152854106933219 54.472987517557726 0 0 0 0 -142.99588144744484 218.0347416642835 0 218.0347416642835 -33.728637698135572 0 0 0 0 -1775.9211852564185 333.90491801175813 0 333.90491801175813 271.20913865647162 0 0 0 0 -32.265688648913851 12.051516225578354 0 12.051516225578354 -5.7828042698792501 0 0 0 0 -513.9834024339616 -356.96339831204205 0 -356.96339831204205 63.186699107347522 0 0 0 0 -1275.3157836878527 2474.9380340751377 0 2474.9380340751377 -1188.152879214631 0 0 0 0 -176.41555624239118 1362.5851841377807 0 1362.5851841377807 -113.45652277776298 0 0 0 0 -501.2478298045462 651.46701187728468 0 651.46701187728468 -408.40499599509349 0 0 0 0 -307.01587949090754 272.21759876232682 0 272.21759876232682 268.92787636045568 0 0 0 0 1.1055044013701263 78.047371512955579 0 78.047371512955579 -35.261748056756915 0 0 0 0 -128.18825108913006 110.53524475428276 0 110.53524475428276 11.293110452170367 0 0 0 0 -101.15560180956527 196.37281502908445 0 196.37281502908445 -118.27860833305749 0 0 0 0 -181.1744345793486 29.772776392324886 0 29.772776392324886 45.42898177956522 0 0 0 0 136.48681250226946 388.07705440742575 0 388.07705440742575 752.36834173058742 0 0 0 0 -38.563889554296992 50.236338014011523 0 50.236338014011523 6.1120844102155303 0 0 0 0 -121.40520831482718 -5.3392235122046259 0 -5.3392235122046259 66.042750035005156 0 0 0 0 -5.9425883196042832 8.1656377847011754 0 8.1656377847011754 2.4784591399966871 0 0 0 0 163.41187583270221 278.37425934237399 0 278.37425934237399 458.28358389093773 0 0 0 0 446.56074424512917 769.80554186968948 0 769.80554186968948 708.80724210910557 0 0 0 0 378.43388236518967 952.52061273618347 0 952.52061273618347 473.89515315223252 0 0 0 0 529.96556831417547 521.62382909523149 0 521.62382909523149 -92.368986693618353 0 0 0 0 -151.05753852105772 107.02713284922174 0 107.02713284922174 59.071669267490506 0 0 0 0 6.9320097886571403 30.475239097684003 0 30.475239097684003 50.511418817087872 0 0 0 0 -176.30728042771079 101.10790585539507 0 101.10790585539507 22.433081514434889 0 0 0 0 -180.42755770633812 109.78177327362209 0 109.78177327362209 4.301380862336373 0 0 0 0 -152.24439541170432 98.050360035107587 0 98.050360035107587 -8.8088973963458557 0 0 0 0 -159.35909550346696 111.78004958313977 0 111.78004958313977 -35.249846478720428 0 0 0 0 2.4988697122396957 6.1749310370163997 0 6.1749310370163997 22.391367316127173 0 0 0 0 73.889055020030355 -16.919889420794789 0 -16.919889420794789 -14.148106760287192 0 0 0 0 1723.6886734147411 508.5428937795441 0 508.5428937795441 101.59083625771746 0 0 0 0 -138.70150311379984 -35.977992241189895 0 -35.977992241189895 1288.4457146333298 0 0 0 0 165.65681484623201 -408.45522605865699 0 -408.45522605865699 560.65002934381482 0 0 0 0 1249.6916006217798 1534.1303491241633 0 1534.1303491241633 658.71539983776165 0 0 0 0 471.40744273790915 1552.0150466969935 0 1552.0150466969935 1353.0095531518746 0 0 0 0 519.13840637330941 1133.8229857094957 0 1133.8229857094957 482.95575035817456 0 0 0 0 526.56318017876765 1164.0435371441708 0 1164.0435371441708 571.55114490890992 0 0 0 0 1179.4185071711545 1106.0853398129693 0 1106.0853398129693 57.943868099893734 0 0 0 0 -130.22337791363316 80.560553665658517 0 80.560553665658517 264.53221025964012 0 0 0 0 -130.96103592630607 74.897998137685136 0 74.897998137685136 222.3933382256655 0 0 0 0 -162.16451589015196 113.75643763788685 0 113.75643763788685 184.71565232831563 0 0 0 0 -199.99675766547443 237.420479105087 0 237.420479105087 368.20677263625839 0 0 0 0 -142.00186963498709 8.5765837283543078 0 8.5765837283543078 505.68447876352002 0 0 0 0 -122.67741538950941 -40.724010624719085 0 -40.724010624719085 272.36489387571442 0 0 0 0 -4.3623462183459196 -9.5230909095553216 0 -9.5230909095553216 271.68067718175394 0 0 0 0 -55.978818807649077 152.10647264314321 0 152.10647264314321 83.848358827934135 0 0 0 0 -31.773465321297408 55.890836969330849 0 55.890836969330849 118.70899724378251 0 0 0 0 92.708414153355989 51.291632558626588 0 51.291632558626588 82.108168066770304 0 0 0 0 67.03872639182373 153.44187435973436 0 153.44187435973436 43.549888091365574 0 0 0 0 -69.521249442652334 86.897682350238028 0 86.897682350238028 83.381312862309869 0 0 0 0 -39.474812415872293 41.825255933617882 0 41.825255933617882 43.674200062028831 0 0 0 0 -60.481177431036485 46.294513358239783 0 46.294513358239783 116.33432559797075 0 0 0 0 -56.435033673446014 39.966760775387229 0 39.966760775387229 65.609192952833837 0 0 0 0 -86.958849187736632 70.322785920172464 0 70.322785920172464 103.1775123031548 0 0 0 0 -58.422163944458589 21.942563428674475 0 21.942563428674475 185.02819922940398 0 0 0 0 -128.9670797443614 87.087298044622003 0 87.087298044622003 102.66427937007393 0 0 0 0 -116.55842392270279 55.435136884218082 0 55.435136884218082 170.18807012013895 0 0 0 0 -89.358562475958024 95.336533991328906 0 95.336533991328906 19.199879326588416 0 0 0 0 -77.028210909222253 81.529434173156915 0 81.529434173156915 27.089039549944573 0 0 0 0 -68.248391026587342 64.81703360524989 0 64.81703360524989 53.723018155342288 0 0 0 0 -115.28584307632264 123.72277196622599 0 123.72277196622599 8.5386037608695915 0 0 0 0 -17.484779982368991 9.0414696899171076 0 9.0414696899171076 17.202445473832796 0 0 0 0 -47.685697847038682 84.415421809069812 0 84.415421809069812 -0.59500433153880294 0 0 0 0 11.151198046908192 46.221594224555098 0 46.221594224555098 -22.599295069484867 0 0 0 0 -20.853463155537611 113.91467258142075 0 113.91467258142075 -75.632146740754251 0 0 0 0 -24.766206604152899 43.80895020052003 0 43.80895020052003 63.254701719399918 0 0 0 0 -103.0689557639198 105.36771009636141 0 105.36771009636141 -25.202886715589557 0 0 0 0 -55.230679374725526 52.993993285748644 0 52.993993285748644 21.740074178430817 0 0 0 0 -68.334586385593866 55.941145848380984 0 55.941145848380984 -44.617948931990213 0 0 0 0 -330.15573867083731 194.27041186562928 0 194.27041186562928 8.5674365194427082 0 0 0 0 -74.846426253410755 99.63734376298089 0 99.63734376298089 -35.715109075215878 0 0 0 0 8.4955255987461271 39.510927621393407 0 39.510927621393407 19.110371598789925 0 0 0 0 -43.021360636908298 59.167378716493204 0 59.167378716493204 34.551705883600221 0 0 0 0 -70.666063312921324 101.27601210250941 0 101.27601210250941 -24.525166408828227 0 0 0 0 -36.506614597145813 56.833470737776388 0 56.833470737776388 21.872182500795276 0 0 0 0 16.096129061647616 31.569857393852871 0 31.569857393852871 -9.1960483438622305 0 0 0 0 -91.969806689725374 107.35643849439657 0 107.35643849439657 25.23683440280729 0 0 0 0 -115.91580505257298 85.640950070126564 0 85.640950070126564 46.530268750135292 0 0 0 0 -288.58180535997963 264.89539199938008 0 264.89539199938008 -71.116947303125926 0 0 0 0 -99.638730097144673 77.96982213393926 0 77.96982213393926 44.669827297387386 0 0 0 0 -84.518341950606555 77.222661494270142 0 77.222661494270142 3.4049971635558904 0 0 0 0 -123.60659739086987 132.73763301767394 0 132.73763301767394 -0.61366678864578716 0 0 0 0 -112.7878103616822 155.85352678417985 0 155.85352678417985 -31.325393535837065 0 0 0 0 -130.01626676510205 138.87862244804273 0 138.87862244804273 -3.4743055409826411 0 0 0 0 -174.26629038041574 187.12829055759357 0 187.12829055759357 2.7473252264026087 0 0 0 0 -128.67426912079645 107.63348453803519 0 107.63348453803519 40.033627205877565 0 0 0 0 -120.72657433708082 102.11104333504045 0 102.11104333504045 43.837979243704467 0 0 0 0 -109.37175239913631 78.894161578980857 0 78.894161578980857 67.489765817997977 0 0 0 0 -147.94382623524871 109.86784308710776 0 109.86784308710776 80.549808773444965 0 0 0 0 -171.31656799506163 113.46341288744588 0 113.46341288744588 162.40724588240846 0 0 0 0 -151.93508753147762 108.50655781604291 0 108.50655781604291 104.59702627878869 0 0 0 0 -185.90902181665297 147.76444035736495 0 147.76444035736495 85.308745413800352 0 0 0 0 -182.77978352361242 145.10747797108343 0 145.10747797108343 63.803935653486405 0 0 0 0 -175.52616718452191 161.50448973201856 0 161.50448973201856 48.709093235913315 0 0 0 0 -178.45322674563795 166.9515003709239 0 166.9515003709239 39.480297383008292 0 0 0 0 -166.02672596259799 180.44265148178238 0 180.44265148178238 2.7417255835025571 0 0 0 0 -237.78443234864972 209.13523636331956 0 209.13523636331956 57.328460115473717 0 0 0 0 -212.89109597176139 181.10487914167607 0 181.10487914167607 88.148880741267931 0 0 0 0 -268.83228193386458 229.88829361468379 0 229.88829361468379 74.76146014639744 0 0 0 0 -234.17260456962686 195.29847119351325 0 195.29847119351325 99.269052245945204 0 0 0 0 -283.88165830633443 231.68861913723958 0 231.68861913723958 98.704665899334941 0 0 0 0 -298.08333350456087 261.79241754420218 0 261.79241754420218 72.696346280135913 0 0 0 0 -301.55757398228161 232.89012033434119 0 232.89012033434119 123.91291310420638 0 0 0 0 -228.4493331387639 226.65684705070453 0 226.65684705070453 155.38659635592194 0 0 0 0 -166.47439497255982 126.79403224395355 0 126.79403224395355 149.48070056509459 0 0 0 0 -222.21561320649926 148.93437930333312 0 148.93437930333312 188.59957735786884 0 0 0 0 -245.75855916629371 176.34687591952024 0 176.34687591952024 157.03280006995192 0 0 0 0 -290.31078729766887 333.07162552501541 0 333.07162552501541 41.458856864803238 0 0 0 0 -282.25686092622345 329.11731467486243 0 329.11731467486243 12.26172298538836 0 0 0 0 -269.51522530435477 304.3203740972279 0 304.3203740972279 33.764026913151611 0 0 0 0 -269.32916732825515 344.882108939413 0 344.882108939413 31.203790150408167 0 0 0 0 -211.82175638555782 352.51926914260548 0 352.51926914260548 22.298534942005062 0 0 0 0 -190.34213800998987 288.94923121406464 0 288.94923121406464 26.722439345212479 0 0 0 0 -293.01993820654388 338.71861061665913 0 338.71861061665913 43.905865761917084 0 0 0 0 -327.63537760218605 344.27787092665676 0 344.27787092665676 51.250594187789829 0 0 0 0 -293.40682146081235 340.93219303830119 0 340.93219303830119 37.707890086778207 0 0 0 0 -334.18480905331671 319.12821869160689 0 319.12821869160689 51.995682162902085 0 0 0 0 -321.72411572712008 327.30430582884583 0 327.30430582884583 48.6997470788192 0 0 0 0 -324.36614313299651 281.47836448569433 0 281.47836448569433 78.172974665343645 0 0 0 0 -294.78696252778172 282.89475556500838 0 282.89475556500838 52.912144263478694 0 0 0 0 -291.94136329362664 279.88188864488984 0 279.88188864488984 56.09305074220174 0 0 0 0 -285.68175888422411 297.50131154421251 0 297.50131154421251 61.257951606647111 0 0 0 0 -299.33298056079366 319.68369816840277 0 319.68369816840277 27.464308500173502 0 0 0 0 -260.32431010619621 293.12102596182376 0 293.12102596182376 29.304396030763201 0 0 0 0 -266.50772563704231 281.82661549948534 0 281.82661549948534 9.1389992009790149 0 0 0 0 -250.40347512124572 252.54017375620606 0 252.54017375620606 54.298528476298998 0 0 0 0 -229.71713968215045 244.29322684637737 0 244.29322684637737 14.43987167062005 0 0 0 0 -226.78344816472963 243.20506024688075 0 243.20506024688075 13.640663727215724 0 0 0 0 -232.99776971510437 278.2463687012787 0 278.2463687012787 -35.747908014338464 0 0 0 0 -219.38172680226853 256.9507788492192 0 256.9507788492192 -2.4414724762755213 0 0 0 0 -232.78838394887862 281.68939049810433 0 281.68939049810433 -15.923801961747813 0 0 0 0 -247.43033725018904 314.87091520387185 0 314.87091520387185 -91.055724241698044 0 0 0 0 -283.17253141335095 317.7969172034791 0 317.7969172034791 12.470680730338927 0 0 0 0 -272.4615127324505 318.96709629783436 0 318.96709629783436 -25.316679109091638 0 0 0 0 -287.71251748650684 329.5290359167484 0 329.5290359167484 -9.6301928970933659 0 0 0 0 -252.49656506464817 284.0087811288613 0 284.0087811288613 -66.41327096067107 0 0 0 0 -256.31273610939752 326.35171737854535 0 326.35171737854535 -157.69060459928005 0 0 0 0 -175.74372490934911 266.9796405860543 0 266.9796405860543 -177.60446796116594 0 0 0 0 -158.8646733663918 206.35273268156743 0 206.35273268156743 -35.8206242252636 0 0 0 0 -178.75703274543048 236.81938479715609 0 236.81938479715609 -76.046661688786116 0 0 0 0 -144.54236388826394 194.50523588914075 0 194.50523588914075 -46.948472380914609 0 0 0 0 -145.23010471304588 190.04849572839521 0 190.04849572839521 -56.517694892172585 0 0 0 0 -140.65633776652976 140.58230411814657 0 140.58230411814657 -48.969017134637397 0 0 0 0 -78.762270053551788 79.825861348079457 0 79.825861348079457 32.74591632149675 0 0 0 0 -76.289958567154827 129.81862461606943 0 129.81862461606943 -77.354343966781016 0 0 0 0 -111.50314262753818 119.19335935363051 0 119.19335935363051 -116.45395825592277 0 0 0 0 -62.996365577622782 314.14305026499187 0 314.14305026499187 -26.244167556287721 0 0 0 0 -592.45489939660183 149.84409999439958 0 149.84409999439958 -76.7421884311334 0 0 0 0 -224.47635555923625 38.258070327894529 0 38.258070327894529 84.995007105899276 0 0 0 0 -660.92845304659568 715.73573978416971 0 715.73573978416971 -631.43934148096014 0 0 0 0 0.060045112218404029 1.1124738500491276 0 1.1124738500491276 -1.1931276689033723 0 0 0 0 -4.2333742167165838 2.5999953182637086 0 2.5999953182637086 -1.1823036330700916 0 0 0 0 -573.12530549312942 667.87904676340986 0 667.87904676340986 -779.96014013770036 0 0 0 0 -514.92131556551612 129.60284413358022 0 129.60284413358022 600.22292825160548 0 0 0 0 -22.315508300176589 -128.55844966114091 0 -128.55844966114091 707.53529168243404 0 0 0 0 -168.78107084649673 263.90826599253342 0 263.90826599253342 -7.6164453225501347 0 0 0 0 -96.188834720032901 95.848710304386259 0 95.848710304386259 489.27197313783108 0 0 0 0 -223.32375368109206 157.16063974231656 0 157.16063974231656 563.86410097181215 0 0 0 0 -23.77691875302304 14.805457395899282 0 14.805457395899282 -3.9661728514066823 0 0 0 0 -225.33199505688754 442.76312582112769 0 442.76312582112769 -283.36658352726954 0 0 0 0 -21.044928993243957 27.561176550509117 0 27.561176550509117 -17.133582891867263 0 0 0 0 254.35988944140263 55.713096984793083 0 55.713096984793083 -459.19556161496439 0 0 0 0 -399.70653331495123 144.51917156147829 0 144.51917156147829 213.95786747912643 0 0 0 0 5.2906235240225215 4.289554279319546 0 4.289554279319546 5.864326573189345 0 0 0 0 -213.16449857043335 396.24072399447323 0 396.24072399447323 -983.49507558471305 0 0 0 0 -25.667927404574584 41.648561250163766 0 41.648561250163766 -12.010662297347153 0 0 0 0 -39.930775749264285 82.393679479078855 0 82.393679479078855 -30.265466831304366 0 0 0 0 -45.697011300406302 75.138744382958976 0 75.138744382958976 2.6063163812505081 0 0 0 0 -56.126033117070619 61.384510989370028 0 61.384510989370028 36.903100429772167 0 0 0 0 -62.344834395616601 28.545473325094008 0 28.545473325094008 11.805550390621036 0 0 0 0 -87.130859007127583 116.52957750411588 0 116.52957750411588 163.25938192343347 0 0 0 0 -22.345681761507876 31.26926863369124 0 31.26926863369124 51.465119620586108 0 0 0 0 82.735922488263896 61.477632624139005 0 61.477632624139005 104.68372567354527 0 0 0 0 20.91748537674539 412.5929254827206 0 412.5929254827206 792.32608974497998 0 0 0 0 -602.8039119195455 331.99335092062029 0 331.99335092062029 797.34826794808032 0 0 0 0 1087.155246980692 849.0048229189124 0 849.0048229189124 290.20642920411046 0 0 0 0 -0.44501002759056973 5.7912536454707748 0 5.7912536454707748 21.681309315782244 0 0 0 0 -165.42294018826215 -321.02580709212634 0 -321.02580709212634 1705.0925744610722 0 0 0 0 -270.96256536303554 45.485435134294676 0 45.485435134294676 432.86172200069996 0 0 0 0 -907.67964928307629 1124.2299791105979 0 1124.2299791105979 2287.4473356592935 0 0 0 0 124.17406589403981 2634.538645407185 0 2634.538645407185 -346.1594978936555 0 0 0 0 -183.22705976344878 1239.1784245251984 0 1239.1784245251984 2250.7387399409781 0 0 0 0 -246.0490267599871 -1179.636793307156 0 -1179.636793307156 2051.0648830548453 0 0 0 0 -648.47063412814168 58.398927973918035 0 58.398927973918035 -156.13514352449056 0 0 0 0 -1088.1216313137193 -816.44924674047797 0 -816.44924674047797 1055.2286302924913 0 0 0 0 -180.86365517484955 -216.05796377122533 0 -216.05796377122533 431.14256311533973 0 0 0 0 -478.55942227708874 96.431939621310448 0 96.431939621310448 1201.0438797014413 0 0 0 0 -64.801745798526099 -90.404602683971461 0 -90.404602683971461 531.06458613824361 0 0 0 0 -66.782467944292875 -80.117917282361304 0 -80.117917282361304 486.62742718841764 0 0 0 0 -245.94491911091973 203.4064877260189 0 203.4064877260189 431.57279871532228 0 0 0 0 -189.02121086791158 -35.144259983047959 0 -35.144259983047959 597.87336838519468 0 0 0 0 -539.74387386610033 -82.068036386779568 0 -82.068036386779568 747.34685804480978 0 0 0 0 -218.58148421419901 46.217872806613741 0 46.217872806613741 768.80159565787471 0 0 0 0 518.24369042120452 1113.5662122666827 0 1113.5662122666827 1326.8015377309639 0 0 0 0 633.62584144725406 512.53117198828841 0 512.53117198828841 663.31878142566711 0 0 0 0 302.48495215333242 576.40390959846263 0 576.40390959846263 812.73684513816261 0 0 0 0 -113.38367493386613 58.152262120856903 0 58.152262120856903 588.91148201697069 0 0 0 0 435.26890856368118 383.17416771842545 0 383.17416771842545 685.42054964965791 0 0 0 0 1158.6759190235025 988.49825629554107 0 988.49825629554107 774.81607130712655 0 0 0 0 326.80227195570478 433.94866571262173 0 433.94866571262173 873.10747063612507 0 0 0 0 1774.6765995446508 1808.9093048156694 0 1808.9093048156694 1212.30234955583 0 0 0 0 1777.6108718399337 1134.3263850878502 0 1134.3263850878502 758.54894277075073 0 0 0 0 -23.978139606144509 38.864998444819548 0 38.864998444819548 -41.409660758184998 0 0 0 0 2112.322321629792 2163.8667322945694 0 2163.8667322945694 1234.8032520624238 0 0 0 0 1907.4047222678455 1352.5099387801129 0 1352.5099387801129 -67.916089111880865 0 0 0 0 1207.1321478765021 1542.3322280175635 0 1542.3322280175635 1276.6992191227619 0 0 0 0 1323.7476469631656 1363.1881454516115 0 1363.1881454516115 1182.4640563188236 0 0 0 0 2101.9285982268048 652.729090149478 0 652.729090149478 -583.7349018084933 0 0 0 0 -404.62641226523556 753.49954811287171 0 753.49954811287171 1701.013990000909 0 0 0 0 958.65799362608232 111.1624819477147 0 111.1624819477147 792.097312232072 0 0 0 0 504.91084395447251 2798.9385743292041 0 2798.9385743292041 5100.8115496373939 0 0 0 0 1897.8861604111735 1506.4251894623885 0 1506.4251894623885 -13.313924624668289 0 0 0 0 25.043512221153662 7.1069335176753725 0 7.1069335176753725 -2.9636287318563177 0 0 0 0 43.497646024714754 16.175180134519223 0 16.175180134519223 8.5726019812572787 0 0 0 0 2267.9758246666752 6987.2626211439492 0 6987.2626211439492 7222.5147406281321 0 0 0 0 -26.09115426268545 -110.45907710630854 0 -110.45907710630854 -53.313175358642184 0 0 0 0 1061.6463852375455 528.0446375348838 0 528.0446375348838 -894.60508912165096 0 0 0 0 115.23093163136349 44.471877131963581 0 44.471877131963581 -10.715997756004484 0 0 0 0 7.3621562096382149 27.095310205497412 0 27.095310205497412 -11.397084620661644 0 0 0 0 -197.77208898903336 291.87481003347057 0 291.87481003347057 -4.8352635236587957 0 0 0 0 -197.77208898920799 291.8748100335215 0 291.8748100335215 -4.8352635236442438 0 0 0 0 698.4078152612492 537.25045745674288 0 537.25045745674288 -263.49200432030193 0 0 0 0 -197.77208898885874 291.8748100335506 0 291.8748100335506 -4.835263523622416 0 0 0 0 -1265.4594002323065 992.69702044112273 0 992.69702044112273 -398.1726101164968 0 0 0 0 99.997354545899611 211.34398274532825 0 211.34398274532825 -49.135721519501118 0 0 0 0 -547.41903178137727 447.94598388543091 0 447.94598388543091 -637.99188923590555 0 0 0 0 6.4193607497226139 12.123672085959356 0 12.123672085959356 30.123212741938602 0 0 0 0 -2683.6642790316255 -582.24243060982553 0 -582.24243060982553 1215.4470711606846 0 0 0 0 -264.78660664882045 -378.78989532310516 0 -378.78989532310516 -1130.9159228857607 0 0 0 0 40.495555223646178 34.978752011327458 0 34.978752011327458 -18.66407179136138 0 0 0 0 -116.51608096604468 -354.3995128694296 0 -354.3995128694296 -459.76203097541293 0 0 0 0 -390.20389497018186 -121.57114904977789 0 -121.57114904977789 629.71980364118645 0 0 0 0 -1684.6400147599052 -175.87071556746378 0 -175.87071556746378 616.97965565227787 0 0 0 0 -289.36568637873279 1362.9352520691755 0 1362.9352520691755 -417.5197912816584 0 0 0 0 283.1935654823028 335.39387216298928 0 335.39387216298928 603.54054004244972 0 0 0 0 -70.381818539521191 45.001012189430185 0 45.001012189430185 446.73075870802859 0 0 0 0 130.51947284379276 110.1968624641886 0 110.1968624641886 239.55832547100727 0 0 0 0 144.27759425742261 124.03737489813648 0 124.03737489813648 0.98895151828764938 0 0 0 0 22.234627335565165 162.21333396468981 0 162.21333396468981 7.0399901292694267 0 0 0 0 7.9196149876806885 8.2647226430854062 0 8.2647226430854062 235.55880821875326 0 0 0 0 -547.34398022998357 515.78971250742325 0 515.78971250742325 -478.0311835385437 0 0 0 0 28.794784117344534 -133.50940880451799 0 -133.50940880451799 -26.667751321947435 0 0 0 0 -52.771224484712548 92.682852335616531 0 92.682852335616531 22.565591584311846 0 0 0 0 -498.26181608170737 414.24669775083748 0 414.24669775083748 -160.96224608839111 0 0 0 0 -101.75544781864573 330.02344300327547 0 330.02344300327547 -407.75334307919547 0 0 0 0 132.95012309500453 80.862963812707676 0 80.862963812707676 -125.68255727260839 0 0 0 0 -936.66965975805942 488.17248554802791 0 488.17248554802791 -174.01212290403055 0 0 0 0 25.255491327257374 93.274706905982811 0 93.274706905982811 -61.951920495998991 0 0 0 0 86.64699509080674 108.6348927076906 0 108.6348927076906 -15.264738007535925 0 0 0 0 -393.80135328380857 270.05059251217608 0 270.05059251217608 -96.529253329659696 0 0 0 0 -647.40965748495364 197.96942365016366 0 197.96942365016366 -107.98570785573975 0 0 0 0 -397.07805970840855 336.84456541564577 0 336.84456541564577 -38.037585311263683 0 0 0 0 -442.96639328452875 281.56215618545684 0 281.56215618545684 1.3729705860750983 0 0 0 0 -289.11684233141204 296.43130625192725 0 296.43130625192725 -32.603319937392371 0 0 0 0 32.311037066567224 306.8588140913489 0 306.8588140913489 -12.407857302856428 0 0 0 0 26.13199283548083 90.410825877489003 0 90.410825877489003 12.502280480779461 0 0 0 0 -87.815308163219015 219.61806709825214 0 219.61806709825214 -55.521315677295206 0 0 0 0 -241.1473221431952 55.653869819958345 0 55.653869819958345 140.32659724829864 0 0 0 0 59.784673029353144 224.89907232133555 0 224.89907232133555 -52.335635008697864 0 0 0 0 -315.2731295319245 175.85919869826466 0 175.85919869826466 52.743673884309828 0 0 0 0 -281.87899621436372 323.59429639650625 0 323.59429639650625 6.8078870090539567 0 0 0 0 -91.311997704935493 179.29680399231438 0 179.29680399231438 8.119475893676281 0 0 0 0 419.48361316038063 416.59205862412637 0 416.59205862412637 75.321196170432813 0 0 0 0 205.01234156428836 391.45392274272308 0 391.45392274272308 183.89308217512007 0 0 0 0 46.582294078252744 217.14973288476176 0 217.14973288476176 88.83946873833338 0 0 0 0 99.064727845085145 207.42652903407361 0 207.42652903407361 -135.66682670879527 0 0 0 0 191.70634111529216 315.43371109012514 0 315.43371109012514 -14.925603063682502 0 0 0 0 232.44277689371484 76.877971928693569 0 76.877971928693569 -195.28853533994698 0 0 0 0 68.942580528315375 -51.043075903938188 0 -51.043075903938188 -398.08360643895867 0 0 0 0 91.48928783138399 146.39500280434731 0 146.39500280434731 -167.48134664523241 0 0 0 0 122.58915007757605 91.996557313101221 0 91.996557313101221 -126.04529524224927 0 0 0 0 103.98397230324917 118.4573201576859 0 118.4573201576859 -114.60543315914401 0 0 0 0 432.74755139893387 368.14924392560351 0 368.14924392560351 427.53518740992877 0 0 0 0 907.46020537341246 348.63325159533997 0 348.63325159533997 398.82193671066852 0 0 0 0 -5.5185441173898653 3.09018579187358 0 3.09018579187358 -3.3910405676502933 0 0 0 0 373.06065927280724 742.65094766617585 0 742.65094766617585 1200.9846077553229 0 0 0 0 565.27178968902444 806.10355024559249 0 806.10355024559249 1032.8282211791084 0 0 0 0 96.96641269063548 -246.48854035515433 0 -246.48854035515433 -901.92127774009714 0 0 0 0 -0.28425599582374161 1.3809820260515835 0 1.3809820260515835 0.073593456501669152 0 0 0 0 671.7316455465043 1157.1377571387129 0 1157.1377571387129 1187.2760871431019 0 0 0 0 150.13926765671931 146.48484988161727 0 146.48484988161727 -254.1483023636938 0 0 0 0 -37.54283941333415 -156.25322461287942 0 -156.25322461287942 -409.86841958218429 0 0 0 0 77.178226605967211 156.81140265378053 0 156.81140265378053 -581.57444156864949 0 0 0 0 -33.20609595865244 264.15166672178748 0 264.15166672178748 -48.920248175058077 0 0 0 0 266.24353397791856 50.246975543948793 0 50.246975543948793 97.481336356202519 0 0 0 0 -7.2161481968942098 318.55293049891043 0 318.55293049891043 111.24695735338173 0 0 0 0 213.5312691682484 496.3419068424264 0 496.3419068424264 253.89267705279053 0 0 0 0 636.52509670029394 950.72844802941836 0 950.72844802941836 410.19054094213425 0 0 0 0 574.4388625624415 834.20747448242764 0 834.20747448242764 849.80353639010718 0 0 0 0 346.14677066687727 730.25295439881302 0 730.25295439881302 802.49597521174292 0 0 0 0 3.3885170516720762 1415.0307581745303 0 1415.0307581745303 2616.2133866297081 0 0 0 0 105.72525600886183 2240.9700709735798 0 2240.9700709735798 2304.810336592549 0 0 0 0 631.55423546713428 1401.2051522363981 0 1401.2051522363981 3645.9400290234844 0 0 0 0 3.9751297306048627 0.43881710071593716 0 0.43881710071593716 4.4249016162302155 0 0 0 0 23.823160851679631 1.6479678855772022 0 1.6479678855772022 3.0490260499690578 0 0 0 0 1546.4912410111283 2209.8837266859773 0 2209.8837266859773 1548.82578235401 0 0 0 0 -1871.6429990960751 -2213.2563054081402 0 -2213.2563054081402 4964.6177651616745 0 0 0 0 1001.9754150308436 1378.8790904899506 0 1378.8790904899506 1555.6385888744844 0 0 0 0 1092.7910114188562 369.65006588111282 0 369.65006588111282 -169.7274370448722 0 0 0 0 1476.6915123896324 1165.2739641338267 0 1165.2739641338267 44.195220067264017 0 0 0 0 1920.4149366562488 1617.883467129599 0 1617.883467129599 -395.53300943635986 0 0 0 0 -1340.9743728435715 1518.9741438283963 0 1518.9741438283963 4430.2019306417787 0 0 0 0 815.63920971499465 2109.1119413276574 0 2109.1119413276574 1412.8944698656196 0 0 0 0 521.23047180968206 2371.1755150777444 0 2371.1755150777444 1617.0183990470541 0 0 0 0 906.44230534050439 2218.9222696415527 0 2218.9222696415527 1662.9928992709174 0 0 0 0 428.87268859680626 1782.1124527750871 0 1782.1124527750871 1688.2536591908138 0 0 0 0 -8.0796033074150841 15.821705917268503 0 15.821705917268503 -15.529698413961171 0 0 0 0 1914.4001586166851 1348.4370134629316 0 1348.4370134629316 -184.37752536145854 0 0 0 0 880.44637405252433 2164.4625720514341 0 2164.4625720514341 1579.5947521431517 0 0 0 0 1388.759563182306 1608.4892200039176 0 1608.4892200039176 1716.0025538764457 0 0 0 0 792.54331830178853 2404.5572861540131 0 2404.5572861540131 1632.6472891507183 0 0 0 0 0.2849992995543289 182.14393071714312 0 182.14393071714312 187.6956695102308 0 0 0 0 48.454441382782534 73.666607168397604 0 73.666607168397604 151.90117509110132 0 0 0 0 217.21387669738033 129.80469111523416 0 129.80469111523416 79.492684759279655 0 0 0 0 -5.587384339840753 3.7833161795928731 0 3.7833161795928731 2.1357883064248853 0 0 0 0 246.49033888198028 308.31457994471384 0 308.31457994471384 -21.215936624736059 0 0 0 0 1.0502598313047335 984.29297394865262 0 984.29297394865262 339.49544040888577 0 0 0 0 -47.257604681886733 157.1780939324417 0 157.1780939324417 373.58436017204099 0 0 0 0 -1.0490985758660827 160.84923037972476 0 160.84923037972476 155.39191466160264 0 0 0 0 -135.51299350094632 96.077574605002155 0 96.077574605002155 23.06880316312845 0 0 0 0 -95.356766409990087 35.662943762570649 0 35.662943762570649 113.30454391367675 0 0 0 0 -200.18842592582223 174.63572829028999 0 174.63572829028999 39.195918608270404 0 0 0 0 -98.244349479071388 157.05147364149616 0 157.05147364149616 -15.681960091787914 0 0 0 0 -299.80849011820101 279.16537826090916 0 279.16537826090916 8.5765534834463324 0 0 0 0 11.171073342702584 134.57417476776754 0 134.57417476776754 90.640862762507822 0 0 0 0 -175.27479749952909 95.702884503731184 0 95.702884503731184 152.24010686757538 0 0 0 0 -394.76545892933791 262.94041270072194 0 262.94041270072194 75.989040501503041 0 0 0 0 -61.351562304538675 -103.24759203131907 0 -103.24759203131907 196.31862791613094 0 0 0 0 416.94805621591513 -132.09619825611298 0 -132.09619825611298 110.50191165169963 0 0 0 0 -376.43391008942854 230.17887674813392 0 230.17887674813392 7.0504263510374585 0 0 0 0 -373.27037773689153 443.69244874705953 0 443.69244874705953 -132.45102316857083 0 0 0 0 -107.19376655010274 120.410176120713 0 120.410176120713 -434.61441408446262 0 0 0 0 -759.94981985675258 569.91253407380464 0 569.91253407380464 951.18551277011284 0 0 0 0 -68.662260742625222 466.49409093465874 0 466.49409093465874 -1224.6043768314048 0 0 0 0 -8.9487141195372715 0.42472558334534938 0 0.42472558334534938 0.4631005696479491 0 0 0 0 -7.7739236544646246 5.3652029427043431 0 5.3652029427043431 1.5995519268700775 0 0 0 0 -737.14969555748394 983.85345182429592 0 983.85345182429592 -388.51535417740888 0 0 0 0 -565.70955333049642 783.41162980036461 0 783.41162980036461 -588.02985947212437 0 0 0 0 -1435.4730794927891 223.82315468492379 0 223.82315468492379 1010.8275150404079 0 0 0 0 337.17746835696016 431.03900563278512 0 431.03900563278512 -118.38220812693908 0 0 0 0 120.21716965771338 195.32336054352709 0 195.32336054352709 289.61750327340269 0 0 0 0 201.91685539722675 237.24989499264484 0 237.24989499264484 188.65293203627698 0 0 0 0 -8.6573059227791873 7.3697775006507982 0 7.3697775006507982 -1.3774488640194704 0 0 0 0 447.64262198188226 262.78495789974113 0 262.78495789974113 96.460077810159419 0 0 0 0 -0.0069429194943953637 332.56301558302823 0 332.56301558302823 138.1098698683345 0 0 0 0 69.090805767194979 327.67942492256861 0 327.67942492256861 90.454280394755187 0 0 0 0 20.185003165272065 570.73435043683912 0 570.73435043683912 -152.83321543449711 0 0 0 0 117.05293868963417 350.64388914179926 0 350.64388914179926 71.609264409125899 0 0 0 0 -46.332034303515684 377.6572479995848 0 377.6572479995848 100.63740302687438 0 0 0 0 -15.948880427877157 299.2138392384386 0 299.2138392384386 444.83183678108617 0 0 0 0 -2.4788992050671368 293.81924806162169 0 293.81924806162169 184.35472184237005 0 0 0 0 -58.799466646931251 345.87622368677785 0 345.87622368677785 274.73898130655289 0 0 0 0 294.03636675729649 306.62683335453403 0 306.62683335453403 84.141423900749942 0 0 0 0 71.636923374971957 172.6798524534388 0 172.6798524534388 31.347495867346879 0 0 0 0 -202.66419519850024 52.168625517193504 0 52.168625517193504 227.93658710474847 0 0 0 0 -306.19335741006944 510.48045091714448 0 510.48045091714448 170.66460652101887 0 0 0 0 139.04432420272497 -55.825432828718476 0 -55.825432828718476 248.35416220443221 0 0 0 0 91.061523827258497 218.97273320456225 0 218.97273320456225 419.83022250482099 0 0 0 0 282.36867551793694 176.31688223488163 0 176.31688223488163 151.57009471548918 0 0 0 0 3.1149956623557955 67.813882968184771 0 67.813882968184771 267.39627983103856 0 0 0 0 14.225384886900429 70.064512994911638 0 70.064512994911638 65.923180605779635 0 0 0 0 61.584847366728354 143.3829581925711 0 143.3829581925711 11.817847961938241 0 0 0 0 190.45658043847652 151.19764709508308 0 151.19764709508308 103.23156343082519 0 0 0 0 149.03234324223013 87.958022941238596 0 87.958022941238596 123.64522213741839 0 0 0 0 250.73655789597251 164.17520858446005 0 164.17520858446005 -151.763203046743 0 0 0 0 154.61871935383533 29.154037168318609 0 29.154037168318609 -327.66405315188604 0 0 0 0 -74.028660770767601 116.33117901317746 0 116.33117901317746 6.9360750441264827 0 0 0 0 150.78963504139392 -189.52605554170441 0 -189.52605554170441 499.42396340967389 0 0 0 0 -75.443522082150594 197.48537531641978 0 197.48537531641978 548.0821862895973 0 0 0 0 184.41050499163248 414.14972024404051 0 414.14972024404051 837.3247866321035 0 0 0 0 -51.589746476267464 35.465179850980348 0 35.465179850980348 1150.1355434600264 0 0 0 0 8.429276223136867 -4.2585079281196414 0 -4.2585079281196414 -2.6003605129970424 0 0 0 0 50.924554037377888 108.27682490615521 0 108.27682490615521 77.846371947511784 0 0 0 0 -15.634796645172173 232.54632962501637 0 232.54632962501637 -13.804207923123613 0 0 0 0 -51.371671215398237 277.97435395893262 0 277.97435395893262 68.072392435220536 0 0 0 0 -51.31844637816539 285.52043742540991 0 285.52043742540991 -1.3148090417380445 0 0 0 0 -142.07830588938668 317.23958684143872 0 317.23958684143872 -5.085207760479534 0 0 0 0 -30.643970701203216 288.81345195925678 0 288.81345195925678 -16.32768700804445 0 0 0 0 -24.602398636455973 -0.14956350890761883 0 -0.14956350890761883 10.889309750465145 0 0 0 0 -180.51203694134892 238.11837390932305 0 238.11837390932305 234.11691619310295 0 0 0 0 -348.40898245335848 112.19105419226253 0 112.19105419226253 302.24968853680184 0 0 0 0 -15.096708823716881 6.0857588161720173 0 6.0857588161720173 14.771833219809167 0 0 0 0 -237.59504277282394 42.31375744493198 0 42.31375744493198 461.46032619976177 0 0 0 0 -70.75020800504717 206.09993836667036 0 206.09993836667036 258.34143587612198 0 0 0 0 9.6943858742306475 170.96555433497997 0 170.96555433497997 -80.181872954213759 0 0 0 0 -10.831977186491713 102.31199878632106 0 102.31199878632106 15.08366951138305 0 0 0 0 13.103632032288942 14.775800376502438 0 14.775800376502438 12.036653123532759 0 0 0 0 -58.394420124823228 -31.972944261797238 0 -31.972944261797238 163.44979819955188 0 0 0 0 -15.952919404197019 96.397145091752463 0 96.397145091752463 25.732701349639683 0 0 0 0 -8.0019092158909189 99.588532312272946 0 99.588532312272946 15.544062133005355 0 0 0 0 20.612200071360505 54.865796278515461 0 54.865796278515461 44.226457985612711 0 0 0 0 -4.9687489504356108 42.385813382549529 0 42.385813382549529 55.266606234025915 0 0 0 0 -57.053584584791679 144.88651980740542 0 144.88651980740542 -80.49789628124563 0 0 0 0 55.452247324273003 108.49656150730759 0 108.49656150730759 74.199260217711526 0 0 0 0 59.04401250837941 45.737340458264327 0 45.737340458264327 -2.317439681152706 0 0 0 0 45.271666374814231 143.60936600336572 0 143.60936600336572 212.43613656068919 0 0 0 0 -32.600582412807853 321.64661669654015 0 321.64661669654015 57.385843329189811 0 0 0 0 150.11438052530866 165.15631255894004 0 165.15631255894004 57.567339012108278 0 0 0 0 133.90411749132909 5.0343643896630965 0 5.0343643896630965 247.04722062282235 0 0 0 0 -61.413049708437939 92.078086087892643 0 92.078086087892643 94.93014792160875 0 0 0 0 -74.350369680461881 25.805172449786369 0 25.805172449786369 65.378721150016645 0 0 0 0 -23.578970991045935 108.99829728840268 0 108.99829728840268 35.503774628203246 0 0 0 0 -5.8548054562561447 114.6745498370874 0 114.6745498370874 69.353125809546327 0 0 0 0 -27.358364090614486 118.22668246856483 0 118.22668246856483 18.829482408591502 0 0 0 0 -38.119429929996841 121.65551388811946 0 121.65551388811946 149.71992667415907 0 0 0 0 9.7248455013614148 82.365444856142858 0 82.365444856142858 38.756301926448941 0 0 0 0 -61.671236388181569 110.5629011592755 0 110.5629011592755 163.6489941618056 0 0 0 0 -27.778616200110037 21.435624624426481 0 21.435624624426481 12.588982418424287 0 0 0 0 30.2266686965595 96.551561381278589 0 96.551561381278589 118.00909122655867 0 0 0 0 19.361931154090883 55.952637006660268 0 55.952637006660268 51.574369591897579 0 0 0 0 -99.273773201392032 84.425406960723194 0 84.425406960723194 147.74166094746761 0 0 0 0 -1.1070316310430712 54.926485132005268 0 54.926485132005268 50.280576185260145 0 0 0 0 109.87716986279702 224.91805854821359 0 224.91805854821359 62.318061769808992 0 0 0 0 54.889301108167274 83.256598214455153 0 83.256598214455153 20.889455344047747 0 0 0 0 15.103981673767407 19.103817853598912 0 19.103817853598912 15.641665137956068 0 0 0 0 5.4896524346997069 79.321742399461101 0 79.321742399461101 79.719298293513333 0 0 0 0 -190.94228973475401 168.88133946869493 0 168.88133946869493 304.16269866941002 0 0 0 0 118.42212730180472 266.54066103666264 0 266.54066103666264 272.33140717477363 0 0 0 0 423.32832933988539 293.32685811663214 0 293.32685811663214 118.16751905139972 0 0 0 0 19.461237476291672 94.0353601644224 0 94.0353601644224 108.80956650064786 0 0 0 0 198.12881066079717 -15.272431566634623 0 -15.272431566634623 52.741154020437079 0 0 0 0 -2.2770691401474892 1.0828120389738842 0 1.0828120389738842 1.2518602457914199 0 0 0 0 -196.91931474683224 42.641101062075904 0 42.641101062075904 92.672356993196445 0 0 0 0 -139.19149687644676 161.75069010661537 0 161.75069010661537 264.52003737069754 0 0 0 0 -25.831293953900058 100.82113693060307 0 100.82113693060307 -21.722599515676848 0 0 0 0 -24.140174612111878 61.834600935508206 0 61.834600935508206 30.747941178866313 0 0 0 0 27.575136439350899 62.435928664111998 0 62.435928664111998 21.573517187025573 0 0 0 0 -36.881197363312822 77.666287431115052 0 77.666287431115052 40.968119940109318 0 0 0 0 -32.698222935869126 66.995707385452988 0 66.995707385452988 15.021608743336401 0 0 0 0 17.457444061496062 36.646068601326988 0 36.646068601326988 -142.46453800417021 0 0 0 0 -115.75132508475144 129.05226854298962 0 129.05226854298962 39.139801753713982 0 0 0 0 -22.453009567762138 2.4985246131685699 0 2.4985246131685699 -2.4927306699183092 0 0 0 0 -97.573189021408325 352.9729146028003 0 352.9729146028003 -94.0959013701613 0 0 0 0 -143.20525859249756 285.05964107964246 0 285.05964107964246 -34.293113655417983 0 0 0 0 21.437696832290385 181.88782723760232 0 181.88782723760232 -0.63425407701652148 0 0 0 0 -107.51588108997385 222.64435066912483 0 222.64435066912483 443.03707227662744 0 0 0 0 -173.67792424588697 86.415115030104062 0 86.415115030104062 627.6288674724783 0 0 0 0 -3.6135357283748135 -5.8518487035158131 0 -5.8518487035158131 -0.40964909274854833 0 0 0 0 50.473604014550801 96.795137521185097 0 96.795137521185097 -666.94173195005351 0 0 0 0 -82.454940374591388 359.36594345765479 0 359.36594345765479 -528.68511973300338 0 0 0 0 -319.16680007820833 393.52444245557945 0 393.52444245557945 -146.21144294254191 0 0 0 0 -200.20623183387215 153.34550348607809 0 153.34550348607809 -17.639037331391592 0 0 0 0 -89.066880963335279 281.75095759777832 0 281.75095759777832 -182.80462209222981 0 0 0 0 -96.834755413787207 160.3614516623129 0 160.3614516623129 -187.60839277401828 0 0 0 0 -76.275748859479791 197.92241948477204 0 197.92241948477204 6.5453699753270485 0 0 0 0 15.247106078575598 178.63415226502184 0 178.63415226502184 -271.73052205168642 0 0 0 0 26.38185432809405 110.72289467791416 0 110.72289467791416 -105.49387887915873 0 0 0 0 35.078436879062792 188.5716831884929 0 188.5716831884929 -133.69610348401875 0 0 0 0 116.07834573258879 114.6983268649692 0 114.6983268649692 -88.617886740714312 0 0 0 0 52.53751204686705 146.19513257278595 0 146.19513257278595 -33.60694982795394 0 0 0 0 3.0690963669892426 20.402764756770694 0 20.402764756770694 10.851831005960754 0 0 0 0 44.874667153082555 177.48114078850631 0 177.48114078850631 267.80854703902151 0 0 0 0 13.013798661559122 91.209723818197745 0 91.209723818197745 -3.9426955922754132 0 0 0 0 83.79579850549635 140.69995453771116 0 140.69995453771116 -90.372618196459371 0 0 0 0 228.73633277317276 108.255510304778 0 108.255510304778 228.66797684111589 0 0 0 0 -29.89461272637709 -24.812009126722842 0 -24.812009126722842 -245.24162626400357 0 0 0 0 109.94761289785674 149.96334950640994 0 149.96334950640994 38.140688096071244 0 0 0 0 6.4738993762584869 77.341966266449163 0 77.341966266449163 17.354938144030257 0 0 0 0 -145.17652499847463 125.96087615028227 0 125.96087615028227 51.803607110956364 0 0 0 0 -11.893121508532204 131.13843077684214 0 131.13843077684214 -29.195225968695013 0 0 0 0 24.911369613656078 101.19543416237681 0 101.19543416237681 10.192092982180412 0 0 0 0 -43.52523655348341 53.923519423538892 0 53.923519423538892 33.205761699588038 0 0 0 0 65.315857466513989 127.58691171672035 0 127.58691171672035 10.466296606669857 0 0 0 0 82.894950000743847 92.535931689719291 0 92.535931689719291 79.420504087989684 0 0 0 0 282.42466947861249 118.66335106318002 0 118.66335106318002 -0.26199187662859913 0 0 0 0 -476.77821517380653 232.82290093365737 0 232.82290093365737 102.7325690226462 0 0 0 0 308.9814562612446 300.04822413473084 0 300.04822413473084 140.71364945461391 0 0 0 0 227.34370773610135 187.599593977533 0 187.599593977533 -12.075724432826973 0 0 0 0 278.68825974242645 132.76555824106981 0 132.76555824106981 21.695875198194699 0 0 0 0 0.57995292333762904 3.7039535767178222 0 3.7039535767178222 -0.071933304702668011 0 0 0 0 44.010788905674758 62.592622085517831 0 62.592622085517831 -2.5946864253795638 0 0 0 0 24.855268344523608 50.976777831116706 0 50.976777831116706 26.774834495470785 0 0 0 0 830.47619070588553 1439.4863419063149 0 1439.4863419063149 114.71130193350837 0 0 0 0 -773.28352615877156 115.2213231700498 0 115.2213231700498 24.416357234054885 0 0 0 0 800.20305946118606 -756.11127606798982 0 -756.11127606798982 -879.54773636275968 0 0 0 0 106.38802963003178 113.97805066774706 0 113.97805066774706 8.47666338490302 0 0 0 0 99.2599118588696 172.81737044282636 0 172.81737044282636 -7.2210844605469902 0 0 0 0 16.467327102844138 260.40838879536022 0 260.40838879536022 -2.036055415035662 0 0 0 0 -49.383953841608047 161.72447205430313 0 161.72447205430313 -12.770838687879376 0 0 0 0 -121.84494838099636 42.989383571242797 0 42.989383571242797 -183.55475921598554 0 0 0 0 105.13121374401089 349.04605740063562 0 349.04605740063562 131.99721397052053 0 0 0 0 99.345848808660662 324.30981411875956 0 324.30981411875956 45.014800072036451 0 0 0 0 328.12773059234314 541.20769604141242 0 541.20769604141242 48.007369562795702 0 0 0 0 -103.47948432424892 387.11246997706257 0 387.11246997706257 228.20039197290316 0 0 0 0 -284.23041993792867 154.18529773727641 0 154.18529773727641 293.21954878639008 0 0 0 0 40.048958991720212 84.810823111592413 0 84.810823111592413 149.56396748248591 0 0 0 0 -3.2577689107420156 157.50134936475297 0 157.50134936475297 68.827720883844449 0 0 0 0 -98.742125667777145 13.434629716422933 0 13.434629716422933 161.66958516908926 0 0 0 0 -24.916859778721118 177.72023339862426 0 177.72023339862426 56.076757946779253 0 0 0 0 17.608914678699307 81.629373655772213 0 81.629373655772213 2.1938449126125761 0 0 0 0 40.642506747938768 115.18020760197732 0 115.18020760197732 123.72172066670399 0 0 0 0 3.0769502610783093 127.43826367798101 0 127.43826367798101 98.954755440005101 0 0 0 0 -11.844591702026946 89.43401704967971 0 89.43401704967971 4.5363805720539006 0 0 0 0 8.9368183532787953 148.46103094226419 0 148.46103094226419 160.09687664317607 0 0 0 0 53.777974905264273 141.70931493175522 0 141.70931493175522 89.974143397776061 0 0 0 0 -44.002804655603541 145.51600904319184 0 145.51600904319184 110.04319052588835 0 0 0 0 0.84473047396750189 124.72826311485915 0 124.72826311485915 85.509839430034845 0 0 0 0 20.956765851309996 69.860895372551624 0 69.860895372551624 90.432129228211181 0 0 0 0 -11.818921480322444 81.463954833942992 0 81.463954833942992 56.856813200494059 0 0 0 0 25.306628320773598 108.7359424438182 0 108.7359424438182 102.96359368200501 0 0 0 0 581.03983353945659 -36.396934493459412 0 -36.396934493459412 43.214060268728645 0 0 0 0 -1.2640004752519189 21.37153919003191 0 21.37153919003191 29.169382368558672 0 0 0 0 -126.47702356355148 103.17114530378603 0 103.17114530378603 287.50016955926549 0 0 0 0 -240.84886641149933 -2.024187198097934 0 -2.024187198097934 173.98178904406086 0 0 0 0 -6.4213170170065155 18.587065843941815 0 18.587065843941815 25.588825687017504 0 0 0 0 -85.673413882381283 23.741200875898357 0 23.741200875898357 294.27379503165139 0 0 0 0 -64.698799789592158 -42.949106979445787 0 -42.949106979445787 258.07071808238834 0 0 0 0 -390.6268792488554 417.22301490760583 0 417.22301490760583 -276.66188148758374 0 0 0 0 -504.73814951055101 356.01414805694367 0 356.01414805694367 -250.17926063216873 0 0 0 0 -129.45572089006691 166.64661233413608 0 166.64661233413608 162.42233109695371 0 0 0 0 -61.925925285184348 83.544091737992858 0 83.544091737992858 87.846828569192439 0 0 0 0 29.407261857151752 -24.91242282379244 0 -24.91242282379244 97.343531382639412 0 0 0 0 30.920776046616851 48.793727455594137 0 48.793727455594137 38.469830758776311 0 0 0 0 -27.199784165568417 84.806548492968432 0 84.806548492968432 38.129921337676933 0 0 0 0 28.519921587029444 50.190935468738459 0 50.190935468738459 37.235459031778745 0 0 0 0 -14.029649319068994 30.506816630775575 0 30.506816630775575 35.650015145889483 0 0 0 0 9.4099249893916408 41.748610481836678 0 41.748610481836678 42.94857861263003 0 0 0 0 27.668687567740221 21.56713880641297 0 21.56713880641297 28.948133647809811 0 0 0 0 -56.69474228733452 109.48599712067517 0 109.48599712067517 83.082471416710177 0 0 0 0 -24.643870822503231 262.81136088754283 0 262.81136088754283 22.285054565465543 0 0 0 0 255.2931262383936 81.459247754944954 0 81.459247754944954 -349.11549682584882 0 0 0 0 -200.00092088928795 449.67033921409165 0 449.67033921409165 -239.71365404693643 0 0 0 0 -109.42558346752776 387.19839915834018 0 387.19839915834018 -60.460390954191098 0 0 0 0 -30.637432352523319 239.16453146401909 0 239.16453146401909 -14.837154849024955 0 0 0 0 -353.84802587149898 343.99656583054457 0 343.99656583054457 -289.12344796866455 0 0 0 0 -434.25188576255459 353.57118855042791 0 353.57118855042791 -53.136120829789434 0 0 0 0 3.1854835956363274 5.1958313097626956 0 5.1958313097626956 3.1078390768170152 0 0 0 0 -484.04188101307955 512.29009226796916 0 512.29009226796916 -303.90551311969102 0 0 0 0 -315.31845694722142 365.00981062318897 0 365.00981062318897 -285.06817042519106 0 0 0 0 -336.89482049224898 406.2529743462801 0 406.2529743462801 -288.98097011080245 0 0 0 0 -551.07824138936121 467.36933842118015 0 467.36933842118015 -308.5916086504003 0 0 0 0 -42.277230198960751 -27.928966357547324 0 -27.928966357547324 -14.235535064275609 0 0 0 0 -5.7874588244478105 11.77648680905466 0 11.77648680905466 11.753744106760706 0 0 0 0 -402.12111720995745 417.42240331464563 0 417.42240331464563 -219.93209697020939 0 0 0 0 -381.97600023532868 380.92683320620563 0 380.92683320620563 -182.40312928840285 0 0 0 0 -409.88088896629051 392.58532202394417 0 392.58532202394417 -185.04609525291016 0 0 0 0 -408.20814595373304 374.68800238553831 0 374.68800238553831 -185.20066452442552 0 0 0 0 -380.63538114607218 400.91770096677647 0 400.91770096677647 -258.22742223652313 0 0 0 0 -366.55549021469778 376.05985657789279 0 376.05985657789279 -185.39039035391761 0 0 0 0 -370.8844683940406 380.16516531075467 0 380.16516531075467 -220.55895734523074 0 0 0 0 -386.45697426452534 354.76351190322021 0 354.76351190322021 -98.012181032303488 0 0 0 0 -409.91521602726425 323.64704992838961 0 323.64704992838961 -92.414669643825619 0 0 0 0 -364.70623878506012 354.06679875635018 0 354.06679875635018 -78.751132159028202 0 0 0 0 -368.19007867545588 328.28511276782956 0 328.28511276782956 -102.21080191053261 0 0 0 0 -398.29813166492386 340.04515662546328 0 340.04515662546328 -23.129387286957353 0 0 0 0 -375.35321760928491 315.56411120065604 0 315.56411120065604 -10.606790168589214 0 0 0 0 -390.43429900301271 342.6939679570205 0 342.6939679570205 -6.4054774955438916 0 0 0 0 -359.49531929881778 298.28927066165488 0 298.28927066165488 9.9572912276635179 0 0 0 0 -360.80530665299739 317.48876775777899 0 317.48876775777899 55.133022547815926 0 0 0 0 -333.97083716990892 302.34448470067582 0 302.34448470067582 50.910828708059853 0 0 0 0 -369.53819795156596 346.87249454722041 0 346.87249454722041 20.114784687379142 0 0 0 0 -347.75490504148183 320.54814254061785 0 320.54814254061785 47.542349165305495 0 0 0 0 -294.26452854636591 340.18225877275108 0 340.18225877275108 43.06735215021763 0 0 0 0 -351.93783989711119 366.87191474822157 0 366.87191474822157 34.745540748117492 0 0 0 0 -245.30043927783845 346.62575379788177 0 346.62575379788177 21.050182575920189 0 0 0 0 -286.90364127040448 374.55739869643548 0 374.55739869643548 28.564921656419756 0 0 0 0 -146.46822824212722 364.47650662284286 0 364.47650662284286 6.7279933500103652 0 0 0 0 -144.2882264140062 384.61928936868208 0 384.61928936868208 -28.870569959573913 0 0 0 0 -245.1735885424423 356.30089451769163 0 356.30089451769163 -7.4268680678796954 0 0 0 0 -252.65550222202 381.34901371118031 0 381.34901371118031 -69.94069726660382 0 0 0 0 -364.69976231950568 392.1203470240871 0 392.1203470240871 -0.78792748373234645 0 0 0 0 -389.575333851506 321.28153689528699 0 321.28153689528699 -32.775103148887865 0 0 0 0 -356.18151677364949 363.56411195910914 0 363.56411195910914 -3.3167733359732665 0 0 0 0 -339.0941610156442 343.28153013854171 0 343.28153013854171 16.136801960936282 0 0 0 0 -301.02980443567503 401.65445087886474 0 401.65445087886474 -5.3081233029952273 0 0 0 0 -225.29931737491279 273.36418335586495 0 273.36418335586495 73.606407495790336 0 0 0 0 -215.63796234584152 311.40434056810045 0 311.40434056810045 223.3813364932721 0 0 0 0 -204.46309755830589 194.45855660619418 0 194.45855660619418 186.95035320537863 0 0 0 0 -252.04371690272819 203.94588404199749 0 203.94588404199749 136.33655819308478 0 0 0 0 -290.76899039416458 254.83200198659324 0 254.83200198659324 148.07006634960999 0 0 0 0 -258.65538600321452 235.1464415465216 0 235.1464415465216 90.031020323745906 0 0 0 0 -297.69800210283574 286.27090637824949 0 286.27090637824949 101.23471087080543 0 0 0 0 -343.49207479692996 303.07940843043616 0 303.07940843043616 70.012646119961573 0 0 0 0 -327.41766561273471 256.96701403872612 0 256.96701403872612 80.130973861785606 0 0 0 0 -350.90173297395449 274.04991389277711 0 274.04991389277711 20.242095990746748 0 0 0 0 -355.01417163067526 305.63091511445964 0 305.63091511445964 -50.421111976698739 0 0 0 0 -361.91620183034684 336.55486321896024 0 336.55486321896024 20.439485103484344 0 0 0 0 -309.16208821631153 258.37838986987481 0 258.37838986987481 47.868090666597709 0 0 0 0 -365.11518991010962 287.4348001114995 0 287.4348001114995 59.414968510711333 0 0 0 0 -372.29819545243299 310.21836930767131 0 310.21836930767131 -20.681640676077222 0 0 0 0 -281.89389077087981 324.75046676151396 0 324.75046676151396 -24.354759963709512 0 0 0 0 -406.07289484380453 354.55520481286658 0 354.55520481286658 -52.640849737508688 0 0 0 0 -349.73896546487231 366.69967598670337 0 366.69967598670337 -154.27760847492027 0 0 0 0 -433.04660618718481 352.26401612046175 0 352.26401612046175 -155.77904506562845 0 0 0 0 -312.4870739892358 438.65019728853076 0 438.65019728853076 -157.02375041102641 0 0 0 0 -265.16165757000272 344.89963708956202 0 344.89963708956202 -37.664187034795759 0 0 0 0 -288.33247457304969 308.55323310132371 0 308.55323310132371 95.790848161217582 0 0 0 0 -132.26103785181476 350.55023872655147 0 350.55023872655147 -53.30629330429656 0 0 0 0 -48.624241350538796 475.42436172344242 0 475.42436172344242 -197.19407945197599 0 0 0 0 -279.01373043222702 483.69141653383849 0 483.69141653383849 -149.96001858708041 0 0 0 0 -220.91783955771825 550.36707605773699 0 550.36707605773699 -765.38889014470624 0 0 0 0 -385.19666064683406 240.82613328131993 0 240.82613328131993 -431.25070267278352 0 0 0 0 -299.66421773537877 388.64338330249302 0 388.64338330249302 -369.27786685153842 0 0 0 0 -953.94572246519965 -567.6822721491335 0 -567.6822721491335 566.97710373511654 0 0 0 0 -239.93556214350974 868.4805216097302 0 868.4805216097302 -712.11103968453244 0 0 0 0 -488.51794627279742 94.374487544497242 0 94.374487544497242 292.37585500908608 0 0 0 0 -312.08905264008354 586.47959633394566 0 586.47959633394566 1252.1384609096858 0 0 0 0 -3.8783874115426897 7.0894297647663223 0 7.0894297647663223 9.2690966934307255 0 0 0 0 -181.58033210080612 553.05202242633459 0 553.05202242633459 214.69746807469346 0 0 0 0 -351.51155331438349 839.78158799721859 0 839.78158799721859 -266.49674677236908 0 0 0 0 -23.167544732306851 446.62529767789238 0 446.62529767789238 245.29000631876988 0 0 0 0 10.627210899037891 378.92368013456871 0 378.92368013456871 338.86310474024503 0 0 0 0 298.14668626182538 377.67112619943509 0 377.67112619943509 98.292059088726091 0 0 0 0 283.18023676892335 249.29732980046538 0 249.29732980046538 123.84869174505002 0 0 0 0 175.06878842516744 418.45315141387982 0 418.45315141387982 87.306613416931214 0 0 0 0 499.2407780242138 464.85736896683375 0 464.85736896683375 -255.52087258164829 0 0 0 0 236.84466861580222 637.79783297042923 0 637.79783297042923 -323.37380032539659 0 0 0 0 137.54635379003594 514.65902390690462 0 514.65902390690462 -117.44410287022765 0 0 0 0 -37.420116608358512 432.3726326442611 0 432.3726326442611 -73.414888841172797 0 0 0 0 -61.642596906982362 446.017459522438 0 446.017459522438 48.734400922228815 0 0 0 0 249.52359911265376 574.94827923714183 0 574.94827923714183 -24.460794111175346 0 0 0 0 -97.416077425215917 441.61647012656977 0 441.61647012656977 138.7626840856974 0 0 0 0 -38.457718020275934 545.16606058605248 0 545.16606058605248 174.84210630734742 0 0 0 0 263.70604162929521 992.43229453334789 0 992.43229453334789 81.971966002303816 0 0 0 0 -38.477751576479641 610.94129106063326 0 610.94129106063326 539.80239098366292 0 0 0 0 -116.82579967741185 461.3880567078304 0 461.3880567078304 447.66706481993606 0 0 0 0 -143.82257341734658 376.76302994917569 0 376.76302994917569 700.18778657598887 0 0 0 0 -173.10979953164497 260.44417390846502 0 260.44417390846502 281.46845626548748 0 0 0 0 -162.50446472896147 346.49249328560836 0 346.49249328560836 107.7097499431693 0 0 0 0 -155.02114151230489 392.17322249835706 0 392.17322249835706 382.14140490366844 0 0 0 0 918.12821999759763 -517.38755859904632 0 -517.38755859904632 509.32028558129241 0 0 0 0 -88.990695234134819 471.31413161477735 0 471.31413161477735 1836.287942262963 0 0 0 0 1468.2835592297197 995.38783517782576 0 995.38783517782576 230.53292514654459 0 0 0 0 -9.9028015520598274 834.76609145173279 0 834.76609145173279 1526.6598732117709 0 0 0 0 127.25303218640329 242.54721925799095 0 242.54721925799095 -171.51346931741864 0 0 0 0 -13.413654096104437 294.66102495953965 0 294.66102495953965 -177.58415357288322 0 0 0 0 -208.89015231685698 -205.34238282206206 0 -205.34238282206206 -328.48467172410164 0 0 0 0 267.44864287199016 504.41762489788016 0 504.41762489788016 -530.55485483705706 0 0 0 0 -11.728374299297172 2.4114437264498036 0 2.4114437264498036 -5.6557489239561392 0 0 0 0 -599.85782690393717 390.05286325366978 0 390.05286325366978 -266.75827088336519 0 0 0 0 726.53796897448046 227.54257258450161 0 227.54257258450161 -92.195205480646109 0 0 0 0 -889.13116705817083 373.99018922177493 0 373.99018922177493 40.124301269876014 0 0 0 0 -6.5741384503708886 9.8406496239455237 0 9.8406496239455237 -0.43977045756179223 0 0 0 0 -48.319029991788909 62.510413405524105 0 62.510413405524105 -66.650612875484086 0 0 0 0 -60.81351185848267 61.035181262259329 0 61.035181262259329 -19.789401320105519 0 0 0 0 -798.16142421057884 370.37933540631639 0 370.37933540631639 -603.55989553735708 0 0 0 0 370.14310032169305 164.78901790043528 0 164.78901790043528 -702.25440287348465 0 0 0 0 -26.636967469075898 183.50174607439112 0 183.50174607439112 36.494930150780419 0 0 0 0 -51.858231142654404 300.45039662013733 0 300.45039662013733 173.1790227932579 0 0 0 0 -91.880103931354824 211.72947729957377 0 211.72947729957377 365.75727407710656 0 0 0 0 93.314286894725228 166.99641337776484 0 166.99641337776484 -109.31099629490927 0 0 0 0 -7.1442941691639135 173.29817131386517 0 173.29817131386517 230.31607207602065 0 0 0 0 32.186004242101312 119.09388076500495 0 119.09388076500495 30.388404716817405 0 0 0 0 0.48921800566000684 53.883004014353652 0 53.883004014353652 -122.9230331553473 0 0 0 0 11.127213223731815 -23.586456585046108 0 -23.586456585046108 -650.94846547278576 0 0 0 0 701.15812069984531 274.11397234153992 0 274.11397234153992 -1157.9827392232983 0 0 0 0 11.551275327801704 5.1493949801224517 0 5.1493949801224517 -734.33649036879069 0 0 0 0 6.3354125723407719 16.915780696182196 0 16.915780696182196 -26.81068044125081 0 0 0 0 -58.437109706661431 36.232576689639245 0 36.232576689639245 -565.55692492361413 0 0 0 0 1.9766128796674707 5.9051226811466222 0 5.9051226811466222 -6.7320555940744953 0 0 0 0 408.53964593468118 -296.30970338502084 0 -296.30970338502084 -1647.2275225392805 0 0 0 0 -51.33612699128571 67.706412880324933 0 67.706412880324933 -620.11477323720464 0 0 0 0 -48.573757908830885 646.42732629468082 0 646.42732629468082 425.80690905034135 0 0 0 0 47.861416371088126 613.0395882272278 0 613.0395882272278 -154.71993687785289 0 0 0 0 96.772097375917497 132.7568881012271 0 132.7568881012271 -420.64422405866208 0 0 0 0 -420.73715977431857 192.24962368917477 0 192.24962368917477 -206.15187467804935 0 0 0 0 -16.240626945668168 128.15263375408384 0 128.15263375408384 -44.551287974646456 0 0 0 0 161.79901852899638 91.854417904505681 0 91.854417904505681 -342.45718661371939 0 0 0 0 -112.12300180806233 111.45568937666349 0 111.45568937666349 -143.74149576107448 0 0 0 0 33.797584437056457 141.60723405497214 0 141.60723405497214 -57.53042425836864 0 0 0 0 126.639568117811 427.33357008799067 0 427.33357008799067 121.07502993154776 0 0 0 0 -77.615826582012232 141.66864915833139 0 141.66864915833139 -8.0401036040857434 0 0 0 0 199.23388905051979 320.89664141352841 0 320.89664141352841 -28.774921279909904 0 0 0 0 101.54054266933235 359.64310495123209 0 359.64310495123209 314.96737505173951 0 0 0 0 56.426945194367363 270.56292777901854 0 270.56292777901854 222.49751584383193 0 0 0 0 42.19326326528244 370.83652830444316 0 370.83652830444316 100.75320525238931 0 0 0 0 313.1470819322567 121.0228473150346 0 121.0228473150346 -217.75102108421561 0 0 0 0 179.92075380595634 416.48358505299984 0 416.48358505299984 239.00864111984265 0 0 0 0 166.43387158494443 262.01131897892628 0 262.01131897892628 318.78042427777109 0 0 0 0 692.65021445710045 634.35864023758927 0 634.35864023758927 227.64934669261856 0 0 0 0 -1327.3188920715475 -180.20801995301736 0 -180.20801995301736 -432.58902462957485 0 0 0 0 -49.832060254731914 184.10620109239971 0 184.10620109239971 1001.1792588090393 0 0 0 0 21.615952432336599 -4.0994159788136528 0 -4.0994159788136528 0.54237014044174714 0 0 0 0 158.58484663200215 554.07356395448005 0 554.07356395448005 785.96189489390235 0 0 0 0 -383.434709226829 -376.20922019554564 0 -376.20922019554564 -740.02445103948776 0 0 0 0 111.69293516186826 52.878359688290402 0 52.878359688290402 71.037341381859733 0 0 0 0 105.8274809311115 -23.821061305570765 0 -23.821061305570765 488.23406207805965 0 0 0 0 -112.76460223829781 688.59836779515172 0 688.59836779515172 -577.56881946390786 0 0 0 0 -41.860953881550813 148.52806760984822 0 148.52806760984822 40.514375990335793 0 0 0 0 598.70673458659439 229.11725644412945 0 229.11725644412945 -414.18447855685372 0 0 0 0 52.013029198498828 34.123148589196056 0 34.123148589196056 -6.7830477445534783 0 0 0 0 -73.184802980802488 59.487638997816248 0 59.487638997816248 55.303857854156377 0 0 0 0 -25.618508846417654 42.922766959569159 0 42.922766959569159 -14.337618479382783 0 0 0 0 93.666149896605077 89.196609653055447 0 89.196609653055447 -46.051362216339953 0 0 0 0 -23.540036761150077 -9.6710857871685221 0 -9.6710857871685221 -18.25230942125927 0 0 0 0 -42.347637735991157 241.68528082181001 0 241.68528082181001 106.12152792321649 0 0 0 0 108.39390462947631 351.83933235100267 0 351.83933235100267 -269.25704307615888 0 0 0 0 -7.6117820632744042 65.299191898985555 0 65.299191898985555 11.072089724439138 0 0 0 0 45.032393889131839 51.238533739823481 0 51.238533739823481 12.987013273007506 0 0 0 0 61.786680849976619 272.28209342258924 0 272.28209342258924 -292.54372506617074 0 0 0 0 10.569654410294895 65.080120492943948 0 65.080120492943948 -4.1959085201823711 0 0 0 0 -7.0931165423518792 26.609107457618592 0 26.609107457618592 2.9195438312831783 0 0 0 0 -84.892358928365866 135.97183500778192 0 135.97183500778192 41.208636824027053 0 0 0 0 50.076026310736779 240.13820771994506 0 240.13820771994506 -279.24515707115461 0 0 0 0 571.41836818035517 -45.093470794679888 0 -45.093470794679888 -215.17092879211123 0 0 0 0 -31.31983142813624 96.56491581156024 0 96.56491581156024 575.24595274237799 0 0 0 0 15.226706187090201 -1.4770334762404609 0 -1.4770334762404609 -8.482868987748077 0 0 0 0 -29.694999684572394 124.49766756675581 0 124.49766756675581 -91.132789163195412 0 0 0 0 -181.66274822034757 64.969025818732916 0 64.969025818732916 120.96735548215293 0 0 0 0 97.629504163634891 133.56831438046618 0 133.56831438046618 10.234175869347496 0 0 0 0 -0.63179882650206309 21.173422167125377 0 21.173422167125377 6.7452167745655629 0 0 0 0 0.42340555737609975 208.63054470598308 0 208.63054470598308 -132.98078065466689 0 0 0 0 106.45494186421638 261.35214589620409 0 261.35214589620409 -12.085118553615757 0 0 0 0 207.3347938668594 248.43176906922599 0 248.43176906922599 -27.451409007439111 0 0 0 0 -34.083570909395348 141.12679095832209 0 141.12679095832209 -97.453894484511693 0 0 0 0 55.600081280080509 129.13338630566014 0 129.13338630566014 -9.3688725332122544 0 0 0 0 -93.66260576894274 278.69303451026644 0 278.69303451026644 367.25329177315143 0 0 0 0 -366.71722980734921 196.00055295292259 0 196.00055295292259 183.69031002218253 0 0 0 0 -13.140788443032307 37.782426018813794 0 37.782426018813794 -1.9588448583644578 0 0 0 0 99.234868716004712 243.13608636259232 0 243.13608636259232 -93.684826296681422 0 0 0 0 -149.14857821820442 176.63596974532084 0 176.63596974532084 232.24854337156285 0 0 0 0 -38.166517384495819 64.856527921587258 0 64.856527921587258 -246.81860363952001 0 0 0 0 755.00929830210225 515.22418380661475 0 515.22418380661475 2.6029023618466454 0 0 0 0 560.79736419944675 247.88905585990142 0 247.88905585990142 -355.42070483331918 0 0 0 0 376.99696069492347 -31.61616229383435 0 -31.61616229383435 -248.81588830117835 0 0 0 0 1037.2436387379421 249.88414370227838 0 249.88414370227838 -366.34957283337644 0 0 0 0 806.4209222169593 -52.289981884656299 0 -52.289981884656299 -269.59533143163935 0 0 0 0 -459.78850723239884 389.61551045507804 0 389.61551045507804 -0.024571045169068384 0 0 0 0 -1132.7873044076623 -18.324463314349487 0 -18.324463314349487 122.39502376661403 0 0 0 0 -3.0575186351600507 9.6923892938213214 0 9.6923892938213214 3.6785332559263679 0 0 0 0 -45.573600841315056 36.607301500326685 0 36.607301500326685 -27.855222844984382 0 0 0 0 6.1541156732188256 10.887986163965735 0 10.887986163965735 -1.0441989557937319 0 0 0 0 -409.97791322374178 189.44466164264304 0 189.44466164264304 538.87629775339155 0 0 0 0 743.83479925144638 353.27685929462859 0 353.27685929462859 -381.91595601644076 0 0 0 0 -42.256706356558425 -2.7663302165346977 0 -2.7663302165346977 255.06739928126262 0 0 0 0 358.31505831627874 457.8738625874048 0 457.8738625874048 -309.30380799185514 0 0 0 0 10.213004630379572 5.8854538580985434 0 5.8854538580985434 -4.9428577981162505 0 0 0 0 -52.089860835712898 63.70606344677617 0 63.70606344677617 -33.651952188629366 0 0 0 0 -160.19382841726474 108.04554182664288 0 108.04554182664288 105.99326040680535 0 0 0 0 -91.47031849938503 320.38576784711131 0 320.38576784711131 -32.09021625297828 0 0 0 0 -57.921290044723719 144.6867642781217 0 144.6867642781217 -42.069239205728081 0 0 0 0 87.279267184087075 130.77816059271572 0 130.77816059271572 -72.115312607724263 0 0 0 0 76.725873486651153 60.692292008212476 0 60.692292008212476 9.8776562635466636 0 0 0 0 12.113372910243925 305.20419580601992 0 305.20419580601992 325.71125057318523 0 0 0 0 420.87508800700834 17.563450681253073 0 17.563450681253073 -78.194427303191333 0 0 0 0 134.35262984196015 163.43867494300048 0 163.43867494300048 -175.66919585621145 0 0 0 0 436.26809659280116 344.29900987240762 0 344.29900987240762 -67.345586071045545 0 0 0 0 262.12152417935431 172.21120078616877 0 172.21120078616877 -222.9221962832562 0 0 0 0 7.6159617554221768 185.9862680868755 0 185.9862680868755 -132.09569347086654 0 0 0 0 166.16955439938465 50.567561110328825 0 50.567561110328825 -23.799093196281319 0 0 0 0 -34.594809475995135 36.559306420787834 0 36.559306420787834 -103.27979785675234 0 0 0 0 53.381216916983249 141.87409854329962 0 141.87409854329962 48.374604422619086 0 0 0 0 38.602765240320878 96.173184660977768 0 96.173184660977768 10.433045240031788 0 0 0 0 137.57822379941354 23.555889648328957 0 23.555889648328957 214.20833666570979 0 0 0 0 305.48863961311872 373.64437440997426 0 373.64437440997426 190.88726299333393 0 0 0 0 7.8466418977332069 235.13267666394677 0 235.13267666394677 36.719292676410987 0 0 0 0 119.80735408153851 133.06335725485769 0 133.06335725485769 -96.936502619581006 0 0 0 0 -201.32063885561365 205.9598994374428 0 205.9598994374428 59.036882280277496 0 0 0 0 44.620329882061114 14.283102551253791 0 14.283102551253791 -5.2824100926825253 0 0 0 0 364.36921154726588 290.63250500807681 0 290.63250500807681 131.0711962585774 0 0 0 0 484.02612462089746 -17.891082080959677 0 -17.891082080959677 -78.612929483206244 0 0 0 0 451.45275378010319 247.80408247500054 0 247.80408247500054 -27.460555599245708 0 0 0 0 195.5676246414414 144.67295474742519 0 144.67295474742519 -16.504456892884974 0 0 0 0 51.277502928056201 26.837044924045813 0 26.837044924045813 -3.7549666928219665 0 0 0 0 -100.13677876314614 120.80606439833718 0 120.80606439833718 -82.385910479579252 0 0 0 0 -94.174870529735927 199.53965025271827 0 199.53965025271827 41.293825381362694 0 0 0 0 -72.093661119346507 129.52527698145786 0 129.52527698145786 97.090696392811878 0 0 0 0 -43.42422510299366 266.87984634353052 0 266.87984634353052 17.214597581667476 0 0 0 0 -30.169514529479784 23.558840272156885 0 23.558840272156885 -155.09385915168423 0 0 0 0 129.45888488105265 304.6618984712768 0 304.6618984712768 16.772540000762888 0 0 0 0 365.37577181888628 66.218149318876385 0 66.218149318876385 -273.69867206245544 0 0 0 0 52.252253240847494 204.17048171880015 0 204.17048171880015 14.683825177737162 0 0 0 0 9.5669880807981826 96.219850392799344 0 96.219850392799344 -107.40213561586643 0 0 0 0 10.870564709941391 120.15537200516155 0 120.15537200516155 -9.6978080957942439 0 0 0 0 43.698534846742405 97.815212842124311 0 97.815212842124311 -154.31424377342228 0 0 0 0 -39.463433412151062 84.083268270620465 0 84.083268270620465 55.096247638441127 0 0 0 0 29.669948396869586 114.84573583941165 0 114.84573583941165 -131.62030383075216 0 0 0 0 -10.34224200002393 93.837867715240549 0 93.837867715240549 -22.964431425453412 0 0 0 0 19.928500068839639 170.31654167203305 0 170.31654167203305 -323.32129340318716 0 0 0 0 104.82170639758493 90.425225663392013 0 90.425225663392013 -47.055224468314705 0 0 0 0 213.56112806517922 110.64856614921496 0 110.64856614921496 -233.56659734306049 0 0 0 0 145.7118126116402 112.4905650483397 0 112.4905650483397 -211.04312434353642 0 0 0 0 70.408895860775374 -10.905813867640973 0 -10.905813867640973 -409.53356919993894 0 0 0 0 27.149758472071746 72.338321034217984 0 72.338321034217984 -24.285994051060175 0 0 0 0 -224.7253987283766 347.68348075103677 0 347.68348075103677 183.21114200355805 0 0 0 0 313.63423137302743 79.727171727954556 0 79.727171727954556 -173.17887744409381 0 0 0 0 322.03382125445933 130.50483215236636 0 130.50483215236636 -133.41923568875063 0 0 0 0 12.832066216097147 41.136615254145653 0 41.136615254145653 29.22556775212206 0 0 0 0 -265.78781057719607 274.21834041990223 0 274.21834041990223 71.578104943993822 0 0 0 0 155.65846831165254 321.17998405105391 0 321.17998405105391 -97.629428185849974 0 0 0 0 -644.52092195788282 162.31472231355656 0 162.31472231355656 319.93644072104871 0 0 0 0 1392.6134220497697 699.25370006909179 0 699.25370006909179 92.597681441468012 0 0 0 0 3.3708199376431338 11.68648641093327 0 11.68648641093327 22.344695702370231 0 0 0 0 -957.95894145799684 372.99548764471365 0 372.99548764471365 -129.41765006066635 0 0 0 0 39.610040683532134 22.958207007024612 0 22.958207007024612 -70.201049328723457 0 0 0 0 503.25606626689842 646.59034876979786 0 646.59034876979786 -687.66054952620925 0 0 0 0 -92.306825312618457 614.25388547174407 0 614.25388547174407 -664.89959874944543 0 0 0 0 398.66083101184631 -442.70897388659978 0 -442.70897388659978 -443.01858699887816 0 0 0 0 -3.7732087350135828 -7.5121145055964575 0 -7.5121145055964575 -22.76761425668019 0 0 0 0 820.4396402570419 17.464022406424192 0 17.464022406424192 -649.18176918083554 0 0 0 0 251.21277938545973 174.13634146933146 0 174.13634146933146 -29.958484562492231 0 0 0 0 269.71268325422716 209.05668888356377 0 209.05668888356377 -378.32032263847213 0 0 0 0 425.76797926067957 488.30961231059518 0 488.30961231059518 -183.57247350128455 0 0 0 0 306.9567404439731 183.29488604021026 0 183.29488604021026 -594.22728120118427 0 0 0 0 228.95159651903668 266.89134773588012 0 266.89134773588012 -100.96843139860721 0 0 0 0 8.7597136628670853 -2.0353833984812582 0 -2.0353833984812582 -72.529299667199524 0 0 0 0 241.01033456786536 147.93809020615299 0 147.93809020615299 -71.013213117636042 0 0 0 0 438.01093742802914 89.350944437170256 0 89.350944437170256 -149.62812739420042 0 0 0 0 248.48505849148205 188.73591612815289 0 188.73591612815289 75.85871280637366 0 0 0 0 360.30137983153691 227.77809334076301 0 227.77809334076301 -44.336159707425395 0 0 0 0 289.32568230405013 -3.6760809035768034 0 -3.6760809035768034 -142.69138121930882 0 0 0 0 229.25216813116276 175.08577907755534 0 175.08577907755534 -96.49305175722111 0 0 0 0 139.70269757879578 219.85802473835065 0 219.85802473835065 -48.572994179674424 0 0 0 0 115.02139158820501 123.79579669993109 0 123.79579669993109 -100.1134362709272 0 0 0 0 139.80985009588767 85.824756295114639 0 85.824756295114639 -170.92690311485785 0 0 0 0 26.698827748768963 218.20463350425416 0 218.20463350425416 -197.93428550637327 0 0 0 0 50.828449314051454 82.476698613591367 0 82.476698613591367 -28.454268109509236 0 0 0 0 31.195676307125666 2.5809604022576593 0 2.5809604022576593 -42.934698570933804 0 0 0 0 144.68385829152248 11.977927805724903 0 11.977927805724903 -119.71357556438306 0 0 0 0 34.029339403284098 54.254524192830196 0 54.254524192830196 -28.725633401959012 0 0 0 0 84.977538672654191 318.8669294027859 0 318.8669294027859 109.3680680795369 0 0 0 0 42.776618448551744 184.01819472132775 0 184.01819472132775 55.529487310795957 0 0 0 0 62.476671979529783 244.30974133899144 0 244.30974133899144 -55.754272544931155 0 0 0 0 58.262307737633819 99.214671188441571 0 99.214671188441571 -162.04986015381292 0 0 0 0 27.082048412106701 9.6228919440084155 0 9.6228919440084155 -37.800777890917402 0 0 0 0 112.29799368874956 224.84648479890711 0 224.84648479890711 -202.00096491423392 0 0 0 0 26.878873086126987 56.327940139606653 0 56.327940139606653 -53.537191241965047 0 0 0 0 56.938883046129718 45.205531523268604 0 45.205531523268604 -19.481736892587783 0 0 0 0 32.635396599078376 114.77321369861463 0 114.77321369861463 -82.36093535377961 0 0 0 0 33.674030074791517 131.5155468946254 0 131.5155468946254 -114.51614754282446 0 0 0 0 120.75824731274304 73.602436550011205 0 73.602436550011205 -19.401752139802525 0 0 0 0 16.152436075557489 105.1476067745316 0 105.1476067745316 -79.573434971387542 0 0 0 0 -160.00272778546787 186.16348798234685 0 186.16348798234685 -7.7181409446566249 0 0 0 0 55.219833479903173 52.658583758925033 0 52.658583758925033 -44.821401433091523 0 0 0 0 17.379448911074867 35.890412232424694 0 35.890412232424694 -37.207196114447264 0 0 0 0 36.858640717495547 43.546123423430458 0 43.546123423430458 -43.56302130762537 0 0 0 0 30.805378205826855 46.776969130199177 0 46.776969130199177 -30.946398681261599 0 0 0 0 -12.618105182236718 36.279565289625424 0 36.279565289625424 -4.4885457012029075 0 0 0 0 12.196462626895027 10.033020313967512 0 10.033020313967512 6.6503269082038798 0 0 0 0 64.033665594281047 28.791267554728506 0 28.791267554728506 5.5117684464512422 0 0 0 0 69.058975659660064 71.916945909174046 0 71.916945909174046 -24.301816015180037 0 0 0 0 -2.8508858136483468 77.17675954209426 0 77.17675954209426 -24.653843353943785 0 0 0 0 -47.347227215999737 21.226538725893533 0 21.226538725893533 -82.716886213243924 0 0 0 0 -15.035739289232879 84.432611445602561 0 84.432611445602561 -8.1154985077610036 0 0 0 0 3.169694638341241 5.556217303280846 0 5.556217303280846 -24.524843434663538 0 0 0 0 30.942006461846177 -69.464254499474919 0 -69.464254499474919 -934.95109702614536 0 0 0 0 -76.880695911473595 195.77348815973528 0 195.77348815973528 -833.81785363031668 0 0 0 0 -21.271525581947003 53.717757243199848 0 53.717757243199848 1.3621426373233652 0 0 0 0 -39.740139500616351 134.32894220079652 0 134.32894220079652 -107.96661730733649 0 0 0 0 44.997655946324812 38.126232058697951 0 38.126232058697951 -64.022100754847088 0 0 0 0 34.333326233972912 45.634561663754994 0 45.634561663754994 -66.428712288441602 0 0 0 0 29.065384305265297 20.875069563094435 0 20.875069563094435 -89.686196719813879 0 0 0 0 100.01874585344922 104.77065770935224 0 104.77065770935224 -364.86074739121977 0 0 0 0 16.268838401924285 20.545042327533849 0 20.545042327533849 -104.39405371666454 0 0 0 0 -6.778991695959121 -11.733285156697093 0 -11.733285156697093 -491.95101941860594 0 0 0 0 335.71593734022463 35.515716017580417 0 35.515716017580417 -389.31812651045038 0 0 0 0 -329.89248200814473 204.01260102596098 0 204.01260102596098 28.353930984143517 0 0 0 0 -153.13066588662332 441.29780862251937 0 441.29780862251937 255.48621590684343 0 0 0 0 185.50179268087959 96.225239001196314 0 96.225239001196314 -442.68369079289869 0 0 0 0 252.5622124496731 598.43923531387554 0 598.43923531387554 -608.42271271942082 0 0 0 0 -74.26041948585771 169.73158156033605 0 169.73158156033605 692.6827428284887 0 0 0 0 -5.2347361452869379 24.661928246487236 0 24.661928246487236 -2.8573981664848418 0 0 0 0 -274.31668543908745 382.767605022118 0 382.767605022118 -394.07820568158058 0 0 0 0 -77.058850855493802 462.49482610485938 0 462.49482610485938 -588.46049533015321 0 0 0 0 -304.55624187437934 951.17922846212605 0 951.17922846212605 -570.54351170071652 0 0 0 0 -58.376991900018766 674.14043112739091 0 674.14043112739091 -1228.3016388369888 0 0 0 0 -1471.3210912759823 1135.3247285177549 0 1135.3247285177549 -1020.4064144888525 0 0 0 0 -213.17087875975994 265.60721706376717 0 265.60721706376717 -425.3179054885486 0 0 0 0 -458.40518882227479 645.62929819104465 0 645.62929819104465 -456.4793222236458 0 0 0 0 -142.20254105683125 890.16782788840101 0 890.16782788840101 -1671.8481653004383 0 0 0 0 -76.723062655320973 799.23193085063576 0 799.23193085063576 -1289.8300609458802 0 0 0 0 6.3963030798186082 281.50050477965124 0 281.50050477965124 -899.9582360923232 0 0 0 0 -110.66024668343016 555.92103290469413 0 555.92103290469413 -1456.5365440376063 0 0 0 0 -164.72658676101128 576.10055386958265 0 576.10055386958265 -1366.9287744117382 0 0 0 0 -19.048345464919521 55.020585602257853 0 55.020585602257853 5.6166300407261138 0 0 0 0 130.2787294107693 179.92335226788259 0 179.92335226788259 -402.34324707844553 0 0 0 0 -38.835468876248342 -8.666822359027492 0 -8.666822359027492 -157.88584198893477 0 0 0 0 9.1525023870344739 113.5067604992937 0 113.5067604992937 -803.81620947381043 0 0 0 0 32.19062536949059 180.36353150231071 0 180.36353150231071 21.787124119690446 0 0 0 0 -124.67607832475915 98.619837922348097 0 98.619837922348097 27.327715689973957 0 0 0 0 -3.5275839475585826 7.7350885625749584 0 7.7350885625749584 -0.62925858594218198 0 0 0 0 -45.460368683754496 69.543696920016487 0 69.543696920016487 -52.787676570094845 0 0 0 0 -30.719604927202454 62.245654572403055 0 62.245654572403055 -59.853652638411631 0 0 0 0 -29.7261691650437 24.9354333907594 0 24.9354333907594 -7.6683923279080322 0 0 0 0 -20.558880492841126 48.963505038176663 0 48.963505038176663 25.781680361246799 0 0 0 0 -10.13596286537981 48.053179405108494 0 48.053179405108494 28.611841721452748 0 0 0 0 -30.966214527230477 64.245179687961354 0 64.245179687961354 39.575029011912193 0 0 0 0 8.5089517275919206 74.862289515450357 0 74.862289515450357 1.1210866650872049 0 0 0 0 -2.9667856690482495 71.383076733775937 0 71.383076733775937 16.227734681281653 0 0 0 0 11.290299781627255 67.359154970549298 0 67.359154970549298 14.273296405801375 0 0 0 0 6.1288343376857597 17.006383777039687 0 17.006383777039687 3.1141979096369425 0 0 0 0 -242.22761562495725 138.18345608737582 0 138.18345608737582 12.102349133681855 0 0 0 0 15.934398484532721 166.31208312855597 0 166.31208312855597 7.9009102986310609 0 0 0 0 47.85169440094262 40.744499205066759 0 40.744499205066759 10.551522485710507 0 0 0 0 14.817306877146166 41.51876859138568 0 41.51876859138568 -9.3851792406671279 0 0 0 0 35.029689348535612 99.060492260182855 0 99.060492260182855 14.721305647633699 0 0 0 0 199.34687084489269 99.294973843974731 0 99.294973843974731 -7.185895052939486 0 0 0 0 -85.46523757489922 66.61497734771433 0 66.61497734771433 57.11448881947581 0 0 0 0 21.865364594572327 42.869783432319394 0 42.869783432319394 -0.29023379105368008 0 0 0 0 22.601225182705718 43.299691413429485 0 43.299691413429485 -16.542747445471647 0 0 0 0 51.012961352418642 99.298388451377832 0 99.298388451377832 41.649882568861358 0 0 0 0 60.411399687640369 149.49708088824991 0 149.49708088824991 10.985882904104074 0 0 0 0 39.818680121849468 60.446046988067906 0 60.446046988067906 41.452366832121648 0 0 0 0 42.496887929766672 79.903413812957297 0 79.903413812957297 39.224838900711575 0 0 0 0 -138.943278887833 110.95584140453775 0 110.95584140453775 -21.723692200765072 0 0 0 0 -46.142973698384594 67.871055426887324 0 67.871055426887324 -7.7914060888579115 0 0 0 0 19.109802214632509 46.176943226873846 0 46.176943226873846 6.5561877845757408 0 0 0 0 -44.433637218506192 65.115577364451383 0 65.115577364451383 -13.557057901009102 0 0 0 0 12.785572387044972 42.995905515738116 0 42.995905515738116 -2.3560368310997006 0 0 0 0 28.598471737040697 58.305256418672457 0 58.305256418672457 -18.367342047667041 0 0 0 0 18.181935354512873 21.824460868956919 0 21.824460868956919 -5.6783414732481248 0 0 0 0 -56.088390096333001 33.593815041265941 0 33.593815041265941 6.9870866316693991 0 0 0 0 9.954867067674499 70.731690023290469 0 70.731690023290469 -8.5162611017687482 0 0 0 0 -4.7931623443388176 18.894075370850544 0 18.894075370850544 -11.323146898512874 0 0 0 0 -24.97824716156174 57.838720316804029 0 57.838720316804029 -9.0004371127215563 0 0 0 0 -85.698404168142588 35.740876194962766 0 35.740876194962766 1.6338478392572142 0 0 0 0 -25.278874293559056 59.089403730991762 0 59.089403730991762 -11.888616606680444 0 0 0 0 -19.515195879205748 49.281217498989776 0 49.281217498989776 -7.997687966327149 0 0 0 0 -46.341165224846918 42.898916714544612 0 42.898916714544612 -8.2669329802592983 0 0 0 0 -44.215807407155523 48.593521908001122 0 48.593521908001122 -16.436225893684821 0 0 0 0 10.073450293352408 38.223332373963785 0 38.223332373963785 1.9869307367980582 0 0 0 0 18.523888180003524 72.974671409259969 0 72.974671409259969 -12.810083161606158 0 0 0 0 5.9319171000388451 112.86086120267282 0 112.86086120267282 53.932580107837566 0 0 0 0 13.084005167591386 131.17469794273347 0 131.17469794273347 -404.05310808023933 0 0 0 0 -43.101700517348945 118.13886701024603 0 118.13886701024603 45.860682275095314 0 0 0 0 8.8862941338523456 13.249668097340049 0 13.249668097340049 12.974316929965575 0 0 0 0 54.168047646991909 158.11534552354715 0 158.11534552354715 6.8264320190937724 0 0 0 0 263.9740987647674 -186.50245925792115 0 -186.50245925792115 -177.87729739609495 0 0 0 0 -4.8793678378383447 11.042642322827135 0 11.042642322827135 -10.128583261687993 0 0 0 0 353.37416153250524 464.96434961244859 0 464.96434961244859 -106.75894242622599 0 0 0 0 -58.492688535829075 415.46774453502439 0 415.46774453502439 115.23496500306646 0 0 0 0 316.30851375640486 55.728811011966172 0 55.728811011966172 -96.83973642053752 0 0 0 0 0.044877497294457669 13.942447404421472 0 13.942447404421472 -2.8133585210555054 0 0 0 0 255.71490716835979 -105.77974442697086 0 -105.77974442697086 -98.127651958609931 0 0 0 0 312.43695546906383 90.626174204438939 0 90.626174204438939 -54.115058571092959 0 0 0 0 -10.353925180399813 55.996168365897063 0 55.996168365897063 -4.28082143091342 0 0 0 0 8.8573420968459686 75.317611207632581 0 75.317611207632581 10.627188205173297 0 0 0 0 -317.53001503283303 100.29135071831115 0 100.29135071831115 0.38267734574037604 0 0 0 0 -251.60858706480212 161.85514914810028 0 161.85514914810028 -14.152324580863933 0 0 0 0 -94.826197097136173 21.494970922507491 0 21.494970922507491 -5.8911430721054785 0 0 0 0 -13.096005270014942 2.3543849006302935 0 2.3543849006302935 6.3241894454057501 0 0 0 0 -11.938374066105027 69.111854692935907 0 69.111854692935907 1.8509417272525752 0 0 0 0 -349.01746728076978 44.904104319504768 0 44.904104319504768 -47.623189370598993 0 0 0 0 -17.470284933893709 52.349139516361902 0 52.349139516361902 6.1890963293917594 0 0 0 0 -654.20812612504233 73.532924275292316 0 73.532924275292316 -9.8958458073266229 0 0 0 0 256.83054254347985 158.85094261051535 0 158.85094261051535 -1.3329334840309457 0 0 0 0 254.03825219353894 23.616474452126567 0 23.616474452126567 45.914532281458378 0 0 0 0 -0.86348043807157637 5.3493622646782626 0 5.3493622646782626 0.96750461091815509 0 0 0 0 740.72302800781472 53.915349117300138 0 53.915349117300138 -49.74747543882404 0 0 0 0 411.24320546487434 65.123294495730079 0 65.123294495730079 29.731456700566923 0 0 0 0 48.361660064867465 171.49385563978285 0 171.49385563978285 -15.797503027200946 0 0 0 0 51.948538244439987 122.01740711090315 0 122.01740711090315 121.43222286707896 0 0 0 0 -59.965567941893823 175.8438251798998 0 175.8438251798998 51.183943834501406 0 0 0 0 -85.51120378109772 186.08471882486356 0 186.08471882486356 147.02709468350804 0 0 0 0 40.801720296338317 93.814833686696602 0 93.814833686696602 9.3685116756025479 0 0 0 0 -27.122609068051077 13.968969134809782 0 13.968969134809782 3.8388697003629204 0 0 0 0 24.217108609882416 173.7654895882406 0 173.7654895882406 -28.169778424687138 0 0 0 0 -79.594282186306373 60.173633455594882 0 60.173633455594882 4.9923229123160127 0 0 0 0 31.538575010278407 62.592502498683956 0 62.592502498683956 5.1619661001018784 0 0 0 0 -19.714111007837346 75.497477517794323 0 75.497477517794323 -9.8244697780646675 0 0 0 0 20.757250636050969 55.293993584251552 0 55.293993584251552 -12.085617771998201 0 0 0 0 28.058562588965287 135.82808577501783 0 135.82808577501783 -62.515725648292573 0 0 0 0 35.541744135902263 161.5355639764166 0 161.5355639764166 -254.66138399960619 0 0 0 0 -90.582553241096321 173.54595252724175 0 173.54595252724175 -37.55084707178321 0 0 0 0 27.458412577834679 80.335375324444612 0 80.335375324444612 4.9877601488551591 0 0 0 0 29.533920181449503 183.2029323657116 0 183.2029323657116 -72.251199402264319 0 0 0 0 -43.278882052851259 122.7157732511896 0 122.7157732511896 176.25683274516268 0 0 0 0 -23.489645852707326 155.58184620768043 0 155.58184620768043 45.415642948035384 0 0 0 0 25.452092822699342 212.91439499771877 0 212.91439499771877 88.472812979140144 0 0 0 0 -36.284665585670155 188.54397689976395 0 188.54397689976395 117.86946121104484 0 0 0 0 34.342413114733063 135.93638862832813 0 135.93638862832813 -28.094040072188363 0 0 0 0 -32.796788268788077 194.38330658003133 0 194.38330658003133 6.7233756892237579 0 0 0 0 -122.07360644076834 127.11568909486959 0 127.11568909486959 151.62902090933494 0 0 0 0 -148.31642705138074 252.10896632560434 0 252.10896632560434 61.843701644917019 0 0 0 0 -153.41538957427838 164.03858748036146 0 164.03858748036146 199.2038386242948 0 0 0 0 -150.07838653959334 221.7162634622764 0 221.7162634622764 126.11028665324193 0 0 0 0 -93.273571332015308 149.8071274929323 0 149.8071274929323 231.2141449642877 0 0 0 0 -85.580993396171834 60.985441483599061 0 60.985441483599061 292.13221166616313 0 0 0 0 -94.487288626027294 -0.77201407101529185 0 -0.77201407101529185 208.10152537728391 0 0 0 0 -65.302301090734545 148.16369494322862 0 148.16369494322862 18.53817989415802 0 0 0 0 -44.806136730677736 32.828597851925394 0 32.828597851925394 -12.367663032201861 0 0 0 0 -5.0671807189355604 33.822206419310533 0 33.822206419310533 147.17038819387017 0 0 0 0 -99.453859965149604 181.87117892185529 0 181.87117892185529 -0.2651488088977203 0 0 0 0 -146.9583164966898 -20.915370123346293 0 -20.915370123346293 78.531520720709523 0 0 0 0 -71.723696636676323 35.340472735118965 0 35.340472735118965 120.37210859011066 0 0 0 0 -52.383515254118265 32.869640485358332 0 32.869640485358332 -13.083627659781488 0 0 0 0 -30.840480689294054 57.789861253460003 0 57.789861253460003 55.781595879623637 0 0 0 0 -53.715269316962463 43.185469950803039 0 43.185469950803039 -8.2986633601689626 0 0 0 0 -20.124582099204417 140.4841052292395 0 140.4841052292395 78.682274818193036 0 0 0 0 -20.694067064585397 45.943902666431313 0 45.943902666431313 42.774073108138509 0 0 0 0 -33.372566784019 31.45403054503231 0 31.45403054503231 41.830476513179747 0 0 0 0 -19.480155357548483 11.344437966625748 0 11.344437966625748 -7.5415319363216291 0 0 0 0 -22.771097197386553 129.0807351850508 0 129.0807351850508 -296.06806253886953 0 0 0 0 -20.260941452768748 -26.810037778771175 0 -26.810037778771175 -9.5595449533957435 0 0 0 0 -8.5638518301711883 31.710984999498578 0 31.710984999498578 40.050530537615941 0 0 0 0 -16.582179360283021 50.193501943909887 0 50.193501943909887 3.6715168427534213 0 0 0 0 -151.69795323011931 166.2607201225469 0 166.2607201225469 -154.0365975765053 0 0 0 0 -53.734031331274309 704.75244691146736 0 704.75244691146736 -2321.2514439308379 0 0 0 0 -126.48472799112642 627.76292144085483 0 627.76292144085483 -1958.4063432753919 0 0 0 0 -33.62315199348086 1133.9324269927756 0 1133.9324269927756 -3100.5851521756904 0 0 0 0 82.480977150524268 1079.8759610874508 0 1079.8759610874508 -3335.3739758998654 0 0 0 0 -94.605932029371615 1058.4054532367063 0 1058.4054532367063 -2308.7239985382635 0 0 0 0 173.29961944370007 612.49131596282223 0 612.49131596282223 -3401.6010218348547 0 0 0 0 -57.135562403942458 613.59030710102707 0 613.59030710102707 -2842.2199077431751 0 0 0 0 50.140096864837687 766.37240848925831 0 766.37240848925831 -3218.036299154337 0 0 0 0 122.34039744758047 741.06721776054746 0 741.06721776054746 -4002.8142024625849 0 0 0 0 -74.811997013752261 571.14690859980965 0 571.14690859980965 -3339.2460990971331 0 0 0 0 156.06624828180065 466.74639580275925 0 466.74639580275925 -418.43457085294949 0 0 0 0 -244.4771344767214 312.97615972452923 0 312.97615972452923 -2536.5072462889002 0 0 0 0 531.23648317715561 54.49283971585055 0 54.49283971585055 -211.65839976731513 0 0 0 0 -6.0988999812003613 3.3959063215130811 0 3.3959063215130811 -2.7925116950266151 0 0 0 0 -7.6755072187386304 41.85079985478805 0 41.85079985478805 1.7611988853747071 0 0 0 0 -1283.6043856866891 65.323766392433754 0 65.323766392433754 -214.90628701873629 0 0 0 0 793.25228400036576 -550.82734218162204 0 -550.82734218162204 -1063.8070333784563 0 0 0 0 -331.97141868609469 -62.290773159021228 0 -62.290773159021228 -2.0125639474563286 0 0 0 0 -642.81443061483151 419.41790408057341 0 419.41790408057341 -72.407105148362461 0 0 0 0 0.29023180843796581 197.81025831050101 0 197.81025831050101 -1.7602808876663403 0 0 0 0 160.10427121497924 146.75112594344137 0 146.75112594344137 -115.20374325987905 0 0 0 0 -27.420621502962604 284.4028968843063 0 284.4028968843063 -181.19987433546157 0 0 0 0 84.884426086733583 300.61889807696753 0 300.61889807696753 -403.89386386595652 0 0 0 0 5.0504018661449663 255.58553026371555 0 255.58553026371555 -64.510917905501628 0 0 0 0 -30.962349949288182 178.29234064730917 0 178.29234064730917 -96.879832581140363 0 0 0 0 208.91830968437716 46.38847227885708 0 46.38847227885708 -30.195805696458592 0 0 0 0 85.165352905984037 260.00554046946309 0 260.00554046946309 -266.46707483940008 0 0 0 0 -48.094944416894577 192.91817383913985 0 192.91817383913985 73.3435217084334 0 0 0 0 26.34360608732095 61.15883205938735 0 61.15883205938735 124.65705114439697 0 0 0 0 -15.478249213541858 -10.409064829004819 0 -10.409064829004819 96.562213499735662 0 0 0 0 -4.7905369284029575 2.3553747310141659 0 2.3553747310141659 -2.911193023472844 0 0 0 0 -78.552442117951614 -280.62253593832259 0 -280.62253593832259 -593.91818926424457 0 0 0 0 19.378133900347166 826.91533239316004 0 826.91533239316004 -5760.8874344284777 0 0 0 0 -206.77733867807547 314.23168072068438 0 314.23168072068438 -970.21718930822681 0 0 0 0 438.26657493837411 418.30122196674165 0 418.30122196674165 -6037.3118458210738 0 0 0 0 0.82820381865576564 -6.622473040522916 0 -6.622473040522916 -6.5082664298967083 0 0 0 0 20.213942458620295 15.858840359576789 0 15.858840359576789 -6.9981484868640109 0 0 0 0 8.9066882056413306 34.990848632395327 0 34.990848632395327 4.2898109710632317 0 0 0 0 104.14035677438369 -27.165793462958391 0 -27.165793462958391 12.674410875868261 0 0 0 0 480.6391705138376 -816.47204234946912 0 -816.47204234946912 -1487.5998948570896 0 0 0 0 76.365630967484321 -357.67723781707355 0 -357.67723781707355 -4149.9859328101775 0 0 0 0 270.47022796289821 -366.27468889622469 0 -366.27468889622469 -5339.4311073707067 0 0 0 0 59.085847058100626 365.86167101332467 0 365.86167101332467 -3809.0334087988558 0 0 0 0 18.074713354348205 809.85943642508028 0 809.85943642508028 -3784.7649098148067 0 0 0 0 18.02969391917577 998.02918290014713 0 998.02918290014713 -4156.6920156487213 0 0 0 0 157.09619318996556 810.74605947077634 0 810.74605947077634 -4751.6520760554758 0 0 0 0 159.50526087518665 260.36456046742433 0 260.36456046742433 -5216.1999501783939 0 0 0 0 180.51841541787144 563.79400732575505 0 563.79400732575505 -4743.1778508212883 0 0 0 0 248.22028131622938 594.16750925229053 0 594.16750925229053 -5709.717847361142 0 0 0 0 -1.7341740041156299 898.3949974603911 0 898.3949974603911 -4999.4314344691502 0 0 0 0 -517.29651918815216 825.55566465329753 0 825.55566465329753 -5561.1793854851139 0 0 0 0 54.216778856818564 834.13387240104203 0 834.13387240104203 -5619.8700397651373 0 0 0 0 88.867799360261415 1125.2730692960172 0 1125.2730692960172 -4954.2228071363725 0 0 0 0 -380.66269284213195 853.91000402528744 0 853.91000402528744 -4961.479017246982 0 0 0 0 68.741774558846373 909.63876733033794 0 909.63876733033794 -5019.9025210689124 0 0 0 0 -163.99388689995976 1089.0852609308859 0 1089.0852609308859 -3756.1434207715338 0 0 0 0 211.79198252022616 1479.7894759335895 0 1479.7894759335895 -3650.4361819693631 0 0 0 0 -62.752855261176592 1340.256994959313 0 1340.256994959313 -4148.9614177834574 0 0 0 0 194.85728256261791 1343.5094103438087 0 1343.5094103438087 -3763.2138566771596 0 0 0 0 155.75445181407849 1051.8425396593839 0 1051.8425396593839 -4184.6030257050916 0 0 0 0 26.818078433570918 718.22298972044177 0 718.22298972044177 -4794.9183204160654 0 0 0 0 -138.86564587868634 1426.6206718484066 0 1426.6206718484066 -4008.4844780179619 0 0 0 0 -264.47916681686183 735.07729347972372 0 735.07729347972372 -4705.3418713986784 0 0 0 0 -504.95439637242816 1014.5369214858517 0 1014.5369214858517 -4918.5511700939696 0 0 0 0 -893.10475895565469 291.41834279629234 0 291.41834279629234 -5716.9938171321492 0 0 0 0 -215.76469038511277 847.20994415099756 0 847.20994415099756 -5830.8496567022557 0 0 0 0 -282.57006558356807 -192.88616526634814 0 -192.88616526634814 -6951.0535158219564 0 0 0 0 3.73291911657725 915.47015475959574 0 915.47015475959574 -6357.6898428645163 0 0 0 0 -218.82366349353106 954.77071913026521 0 954.77071913026521 -4895.4388232826377 0 0 0 0 -0.54841801572183613 1509.0735864498192 0 1509.0735864498192 -6635.8922439138123 0 0 0 0 677.78794430595008 540.2473674428652 0 540.2473674428652 -7729.0608280944725 0 0 0 0 -28.166712251084391 44.272463252641501 0 44.272463252641501 -380.69330166231612 0 0 0 0 -6.5243927132036106 -26.611588283480408 0 -26.611588283480408 -8.3631934159612662 0 0 0 0 12.201336044253253 39.800425411613475 0 39.800425411613475 -19.956036681532204 0 0 0 0 -21.137757638935 2547.6148152018723 0 2547.6148152018723 1508.1449296268038 0 0 0 0 0.072086974221747369 51.724011869864626 0 51.724011869864626 -80.007820534265193 0 0 0 0 4.0379288199889061 1.7776747578823642 0 1.7776747578823642 -27.79257648056543 0 0 0 0 128.06819435209036 -168.25148912487202 0 -168.25148912487202 -507.99094157681884 0 0 0 0 24.489464394019933 33.945513448273928 0 33.945513448273928 -6.9843522515198355 0 0 0 0 59.080030409968458 74.450590905383251 0 74.450590905383251 0.4628995285684141 0 0 0 0 -17.266738630849318 24.648458401335404 0 24.648458401335404 -10.177930656939727 0 0 0 0 -10.529447859671677 12.218824566683594 0 12.218824566683594 -1.0652090677218098 0 0 0 0 -8.9466690768313129 -79.218906557101946 0 -79.218906557101946 -330.46248317241589 0 0 0 0 -11.170690786908381 -55.106090547576969 0 -55.106090547576969 -299.07238247686473 0 0 0 0 -57.623587225680239 -75.951069571525295 0 -75.951069571525295 -300.97361179148766 0 0 0 0 16.099834969310905 -64.036345778659779 0 -64.036345778659779 -323.8581115788129 0 0 0 0 -139.14078044894268 -429.83067504335031 0 -429.83067504335031 -603.85448710542551 0 0 0 0 0.0062101827153846897 8.160746495034978 0 8.160746495034978 4.9639874999556923 0 0 0 0 -1.7744723151920425 7.9060940973623133 0 7.9060940973623133 -5.8027322822133698 0 0 0 0 -1.2244730669328874 -1.5130712493403706 0 -1.5130712493403706 9.63204703488924 0 0 0 0 -118.09405806232826 55.996825102540242 0 55.996825102540242 52.691844488766947 0 0 0 0 -15.152674919117999 -52.450657792828679 0 -52.450657792828679 -57.706633800145937 0 0 0 0 -3.5094560631712284 1.7890104001141935 0 1.7890104001141935 25.951105268946989 0 0 0 0 0.086817937350133434 -2.002055942761217 0 -2.002055942761217 -10.698676182773852 0 0 0 0 -88.890939140779665 86.339104431586748 0 86.339104431586748 50.133380890256376 0 0 0 0 210.52736497738806 274.63243268790211 0 274.63243268790211 607.74530919321114 0 0 0 0 -0.98963497733330996 1.0735517154134868 0 1.0735517154134868 9.9352061133634351 0 0 0 0 194.28011925000465 166.97493766995467 0 166.97493766995467 -0.12196202638460818 0 0 0 0 -7.6884502082830295 103.73507341726145 0 103.73507341726145 48.263682656426681 0 0 0 0 -13.175002300442429 -264.76264069573153 0 -264.76264069573153 317.76041352780703 0 0 0 0 51.028692188920104 71.613057615568323 0 71.613057615568323 6.4679820164637931 0 0 0 0 -58.173994635697454 44.19427949618148 0 44.19427949618148 18.010848671805434 0 0 0 0 7.8397286128019914 52.140425449275426 0 52.140425449275426 16.686872277929069 0 0 0 0 32.724395228558933 -44.076845635466611 0 -44.076845635466611 110.34223447395198 0 0 0 0 -32.879342592893522 29.929134723920697 0 29.929134723920697 -12.579908137691721 0 0 0 0 -301.30820566706825 362.31274504352405 0 362.31274504352405 -716.13126676075899 0 0 0 0 353.99638538615545 301.81089068826259 0 301.81089068826259 -1648.5911949235597 0 0 0 0 361.83681069564773 -102.54653750118996 0 -102.54653750118996 -200.08973689936647 0 0 0 0 -167.51504580606706 369.50665115203992 0 369.50665115203992 -139.65696978592314 0 0 0 0 -81.95707607933582 -49.768805203158081 0 -49.768805203158081 354.11025863961186 0 0 0 0 98.058296006289311 180.75472685829664 0 180.75472685829664 355.42902366216731 0 0 0 0 5.2017895569273378 1.6046961269159254 0 1.6046961269159254 -0.41895538493976403 0 0 0 0 -286.60785917469184 -24.677259368667364 0 -24.677259368667364 653.34405157310175 0 0 0 0 -1.7059423628161312 187.91833022242008 0 187.91833022242008 -125.59068330157606 0 0 0 0 27.071343618299579 280.46873202312781 0 280.46873202312781 111.95043694623382 0 0 0 0 -168.55968745113569 136.15942770443598 0 136.15942770443598 507.59399494657191 0 0 0 0 -96.90218419971643 122.28466533027313 0 122.28466533027313 58.18074815156433 0 0 0 0 -89.569266907667043 102.22313360918997 0 102.22313360918997 1.1952169042051537 0 0 0 0 -32.460803797730478 66.320299117305694 0 66.320299117305694 25.853186658336654 0 0 0 0 -18.147981983507634 15.353537071445317 0 15.353537071445317 -116.8721660691881 0 0 0 0 -123.49524316351744 3.0397409483739466 0 3.0397409483739466 69.398105893067623 0 0 0 0 637.06755902915029 -226.67353206466578 0 -226.67353206466578 -385.56795292301956 0 0 0 0 356.31167494988767 408.35466971260394 0 408.35466971260394 -409.20989746620762 0 0 0 0 6.1487070844589198 1.4666911591378664 0 1.4666911591378664 -1.784902872581867 0 0 0 0 -0.52509059278236236 226.41924463804571 0 226.41924463804571 93.09559320785047 0 0 0 0 0.16911623441671894 136.07267973202849 0 136.07267973202849 700.07620716416568 0 0 0 0 216.74898218095768 -318.80787318159491 0 -318.80787318159491 772.20808927944745 0 0 0 0 -13.994258671475109 202.58028466494579 0 202.58028466494579 1029.4523838209625 0 0 0 0 -341.0515034616692 -117.96508022929356 0 -117.96508022929356 1084.3242977005939 0 0 0 0 -388.8578705290056 638.26480280383475 0 638.26480280383475 -522.44407764646166 0 0 0 0 -62.900498263334157 363.34589863072324 0 363.34589863072324 -705.81546473474009 0 0 0 0 -84.282292051684635 143.03558217493628 0 143.03558217493628 222.82931876140356 0 0 0 0 -294.97489573511484 459.43807829696743 0 459.43807829696743 -508.14091119397199 0 0 0 0 -0.53363912156322613 3.2131752446998405 0 3.2131752446998405 4.1939784457828759 0 0 0 0 -208.02371483946627 365.56734368555772 0 365.56734368555772 -150.75034591033182 0 0 0 0 -77.313287058932474 194.10808995450498 0 194.10808995450498 307.16007118036032 0 0 0 0 -58.731134364381433 107.19647856026131 0 107.19647856026131 -33.975912450943724 0 0 0 0 86.523626620211871 24.498699216608657 0 24.498699216608657 -2.2865076256275643 0 0 0 0 -19.284211488598231 14.491585835804045 0 14.491585835804045 10.925513385858814 0 0 0 0 -229.35501156649843 43.76861829336849 0 43.76861829336849 -57.088736971560138 0 0 0 0 -150.71665791459964 600.16905028639303 0 600.16905028639303 -64.849123497697292 0 0 0 0 -47.660182914944016 248.358029529737 0 248.358029529737 -1409.0712234578386 0 0 0 0 -15.876060473223333 23.378554850736691 0 23.378554850736691 -418.1934661125124 0 0 0 0 969.32912014612521 -45.218609916177229 0 -45.218609916177229 -332.56064830053947 0 0 0 0 -10.857755152972913 -1.44809911493698 0 -1.44809911493698 -2.0001046063892503 0 0 0 0 -559.60222324903589 334.42974602116738 0 334.42974602116738 1296.2952117836248 0 0 0 0 -118.91941361391946 810.47095000538684 0 810.47095000538684 -2103.9054656846711 0 0 0 0 435.39123623794148 -403.298081222365 0 -403.298081222365 445.31068152429361 0 0 0 0 -1045.0426238681976 1556.6553288335272 0 1556.6553288335272 -1445.9307044729794 0 0 0 0 -1600.7570614108554 1457.3982846597355 0 1457.3982846597355 -69.382905593534815 0 0 0 0 -771.5128326308768 1038.3747165363238 0 1038.3747165363238 643.78707872769155 0 0 0 0 -1298.3570249348122 1850.9917981553372 0 1850.9917981553372 -608.56571906240424 0 0 0 0 -848.5845524345641 808.82336650226353 0 808.82336650226353 -1011.1357939746667 0 0 0 0 -1855.7103984726855 817.45375315924684 0 817.45375315924684 -223.28450424873154 0 0 0 0 -568.92886449165235 391.83628327817132 0 391.83628327817132 -423.06990522622073 0 0 0 0 -1199.9874280831282 926.16326061714062 0 926.16326061714062 -375.7966522724746 0 0 0 0 -384.02839665713691 687.1694622334544 0 687.1694622334544 -618.92867376588765 0 0 0 0 -573.19883011898492 872.02107114266255 0 872.02107114266255 -765.15954827960377 0 0 0 0 -542.8677878115268 762.54283226496045 0 762.54283226496045 -936.39956490348413 0 0 0 0 -371.32570163068158 460.72059810108294 0 460.72059810108294 -150.05062796636048 0 0 0 0 -669.22837745682045 729.32419456263779 0 729.32419456263779 -288.25101738615194 0 0 0 0 -669.53308802689571 537.60386751890837 0 537.60386751890837 56.666447712828813 0 0 0 0 -550.19304908743652 520.97003519349164 0 520.97003519349164 -283.9410419422893 0 0 0 0 -459.86611596877628 322.4888170862796 0 322.4888170862796 17.183497063248069 0 0 0 0 -187.04479501982132 527.11293078781819 0 527.11293078781819 32.965852446301142 0 0 0 0 -567.22779498997261 422.78445272716817 0 422.78445272716817 87.648570092002046 0 0 0 0 -411.82083171473096 606.41937861900897 0 606.41937861900897 -666.63165999016928 0 0 0 0 -421.1666774801779 729.12514461787214 0 729.12514461787214 -327.46542646822661 0 0 0 0 -290.31471334140224 502.37504651265408 0 502.37504651265408 -335.22652655689308 0 0 0 0 -429.39098628166721 727.68477136350748 0 727.68477136350748 72.519794015926891 0 0 0 0 -8.3438542448433282 6.890126314571674 0 6.890126314571674 -4.4991157494290022 0 0 0 0 -253.23138420184841 -475.45577537074132 0 -475.45577537074132 -2575.7774200766144 0 0 0 0 -1840.8575530616217 -420.10148700550053 0 -420.10148700550053 2490.1594082140364 0 0 0 0 -778.23173906038573 102.19482723034889 0 102.19482723034889 -905.53271043168206 0 0 0 0 -153.56403570948169 153.83402977016522 0 153.83402977016522 -1164.737659867169 0 0 0 0 275.0583577954676 312.86330225208803 0 312.86330225208803 -1076.5419755136136 0 0 0 0 295.87001168797724 507.96503792669682 0 507.96503792669682 -455.12892126303996 0 0 0 0 950.34148155156799 147.96872794488991 0 147.96872794488991 -472.58324246510165 0 0 0 0 312.84255955016124 -128.51797023592371 0 -128.51797023592371 -497.55095348707982 0 0 0 0 100.11348013627867 31.892523532906125 0 31.892523532906125 -614.41388089944667 0 0 0 0 -77.48798120074207 228.49890907000736 0 228.49890907000736 -1749.7899592010217 0 0 0 0 60.623438112175791 -236.01223809948715 0 -236.01223809948715 -912.08055222284747 0 0 0 0 570.58244057940465 1667.7426238865082 0 1667.7426238865082 1038.7855076599008 0 0 0 0 -26.01939624537772 355.01731503974588 0 355.01731503974588 1116.9818286878799 0 0 0 0 475.43993878850597 -1251.3500823014911 0 -1251.3500823014911 -2073.0528819421479 0 0 0 0 -3.6269909117216628 22.738615797617229 0 22.738615797617229 -15.697474070794584 0 0 0 0 96.369462534377817 -1934.9243675475082 0 -1934.9243675475082 -725.50224412031048 0 0 0 0 90.199576204220648 -279.20857931883074 0 -279.20857931883074 728.72792267045588 0 0 0 0 775.02417559514288 585.14009152452491 0 585.14009152452491 265.66825193745171 0 0 0 0 151.03370166363311 -576.81611764931949 0 -576.81611764931949 -1238.2797329820314 0 0 0 0 -365.80669605553703 351.49652481281373 0 351.49652481281373 -156.32703000897891 0 0 0 0 -535.72179981881345 -294.04286508108089 0 -294.04286508108089 -213.68217195123725 0 0 0 0 10.666431448083742 4.8485039799471252 0 4.8485039799471252 -24.025692363186351 0 0 0 0 2368.8230026629462 1224.6573098669251 0 1224.6573098669251 -1913.5800931764679 0 0 0 0 -16.277114411114383 38.398513978543946 0 38.398513978543946 19.804301988621624 0 0 0 0 -220.83293139383022 222.85478300334944 0 222.85478300334944 -207.99574690015288 0 0 0 0 23.637118505779654 80.977064259161125 0 80.977064259161125 -34.527800956630017 0 0 0 0 145.3651153537503 243.61187885926483 0 243.61187885926483 -539.74701262754388 0 0 0 0 -511.57378783836612 477.20451489704283 0 477.20451489704283 -340.60691921955731 0 0 0 0 0.18455155018975233 15.745129019129564 0 15.745129019129564 -5.0771123807294885 0 0 0 0 280.99277117209567 509.5517159904266 0 509.5517159904266 766.21865478422114 0 0 0 0 -5.0903145569921335 5.4069525118149073 0 5.4069525118149073 3.0579376935587277 0 0 0 0 974.69974821219512 263.93378386264521 0 263.93378386264521 -143.09028682934149 0 0 0 0 533.57873280566128 489.74440269369734 0 489.74440269369734 482.88677836708666 0 0 0 0 1950.7108970854606 -324.98145679301524 0 -324.98145679301524 136.62208096725226 0 0 0 0 -474.83528080859105 -2034.1588709308271 0 -2034.1588709308271 1480.1882624942336 0 0 0 0 497.91587290461757 -149.87007889714005 0 -149.87007889714005 482.0649936706177 0 0 0 0 552.03263108193642 301.08350896008005 0 301.08350896008005 -37.509893318754621 0 0 0 0 388.85249620311697 1883.0452981064 0 1883.0452981064 -937.41015244016307 0 0 0 0 -1.1596210359359134 34.35711519607176 0 34.35711519607176 -26.212780393331542 0 0 0 0 109.24757527721522 425.15554932915984 0 425.15554932915984 396.9089606605412 0 0 0 0 575.48005140970781 372.58743848699305 0 372.58743848699305 -1600.0511537495622 0 0 0 0 -88.005685075986548 488.75175444249908 0 488.75175444249908 -765.05943922195002 0 0 0 0 209.21351631051948 -28.271250018813589 0 -28.271250018813589 -388.8398999144265 0 0 0 0 198.88632950693136 95.218120026205725 0 95.218120026205725 -885.30975779742585 0 0 0 0 -242.88935176870655 -290.23775198919429 0 -290.23775198919429 194.54317844233447 0 0 0 0 -25.046435043717793 -59.391806107465527 0 -59.391806107465527 -171.58116445882479 0 0 0 0 -66.780495467355649 134.03408437901817 0 134.03408437901817 61.439645625650883 0 0 0 0 73.679177612483954 71.133909294292749 0 71.133909294292749 4.9006667523073117 0 0 0 0 428.16486447922944 288.56290922070548 0 288.56290922070548 -543.31035230432462 0 0 0 0 74.288677185950291 217.0052671229696 0 217.0052671229696 -118.02615338109899 0 0 0 0 198.72231841347821 599.50148818799062 0 599.50148818799062 -146.38252040199222 0 0 0 0 -175.04481636158016 338.41562369191524 0 338.41562369191524 174.62184513882676 0 0 0 0 -31.495378773361153 178.52952911827015 0 178.52952911827015 302.6047544769317 0 0 0 0 -8.6971465918395552 92.060346282654791 0 92.060346282654791 263.27496400525706 0 0 0 0 69.1440623313174 64.014811175460636 0 64.014811175460636 39.906680099118603 0 0 0 0 18.255485126143469 38.82096068671224 0 38.82096068671224 -10.903679885795153 0 0 0 0 34.964940787347587 44.22708495120969 0 44.22708495120969 155.06076108396519 0 0 0 0 18.765763155723107 235.69433472475794 0 235.69433472475794 83.054350850572519 0 0 0 0 -39.461027304154413 235.71441262228473 0 235.71441262228473 231.41661170555744 0 0 0 0 95.919699582183966 173.32318085925363 0 173.32318085925363 258.47850580816157 0 0 0 0 30.726050967816263 260.63706636999268 0 260.63706636999268 239.71720543262199 0 0 0 0 95.743989951632102 195.30839358613594 0 195.30839358613594 276.43482271264656 0 0 0 0 69.164238608871528 164.84167969313057 0 164.84167969313057 247.21443372551585 0 0 0 0 184.43883653971716 34.967158399434993 0 34.967158399434993 416.96577045682352 0 0 0 0 126.54518275614828 -38.893226332205813 0 -38.893226332205813 524.25553020165535 0 0 0 0 62.247128220915329 96.858738465118222 0 96.858738465118222 576.28509366131766 0 0 0 0 98.844856557640014 106.91547175344022 0 106.91547175344022 60.512944418151164 0 0 0 0 59.683550507572363 262.8998956054711 0 262.8998956054711 202.79113877363852 0 0 0 0 81.600762542453595 231.32379488079459 0 231.32379488079459 98.896568978903815 0 0 0 0 69.54084193950257 -90.616557174847912 0 -90.616557174847912 -430.80424774783751 0 0 0 0 62.74230536350035 69.220299972438923 0 69.220299972438923 6.1385345270990452 0 0 0 0 44.373111791879637 85.950527689041337 0 85.950527689041337 48.594046562003768 0 0 0 0 378.58060237958853 -201.31522399199093 0 -201.31522399199093 -405.01386721463132 0 0 0 0 -158.69515382430109 -16.715751481242478 0 -16.715751481242478 583.04138147254343 0 0 0 0 44.959417835423665 99.956130173879501 0 99.956130173879501 67.55418886456755 0 0 0 0 16.474223020575494 46.616675953808453 0 46.616675953808453 3.6002050698194026 0 0 0 0 11.188776856183509 38.403477049378452 0 38.403477049378452 46.941264070218892 0 0 0 0 25.371218948654132 91.693235892729717 0 91.693235892729717 95.061724998246063 0 0 0 0 23.960580319551809 75.585410003710422 0 75.585410003710422 77.34196606700425 0 0 0 0 11.377298934443388 74.417110123235034 0 74.417110123235034 56.707936265293029 0 0 0 0 36.521562676112808 74.027834090746182 0 74.027834090746182 43.708790168151609 0 0 0 0 15.687302279466167 69.445147790767805 0 69.445147790767805 43.082858686306281 0 0 0 0 22.771173448084483 81.845918313687434 0 81.845918313687434 15.553548737261735 0 0 0 0 21.253987699823483 57.081841072795214 0 57.081841072795214 33.240698495552351 0 0 0 0 26.684762171430449 68.51118636500486 0 68.51118636500486 26.096613209174294 0 0 0 0 14.25830777612282 90.441514188831206 0 90.441514188831206 62.33712660249148 0 0 0 0 -14.271556967645793 22.548462813449362 0 22.548462813449362 10.364418749200354 0 0 0 0 13.759837408368185 91.634178829866869 0 91.634178829866869 54.891769791858678 0 0 0 0 18.365940990797327 47.413498757024087 0 47.413498757024087 16.666886873261276 0 0 0 0 -31.393827978365152 39.214767115860013 0 39.214767115860013 73.445353086324758 0 0 0 0 25.449556561652571 60.104566115696798 0 60.104566115696798 26.52824851045807 0 0 0 0 7.7174362449055991 46.899750323036983 0 46.899750323036983 8.3424223561682425 0 0 0 0 42.748182128450246 67.880482695140302 0 67.880482695140302 7.81209060131863 0 0 0 0 26.419247599187656 46.387652277739107 0 46.387652277739107 -16.455227357357217 0 0 0 0 35.139668383150216 35.505004144533231 0 35.505004144533231 -22.819275504139426 0 0 0 0 33.18669038875305 57.931441219836415 0 57.931441219836415 -2.00198750407435 0 0 0 0 -35.688022805317814 75.994573476404184 0 75.994573476404184 98.825361755283666 0 0 0 0 -2.1420625354057847 46.063107741247222 0 46.063107741247222 51.722355300298659 0 0 0 0 95.21961234421542 195.28037241421407 0 195.28037241421407 -94.434685652020562 0 0 0 0 19.402082108183095 101.2476889020254 0 101.2476889020254 101.01606426257058 0 0 0 0 42.515614315700986 41.964416817238089 0 41.964416817238089 211.46376217959551 0 0 0 0 55.30679384685439 129.20023210169165 0 129.20023210169165 -13.004689166573371 0 0 0 0 -21.903231688658707 57.131620573127293 0 57.131620573127293 160.98094808033784 0 0 0 0 10.781038677282346 23.541753629917224 0 23.541753629917224 -0.23144470887314128 0 0 0 0 -7.111121080833982 73.455789434578037 0 73.455789434578037 97.354131865839008 0 0 0 0 -25.29003205810973 27.579387664890703 0 27.579387664890703 -14.296176791525369 0 0 0 0 247.75865339080519 567.26582302970564 0 567.26582302970564 122.53931267757434 0 0 0 0 -320.49185627866973 395.01366748714645 0 395.01366748714645 74.647055965921027 0 0 0 0 -549.63892727941561 982.49869278406732 0 982.49869278406732 375.63874384843803 0 0 0 0 -101.07621621075987 1048.3558856499767 0 1048.3558856499767 383.80191712667875 0 0 0 0 -20.872177744769495 32.182505247535829 0 32.182505247535829 -22.093932602714887 0 0 0 0 119.15285373645747 72.470486876860377 0 72.470486876860377 -221.31625870337302 0 0 0 0 -97.180277675302932 34.310603073987295 0 34.310603073987295 32.943458432942862 0 0 0 0 12.18459399008006 23.328842131454451 0 23.328842131454451 2.5300065801673668 0 0 0 0 45.947055262011418 108.61153807210212 0 108.61153807210212 -73.67369024992513 0 0 0 0 130.67919335706392 25.402826692239614 0 25.402826692239614 65.390546148464637 0 0 0 0 -706.26899744968796 -323.79943628062028 0 -323.79943628062028 1302.0816790258832 0 0 0 0 127.05146245243668 -10.264310690123239 0 -10.264310690123239 1119.39757413794 0 0 0 0 255.66958979115589 -686.55129681780818 0 -686.55129681780818 20.101234399717214 0 0 0 0 2.4955938991076891 6.9896740567725715 0 6.9896740567725715 4.9867160759107207 0 0 0 0 394.59318056816846 -388.37404714925651 0 -388.37404714925651 597.46044918526604 0 0 0 0 257.35818979937631 -229.94682856390682 0 -229.94682856390682 37.834265539015178 0 0 0 0 97.383280528329124 -368.19914626172795 0 -368.19914626172795 -211.74228994472651 0 0 0 0 -35.006331430678983 -479.0953538004178 0 -479.0953538004178 -63.18153875877033 0 0 0 0 39.402016752399504 -163.06645925401244 0 -163.06645925401244 91.265132291257032 0 0 0 0 600.24122469132999 -188.63411198812537 0 -188.63411198812537 -0.28627793790656142 0 0 0 0 218.58459498461707 243.13913206550933 0 243.13913206550933 94.185255583724938 0 0 0 0 -249.33191894700576 93.273047463611874 0 93.273047463611874 -188.33803827007068 0 0 0 0 -8.5266327524004737 -295.64790726458887 0 -295.64790726458887 433.61619238986168 0 0 0 0 -8.9666828264598735 317.70804716061684 0 317.70804716061684 236.04713097537751 0 0 0 0 27.629040776093461 47.549250257899985 0 47.549250257899985 24.054472754636663 0 0 0 0 -1035.2300080771092 -82.669814854074502 0 -82.669814854074502 51.643910034035798 0 0 0 0 -83.991900477616582 142.02916955930414 0 142.02916955930414 9.445078641299915 0 0 0 0 -3.7234782471973773 -3.0644929760603077 0 -3.0644929760603077 0.71545593008960395 0 0 0 0 -167.33908892670888 -0.49250928746869249 0 -0.49250928746869249 120.11047923807928 0 0 0 0 -24.577878151971163 34.848253080106588 0 34.848253080106588 79.432526473814505 0 0 0 0 -5.5884681267894365 -0.46794306021141097 0 -0.46794306021141097 32.113489405290181 0 0 0 0 -24.956669662500644 -22.9267394185581 0 -22.9267394185581 17.516018561451347 0 0 0 0 -134.95493203248043 233.82151090119623 0 233.82151090119623 166.55399853020208 0 0 0 0 -51.576266133852187 89.405892450595275 0 89.405892450595275 59.253295412258012 0 0 0 0 15.366591174697781 10.881959443608359 0 10.881959443608359 -3.5888955643985128 0 0 0 0 269.56820744864672 139.10696748605551 0 139.10696748605551 -25.519541322340956 0 0 0 0 219.30261238917592 245.98677399943699 0 245.98677399943699 41.998366552899824 0 0 0 0 38.394019051957002 67.727346148210927 0 67.727346148210927 -73.174407255180995 0 0 0 0 -31.169994750467595 162.15263702697121 0 162.15263702697121 144.01869808246556 0 0 0 0 158.7015495695814 211.26494543888839 0 211.26494543888839 101.64225788558542 0 0 0 0 57.621066032634872 55.213432313285665 0 55.213432313285665 23.42248055385528 0 0 0 0 42.614214984234422 89.571866587270051 0 89.571866587270051 52.517840182023065 0 0 0 0 172.64177682991431 98.434775213885587 0 98.434775213885587 -6.0862427369575016 0 0 0 0 24.774832779050726 52.990325251966823 0 52.990325251966823 38.750805658028298 0 0 0 0 72.572731999331154 59.454004427345353 0 59.454004427345353 79.291391669648874 0 0 0 0 23.872605580354929 41.219359374535486 0 41.219359374535486 20.355712109505262 0 0 0 0 61.301225088485808 66.547692306870886 0 66.547692306870886 -30.430189106918988 0 0 0 0 86.475045806379057 121.48758092205389 0 121.48758092205389 45.221015824485221 0 0 0 0 81.047669086634414 64.437397673237683 0 64.437397673237683 -15.863195697776973 0 0 0 0 31.037542073827353 65.912504839652684 0 65.912504839652684 9.6751528307213448 0 0 0 0 17.22196519029967 138.44129604518048 0 138.44129604518048 54.13000469779945 0 0 0 0 121.49594202860317 335.56002671145325 0 335.56002671145325 -94.989767663704697 0 0 0 0 -35.716826396354008 183.00294243844837 0 183.00294243844837 55.665916841290709 0 0 0 0 7.3244064437496945 43.706927326576285 0 43.706927326576285 49.346231803128688 0 0 0 0 70.088306697798544 22.476481390556728 0 22.476481390556728 87.382327491617616 0 0 0 0 36.1236799708131 16.923230654458166 0 16.923230654458166 147.59616897092201 0 0 0 0 2.1074055313015663 10.769575611902013 0 10.769575611902013 10.287305828305421 0 0 0 0 1.0488607341976603 138.44505235816905 0 138.44505235816905 94.819133750046603 0 0 0 0 21.396982645968819 100.55412406149617 0 100.55412406149617 108.36861830113048 0 0 0 0 -328.70181195742771 2058.4019756442576 0 2058.4019756442576 -721.42797995125875 0 0 0 0 -6.3378969930516433 5.351932844645745 0 5.351932844645745 -0.92783837133629277 0 0 0 0 -37.532191915845033 126.21664428368967 0 126.21664428368967 -873.740707142666 0 0 0 0 129.07784187034122 112.21764523668389 0 112.21764523668389 -254.47664370271377 0 0 0 0 119.82953037877451 83.547730388847413 0 83.547730388847413 234.66569234606141 0 0 0 0 384.75037846865598 22.780744972045795 0 22.780744972045795 -36.211467081768205 0 0 0 0 77.791841086713248 53.577519347076304 0 53.577519347076304 -34.290976760079502 0 0 0 0 -50.595042894827202 -76.342469385526783 0 -76.342469385526783 -27.225722496819799 0 0 0 0 96.575185653029621 7.4010564064319624 0 7.4010564064319624 -12.126415862774593 0 0 0 0 13.471840422629612 6.1450428285097587 0 6.1450428285097587 -11.867633095839665 0 0 0 0 680.93092925262317 -228.96839405296851 0 -228.96839405296851 109.92672183856484 0 0 0 0 28.482760454964591 59.408901180118846 0 59.408901180118846 -5.9175236839510035 0 0 0 0 -6.4219634100554401 16.524105181208085 0 16.524105181208085 1.7460423645626122 0 0 0 0 552.68645192729309 -556.22385861246585 0 -556.22385861246585 -724.08514084975468 0 0 0 0 419.23521108177738 -268.49607765802102 0 -268.49607765802102 15.520271031113225 0 0 0 0 530.67221490303928 -92.005395067157224 0 -92.005395067157224 64.133923095127102 0 0 0 0 6.81282182972393 -2.8516430549180143 0 -2.8516430549180143 6.8654206760233194 0 0 0 0 29.11085703955905 21.198552552457841 0 21.198552552457841 40.926972389963339 0 0 0 0 28.902323410336976 67.56332248239778 0 67.56332248239778 143.0195129726817 0 0 0 0 96.264990587122156 53.287750504852738 0 53.287750504852738 -118.54758958111051 0 0 0 0 401.7421904042385 -316.55561410413429 0 -316.55561410413429 105.49257001164369 0 0 0 0 13.300856726671839 -4.0838075980523172 0 -4.0838075980523172 2.6021807036264448 0 0 0 0 -77.132267927747307 6.2594889292304288 0 6.2594889292304288 65.044470709253801 0 0 0 0 609.21989260453847 -333.01722759151016 0 -333.01722759151016 0.70114494788140291 0 0 0 0 753.53314532738477 768.9310291194638 0 768.9310291194638 -69.863078260386828 0 0 0 0 -805.31350624866172 314.820128230931 0 314.820128230931 370.28703761080033 0 0 0 0 -50.670705254422501 991.82226386171533 0 991.82226386171533 -511.89588261497556 0 0 0 0 -164.31880690629623 568.09015672812529 0 568.09015672812529 -101.8349745300693 0 0 0 0 -137.90824063265245 906.55157596777644 0 906.55157596777644 806.42472084920155 0 0 0 0 -328.7561390902556 547.03767366486136 0 547.03767366486136 183.34001197357429 0 0 0 0 -579.81435326517385 495.43884237544262 0 495.43884237544262 409.71505076999892 0 0 0 0 -378.02488416136475 796.05592969922145 0 796.05592969922145 183.2858667924811 0 0 0 0 -461.13095239827817 501.30771413829643 0 501.30771413829643 183.21407467316021 0 0 0 0 -370.4175608105179 443.29732794200754 0 443.29732794200754 -206.06061791215325 0 0 0 0 -367.94695230793513 637.59758632685589 0 637.59758632685589 -316.58329815814795 0 0 0 0 -393.03561163538143 662.7128517606252 0 662.7128517606252 -37.900195599984727 0 0 0 0 -329.11676125394297 426.96056129986391 0 426.96056129986391 -419.52145317224858 0 0 0 0 -179.2190467501041 780.98315756743614 0 780.98315756743614 -870.16112966422224 0 0 0 0 -244.15276990090842 400.04049538216714 0 400.04049538216714 -1162.4040560935828 0 0 0 0 -41.204523684529704 23.808690304180345 0 23.808690304180345 -1580.2824185576465 0 0 0 0 -211.66978469853348 16.580674637560151 0 16.580674637560151 -1245.8240681373463 0 0 0 0 265.86629916131278 83.914958073946764 0 83.914958073946764 -2992.7537188208371 0 0 0 0 -6.9567950759020789 2.5881179563084515 0 2.5881179563084515 -1.9310784073631595 0 0 0 0 925.66082558862399 -389.306237132143 0 -389.306237132143 1119.7206103834687 0 0 0 0 311.22754057191196 1152.2871463111951 0 1152.2871463111951 -2701.2119235807622 0 0 0 0 -437.92807471032029 1910.715416178522 0 1910.715416178522 638.74214253466926 0 0 0 0 -12.582146225743344 11.421915948698143 0 11.421915948698143 -6.4354659777766301 0 0 0 0 -1193.3685271212016 1068.5052107409283 0 1068.5052107409283 -177.79945131507702 0 0 0 0 -427.89077820985403 2029.0533806419771 0 2029.0533806419771 -404.32997951379548 0 0 0 0 85.030355729970324 597.54243849762861 0 597.54243849762861 -1760.773256528897 0 0 0 0 -140.10164376757893 1043.8539066546473 0 1043.8539066546473 -1340.2690733128402 0 0 0 0 125.59315547226288 842.02194697643426 0 842.02194697643426 -1825.2317703355511 0 0 0 0 282.54196000569937 463.90756762585079 0 463.90756762585079 -249.43909099286248 0 0 0 0 -736.23352987180988 -482.77516428379386 0 -482.77516428379386 377.13578247392434 0 0 0 0 -869.79039965401171 -177.57758296714746 0 -177.57758296714746 -115.06044578203 0 0 0 0 571.11440192126611 329.64016716702463 0 329.64016716702463 -277.49507549978443 0 0 0 0 -26.938792300761456 41.007127719506911 0 41.007127719506911 -49.636098088345079 0 0 0 0 -177.94295105898345 424.38872913183877 0 424.38872913183877 -234.77539977416745 0 0 0 0 -70.273938882703078 205.56177157388083 0 205.56177157388083 116.65916818246478 0 0 0 0 -490.40407217023312 765.16755825342261 0 765.16755825342261 823.21265176427551 0 0 0 0 -52.410578836948844 237.25616128856927 0 237.25616128856927 -63.129325115180109 0 0 0 0 -1375.1837675024581 -44.001765463326592 0 -44.001765463326592 190.49483411276015 0 0 0 0 18.81252447818332 -3.6327479079386364 0 -3.6327479079386364 -12.767417803736919 0 0 0 0 125.75661114829563 254.02219075876928 0 254.02219075876928 -130.58256920429994 0 0 0 0 277.36398694659147 25.356754980282858 0 25.356754980282858 196.35508821284748 0 0 0 0 17.49142089408997 265.31585936334159 0 265.31585936334159 266.16319520244724 0 0 0 0 -39.860588338844536 119.79108647572502 0 119.79108647572502 115.16205634429934 0 0 0 0 51.687492932476744 59.65730887362588 0 59.65730887362588 -284.04041697505454 0 0 0 0 79.282173776104173 -365.33539880641911 0 -365.33539880641911 -1118.0045605435917 0 0 0 0 -121.14367129709717 -13.481877738719049 0 -13.481877738719049 -95.750462894457087 0 0 0 0 -19.513957901217509 111.82095491295331 0 111.82095491295331 -71.984579237632715 0 0 0 0 -72.0981764084936 394.08819262963607 0 394.08819262963607 -162.89736511179945 0 0 0 0 -54.462742090101528 417.40853921989765 0 417.40853921989765 -616.60429570262932 0 0 0 0 -187.63856264308561 300.84098545439338 0 300.84098545439338 -93.71810460476263 0 0 0 0 -455.29668849759037 316.14320109922846 0 316.14320109922846 150.14974023637478 0 0 0 0 -194.02086127601206 249.15719942397209 0 249.15719942397209 30.002576423226856 0 0 0 0 -321.75153110390238 416.02045504859416 0 416.02045504859416 -155.39485056615376 0 0 0 0 -428.44227869604219 436.10514345342381 0 436.10514345342381 106.11379055883299 0 0 0 0 -466.00520283923288 361.44309890226759 0 361.44309890226759 186.96829342385172 0 0 0 0 -294.00990916808223 545.2567849877305 0 545.2567849877305 -265.13617434997286 0 0 0 0 220.36466208194179 174.49466963487794 0 174.49466963487794 -638.60678312505479 0 0 0 0 -266.39412604156678 104.05068346865301 0 104.05068346865301 -506.99603265611222 0 0 0 0 253.24232462543296 -263.63583692540851 0 -263.63583692540851 -1505.1165696565004 0 0 0 0 -64.200374238605946 808.68127790215476 0 808.68127790215476 776.74790862144437 0 0 0 0 1.670919665761744 0.22528774784481698 0 0.22528774784481698 0.56715818532822482 0 0 0 0 -313.18298973232595 232.01058743388421 0 232.01058743388421 -390.97981162969518 0 0 0 0 479.08566820203851 -53.634769237891305 0 -53.634769237891305 -289.9907764151576 0 0 0 0 114.31014353640057 -102.07735062937718 0 -102.07735062937718 -237.12847779139702 0 0 0 0 96.086448352019943 598.30955809263833 0 598.30955809263833 267.98758879669185 0 0 0 0 334.0227731531013 -8.1032782476395369 0 -8.1032782476395369 -558.95118889324658 0 0 0 0 16.323795895292434 5.1180966342722058 0 5.1180966342722058 -17.444848911944305 0 0 0 0 -26.732511789962189 50.262151660230501 0 50.262151660230501 -73.315006826905176 0 0 0 0 -65.362005134338688 323.39715809080371 0 323.39715809080371 -26.488137874185668 0 0 0 0 -110.5830113880329 143.22018881655822 0 143.22018881655822 32.641671682641345 0 0 0 0 94.433563509112901 98.077430705151528 0 98.077430705151528 34.450030588501249 0 0 0 0 148.1532442376556 285.09833830932621 0 285.09833830932621 -31.13808988371693 0 0 0 0 -53.452093813445231 34.035119993473671 0 34.035119993473671 -9.9542730589007604 0 0 0 0 -111.1488013977505 437.60317855667381 0 437.60317855667381 761.51647363199299 0 0 0 0 477.85937073585228 -73.293453921618493 0 -73.293453921618493 -1330.8321327633894 0 0 0 0 251.16858069120281 98.519446967220574 0 98.519446967220574 -592.9949242872608 0 0 0 0 343.83841885998481 343.31322631016883 0 343.31322631016883 -36.499956471830956 0 0 0 0 -95.995951197641261 260.0135603032395 0 260.0135603032395 -14.247488872773829 0 0 0 0 219.89853132789449 428.48595203453942 0 428.48595203453942 -573.29647319528158 0 0 0 0 165.37150168605876 13.169529099679494 0 13.169529099679494 -766.04153300657345 0 0 0 0 -354.53999173000739 413.42307648333372 0 413.42307648333372 1495.886923183265 0 0 0 0 -39.328796760445613 27.826912228464664 0 27.826912228464664 -8.0379895597302422 0 0 0 0 102.12304792577561 681.64081534012075 0 681.64081534012075 129.01698024148936 0 0 0 0 -117.82887687567563 -307.60394443672521 0 -307.60394443672521 1139.7449875344319 0 0 0 0 -411.49768569080334 433.09813629550627 0 433.09813629550627 179.1721651423959 0 0 0 0 -462.35565943683832 220.27372741742329 0 220.27372741742329 -84.55765375601186 0 0 0 0 -117.62452165746072 793.32447687528474 0 793.32447687528474 -1186.3075106989272 0 0 0 0 366.50363120856491 9.0486824917898048 0 9.0486824917898048 -3304.8565907177835 0 0 0 0 -179.06004008489253 1205.9764286651553 0 1205.9764286651553 1148.8542342291548 0 0 0 0 -8.0895630170121535 0.79599641986361291 0 0.79599641986361291 -1.1808787768787141 0 0 0 0 7.094607097973622 13.587105427642101 0 13.587105427642101 2.4512831934025847 0 0 0 0 -1941.5416060575371 -45.458868114452343 0 -45.458868114452343 -183.61356417328352 0 0 0 0 -394.07123959096498 -301.21464706950064 0 -301.21464706950064 -1211.4659302380235 0 0 0 0 -203.35716780902476 214.46888054257761 0 214.46888054257761 -871.95616894302657 0 0 0 0 468.06937218186522 -70.019132106974212 0 -70.019132106974212 -245.23746730299899 0 0 0 0 -13.08396954429918 227.15805816132342 0 227.15805816132342 1198.7931196994123 0 0 0 0 7.816268848161215 -6.1670457225528992 0 -6.1670457225528992 6.2156655757310233 0 0 0 0 -54.726062416099012 204.97496999422219 0 204.97496999422219 1195.4034618129008 0 0 0 0 31.276139455803786 -0.2156141831583227 0 -0.2156141831583227 90.195811496734677 0 0 0 0 19.271035874902736 330.58787951531849 0 330.58787951531849 994.64298229330961 0 0 0 0 43.534008090475368 329.39416522439024 0 329.39416522439024 992.74400194875489 0 0 0 0 56.752629495640576 363.77915673804091 0 363.77915673804091 772.8141646070726 0 0 0 0 231.94945534780709 114.13792641969485 0 114.13792641969485 703.93594807406771 0 0 0 0 60.19815192859096 67.871569257622468 0 67.871569257622468 1023.1228871565254 0 0 0 0 191.12719021190424 250.47908148635906 0 250.47908148635906 461.89194864561432 0 0 0 0 -31.221201949119859 -9.1888842823464074 0 -9.1888842823464074 120.70309862274007 0 0 0 0 146.37585604096239 -65.965830779314274 0 -65.965830779314274 -1253.8192076592968 0 0 0 0 -18.518759327500987 14.594531514241567 0 14.594531514241567 5.4011333257572218 0 0 0 0 388.36189105159428 216.79176536041359 0 216.79176536041359 48.991462437064911 0 0 0 0 25.1187203380656 20.822336521117577 0 20.822336521117577 -4.0021913035850716 0 0 0 0 -175.84289709231598 -62.374604952652589 0 -62.374604952652589 -617.73789547479828 0 0 0 0 6.6798224647710356 20.28605669688298 0 20.28605669688298 -2.1471216033772436 0 0 0 0 -3.9175162629690021 -6.4902052538527641 0 -6.4902052538527641 18.802758524674573 0 0 0 0 6.4680946286765817 22.794920500550532 0 22.794920500550532 -0.46149134735023267 0 0 0 0 128.62576841110968 252.34228431472002 0 252.34228431472002 -688.70342487560265 0 0 0 0 -48.058398670778843 7.0735423453807016 0 7.0735423453807016 215.05342297115567 0 0 0 0 42.65865239620689 47.752711128699957 0 47.752711128699957 139.26243727407928 0 0 0 0 -177.27541079917864 208.95058353928471 0 208.95058353928471 794.31603903870564 0 0 0 0 1.8037816267510038 -2.3344975346412724 0 -2.3344975346412724 0.89790279484316571 0 0 0 0 -144.83815397351282 -32.290142410296539 0 -32.290142410296539 555.93177767519228 0 0 0 0 42.027457849013445 200.28621649848719 0 200.28621649848719 473.96433445884031 0 0 0 0 23.88418686411751 67.309023064699431 0 67.309023064699431 -10.165999985485541 0 0 0 0 283.29122033726162 278.68774766776914 0 278.68774766776914 112.66784952687158 0 0 0 0 57.362434597394895 233.90228420965286 0 233.90228420965286 31.011175298917806 0 0 0 0 43.886750854479033 527.31650268275553 0 527.31650268275553 95.057943665016865 0 0 0 0 853.65905830205884 188.70900737848569 0 188.70900737848569 -353.76329774181067 0 0 0 0 580.25608220307913 452.70711590557039 0 452.70711590557039 19.748226715841156 0 0 0 0 -624.19145351790939 439.63882965638186 0 439.63882965638186 -132.84172135092149 0 0 0 0 299.42979961426317 -4.4008558893219742 0 -4.4008558893219742 -215.7092512555173 0 0 0 0 -313.88149370767496 645.94994034770207 0 645.94994034770207 69.897620607400313 0 0 0 0 -161.75601284070581 655.38689756366512 0 655.38689756366512 1406.6605134302226 0 0 0 0 -782.73001199091232 412.22660283985897 0 412.22660283985897 277.74462824797956 0 0 0 0 -602.35523498343537 1270.4684269355857 0 1270.4684269355857 -282.36458530116943 0 0 0 0 436.97817394940648 296.56778224240406 0 296.56778224240406 192.21985597923776 0 0 0 0 -580.62925186481152 1099.4947992690795 0 1099.4947992690795 936.01655333547387 0 0 0 0 1567.7274659285904 131.86051274197598 0 131.86051274197598 -71.300676480226684 0 0 0 0 1303.8241070641006 988.14139277722188 0 988.14139277722188 250.28554004480975 0 0 0 0 680.29475922814163 -194.01030908832035 0 -194.01030908832035 1063.6885251307831 0 0 0 0 479.88403975093388 657.22307647518755 0 657.22307647518755 1487.8861477161317 0 0 0 0 -17.123320669412919 20.657616193601598 0 20.657616193601598 -18.077503026842095 0 0 0 0 -415.62429210062692 93.276209351221041 0 93.276209351221041 1770.5720756090341 0 0 0 0 321.10027469032866 -134.67633861846844 0 -134.67633861846844 1061.2315798276541 0 0 0 0 -23.556558980907937 14.069853795690506 0 14.069853795690506 -4.0495852985595491 0 0 0 0 -639.41211727546761 658.13517250790028 0 658.13517250790028 225.61804789162125 0 0 0 0 -231.56378116100859 -389.19409752848151 0 -389.19409752848151 1020.649157242995 0 0 0 0 -1011.337031247851 979.76573862343503 0 979.76573862343503 951.42701351149435 0 0 0 0 -544.3312904655686 1668.9441983791112 0 1668.9441983791112 -1792.0229048968176 0 0 0 0 510.98560084450583 562.962319892511 0 562.962319892511 478.15904549160405 0 0 0 0 447.81904722851232 -287.61915796378344 0 -287.61915796378344 -694.13073121801426 0 0 0 0 809.85680860353023 171.23937238743383 0 171.23937238743383 -2226.3689367571351 0 0 0 0 788.16758144464256 846.08610039318592 0 846.08610039318592 -1613.478527413863 0 0 0 0 76.730081554342178 396.01529113486322 0 396.01529113486322 2274.4391076275824 0 0 0 0 3.0313170607380471 1.8115191577011558 0 1.8115191577011558 3.823928460252823 0 0 0 0 651.21583851987089 109.81701744606835 0 109.81701744606835 -2023.818336335964 0 0 0 0 436.52097986628178 -162.83988440151825 0 -162.83988440151825 -1836.4764851721557 0 0 0 0 -10.832134895513292 9.150850253463986 0 9.150850253463986 -5.8803344533035613 0 0 0 0 139.72529168664187 1651.5458162326977 0 1651.5458162326977 -833.69771119000507 0 0 0 0 155.93487822081079 287.42802175029647 0 287.42802175029647 1211.3510492321075 0 0 0 0 98.559672833100194 130.33132925620885 0 130.33132925620885 1279.9773493905668 0 0 0 0 87.491397319448879 107.59026934819121 0 107.59026934819121 1539.6228546329658 0 0 0 0 1.2664831840487807 -3.6037705540026508 0 -3.6037705540026508 -1.3557176912998159 0 0 0 0 78.164268385458854 236.77912155161175 0 236.77912155161175 2107.5775764115388 0 0 0 0 172.53668879417819 362.31746420447598 0 362.31746420447598 1407.0165112691393 0 0 0 0 287.67053536660387 254.27402463815815 0 254.27402463815815 1315.1159359333105 0 0 0 0 217.36155243805842 232.28891817048134 0 232.28891817048134 1405.9965885013808 0 0 0 0 270.96678908539616 312.24881050807744 0 312.24881050807744 1371.6528776086634 0 0 0 0 275.03876989439595 365.67148125216772 0 365.67148125216772 1535.0052376877138 0 0 0 0 192.9696285421669 348.97210172278574 0 348.97210172278574 1313.1390892705749 0 0 0 0 169.75486554770032 464.49482539596647 0 464.49482539596647 1004.6681502705615 0 0 0 0 43.149664884960771 304.20181136045721 0 304.20181136045721 1226.6565027102915 0 0 0 0 175.24382277245604 623.50071290093365 0 623.50071290093365 2191.9093695304909 0 0 0 0 764.10236509912647 987.45814221065302 0 987.45814221065302 1502.7636288060748 0 0 0 0 421.27612505148136 262.47417151836271 0 262.47417151836271 846.09194318569644 0 0 0 0 591.55303244714014 249.96955802151933 0 249.96955802151933 -22.330202916593407 0 0 0 0 1017.0984271165653 766.654553061966 0 766.654553061966 394.38769507245161 0 0 0 0 811.89546479417186 608.16822593321558 0 608.16822593321558 -53.93924001422829 0 0 0 0 450.95539043454119 271.98703855838357 0 271.98703855838357 -366.66173895555403 0 0 0 0 276.31812860716309 495.40384131454812 0 495.40384131454812 -82.166281294339569 0 0 0 0 -188.84551999529504 136.86794663716137 0 136.86794663716137 -144.1568261277464 0 0 0 0 -27.096034717920702 229.46855753521595 0 229.46855753521595 13.612287061392635 0 0 0 0 360.16049884031963 602.17410206099339 0 602.17410206099339 280.24054829913803 0 0 0 0 -71.792905812508252 170.56932143377708 0 170.56932143377708 312.08246600824941 0 0 0 0 19.107327308469394 -218.70209276125752 0 -218.70209276125752 273.93575418004184 0 0 0 0 5.6348494571786745 2.5827980927247935 0 2.5827980927247935 -0.90199918155775549 0 0 0 0 324.40325998316985 -326.61883198654505 0 -326.61883198654505 74.153648900341068 0 0 0 0 645.55466824663017 -74.319128150120378 0 -74.319128150120378 10.997205949352065 0 0 0 0 423.08757237917598 388.77703796439891 0 388.77703796439891 237.26043587218737 0 0 0 0 693.82791321478726 78.383921285054384 0 78.383921285054384 486.74821646207056 0 0 0 0 295.12337362851395 125.39029120517444 0 125.39029120517444 593.31614729053035 0 0 0 0 803.72398010719917 246.33882876961798 0 246.33882876961798 618.84287879191834 0 0 0 0 91.379799973134141 538.49195985936058 0 538.49195985936058 736.24434923156514 0 0 0 0 181.04444111794874 264.36474247461956 0 264.36474247461956 724.73149284076862 0 0 0 0 451.59553770068578 481.28838819485145 0 481.28838819485145 880.29327637163806 0 0 0 0 337.47808418275235 457.58152154561321 0 457.58152154561321 455.49592115419 0 0 0 0 -72.546163762541255 187.72053074670839 0 187.72053074670839 286.80833715976769 0 0 0 0 251.3195600610361 374.43631823263104 0 374.43631823263104 -126.05238294747687 0 0 0 0 508.88132907566978 351.02464740022515 0 351.02464740022515 218.61478025438555 0 0 0 0 207.43093765965023 110.85310266271335 0 110.85310266271335 46.016871072228241 0 0 0 0 108.80770907536862 211.08715546501753 0 211.08715546501753 -213.6280100901713 0 0 0 0 406.01568289659917 175.27755620873359 0 175.27755620873359 -230.71822855546634 0 0 0 0 202.22065729763563 340.79926016903846 0 340.79926016903846 -484.46920932278954 0 0 0 0 -19.160784943551334 332.1073772430409 0 332.1073772430409 -692.99818625405169 0 0 0 0 -105.8768696029656 263.68346310275592 0 263.68346310275592 -148.76366596724984 0 0 0 0 -291.82082237995201 395.49062298823264 0 395.49062298823264 -356.1131424757059 0 0 0 0 -291.56165133615286 757.32354323923755 0 757.32354323923755 -599.24479238207095 0 0 0 0 182.15005013071641 432.51132580803824 0 432.51132580803824 -312.25099218391006 0 0 0 0 85.975455371321004 87.246111013784684 0 87.246111013784684 -24.778565508444444 0 0 0 0 131.33453997335164 287.68255029703505 0 287.68255029703505 -392.17244351652698 0 0 0 0 -268.19352968934254 231.79549016163219 0 231.79549016163219 -83.42115804441346 0 0 0 0 9.4745205244136912 6.6449677302772798 0 6.6449677302772798 4.880364564756178 0 0 0 0 119.2059940856816 11.700883007551965 0 11.700883007551965 -61.586675296970498 0 0 0 0 184.4739160725585 -58.681426098966767 0 -58.681426098966767 14.030648980181013 0 0 0 0 258.04595964842883 285.91104449350678 0 285.91104449350678 -90.979657428390055 0 0 0 0 358.63342745490627 124.83713875841659 0 124.83713875841659 -19.0220750536173 0 0 0 0 230.85258111769508 191.09730754056363 0 191.09730754056363 27.112856498941255 0 0 0 0 277.77455084550456 201.29891657675398 0 201.29891657675398 -16.65078162192367 0 0 0 0 218.62193372926413 420.64917318630614 0 420.64917318630614 131.25571870588465 0 0 0 0 -24.327804227110391 392.25111642138108 0 392.25111642138108 280.89287840675388 0 0 0 0 -375.48201030403288 550.83006025876239 0 550.83006025876239 209.97702551663679 0 0 0 0 181.66035127178566 580.16687332833044 0 580.16687332833044 -324.862598051448 0 0 0 0 -563.27919743312668 183.43953942496591 0 183.43953942496591 516.64040745208331 0 0 0 0 -76.380729127995437 -112.2541374594548 0 -112.2541374594548 -165.40219485328998 0 0 0 0 417.17752976890188 360.66679435707192 0 360.66679435707192 -421.04847082520428 0 0 0 0 831.52138599866885 300.4473475518862 0 300.4473475518862 -252.93332736555931 0 0 0 0 -1665.8850509736476 459.48840173428835 0 459.48840173428835 580.36707558868147 0 0 0 0 -0.23581141966395069 0.44183007942589825 0 0.44183007942589825 -6.6969207905505925 0 0 0 0 -466.08277879589878 1063.0173170909566 0 1063.0173170909566 81.589923538569565 0 0 0 0 611.51558673025465 813.12679646721335 0 813.12679646721335 126.88465523241757 0 0 0 0 207.76841893765959 612.93448360515322 0 612.93448360515322 30.372798112563032 0 0 0 0 200.67014699158608 304.17668431536731 0 304.17668431536731 308.0204578696721 0 0 0 0 152.81041015233859 301.45116429471636 0 301.45116429471636 474.47691393525747 0 0 0 0 83.500414943759097 403.86578477022704 0 403.86578477022704 540.59509022333805 0 0 0 0 29.954056488582864 561.51858423135855 0 561.51858423135855 524.26328710995767 0 0 0 0 139.0432539435642 257.72797431113031 0 257.72797431113031 611.04053272760939 0 0 0 0 122.75076565198106 310.75522093487234 0 310.75522093487234 849.55943919460697 0 0 0 0 118.55865178590102 417.59248385174214 0 417.59248385174214 463.76029822458077 0 0 0 0 -50.30367114295484 653.67005277714395 0 653.67005277714395 327.29668822508393 0 0 0 0 -582.19365219797328 282.60105335838853 0 282.60105335838853 73.771162384462514 0 0 0 0 16.304218876381711 14.528743395290315 0 14.528743395290315 6.3252557464911945 0 0 0 0 -712.80144767312595 960.55429526543321 0 960.55429526543321 187.14155270075207 0 0 0 0 1126.1618097647915 140.83745870496386 0 140.83745870496386 -863.68670952220418 0 0 0 0 880.5574641237381 -93.502126892524757 0 -93.502126892524757 -39.793382501353335 0 0 0 0 956.89353790211317 487.46400444163737 0 487.46400444163737 -736.4285389403085 0 0 0 0 10.698714866260758 8.1305017252621177 0 8.1305017252621177 1.2250693738348275 0 0 0 0 41.097642609862802 26.953002025679282 0 26.953002025679282 -24.575658553482839 0 0 0 0 299.67081754706351 254.64485356523187 0 254.64485356523187 -5.4874693497695262 0 0 0 0 925.97365740042346 877.70055796910731 0 877.70055796910731 -296.1521693091272 0 0 0 0 -368.46973099741081 431.62211799882789 0 431.62211799882789 -259.20402620052482 0 0 0 0 44.434529876346296 142.7545288650723 0 142.7545288650723 129.45800501429721 0 0 0 0 -442.10892590043659 549.26035750698247 0 549.26035750698247 379.85717705383286 0 0 0 0 -6.7488177830282581 13.97080094879373 0 13.97080094879373 17.051225139171152 0 0 0 0 -134.98364812200816 93.391116297916597 0 93.391116297916597 479.35076850278529 0 0 0 0 911.79575346309866 318.87836854248053 0 318.87836854248053 -125.05527572683786 0 0 0 0 618.15558301925194 169.50060852953357 0 169.50060852953357 -116.25558215065439 0 0 0 0 14.185174897900055 62.643974473044807 0 62.643974473044807 -90.655100493762262 0 0 0 0 -1.1793929721170571 242.0827249831932 0 242.0827249831932 26.853378979585614 0 0 0 0 797.49465744313784 415.48982284397789 0 415.48982284397789 26.340127048024442 0 0 0 0 274.51185346441343 226.11754989202018 0 226.11754989202018 -37.182044780893193 0 0 0 0 298.44982967304531 257.4633856613716 0 257.4633856613716 -135.95294222529856 0 0 0 0 66.609721514332108 59.898241626942081 0 59.898241626942081 -78.50448830693189 0 0 0 0 184.60532833621787 137.04459986354237 0 137.04459986354237 60.109563680285618 0 0 0 0 -31.857620280001356 174.98807320902733 0 174.98807320902733 -15.315673092729412 0 0 0 0 3170.5715699596913 554.28021889480169 0 554.28021889480169 -810.41969584445542 0 0 0 0 -7.9751828684282771 37.149062437958463 0 37.149062437958463 55.874289599248897 0 0 0 0 49.905977438531409 -403.39932859962028 0 -403.39932859962028 -295.75785564498801 0 0 0 0 391.11159354110714 539.56050707252871 0 539.56050707252871 1416.9552764295731 0 0 0 0 608.89571891706146 1425.7400518916256 0 1425.7400518916256 -987.85082172328839 0 0 0 0 1117.6628993148042 444.84389981989079 0 444.84389981989079 -301.07257397869398 0 0 0 0 2206.2636646158644 1647.6775002164904 0 1647.6775002164904 -277.74678437698458 0 0 0 0 2050.2827318710424 -246.21461186559873 0 -246.21461186559873 100.35930212302628 0 0 0 0 1387.9264916353277 -231.94211530868779 0 -231.94211530868779 -214.38808189026895 0 0 0 0 960.19829930098786 649.01308931393214 0 649.01308931393214 312.46862810049788 0 0 0 0 8.5549514730724354 15.3876343083557 0 15.3876343083557 -7.1401586776683743 0 0 0 0 837.61419720202684 255.7043530387964 0 255.7043530387964 738.79919252073159 0 0 0 0 2047.1357732812176 676.04990485125745 0 676.04990485125745 1644.2320624702843 0 0 0 0 1441.2035961301881 -155.03548848212813 0 -155.03548848212813 533.89068543734902 0 0 0 0 161.51771200646181 426.87395904140794 0 426.87395904140794 495.69887152450974 0 0 0 0 515.81745192452217 730.27953720191363 0 730.27953720191363 416.72956575773424 0 0 0 0 1163.9244100386277 317.2173318771911 0 317.2173318771911 204.70017098222161 0 0 0 0 203.30038728426189 112.50971030723247 0 112.50971030723247 -7.4431948884448502 0 0 0 0 219.53722524968907 511.30474599177251 0 511.30474599177251 279.99501073103602 0 0 0 0 2125.7291391580547 613.18372805553508 0 613.18372805553508 -538.10136603382125 0 0 0 0 -1432.1819882923737 378.00598250945768 0 378.00598250945768 473.35880532635929 0 0 0 0 63.528516415084596 726.07543356593851 0 726.07543356593851 62.326035255180614 0 0 0 0 -26.809849480266848 297.95384991969263 0 297.95384991969263 277.65240635144801 0 0 0 0 -1123.374682141337 -72.703454254015014 0 -72.703454254015014 209.23577045659476 0 0 0 0 25.753965242314322 150.03132881972147 0 150.03132881972147 173.97622820504066 0 0 0 0 -2024.4262190578011 1777.6114556821249 0 1777.6114556821249 -1129.5617552959666 0 0 0 0 -58.275181192832861 -7.7445182106086747 0 -7.7445182106086747 25.989201274655471 0 0 0 0 406.56100916619471 179.82927384174218 0 179.82927384174218 169.71435721331727 0 0 0 0 416.91479487355537 207.16662844829807 0 207.16662844829807 232.99399107368481 0 0 0 0 551.85322434051341 389.95365181017769 0 389.95365181017769 100.06351880106195 0 0 0 0 755.76903040869365 67.587161563650625 0 67.587161563650625 106.16857834918119 0 0 0 0 636.86020546844338 -134.70735369997146 0 -134.70735369997146 -195.91814283775966 0 0 0 0 529.22276272290674 90.56969204039433 0 90.56969204039433 -241.52207057685519 0 0 0 0 541.97935544911343 210.56670843400627 0 210.56670843400627 133.27227334748022 0 0 0 0 5.2717922654240112 3.2903260034933126 0 3.2903260034933126 1.2471740675952319 0 0 0 0 493.06242919699071 -259.06663097579531 0 -259.06663097579531 184.77062630289447 0 0 0 0 412.39730718957799 201.08286703190424 0 201.08286703190424 180.47521432709982 0 0 0 0 440.11553364933934 113.895626893398 0 113.895626893398 47.1286989027044 0 0 0 0 253.63782515397179 701.07421892585626 0 701.07421892585626 -326.50319971524004 0 0 0 0 -3066.1317639621393 530.69497200456271 0 530.69497200456271 1692.1748559992557 0 0 0 0 74.555383738917357 143.81679272114243 0 143.81679272114243 202.43063539187639 0 0 0 0 24.890783394820026 29.565337933099954 0 29.565337933099954 -47.214889804220547 0 0 0 0 -444.05166914523579 -950.9432706608859 0 -950.9432706608859 -171.87723036194984 0 0 0 0 1129.1188969816139 -209.64752104891886 0 -209.64752104891886 -293.58216312679582 0 0 0 0 1123.110251553182 768.43892615023651 0 768.43892615023651 214.88661472405511 0 0 0 0 621.5800735091907 -546.51174739765702 0 -546.51174739765702 -901.86564346847081 0 0 0 0 1746.7020947731799 1909.555289570053 0 1909.555289570053 87.672396323745488 0 0 0 0 4475.2133645637077 -654.84237057102837 0 -654.84237057102837 -935.61423848736376 0 0 0 0 -1198.5545654601592 2045.5414025776299 0 2045.5414025776299 1110.3977505602925 0 0 0 0 3.7714204096350628 2.8226552915123477 0 2.8226552915123477 15.239315855906341 0 0 0 0 -828.21836267109029 -300.82497476512617 0 -300.82497476512617 95.576088594960311 0 0 0 0 376.79476948211959 974.62328647060895 0 974.62328647060895 -722.34142892775344 0 0 0 0 -819.47823238941055 831.88351584942029 0 831.88351584942029 -429.7254860282319 0 0 0 0 32.144667275424581 156.1610638422826 0 156.1610638422826 -1247.8696997072566 0 0 0 0 -683.61178064006526 100.88783104924732 0 100.88783104924732 144.13279397326914 0 0 0 0 -9.8011784737260541 3.5769605514543628 0 3.5769605514543628 -1.2841038437260721 0 0 0 0 35.712016762742678 -2.0610097726851109 0 -2.0610097726851109 -54.97205330900033 0 0 0 0 112.62489302716858 440.57516932971339 0 440.57516932971339 -96.085695026486064 0 0 0 0 -839.65214488265883 742.97939335374531 0 742.97939335374531 -141.12443251399964 0 0 0 0 89.810456104380137 294.72726748144214 0 294.72726748144214 -477.7793899314529 0 0 0 0 709.18467966018943 234.15308429118704 0 234.15308429118704 -505.93995009272885 0 0 0 0 8.7594298746205936 6.9132787849972139 0 6.9132787849972139 1.9015926169645354 0 0 0 0 -206.49088893370936 -110.49941488781587 0 -110.49941488781587 484.58384612397685 0 0 0 0 -724.81746127243969 181.01384483769107 0 181.01384483769107 519.11511772729864 0 0 0 0 -720.85706918527012 633.56805641933545 0 633.56805641933545 172.21248675687821 0 0 0 0 171.26801314883778 447.02704896932664 0 447.02704896932664 163.63358851399232 0 0 0 0 -259.36043645406608 163.60783845865444 0 163.60783845865444 8.271924062173639 0 0 0 0 9.0519057804222598 8.401331726172927 0 8.401331726172927 6.1813662501843609 0 0 0 0 90.68473650021042 -182.17358238085308 0 -182.17358238085308 110.69069774048148 0 0 0 0 110.18194955692161 273.01821431762528 0 273.01821431762528 -310.59627499697854 0 0 0 0 -225.7024506431917 291.02742992322601 0 291.02742992322601 -29.245579671366613 0 0 0 0 -199.71562587113954 -179.43683868895084 0 -179.43683868895084 -55.588429997918865 0 0 0 0 -36.797274187541916 -181.75667661660918 0 -181.75667661660918 -183.04239243083794 0 0 0 0 1232.9538582915848 110.10700690270824 0 110.10700690270824 -346.8696228675999 0 0 0 0 300.34217793824246 -230.82233654791287 0 -230.82233654791287 -108.42849944934278 0 0 0 0 -46.059254281048197 -194.34101204666149 0 -194.34101204666149 -99.239513211365193 0 0 0 0 -176.57375271939964 328.14089641474493 0 328.14089641474493 -106.39923980032108 0 0 0 0 -397.9615991408391 357.30310087523048 0 357.30310087523048 62.826434765564045 0 0 0 0 -249.47759902922553 669.43885917989974 0 669.43885917989974 319.74079334471389 0 0 0 0 556.49474138771257 522.53511026100841 0 522.53511026100841 38.537860247713979 0 0 0 0 -268.01996194328967 676.33506546647141 0 676.33506546647141 612.4206978386319 0 0 0 0 654.40785817150754 1334.1531486496024 0 1334.1531486496024 773.34240306766696 0 0 0 0 -271.28063044523515 604.80545963655914 0 604.80545963655914 426.0367057419935 0 0 0 0 -191.83979100640863 519.09488708743629 0 519.09488708743629 511.96702432955135 0 0 0 0 -184.29192273188528 489.81817790801688 0 489.81817790801688 563.24200308003128 0 0 0 0 -233.26429155287769 351.62283021115218 0 351.62283021115218 717.2650375384269 0 0 0 0 -124.34071483546359 231.44092366107452 0 231.44092366107452 -81.912664220064471 0 0 0 0 -208.56828001530812 323.2218327210594 0 323.2218327210594 373.60851622645714 0 0 0 0 -173.17947950547222 561.3569502582227 0 561.3569502582227 -128.61770780013831 0 0 0 0 721.07674865101581 -242.8017931691511 0 -242.8017931691511 76.977382488269086 0 0 0 0 279.25518109325094 -118.55801682294123 0 -118.55801682294123 454.83325668913676 0 0 0 0 859.62462081464037 407.49006832154919 0 407.49006832154919 277.09280655756447 0 0 0 0 289.33811092695396 754.65340180617022 0 754.65340180617022 516.26464194964501 0 0 0 0 8.1998316546975047 6.2175158370820611 0 6.2175158370820611 5.4161965932131864 0 0 0 0 260.69614112016279 875.26367821960594 0 875.26367821960594 619.5650669555489 0 0 0 0 1161.2441855352481 477.70142673851387 0 477.70142673851387 -98.814146962424275 0 0 0 0 -21.397570024710149 399.84899113554729 0 399.84899113554729 -102.19815804419704 0 0 0 0 -43.245399054263544 250.04679890845364 0 250.04679890845364 161.34167818139758 0 0 0 0 -230.60033217745513 136.93880966793949 0 136.93880966793949 138.53201872727641 0 0 0 0 312.06927078003719 885.99324044072364 0 885.99324044072364 553.23527947081675 0 0 0 0 -563.09237505439523 326.0750425158385 0 326.0750425158385 473.40101324720672 0 0 0 0 27.354563225730544 87.331596553262102 0 87.331596553262102 -260.82877300216933 0 0 0 0 10.160235968190136 239.15033890123459 0 239.15033890123459 -134.84507513570497 0 0 0 0 7.9620577550958842 209.72064983157179 0 209.72064983157179 -419.75944798021374 0 0 0 0 -21.5908055990094 89.734698364644828 0 89.734698364644828 27.161949315363017 0 0 0 0 -43.961584945522191 127.22650656069527 0 127.22650656069527 -175.16620507384141 0 0 0 0 10.262329026178378 21.63871169562163 0 21.63871169562163 14.406646481866289 0 0 0 0 -34.293013580536353 101.74643256833224 0 101.74643256833224 -215.08549499193396 0 0 0 0 -19.614744503096119 17.671897887492165 0 17.671897887492165 1.2008457834839774 0 0 0 0 5.1430243931946649 17.692200036866168 0 17.692200036866168 11.390738141819938 0 0 0 0 105.59799984499114 -340.03627126578613 0 -340.03627126578613 301.82725243927416 0 0 0 0 31.072110809484457 53.213052145777624 0 53.213052145777624 12.74740795022808 0 0 0 0 -888.22436827135243 173.86043413369771 0 173.86043413369771 287.49382271960172 0 0 0 0 -495.76398545797201 243.21803694076698 0 243.21803694076698 544.45718741107703 0 0 0 0 -852.17521024226517 1071.04617343276 0 1071.04617343276 -1232.6963043779033 0 0 0 0 -29.408056053937003 19.085473771644985 0 19.085473771644985 -0.82019207037874509 0 0 0 0 -225.32803169708495 284.07679952036142 0 284.07679952036142 547.10718047994305 0 0 0 0 -128.99441729851969 -5.2056599542556796 0 -5.2056599542556796 -4.1984067765388318 0 0 0 0 -139.53228452649637 236.61179915232424 0 236.61179915232424 233.63939739113994 0 0 0 0 -1556.6760183317092 -131.84609790551622 0 -131.84609790551622 169.41514675998769 0 0 0 0 -291.89629856933971 1523.846221950751 0 1523.846221950751 -1615.5957885395255 0 0 0 0 -1936.7746056889446 229.49317382709705 0 229.49317382709705 -1516.7989925039947 0 0 0 0 -31.836895443256509 3.7936141293268122 0 3.7936141293268122 7.8999754063036463 0 0 0 0 18.123350312373077 958.20675444662629 0 958.20675444662629 -1470.051965934359 0 0 0 0 -13.458947146361055 5.5682738265158065 0 5.5682738265158065 -3.7273468802152365 0 0 0 0 285.52125272672129 567.14860459826195 0 567.14860459826195 -1658.6720676594923 0 0 0 0 125.63941865147535 -1021.6935434542302 0 -1021.6935434542302 1119.1531314828389 0 0 0 0 -422.83312083613419 455.73637045596843 0 455.73637045596843 854.51189239014275 0 0 0 0 -530.14405063368031 -418.03013643938175 0 -418.03013643938175 1541.7349115895249 0 0 0 0 -726.90248384018196 531.42861774826997 0 531.42861774826997 418.55754357467231 0 0 0 0 -434.96214954735296 -70.844948048285005 0 -70.844948048285005 63.958991355750186 0 0 0 0 -270.73420586730936 811.86140436457936 0 811.86140436457936 -1871.9185441520785 0 0 0 0 -1230.8908012416359 740.19302150025214 0 740.19302150025214 -59.529794429508911 0 0 0 0 -293.19078644963156 -358.442384928705 0 -358.442384928705 -567.14721303658007 0 0 0 0 -645.76018746404588 208.28326387240304 0 208.28326387240304 75.254090382072604 0 0 0 0 -656.56690732524658 54.27020474789424 0 54.27020474789424 620.96661567155388 0 0 0 0 5.2483091211047395 -348.73012745570213 0 -348.73012745570213 -408.6869651256784 0 0 0 0 -490.50466159269126 551.39331161180417 0 551.39331161180417 -135.26207783207792 0 0 0 0 -71.185630967804173 167.44392773732397 0 167.44392773732397 125.97042546365174 0 0 0 0 -91.980058873188682 1390.2946675794592 0 1390.2946675794592 -2054.5953149121815 0 0 0 0 -12.061789186655261 -0.14287315668757827 0 -0.14287315668757827 0.80032549210788062 0 0 0 0 336.63237146827669 334.95408444585883 0 334.95408444585883 -30.393106177420123 0 0 0 0 -10.943943004259012 29.898792820717333 0 29.898792820717333 -51.323315489723726 0 0 0 0 520.31338790560403 459.80241473657588 0 459.80241473657588 45.671848409059749 0 0 0 0 7.3633195124784834 94.87972940187683 0 94.87972940187683 -27.187134094442627 0 0 0 0 -41.956068221711575 78.958825601574972 0 78.958825601574972 32.28571329760598 0 0 0 0 39.827599508211279 111.17300722875643 0 111.17300722875643 -12.988477813181817 0 0 0 0 1115.8976523715646 321.22950851488895 0 321.22950851488895 -446.24916292754642 0 0 0 0 -8.6124630198825258 32.84302894989797 0 32.84302894989797 -54.808478540803719 0 0 0 0 17.88561440536796 52.932960376291703 0 52.932960376291703 78.022289785345492 0 0 0 0 666.56234689479606 96.931458661201759 0 96.931458661201759 205.87798040430789 0 0 0 0 240.52026662271237 587.8102717528127 0 587.8102717528127 -297.2329449041772 0 0 0 0 -173.98805774872017 457.94533346339449 0 457.94533346339449 -345.81563375130645 0 0 0 0 249.9208609781781 488.16727475859443 0 488.16727475859443 -557.65112257471628 0 0 0 0 -152.16602427825273 374.7905347298074 0 374.7905347298074 -15.42686634704296 0 0 0 0 -597.16095543163101 237.45916596362804 0 237.45916596362804 -342.71678400239034 0 0 0 0 -280.63961728774302 664.4935527876587 0 664.4935527876587 -531.00720898200962 0 0 0 0 -262.319377632346 565.93236271973728 0 565.93236271973728 -216.85227172115628 0 0 0 0 144.97243048276869 12.292730423931062 0 12.292730423931062 497.38446244383886 0 0 0 0 -403.58856556737737 95.115430359692255 0 95.115430359692255 698.37851843914541 0 0 0 0 -306.92833104105375 311.39351301648276 0 311.39351301648276 213.66309108973655 0 0 0 0 -160.01423651934601 419.93844883540442 0 419.93844883540442 269.42180024377376 0 0 0 0 -205.71059855951171 369.92148951620766 0 369.92148951620766 466.85689648862171 0 0 0 0 -46.456082362565212 289.23794031448779 0 289.23794031448779 441.72798730576687 0 0 0 0 256.5754544967931 625.95270478164457 0 625.95270478164457 20.158378526079105 0 0 0 0 -205.14711174895638 624.15672263177112 0 624.15672263177112 111.12095062069056 0 0 0 0 27.981434916277067 502.64775876015483 0 502.64775876015483 173.85403353082074 0 0 0 0 125.53557114056457 382.48713063872128 0 382.48713063872128 265.13905157559202 0 0 0 0 199.66118982432818 202.99249477461854 0 202.99249477461854 131.10253986042517 0 0 0 0 -49.22912331687985 84.968691448484606 0 84.968691448484606 495.47518401600064 0 0 0 0 -37.040852691064259 10.197266291737101 0 10.197266291737101 9.281932304257019 0 0 0 0 444.05940293743333 978.29804471523676 0 978.29804471523676 -538.47731498652138 0 0 0 0 -30.109374345236574 256.77126111665712 0 256.77126111665712 488.76865644115605 0 0 0 0 55.212876108562341 341.68493051468977 0 341.68493051468977 287.10045474717117 0 0 0 0 -54.858219370595179 -22.247610042773886 0 -22.247610042773886 272.8766523176746 0 0 0 0 -70.712602213519858 268.75311704041087 0 268.75311704041087 524.97964229294303 0 0 0 0 -77.853976058817352 292.7927784048843 0 292.7927784048843 501.90356890151452 0 0 0 0 -4.7458052102956572 847.95797237530223 0 847.95797237530223 -93.983133413144969 0 0 0 0 250.471173271304 454.27571100568821 0 454.27571100568821 71.827546515014546 0 0 0 0 -1303.0033339938818 -62.881867727282952 0 -62.881867727282952 -131.40992559126971 0 0 0 0 -13.668010628988696 7.1015123904076489 0 7.1015123904076489 1.5228404731378475 0 0 0 0 537.36335111964036 1665.3984119853799 0 1665.3984119853799 1392.7816114183734 0 0 0 0 661.58489545065095 774.2603582974989 0 774.2603582974989 1319.7393320644815 0 0 0 0 353.62033295336005 258.95367771656129 0 258.95367771656129 522.46224216536939 0 0 0 0 1636.3373035151672 918.8795426500601 0 918.8795426500601 424.66931151579774 0 0 0 0 -350.17081810277887 325.38018524446306 0 325.38018524446306 294.81317778895755 0 0 0 0 -9.9723775802831796 30.656667408642861 0 30.656667408642861 -43.136886244851368 0 0 0 0 683.43692327665485 466.64614758588868 0 466.64614758588868 210.93708304066968 0 0 0 0 801.85932525196768 653.5544166959553 0 653.5544166959553 148.16079357623676 0 0 0 0 537.25874484304768 811.24442352102415 0 811.24442352102415 657.42269516736997 0 0 0 0 -407.23059599788394 -138.41169825860743 0 -138.41169825860743 108.58749820037883 0 0 0 0 -1.3651537844920796 1.5542820648563804 0 1.5542820648563804 -5.7361169207872678 0 0 0 0 124.09909452965803 723.49964631969488 0 723.49964631969488 691.61022902569675 0 0 0 0 -89.494696073299565 734.33261123577358 0 734.33261123577358 1056.7300284467638 0 0 0 0 41.961582189105684 229.54397812237949 0 229.54397812237949 1331.4446921534418 0 0 0 0 35.282439887923829 333.45959476057033 0 333.45959476057033 803.68258894592191 0 0 0 0 67.363839145178645 537.51540901281442 0 537.51540901281442 2029.6205909673736 0 0 0 0 26.93425892521708 30.589814329980001 0 30.589814329980001 6.9433395558647462 0 0 0 0 534.69245591172512 626.83499274546557 0 626.83499274546557 1290.9403276148087 0 0 0 0 83.052065045427298 923.28439279374288 0 923.28439279374288 -2037.8596473843445 0 0 0 0 543.65752856481413 -408.32279476824078 0 -408.32279476824078 -507.29561359844411 0 0 0 0 -355.41665226169789 1169.9703422745324 0 1169.9703422745324 782.35859360074937 0 0 0 0 675.68984004113008 1824.3833331864917 0 1824.3833331864917 1242.8154554807952 0 0 0 0 8.54371441580534 10.134241681050028 0 10.134241681050028 3.5094198282966058 0 0 0 0 -270.1021430269102 -689.45005718107859 0 -689.45005718107859 2212.4905900321992 0 0 0 0 -982.26031722063271 790.0982970880741 0 790.0982970880741 4925.6654760298006 0 0 0 0 93.759351101063658 995.1685798022263 0 995.1685798022263 -2809.5509230117773 0 0 0 0 -405.72230129846685 -52.463567799630709 0 -52.463567799630709 -170.77903854419128 0 0 0 0 -92.209610249068646 1409.1020411068066 0 1409.1020411068066 -121.79406103352085 0 0 0 0 -438.11819576345079 1002.0773377191845 0 1002.0773377191845 -435.92330288666199 0 0 0 0 175.85709234761089 588.51997074575274 0 588.51997074575274 -344.99833734122149 0 0 0 0 -401.07243617533095 1117.1367636007235 0 1117.1367636007235 -80.449035244106767 0 0 0 0 265.66255216895661 1331.9392333080705 0 1331.9392333080705 -1291.4577290618136 0 0 0 0 256.59153289915412 -305.18036997924537 0 -305.18036997924537 -726.60116706127928 0 0 0 0 -984.53100066722254 834.86908123484682 0 834.86908123484682 2194.8709114177182 0 0 0 0 -13.612455622576789 14.741264693347304 0 14.741264693347304 -8.9060875133760717 0 0 0 0 782.5136665694954 -933.72110385042652 0 -933.72110385042652 -3429.5078953127677 0 0 0 0 -920.83819570969354 446.07106291425043 0 446.07106291425043 -901.28453990260005 0 0 0 0 983.67700926266843 -174.56675370427911 0 -174.56675370427911 -718.33845274975101 0 0 0 0 -62.744798825154334 53.843485952400279 0 53.843485952400279 -28.007496077456722 0 0 0 0 -775.13353461307997 1499.6314601388895 0 1499.6314601388895 2315.9841507110905 0 0 0 0 -61.202173240533739 185.10793174997104 0 185.10793174997104 -526.91202972161818 0 0 0 0 -56.900572040944098 17.048493235549358 0 17.048493235549358 -674.69007058984607 0 0 0 0 121.72639229294646 -19.024168291921569 0 -19.024168291921569 -686.0472014119664 0 0 0 0 -1052.353425905334 -296.85473647171784 0 -296.85473647171784 1169.2105309295803 0 0 0 0 -44.817491125367638 35.366757799508875 0 35.366757799508875 -18.721844321479484 0 0 0 0 90.149315272272361 79.207420587524211 0 79.207420587524211 -1230.7471664514096 0 0 0 0 -49.876744273773511 691.56703956791716 0 691.56703956791716 1776.8400334399694 0 0 0 0 -365.4588755099503 -70.909013696091279 0 -70.909013696091279 -180.61914337467715 0 0 0 0 -46.733672578182791 23.916112546082388 0 23.916112546082388 -5.8222245547660751 0 0 0 0 -32.323631351040063 21.072621195370225 0 21.072621195370225 -5.6594382138886701 0 0 0 0 -93.507850373047404 90.640494508947995 0 90.640494508947995 213.95044398494065 0 0 0 0 -52.437247906491393 28.954778513082147 0 28.954778513082147 -643.03553052446659 0 0 0 0 -77.108640789363562 68.77939728421461 0 68.77939728421461 279.39985307811003 0 0 0 0 -193.22168091341882 286.95881199980613 0 286.95881199980613 -13.813642735076428 0 0 0 0 -83.358190799155636 173.25178216700624 0 173.25178216700624 -38.484774460663175 0 0 0 0 -11.78194350209742 68.822709125049641 0 68.822709125049641 113.1791633531011 0 0 0 0 73.336922007352769 20.102848324489514 0 20.102848324489514 -988.09921847634359 0 0 0 0 -15.801728554313897 16.049314100299018 0 16.049314100299018 -4.8019052945583827 0 0 0 0 123.20401928752108 151.11756950450081 0 151.11756950450081 304.56453691744355 0 0 0 0 45.277323205125867 39.197689661297773 0 39.197689661297773 194.17222481230965 0 0 0 0 31.838968115940588 172.85860022963061 0 172.85860022963061 387.09278793482736 0 0 0 0 147.8367287163328 170.05011638599535 0 170.05011638599535 330.92590031673899 0 0 0 0 80.84982301776472 137.10909854324746 0 137.10909854324746 406.5063955296456 0 0 0 0 254.05735204308803 292.80968441095047 0 292.80968441095047 408.30463082025381 0 0 0 0 330.98299554904588 353.39543931726894 0 353.39543931726894 370.88414091611958 0 0 0 0 -12.190323555259383 16.216040605879048 0 16.216040605879048 -14.312713787614445 0 0 0 0 179.05930043868011 861.77149902871076 0 861.77149902871076 491.8979812658381 0 0 0 0 -28.67012817381692 -184.16399772659679 0 -184.16399772659679 286.70390427016355 0 0 0 0 -13.485423988072398 372.65295361531025 0 372.65295361531025 -1022.1845511744195 0 0 0 0 300.04430713970214 615.24688870647151 0 615.24688870647151 -1847.2624397306681 0 0 0 0 -356.09653559583239 646.44281624132964 0 646.44281624132964 380.42363904528611 0 0 0 0 -2.8503581633631327 8.237608979958118 0 8.237608979958118 -9.707837246859242 0 0 0 0 -245.63625578733627 910.86386974763809 0 910.86386974763809 -1490.884103211175 0 0 0 0 500.08833288657843 278.24735539631547 0 278.24735539631547 -1281.2503276389884 0 0 0 0 -44.717928255366132 319.45867499424457 0 319.45867499424457 -947.30178023910503 0 0 0 0 542.09064303098421 -176.90389596935438 0 -176.90389596935438 -1026.3181539982731 0 0 0 0 -239.81998265082802 294.93431596388109 0 294.93431596388109 518.30743436057128 0 0 0 0 167.92942956000024 22.089825026172093 0 22.089825026172093 333.83656683655499 0 0 0 0 -132.8278824179506 280.8333524779755 0 280.8333524779755 159.12928066813402 0 0 0 0 -293.24719097771231 246.72296444391031 0 246.72296444391031 195.58977449650411 0 0 0 0 -118.52253098819347 333.54838778972044 0 333.54838778972044 10.916536656185599 0 0 0 0 -377.54430815243541 557.11534344694155 0 557.11534344694155 -130.61369266871043 0 0 0 0 188.20529162469757 118.83181465639609 0 118.83181465639609 -426.95415593171856 0 0 0 0 -171.36338151041855 663.70627228517696 0 663.70627228517696 -326.98329050309258 0 0 0 0 -297.69459838328657 394.8087598476759 0 394.8087598476759 -293.12717856141535 0 0 0 0 18.823066878338608 5.1521088740034582 0 5.1521088740034582 -26.334092119346504 0 0 0 0 -476.24901176831918 -221.17634844515851 0 -221.17634844515851 -1617.318727566384 0 0 0 0 -204.06741489977139 914.90513432788794 0 914.90513432788794 -1064.8359417513238 0 0 0 0 -495.53255336624716 893.78411006442366 0 893.78411006442366 -19.2417035720282 0 0 0 0 -271.93407298275815 503.37839493395336 0 503.37839493395336 -86.174340144447342 0 0 0 0 284.64071287040133 1493.9280788570395 0 1493.9280788570395 -1863.85463944808 0 0 0 0 316.74624639231479 1307.2478696476173 0 1307.2478696476173 -1978.7769714529331 0 0 0 0 52.514484710864053 52.565187028409127 0 52.565187028409127 222.51310081421252 0 0 0 0 67.192298524692887 47.978408617440437 0 47.978408617440437 148.63545639326912 0 0 0 0 36.445236233186733 79.525541188471834 0 79.525541188471834 183.97046589138336 0 0 0 0 73.151849144531297 63.005274717921566 0 63.005274717921566 175.19776256219484 0 0 0 0 -38.550665151306021 406.08704632638546 0 406.08704632638546 -23.14772040767275 0 0 0 0 52.196040835446297 105.62208174596319 0 105.62208174596319 46.62053341134326 0 0 0 0 116.57679466545233 -5.6858121140030562 0 -5.6858121140030562 204.65695276405495 0 0 0 0 167.48115078218416 359.24631003286231 0 359.24631003286231 434.02843033569661 0 0 0 0 269.4867752746286 35.322966423082107 0 35.322966423082107 44.477474021266971 0 0 0 0 161.35011875478085 124.32516876362934 0 124.32516876362934 -28.151949918130413 0 0 0 0 39.41166802488442 173.9227044451909 0 173.9227044451909 -23.540413934922071 0 0 0 0 81.823725657566683 57.437705565695069 0 57.437705565695069 100.7810183844922 0 0 0 0 108.63949929988303 84.123289844290412 0 84.123289844290412 138.35945730828098 0 0 0 0 102.05777842841053 68.072602725289471 0 68.072602725289471 105.33166197272658 0 0 0 0 67.577055186397047 55.787384640476375 0 55.787384640476375 132.88692466446082 0 0 0 0 88.441122115196777 30.541510841037962 0 30.541510841037962 123.48172227118994 0 0 0 0 89.901073462151544 74.944196471114992 0 74.944196471114992 25.551628284199978 0 0 0 0 14.890649813503842 46.764780573837925 0 46.764780573837925 14.981013463995623 0 0 0 0 159.79938016249798 89.281130323273828 0 89.281130323273828 -18.679423148991191 0 0 0 0 159.37632871263486 98.732423284069228 0 98.732423284069228 39.155558549158741 0 0 0 0 100.48152193427086 102.62753572822112 0 102.62753572822112 159.89848941108357 0 0 0 0 252.81793061304779 168.19316324821557 0 168.19316324821557 85.500392639587517 0 0 0 0 204.74804307286104 97.908392241013644 0 97.908392241013644 76.271901788008108 0 0 0 0 301.39583367749583 84.977571107097901 0 84.977571107097901 37.631645971283433 0 0 0 0 253.0489573902305 141.24150169070344 0 141.24150169070344 -13.493248561375367 0 0 0 0 261.54843725309911 164.91042793965244 0 164.91042793965244 -16.391609463164059 0 0 0 0 30.297811629950502 112.56107265845117 0 112.56107265845117 -7.5630466595684993 0 0 0 0 252.34091841743793 147.2060526371406 0 147.2060526371406 56.538578280349611 0 0 0 0 197.29150940891122 144.88114864348609 0 144.88114864348609 63.008228541439166 0 0 0 0 414.17649528257886 399.42267377442977 0 399.42267377442977 319.49712320109393 0 0 0 0 -17.207884411266129 79.660921206228011 0 79.660921206228011 -27.728925115207041 0 0 0 0 -62.703297606875822 -114.54525643267311 0 -114.54525643267311 -1038.5319773634528 0 0 0 0 168.73075546514241 130.20190520334577 0 130.20190520334577 20.920330285383205 0 0 0 0 -369.43480681969959 1273.7843505344208 0 1273.7843505344208 -404.5269933236068 0 0 0 0 38.557420273839554 41.127896455112904 0 41.127896455112904 -0.65866665705998173 0 0 0 0 -1093.8733626651976 970.11128599921631 0 970.11128599921631 -550.10597866371972 0 0 0 0 -384.63285934759915 666.30576563676368 0 666.30576563676368 -96.610481186375182 0 0 0 0 -361.26369532398166 425.83568245094102 0 425.83568245094102 -896.37442277380615 0 0 0 0 110.61478101411194 128.68786295008795 0 128.68786295008795 136.30359673087514 0 0 0 0 101.80717729507491 130.47413876282693 0 130.47413876282693 62.650483808230561 0 0 0 0 18.293855898900802 1252.3422535537047 0 1252.3422535537047 -1440.8322454501395 0 0 0 0 -7.6639904793134903 20.161518866143393 0 20.161518866143393 32.827909463095367 0 0 0 0 -7.1558449046133319 1020.963163130531 0 1020.963163130531 -1641.3481490275753 0 0 0 0 256.59801804721064 128.98118477032403 0 128.98118477032403 136.09974258370494 0 0 0 0 32.847621284908996 33.52271801241902 0 33.52271801241902 33.943408170862924 0 0 0 0 -1115.6841746424179 -470.28583679650183 0 -470.28583679650183 -2236.2888317677425 0 0 0 0 -499.53453658350554 -295.52622012063966 0 -295.52622012063966 239.18257033669215 0 0 0 0 1130.8536198210204 78.827621032214665 0 78.827621032214665 -729.64859677347158 0 0 0 0 -283.9928204715834 771.26900462207414 0 771.26900462207414 -562.94822794321226 0 0 0 0 625.87141760940722 -957.29441782891809 0 -957.29441782891809 103.8725482189202 0 0 0 0 -1112.783239274002 1156.4256724315674 0 1156.4256724315674 730.18003842046892 0 0 0 0 -1077.1871361288649 1080.4217782277847 0 1080.4217782277847 339.76407069322886 0 0 0 0 -2888.9139788858447 1327.9280266534297 0 1327.9280266534297 55.911113865993684 0 0 0 0 -1211.6881148476823 896.10569942890288 0 896.10569942890288 160.72592129297846 0 0 0 0 -1441.2714462931326 1383.0005345008176 0 1383.0005345008176 60.90512312122155 0 0 0 0 -501.24851942498935 1670.5598640758762 0 1670.5598640758762 -1092.2881350876269 0 0 0 0 292.19110641757788 1072.5065124756877 0 1072.5065124756877 -1100.3262252500281 0 0 0 0 290.21021433206624 1040.0792835835018 0 1040.0792835835018 -590.97049905090535 0 0 0 0 382.11783044541517 1233.7854334156655 0 1233.7854334156655 -1324.0248431271793 0 0 0 0 335.16384368072249 1127.3550273459077 0 1127.3550273459077 -1098.8803289919306 0 0 0 0 -600.83550519540586 2454.1334094366975 0 2454.1334094366975 -2633.7117387208709 0 0 0 0 48.166925797171643 13.526566570706564 0 13.526566570706564 -2.4403710826154565 0 0 0 0 808.90088417872175 61.807819232797556 0 61.807819232797556 -1190.3777844678461 0 0 0 0 -3.1555601085356173 -2.396358377162457 0 -2.396358377162457 -25.608820128306974 0 0 0 0 -3719.0035307985963 1558.7340254406408 0 1558.7340254406408 -364.94538192996697 0 0 0 0 -1113.1112044932306 811.60333018436086 0 811.60333018436086 -426.31198999578191 0 0 0 0 -802.18546638294356 1899.8484699352266 0 1899.8484699352266 -2437.865247236638 0 0 0 0 -930.67693381766003 1213.2080151129412 0 1213.2080151129412 -649.37191970019194 0 0 0 0 -345.33681217998674 750.29875819775043 0 750.29875819775043 -939.59453816212408 0 0 0 0 9.0536574432408088 621.27107057187823 0 621.27107057187823 -621.80893292356632 0 0 0 0 284.49092448390729 399.68639866540616 0 399.68639866540616 -674.22061356276754 0 0 0 0 -444.39435869064255 714.87597037513842 0 714.87597037513842 -390.60179853343288 0 0 0 0 -143.1661601442247 352.44931891821034 0 352.44931891821034 -88.160927264020756 0 0 0 0 -179.93566476403794 424.41124008123006 0 424.41124008123006 -195.13980261154211 0 0 0 0 224.58795612992253 374.90798076339706 0 374.90798076339706 -280.18964187515303 0 0 0 0 -28.271028658949945 134.8196938274923 0 134.8196938274923 262.13581577150035 0 0 0 0 102.21986513132288 25.57047039995814 0 25.57047039995814 -21.571297748500001 0 0 0 0 -50.580636389720894 -274.66894931631396 0 -274.66894931631396 1150.2827820217281 0 0 0 0 3.4025912365863462 -0.46739404613877866 0 -0.46739404613877866 -0.3855943190533111 0 0 0 0 362.02966971368005 247.70082287755213 0 247.70082287755213 -748.19111628881001 0 0 0 0 546.95837112741719 -153.47705895717809 0 -153.47705895717809 68.329656943213195 0 0 0 0 -440.96763386301609 -847.46493549073784 0 -847.46493549073784 1319.0393858622556 0 0 0 0 -71.617342142853886 351.50212277640094 0 351.50212277640094 -1446.8501231018745 0 0 0 0 -274.27295550246345 41.093962407525396 0 41.093962407525396 201.96458421407442 0 0 0 0 166.97323012489505 500.40873981450568 0 500.40873981450568 631.33356902815285 0 0 0 0 -297.16644447860745 175.55464229178688 0 175.55464229178688 -607.97430700659243 0 0 0 0 17.657210919966388 96.842086572237122 0 96.842086572237122 20.737596344726104 0 0 0 0 10.064047808367803 7.6583887926876457 0 7.6583887926876457 7.1990523815100858 0 0 0 0 371.06828790481086 214.79422021706705 0 214.79422021706705 -739.12237940057821 0 0 0 0 74.644561416258512 344.08005684459931 0 344.08005684459931 -182.22212786619093 0 0 0 0 -157.87119991240615 289.59120406524744 0 289.59120406524744 96.184400429796597 0 0 0 0 580.25407824573631 622.05873846120448 0 622.05873846120448 -43.297932947647496 0 0 0 0 -224.32312602945603 -334.74482059171714 0 -334.74482059171714 -15.876458195477426 0 0 0 0 0.049527679955787107 4.7184869964208351 0 4.7184869964208351 4.625660547285964 0 0 0 0 -61.55034908259131 496.02291496063435 0 496.02291496063435 -324.53351161361752 0 0 0 0 362.25405419435992 564.46842663986172 0 564.46842663986172 -322.21021836534237 0 0 0 0 181.38991443761915 121.69616710920855 0 121.69616710920855 -57.379141128829474 0 0 0 0 153.66425379241264 207.74241727295885 0 207.74241727295885 -387.65368933548052 0 0 0 0 187.8204301357473 384.57675408867181 0 384.57675408867181 -279.61607095221552 0 0 0 0 -390.84876712283585 326.4625803842282 0 326.4625803842282 94.094075245472595 0 0 0 0 -519.29407587211608 324.22879821113111 0 324.22879821113111 33.831124271346198 0 0 0 0 -237.37673836426984 206.354995405507 0 206.354995405507 60.042501535979682 0 0 0 0 -114.03666714503925 319.12220880599307 0 319.12220880599307 -162.30120590043589 0 0 0 0 -132.69906893504958 404.87213026995414 0 404.87213026995414 -312.0706810508018 0 0 0 0 -22.955303585506044 423.29583682978227 0 423.29583682978227 -636.09538978167257 0 0 0 0 -292.59380124545714 553.55750818634624 0 553.55750818634624 -422.30629514356042 0 0 0 0 -114.482439234911 357.31380262903076 0 357.31380262903076 -453.28102965568769 0 0 0 0 -911.67637900396949 635.67563516475093 0 635.67563516475093 -107.58706646637165 0 0 0 0 -154.72487417826778 -66.77618297205936 0 -66.77618297205936 125.54967832502007 0 0 0 0 -3.8663334067656905 5.8548021062245894 0 5.8548021062245894 -4.2679839281489578 0 0 0 0 -552.68702420080081 133.40560803546759 0 133.40560803546759 245.76213690907935 0 0 0 0 69.494838361970324 71.334410242108788 0 71.334410242108788 96.720882708849786 0 0 0 0 -368.31214268057374 216.46678089671332 0 216.46678089671332 17.988142232434257 0 0 0 0 -468.57815983776527 165.38600536006743 0 165.38600536006743 161.34450804604421 0 0 0 0 -239.05576877645217 24.576916207155591 0 24.576916207155591 176.18379502061089 0 0 0 0 -260.91952190668235 191.77373447698847 0 191.77373447698847 -638.34090522303813 0 0 0 0 -100.40082580286253 67.791878855838149 0 67.791878855838149 145.23423454258318 0 0 0 0 -75.417241296410793 -17.671039774715609 0 -17.671039774715609 167.9700141717949 0 0 0 0 -206.21051983798679 14.178400232185595 0 14.178400232185595 203.98419907734387 0 0 0 0 -344.00357174231613 163.35995548236679 0 163.35995548236679 115.053072476956 0 0 0 0 -20.488643120605332 94.217636913574196 0 94.217636913574196 42.688849820998072 0 0 0 0 -1289.1742546108289 844.50912095121748 0 844.50912095121748 938.150703738007 0 0 0 0 -199.01097108034446 50.060096849038018 0 50.060096849038018 180.30283930897349 0 0 0 0 -135.84081871619856 -27.244173446983041 0 -27.244173446983041 209.07835664691811 0 0 0 0 -941.87241355309379 313.89192549562722 0 313.89192549562722 856.66524337056944 0 0 0 0 33.54199646751222 27.300625247207464 0 27.300625247207464 -22.350444821548024 0 0 0 0 284.1226814618858 62.885317205887986 0 62.885317205887986 -221.90202829497866 0 0 0 0 387.57690897800057 216.94658718475694 0 216.94658718475694 -688.77451212579035 0 0 0 0 56.219248519810208 769.70814592692477 0 769.70814592692477 -805.72311901397188 0 0 0 0 160.54932161715988 459.0276227726572 0 459.0276227726572 -131.6439549641218 0 0 0 0 -592.07639907245175 1003.8579835305718 0 1003.8579835305718 -462.7549053387047 0 0 0 0 -499.2535494104086 749.92988858390891 0 749.92988858390891 51.940841001661965 0 0 0 0 -1194.1047804727568 585.91280487958284 0 585.91280487958284 660.83469482701912 0 0 0 0 81.374550070264377 -118.57578743622435 0 -118.57578743622435 177.43262482422142 0 0 0 0 -32.637377609222312 58.942438641242916 0 58.942438641242916 215.52066160184313 0 0 0 0 0.061081393803760875 10.028880353147542 0 10.028880353147542 285.2946284800928 0 0 0 0 -1.0519292498356663 77.343883035588078 0 77.343883035588078 482.15909308918344 0 0 0 0 -54.012756634983816 48.361333443110198 0 48.361333443110198 989.39211326179793 0 0 0 0 159.11846613709349 -365.85748982805671 0 -365.85748982805671 278.18090879516603 0 0 0 0 38.59689969997271 -620.17794348617463 0 -620.17794348617463 851.79821839174838 0 0 0 0 -65.834924701997807 528.9276672098274 0 528.9276672098274 1464.0713767544075 0 0 0 0 -461.92266899008246 1325.9667232086686 0 1325.9667232086686 -43.542222443566061 0 0 0 0 163.66063076345017 119.6231983833477 0 119.6231983833477 75.946641684342467 0 0 0 0 1.9224572827661177 -79.163484409682496 0 -79.163484409682496 217.13907182022012 0 0 0 0 204.29849380419546 174.43440083104906 0 174.43440083104906 103.45778244483154 0 0 0 0 -7.7452249417683916 1.3262380965898615 0 1.3262380965898615 3.6622466452449274 0 0 0 0 261.44116386029054 317.75326764224155 0 317.75326764224155 328.64409844213515 0 0 0 0 63.717741731968999 147.98110971698225 0 147.98110971698225 183.65735272686652 0 0 0 0 133.97140307258815 229.10449659443839 0 229.10449659443839 262.92837986076665 0 0 0 0 -11.114174181549402 11.880747338576413 0 11.880747338576413 -3.5290541692864856 0 0 0 0 -490.66631531403982 -157.62329804836008 0 -157.62329804836008 961.70935764679962 0 0 0 0 640.90483698887692 262.47402700487237 0 262.47402700487237 -2377.7288897531344 0 0 0 0 794.02613292849128 268.23573016779346 0 268.23573016779346 -2380.6376632010197 0 0 0 0 -19.205861338783507 8.1865561604752486 0 8.1865561604752486 -2.7149453048525167 0 0 0 0 -1026.9036522660608 106.11334443616215 0 106.11334443616215 849.52917427492412 0 0 0 0 530.12005456642146 561.89951158467375 0 561.89951158467375 -2080.5735663193555 0 0 0 0 -141.86850080981094 399.13677607016689 0 399.13677607016689 -2117.2196002343244 0 0 0 0 -833.85361342852411 -465.32819415343374 0 -465.32819415343374 -988.51166250341339 0 0 0 0 340.27601365552982 -432.61637975494887 0 -432.61637975494887 649.49964400815952 0 0 0 0 252.90573675668566 618.87416815652068 0 618.87416815652068 -811.13900345857724 0 0 0 0 437.92191216579158 -62.94423484469371 0 -62.94423484469371 0.98952440317589208 0 0 0 0 211.80524368826082 235.35095538737642 0 235.35095538737642 -9.2109773326483264 0 0 0 0 977.48041898636438 6.1380879048456336 0 6.1380879048456336 5.6883251448452938 0 0 0 0 11.542986232409021 305.333467717026 0 305.333467717026 -80.099793902418696 0 0 0 0 -198.10505364025448 284.96247426068203 0 284.96247426068203 133.42552594094013 0 0 0 0 -624.38263123750221 507.78805087719775 0 507.78805087719775 291.80583282881344 0 0 0 0 -272.56860524930744 75.612596152383503 0 75.612596152383503 793.95307530069113 0 0 0 0 -274.0537294314272 43.945192555484027 0 43.945192555484027 385.61752923309723 0 0 0 0 137.50865060534124 109.83878909458235 0 109.83878909458235 -340.24925950527086 0 0 0 0 -45.61580861804201 19.623444509070353 0 19.623444509070353 -4.0386464021773438 0 0 0 0 -268.42941673651512 115.19495088346594 0 115.19495088346594 -506.95767403973286 0 0 0 0 -819.18313451956783 561.69486011234403 0 561.69486011234403 1280.410420433197 0 0 0 0 137.74760093985236 28.006716296916647 0 28.006716296916647 -677.95073662181676 0 0 0 0 -253.7080074341502 735.08590680180077 0 735.08590680180077 -1245.4548213183371 0 0 0 0 147.72932072496769 -215.1551337660203 0 -215.1551337660203 -745.37039806645043 0 0 0 0 -1720.0918344410893 -70.444785203091669 0 -70.444785203091669 1012.1336787352757 0 0 0 0 881.91569344850723 -150.15941465093601 0 -150.15941465093601 -2533.691104720474 0 0 0 0 -14.370057771362411 12.083609984567957 0 12.083609984567957 -7.2901028633519935 0 0 0 0 13.231370080914985 -154.45700163213689 0 -154.45700163213689 915.80284767740886 0 0 0 0 -188.78434744873084 462.51711384974806 0 462.51711384974806 1520.8852124648765 0 0 0 0 -194.21293361065182 810.14621487636396 0 810.14621487636396 534.12629146629843 0 0 0 0 -127.04374459784049 1007.9308869772442 0 1007.9308869772442 56.477048880838993 0 0 0 0 44.320328675043129 427.30000835577721 0 427.30000835577721 210.01683889394189 0 0 0 0 198.39199822815863 94.165652387478985 0 94.165652387478985 805.35215578126645 0 0 0 0 -4.2785105487746478 420.94440759817371 0 420.94440759817371 336.45566496711763 0 0 0 0 124.58341373675535 334.47249055833356 0 334.47249055833356 387.75339808618446 0 0 0 0 202.60141139310872 39.042155669309068 0 39.042155669309068 483.49537381409937 0 0 0 0 -83.790647102548974 337.46866443468025 0 337.46866443468025 53.281056243118655 0 0 0 0 -299.57588794724143 318.82388291608186 0 318.82388291608186 252.55662103942814 0 0 0 0 -329.19016194208052 183.29203983925299 0 183.29203983925299 -12.661365045016282 0 0 0 0 -64.852942518220516 402.28896646833527 0 402.28896646833527 84.206066382495919 0 0 0 0 264.25286956382479 478.19250184560224 0 478.19250184560224 20.345419982582825 0 0 0 0 -58.4277710028 400.32944749641183 0 400.32944749641183 113.87806347081641 0 0 0 0 -112.01978767132823 446.62638299308128 0 446.62638299308128 170.23747724257919 0 0 0 0 -85.518544559810834 513.65082395247464 0 513.65082395247464 339.41922016677927 0 0 0 0 122.56609336119948 564.78713418609391 0 564.78713418609391 348.93518396786749 0 0 0 0 -367.79632467344345 418.39838971726931 0 418.39838971726931 475.59045037896067 0 0 0 0 -198.90604987618281 473.9176000919806 0 473.9176000919806 431.2514691608485 0 0 0 0 -457.86603820321761 521.86399514747245 0 521.86399514747245 716.28785532029178 0 0 0 0 -1221.338969058379 312.54799255709349 0 312.54799255709349 870.00052568877436 0 0 0 0 -571.68741441422753 406.01787154009435 0 406.01787154009435 599.48311444175852 0 0 0 0 -716.83059660718573 881.45111494997786 0 881.45111494997786 1406.2527348240874 0 0 0 0 -740.14839776536974 197.96754684214466 0 197.96754684214466 706.79483650337716 0 0 0 0 -879.53435351476946 -102.65269553992039 0 -102.65269553992039 113.84101901109534 0 0 0 0 -319.60721815713623 390.18937040717537 0 390.18937040717537 132.78534544082686 0 0 0 0 -394.51906077822059 150.46562724679097 0 150.46562724679097 -633.81038573460137 0 0 0 0 1154.8048533398469 1053.3063296724449 0 1053.3063296724449 987.17395417934313 0 0 0 0 971.47301694152338 1294.2674357021269 0 1294.2674357021269 534.90068526629329 0 0 0 0 2.5269570273609361 7.0374322465448955 0 7.0374322465448955 8.9857112054967132 0 0 0 0 1645.5517298276245 735.3644098375371 0 735.3644098375371 -909.72620176350301 0 0 0 0 6.3144588826602615 5.1755595564252559 0 5.1755595564252559 2.6035463526919429 0 0 0 0 1127.8533033544445 1246.2225401476135 0 1246.2225401476135 539.00476732810057 0 0 0 0 -93.386064163052652 678.7555832168473 0 678.7555832168473 894.77315913358507 0 0 0 0 57.317469702167728 -193.73115805081943 0 -193.73115805081943 189.53588141639375 0 0 0 0 473.43433115472817 -327.76532894536217 0 -327.76532894536217 330.97389416781152 0 0 0 0 387.02532279603111 78.958048844337554 0 78.958048844337554 407.46973063605765 0 0 0 0 1116.8514477491117 867.74489240557887 0 867.74489240557887 -107.99799033756699 0 0 0 0 1055.9190344923832 -72.366390730231473 0 -72.366390730231473 182.58662128157266 0 0 0 0 2889.7430205899946 -128.2308437729962 0 -128.2308437729962 64.274271258358567 0 0 0 0 13.25449836786791 20.642353095892631 0 20.642353095892631 37.101043568030391 0 0 0 0 -814.02233835862717 106.5517723870189 0 106.5517723870189 1736.5479127582148 0 0 0 0 2107.7585669364853 1665.1526010721627 0 1665.1526010721627 1100.7480592578213 0 0 0 0 1401.7259298737554 610.27256923001914 0 610.27256923001914 157.51302022130039 0 0 0 0 163.29657611878065 436.96845614344784 0 436.96845614344784 3348.7200628737573 0 0 0 0 160.33876780835271 -196.09508740713682 0 -196.09508740713682 683.57118336936037 0 0 0 0 132.63125734891219 825.96002685204985 0 825.96002685204985 1732.6893200278409 0 0 0 0 -449.41724816404167 380.04262961882887 0 380.04262961882887 690.1625202996438 0 0 0 0 -30.679314795001119 180.51821199610822 0 180.51821199610822 255.63464547246804 0 0 0 0 -646.8497394991864 -26.259941154867192 0 -26.259941154867192 911.32609850084009 0 0 0 0 -800.15736875434959 -119.17658913018658 0 -119.17658913018658 153.21766912642124 0 0 0 0 -672.70965711472672 -208.15293394619403 0 -208.15293394619403 157.51682940672254 0 0 0 0 -3.0709692300921532 6.5451928035736131 0 6.5451928035736131 13.766002495587976 0 0 0 0 -905.45306647721736 -198.44042589749552 0 -198.44042589749552 249.53928468985396 0 0 0 0 -925.43560890296067 -106.03802538633772 0 -106.03802538633772 78.911942379330867 0 0 0 0 -421.69869975253823 -887.84298730286264 0 -887.84298730286264 -2040.2766944454124 0 0 0 0 -1377.8657882424232 550.61087529394899 0 550.61087529394899 1212.3166962382493 0 0 0 0 -436.90236999563058 416.17088183729356 0 416.17088183729356 -245.24168239915161 0 0 0 0 -830.668422962779 -253.78142837817086 0 -253.78142837817086 224.53309822136725 0 0 0 0 -522.44173173594027 788.83234204118253 0 788.83234204118253 144.34106315363169 0 0 0 0 3.0493296981631204 10.340712962797397 0 10.340712962797397 15.836228816966177 0 0 0 0 -1080.8918876419921 653.23344435641866 0 653.23344435641866 421.0709240480428 0 0 0 0 -563.45125261986686 711.28198320903721 0 711.28198320903721 899.31140641274033 0 0 0 0 -446.59397731024364 -130.46920186143507 0 -130.46920186143507 -260.86893849422177 0 0 0 0 713.82887667131308 724.29549590018098 0 724.29549590018098 5.5696704881629557 0 0 0 0 712.71022629820072 717.16633252183783 0 717.16633252183783 366.93374219293764 0 0 0 0 207.8692743667707 -69.430567651897036 0 -69.430567651897036 423.72274817392463 0 0 0 0 524.16036840045126 1143.4831761833666 0 1143.4831761833666 961.46793222519409 0 0 0 0 -5.0828447334168807 -7.3968407177907807 0 -7.3968407177907807 -9.8409367794508427 0 0 0 0 188.58358973412396 287.08448976114687 0 287.08448976114687 -1114.1289510569695 0 0 0 0 -3532.8803478259215 966.80671569895276 0 966.80671569895276 903.5393928034573 0 0 0 0 -969.0463687093652 501.07522973893265 0 501.07522973893265 586.67953935949117 0 0 0 0 -552.0610261480324 642.80730647857126 0 642.80730647857126 -199.24619477397573 0 0 0 0 -689.17672923844657 433.76453096774276 0 433.76453096774276 199.98595646309695 0 0 0 0 75.508337785453492 104.2589523714515 0 104.2589523714515 147.59156519514909 0 0 0 0 -157.58744228217984 937.00489960198229 0 937.00489960198229 -210.10611806603629 0 0 0 0 463.41119515649552 28.670367094670837 0 28.670367094670837 74.316231856886589 0 0 0 0 -855.89974455694755 746.98705870378672 0 746.98705870378672 42.80676168071659 0 0 0 0 42.440117519746536 64.729818150496413 0 64.729818150496413 96.59045183912302 0 0 0 0 -567.25754404078907 331.15723494740269 0 331.15723494740269 31.820568008577538 0 0 0 0 -831.49633483857178 255.89134889837305 0 255.89134889837305 464.25762642429527 0 0 0 0 -593.3645909918996 414.125063126643 0 414.125063126643 434.03128529494916 0 0 0 0 -412.0870415815516 92.350363030021981 0 92.350363030021981 646.99819204165669 0 0 0 0 -559.71031329255493 535.96625741692515 0 535.96625741692515 277.30086157266442 0 0 0 0 -398.60997608247999 137.61029179947991 0 137.61029179947991 540.92629391066566 0 0 0 0 -237.66161284486589 114.20974407686344 0 114.20974407686344 421.48523113122087 0 0 0 0 -239.0797406180136 219.32364938986575 0 219.32364938986575 794.61828033981419 0 0 0 0 53.272376682638424 -157.67296748899344 0 -157.67296748899344 664.63907798750279 0 0 0 0 -201.91909072262933 264.79426201115348 0 264.79426201115348 575.91843610738124 0 0 0 0 259.71970076020807 -157.05082387854236 0 -157.05082387854236 615.36785811806294 0 0 0 0 123.14143210934708 86.617122752719297 0 86.617122752719297 580.14077534629814 0 0 0 0 -198.83486750069972 -50.044848243082612 0 -50.044848243082612 731.94622420152746 0 0 0 0 107.2721792570228 -85.676046650804892 0 -85.676046650804892 760.19174523760125 0 0 0 0 131.58610278034757 -293.98462274314261 0 -293.98462274314261 828.38943869528794 0 0 0 0 744.08890003970009 2805.8385513713711 0 2805.8385513713711 -3845.3085544237983 0 0 0 0 1476.3071396420273 940.85736725009701 0 940.85736725009701 -4789.4759052916488 0 0 0 0 85.283565272452904 101.50872231732347 0 101.50872231732347 56.708941362805298 0 0 0 0 17.25535232812399 471.44222000846639 0 471.44222000846639 -98.492688979276863 0 0 0 0 -1034.8196528321569 1303.8296207232124 0 1303.8296207232124 -4726.8146851490455 0 0 0 0 -59.057002245184606 37.999150460749163 0 37.999150460749163 27.717252354060612 0 0 0 0 239.02909308452945 2391.5774096458663 0 2391.5774096458663 -7199.9270668220488 0 0 0 0 -170.44936950292322 1406.6048499188146 0 1406.6048499188146 -5221.095147486827 0 0 0 0 -588.22134191913938 2974.11633961798 0 2974.11633961798 -6043.9779898771194 0 0 0 0 0.56475430605325982 8.434019580596555 0 8.434019580596555 -44.545538001203212 0 0 0 0 -819.01771826331969 1795.1176895977314 0 1795.1176895977314 -765.90636649433145 0 0 0 0 -47.763815799567965 1543.674015718947 0 1543.674015718947 -3475.9058445070568 0 0 0 0 -604.88726929260883 1487.7439155511493 0 1487.7439155511493 -3466.3065661841756 0 0 0 0 -401.09592651040293 2257.4740579165773 0 2257.4740579165773 -3061.345845392636 0 0 0 0 -57.435058751361794 1986.4253049117979 0 1986.4253049117979 -3450.0276502792517 0 0 0 0 -588.5089949097428 1981.7791050504945 0 1981.7791050504945 -3446.8429092715669 0 0 0 0 41.286899897503815 136.42735915243634 0 136.42735915243634 45.608831941036925 0 0 0 0 65.590235803741962 -7.894868208830303 0 -7.894868208830303 -2656.7720260184942 0 0 0 0 -315.44033491810842 187.58045468585715 0 187.58045468585715 718.63663786228972 0 0 0 0 28.012004625986435 130.71191630048659 0 130.71191630048659 33.88812957035848 0 0 0 0 -542.56287296236587 457.04297122552202 0 457.04297122552202 551.25075145722803 0 0 0 0 -1549.8668367326172 613.98987016616229 0 613.98987016616229 -454.48062907779968 0 0 0 0 557.28338758594327 1106.5108943915584 0 1106.5108943915584 -2863.8892999923191 0 0 0 0 -2091.5595347892231 1992.5520632430598 0 1992.5520632430598 -2950.9710017663679 0 0 0 0 -1699.0317635353422 3289.3013292588803 0 3289.3013292588803 -6480.1075975448693 0 0 0 0 -968.20193843988818 846.24356623706626 0 846.24356623706626 -5155.8000588731375 0 0 0 0 3.9867814960410328 19.613513498164821 0 19.613513498164821 -5.682904389379658 0 0 0 0 -2947.6760528616433 3220.4587310910429 0 3220.4587310910429 -4540.9010221524586 0 0 0 0 -4053.8269451342057 4008.6815623488264 0 4008.6815623488264 -5071.1816284822999 0 0 0 0 -658.6140708590101 2436.8495470123089 0 2436.8495470123089 -5841.5624155443656 0 0 0 0 -33.155915280176998 178.09462036952883 0 178.09462036952883 -33.435213827942022 0 0 0 0 -726.71913808588579 768.2346059185802 0 768.2346059185802 2143.9364890900324 0 0 0 0 837.89853796676107 -21.1679636684039 0 -21.1679636684039 -394.31082978947234 0 0 0 0 -589.77132204435475 220.76278561699291 0 220.76278561699291 529.03271456476796 0 0 0 0 -14.680933752795681 518.03077427553944 0 518.03077427553944 -84.539204321281431 0 0 0 0 364.34414436381485 -409.18729904703287 0 -409.18729904703287 -708.56619374497677 0 0 0 0 352.72942930700083 -192.43929698269858 0 -192.43929698269858 215.37267103139857 0 0 0 0 602.02443189089536 454.27973352769914 0 454.27973352769914 34.668370025199692 0 0 0 0 277.06885294694803 414.14572083122403 0 414.14572083122403 -829.4507656216183 0 0 0 0 -143.94304213087889 2375.4856450185052 0 2375.4856450185052 -4228.0863362252749 0 0 0 0 129.43280811302742 61.279842337388629 0 61.279842337388629 -11.531647029660668 0 0 0 0 52.541506366469548 -37.794562234270188 0 -37.794562234270188 -4072.6664695259387 0 0 0 0 16.169036847015377 -903.28639264748563 0 -903.28639264748563 1192.6783044475414 0 0 0 0 46.010353825497816 8.8992537553887558 0 8.8992537553887558 3.9545054268778159 0 0 0 0 -319.39160722238012 464.36844567884691 0 464.36844567884691 1.7563051338947844 0 0 0 0 47.888622342565213 459.8889725393874 0 459.8889725393874 -931.08903512964753 0 0 0 0 -705.48456097251619 1608.3001163119125 0 1608.3001163119125 -1461.9884653077097 0 0 0 0 -482.1448161326698 1777.6346116052628 0 1777.6346116052628 -1594.0306926660523 0 0 0 0 -1787.4074361555104 3382.2655776718148 0 3382.2655776718148 -2319.8987256623077 0 0 0 0 1679.8145760190382 -324.16077343885263 0 -324.16077343885263 -1139.5188974772245 0 0 0 0 317.04731414283015 2695.819943131427 0 2695.819943131427 -439.39576193641551 0 0 0 0 234.47985736175906 147.54636309767375 0 147.54636309767375 -1474.6666118912981 0 0 0 0 -12.551781988207949 101.30289037071634 0 101.30289037071634 -1468.9582219227523 0 0 0 0 7.1185175058195114 88.684596068575246 0 88.684596068575246 92.632384245718612 0 0 0 0 17.999092804072802 15.358853355466138 0 15.358853355466138 35.720741758252409 0 0 0 0 -280.44658330942184 -430.0767749243696 0 -430.0767749243696 -1240.2402264444536 0 0 0 0 -288.9712400266435 -350.15541738998581 0 -350.15541738998581 -1559.3341650614748 0 0 0 0 368.09656385202834 -274.37981891519303 0 -274.37981891519303 -1826.1613866361877 0 0 0 0 260.41797165671596 -9.7730597692061565 0 -9.7730597692061565 -1726.1436809520819 0 0 0 0 580.42093265117728 185.04999324625896 0 185.04999324625896 -1829.2299237052648 0 0 0 0 513.25205775251379 181.97311374334095 0 181.97311374334095 -1651.1960143154902 0 0 0 0 793.89145088021178 452.50833439999406 0 452.50833439999406 -1617.6677891789877 0 0 0 0 -0.91377786353660895 70.452371704080392 0 70.452371704080392 -4.8104341043580341 0 0 0 0 15.952178133851334 61.068394414165809 0 61.068394414165809 17.154029793439808 0 0 0 0 -4.964865268470021 49.996277991151146 0 49.996277991151146 -41.395522042315861 0 0 0 0 476.45819762488827 337.24631368226255 0 337.24631368226255 -1388.900766239145 0 0 0 0 -7.6453966054250486 142.27841439684198 0 142.27841439684198 97.700287457038939 0 0 0 0 746.41624516024604 554.73876967287651 0 554.73876967287651 -1763.955900022891 0 0 0 0 685.23952423894661 433.14056909727515 0 433.14056909727515 -1533.7831650518347 0 0 0 0 393.83114032796584 268.5259760687768 0 268.5259760687768 -1472.0734042808763 0 0 0 0 584.75976909772726 321.19976807766943 0 321.19976807766943 -1658.4778525917354 0 0 0 0 613.61543642909601 698.4201092289004 0 698.4201092289004 -1105.8988683946081 0 0 0 0 357.34855165879708 810.8173439995735 0 810.8173439995735 -1015.0552196468707 0 0 0 0 815.40660697195563 745.07845236329013 0 745.07845236329013 -1398.2588586594793 0 0 0 0 606.14050469722133 638.02274508195114 0 638.02274508195114 -1452.2862953101139 0 0 0 0 633.90653527734685 485.95970951515483 0 485.95970951515483 -1363.6826077234509 0 0 0 0 396.56873505542171 361.88131371547934 0 361.88131371547934 -1238.8531779206241 0 0 0 0 568.4448222614883 438.05592770084331 0 438.05592770084331 -1398.5947602066153 0 0 0 0 -35.730029970291071 256.32937391919404 0 256.32937391919404 294.8724881786984 0 0 0 0 470.0569379630324 335.33133897672815 0 335.33133897672815 -1414.1198557555035 0 0 0 0 -12.80162079402362 -12.601031801104909 0 -12.601031801104909 101.86442602096616 0 0 0 0 -506.92652614988765 -469.01176732469821 0 -469.01176732469821 -310.1198337358237 0 0 0 0 -11.815096495805847 12.581689094935122 0 12.581689094935122 24.941282409249805 0 0 0 0 2.1298467872547917 -83.112298665781054 0 -83.112298665781054 269.10376458792666 0 0 0 0 -703.99642256554216 -206.99427558947355 0 -206.99427558947355 -251.03100371942401 0 0 0 0 -573.62614368244249 -451.4027504350197 0 -451.4027504350197 101.28439605475796 0 0 0 0 -516.57991683619184 -395.9183260917257 0 -395.9183260917257 -110.84237080544699 0 0 0 0 -515.93858843923954 -609.4105094767765 0 -609.4105094767765 232.54158471707888 0 0 0 0 -116.30557940574363 -792.39419230767453 0 -792.39419230767453 -1425.155303069454 0 0 0 0 -997.26888937270269 -786.11655183798939 0 -786.11655183798939 -140.05909696646995 0 0 0 0 -891.87137915422136 364.46087270030921 0 364.46087270030921 -1120.4502895631013 0 0 0 0 1226.652344681148 -1304.8278237990016 0 -1304.8278237990016 -118.16395709705284 0 0 0 0 -329.3457704824832 -64.048425328566964 0 -64.048425328566964 830.98521878624888 0 0 0 0 1559.0015945602281 243.08565045778414 0 243.08565045778414 -2688.9192898666151 0 0 0 0 2800.0783978116888 -1956.0598494476008 0 -1956.0598494476008 -642.91062979387607 0 0 0 0 1788.7238439589346 -232.25929300352891 0 -232.25929300352891 -2504.3685761520264 0 0 0 0 -181.70822115618648 1413.4087015885707 0 1413.4087015885707 -884.86996821520734 0 0 0 0 -439.28199078010221 2111.8359406110212 0 2111.8359406110212 1097.9168503883893 0 0 0 0 -117.29509007140587 1424.4144344855158 0 1424.4144344855158 -2044.8978284797522 0 0 0 0 -1502.3826318043866 805.37171572117222 0 805.37171572117222 -2314.9826120356192 0 0 0 0 14.971118535567257 118.55898396716856 0 118.55898396716856 17.006408922793849 0 0 0 0 -16.570056915777968 20.360502440948039 0 20.360502440948039 341.33006932329954 0 0 0 0 310.57944166002017 20.915221207409559 0 20.915221207409559 136.53228450107417 0 0 0 0 9.7932410129804737 8.250152151605338 0 8.250152151605338 -8.0125885660165537 0 0 0 0 -686.42326867223892 569.14019174990972 0 569.14019174990972 -3459.2282718186361 0 0 0 0 -230.05336871600593 -1068.8264534049486 0 -1068.8264534049486 -1888.0089859508953 0 0 0 0 182.12319970989483 -244.33563512285036 0 -244.33563512285036 -2787.432538017445 0 0 0 0 -1900.667055977533 2061.6540103037569 0 2061.6540103037569 -4384.0313111217911 0 0 0 0 -212.55124390652054 448.03708624563296 0 448.03708624563296 -3289.8573925108321 0 0 0 0 -1559.7353665086321 -206.65889325253374 0 -206.65889325253374 -2484.793712093182 0 0 0 0 -1749.2880091430416 2403.9874686924704 0 2403.9874686924704 -4250.8910517934801 0 0 0 0 -352.58169442406506 2194.0737888473341 0 2194.0737888473341 -4460.9861499924154 0 0 0 0 -868.38052232284099 742.96821420933702 0 742.96821420933702 -3309.6259207605435 0 0 0 0 -984.21920476709784 1194.0861053944136 0 1194.0861053944136 -5304.7167297096457 0 0 0 0 -1461.5751434584527 2230.9355497384495 0 2230.9355497384495 -4851.1689143874009 0 0 0 0 -752.3320922316052 1844.1084910006903 0 1844.1084910006903 -4698.246380909899 0 0 0 0 -127.61261580316997 31.441552075952217 0 31.441552075952217 15.508100152015047 0 0 0 0 1499.1073641660332 1706.4219092592466 0 1706.4219092592466 -2134.511548571958 0 0 0 0 422.76182599223102 2121.1129957775775 0 2121.1129957775775 874.86560881089827 0 0 0 0 -86.573063061216089 186.7139311462779 0 186.7139311462779 -1024.6410129314754 0 0 0 0 -4081.8551125636586 -2983.2589601005893 0 -2983.2589601005893 3657.3852874427539 0 0 0 0 -1960.1316292783449 4279.3341601739885 0 4279.3341601739885 -7879.2207344785638 0 0 0 0 -40.516812417684065 -4.4944231988296366 0 -4.4944231988296366 -2.5472790166669554 0 0 0 0 -6187.5884997440589 2048.7244590500268 0 2048.7244590500268 -1401.0593271645484 0 0 0 0 -1645.7094873721799 1589.6137512319619 0 1589.6137512319619 435.09689608972258 0 0 0 0 -1514.3048946675553 5281.1711454006654 0 5281.1711454006654 1079.3499440450832 0 0 0 0 976.48084895836655 5235.4769927119087 0 5235.4769927119087 -1137.6042948781542 0 0 0 0 5031.6748775030428 97.681162816712458 0 97.681162816712458 -2953.0404570040482 0 0 0 0 3226.4341019467574 3384.3180062571955 0 3384.3180062571955 928.9600053592003 0 0 0 0 -509.27940969271003 -1705.376708908756 0 -1705.376708908756 -757.93302324848719 0 0 0 0 65.552628216288213 -665.64051827166077 0 -665.64051827166077 -2219.4693970388034 0 0 0 0 2372.007391686042 353.91730693267164 0 353.91730693267164 -2524.1731707085855 0 0 0 0 1680.9780843641129 1355.5453279581852 0 1355.5453279581852 -1324.7188280180271 0 0 0 0 1052.7193587353104 -362.25396046513924 0 -362.25396046513924 -2596.3590410883717 0 0 0 0 1507.8722640172637 680.28545418688736 0 680.28545418688736 -1801.3291648777667 0 0 0 0 168.5267019956018 -334.29336487410865 0 -334.29336487410865 -1842.1882309646608 0 0 0 0 723.93414190190379 1175.8269632585216 0 1175.8269632585216 -1185.8898579858651 0 0 0 0 790.49074901830681 881.73408454348828 0 881.73408454348828 -1505.9003146820178 0 0 0 0 1150.6110199283285 788.64416853852163 0 788.64416853852163 -1649.8033543066267 0 0 0 0 879.93439304509957 896.59286304106354 0 896.59286304106354 -1595.9403943067446 0 0 0 0 986.61156723095337 397.89041343836288 0 397.89041343836288 -1954.2398801597737 0 0 0 0 1363.9937917589123 1134.7860222112431 0 1134.7860222112431 -1519.4865317616932 0 0 0 0 1189.9882244566543 805.70673139398423 0 805.70673139398423 -1819.9593544712261 0 0 0 0 663.84028209403914 1369.498536820447 0 1369.498536820447 -953.34178210765094 0 0 0 0 211.86636149815604 893.55599593381339 0 893.55599593381339 2142.6198246123431 0 0 0 0 -73.349653331584705 151.43834285915727 0 151.43834285915727 311.45671491294706 0 0 0 0 -45.875379888369935 276.61587153939399 0 276.61587153939399 876.8234610932459 0 0 0 0 750.48487999817007 1127.4517881026113 0 1127.4517881026113 -1054.8123420311058 0 0 0 0 1575.9206625945517 1389.0979992810899 0 1389.0979992810899 -1333.8531724456589 0 0 0 0 1085.8010734511045 1962.5000261889436 0 1962.5000261889436 851.28026986878831 0 0 0 0 40.078764564879066 24.174039236431582 0 24.174039236431582 18.040644085069516 0 0 0 0 -582.90779019638285 -72.45076604280257 0 -72.45076604280257 86.976988802663982 0 0 0 0 1535.7044791597291 1061.0431307050894 0 1061.0431307050894 1.5909141854863265 0 0 0 0 -314.30493286017008 71.063161521531583 0 71.063161521531583 -547.70359789892973 0 0 0 0 -51.064431978200446 1179.6249089538105 0 1179.6249089538105 -2282.3619066798638 0 0 0 0 -500.62923873900581 3205.1186167674095 0 3205.1186167674095 -1291.4300495142088 0 0 0 0 18.471358230579654 18.718067185282251 0 18.718067185282251 6.189710076224145 0 0 0 0 -461.70054175873747 1488.4368810863207 0 1488.4368810863207 1649.7095388807866 0 0 0 0 2539.1311508011568 3849.3930749437641 0 3849.3930749437641 59.029214446854894 0 0 0 0 98.865762004541466 3849.3199788406855 0 3849.3199788406855 2318.9984061799041 0 0 0 0 -1739.7301556024054 964.97392597820681 0 964.97392597820681 2281.8501122527668 0 0 0 0 -1474.7764095870516 2247.3574777928843 0 2247.3574777928843 -75.678918917576084 0 0 0 0 -578.37235301610053 3460.7096846717977 0 3460.7096846717977 1490.0817091513709 0 0 0 0 -530.89706220175867 1110.9263490459634 0 1110.9263490459634 1251.0089107947397 0 0 0 0 -3007.6396453318503 307.50442129418479 0 307.50442129418479 1211.1799434626446 0 0 0 0 -37.879906726542259 6.6342328681985876 0 6.6342328681985876 6.6236173687490947 0 0 0 0 999.94620320908143 -356.48017786808487 0 -356.48017786808487 -2976.0727584191045 0 0 0 0 86.324295414472545 748.90388382181459 0 748.90388382181459 -9.956346153645427 0 0 0 0 342.36540479864925 742.23615549642273 0 742.23615549642273 -28.966224011819577 0 0 0 0 306.12901175410661 617.60336963041482 0 617.60336963041482 -312.59823847799271 0 0 0 0 263.67967321561446 1415.8139777578253 0 1415.8139777578253 -679.95216256006461 0 0 0 0 2328.0233951640366 1233.1337498358262 0 1233.1337498358262 -1281.302162837419 0 0 0 0 -55.236936899604189 1204.6670047035013 0 1204.6670047035013 -191.77788330157637 0 0 0 0 1.3527570436500547 13.466587361298139 0 13.466587361298139 2.6969346373851408 0 0 0 0 183.51306003840546 20.489583814046455 0 20.489583814046455 -68.858053436008049 0 0 0 0 380.45313306175376 70.113275570882251 0 70.113275570882251 -364.41213815538504 0 0 0 0 434.84333547870483 377.71996670479712 0 377.71996670479712 -503.49893949943362 0 0 0 0 1065.6325101259208 170.42172678254428 0 170.42172678254428 368.80005307741521 0 0 0 0 247.44309579605761 1522.6504293074177 0 1522.6504293074177 -165.55597193379072 0 0 0 0 120.53496791730868 1151.2243855027918 0 1151.2243855027918 -1193.9999655747815 0 0 0 0 -2161.027606302363 1350.107369148056 0 1350.107369148056 -427.93875366801512 0 0 0 0 -3524.3093180970318 1861.3809549258003 0 1861.3809549258003 -712.18750983109203 0 0 0 0 -1739.1307198054419 1901.1740047106796 0 1901.1740047106796 -2302.4356351608731 0 0 0 0 20.988173358428469 34.647800753138711 0 34.647800753138711 35.857149516975824 0 0 0 0 -2582.2546494124836 3113.0872909174941 0 3113.0872909174941 -1837.7827045307204 0 0 0 0 -835.69144542627328 602.03135561813542 0 602.03135561813542 -284.73191687536746 0 0 0 0 -2598.2153497172476 2449.2398830197635 0 2449.2398830197635 -938.66187683012686 0 0 0 0 616.56630112804123 528.05583040149213 0 528.05583040149213 349.236032705463 0 0 0 0 -481.7752782007592 -299.49289927102654 0 -299.49289927102654 660.62777547149744 0 0 0 0 -724.74329312483314 -1014.7386297386183 0 -1014.7386297386183 -757.90629244007869 0 0 0 0 -33.03087933701164 -6.3255748236401956 0 -6.3255748236401956 1.2606084504125725 0 0 0 0 -730.76581599400379 1615.0019864890146 0 1615.0019864890146 -1658.7667400926803 0 0 0 0 -977.62625422634301 2117.6454037646108 0 2117.6454037646108 -2677.1607234405456 0 0 0 0 -2580.3485321085027 1231.3454556013166 0 1231.3454556013166 -1026.8839325035565 0 0 0 0 -1138.3461435457648 -848.31062618683427 0 -848.31062618683427 -1836.761091249522 0 0 0 0 1057.1846538854588 1638.8459351709062 0 1638.8459351709062 -3753.8904904418087 0 0 0 0 -684.80676742996729 1858.3905800504035 0 1858.3905800504035 2987.4466175465677 0 0 0 0 1211.2547235107049 3130.0957331814179 0 3130.0957331814179 -1123.4053686460102 0 0 0 0 -3549.7419740439364 1737.5180124062244 0 1737.5180124062244 679.70827312207257 0 0 0 0 278.70289168081945 -357.20565241082659 0 -357.20565241082659 1823.4057777285707 0 0 0 0 -32.757332980895512 54.22199268176837 0 54.22199268176837 5.5106280528826801 0 0 0 0 -1927.9224252108252 -262.10153537126462 0 -262.10153537126462 483.41139301352086 0 0 0 0 -384.4550274751964 10.824201923671353 0 10.824201923671353 285.79743636849162 0 0 0 0 905.70362848660443 1375.2022960783579 0 1375.2022960783579 -195.28111355027067 0 0 0 0 42.54594979766523 145.35358092890394 0 145.35358092890394 -7.0050904840361738 0 0 0 0 412.98395986791002 2932.4307043246808 0 2932.4307043246808 1894.8872235706076 0 0 0 0 -55.408894448123306 58.595575022996428 0 58.595575022996428 -27.800567579047396 0 0 0 0 570.62111330774496 1086.2232989793483 0 1086.2232989793483 -123.10489575302381 0 0 0 0 965.60624958926928 1379.9630460245917 0 1379.9630460245917 -1211.6436685316439 0 0 0 0 602.98910246117157 293.74031614639534 0 293.74031614639534 -1278.6940910913108 0 0 0 0 610.90476112619217 1254.3954461701433 0 1254.3954461701433 -211.74218297553307 0 0 0 0 145.15285088233941 346.743778618129 0 346.743778618129 -378.84977592913856 0 0 0 0 -84.50509370462089 192.70565762073861 0 192.70565762073861 -7.8201325073597445 0 0 0 0 376.53742575639626 956.1101709176728 0 956.1101709176728 -586.93436858138011 0 0 0 0 79.718538911350208 610.94642746330362 0 610.94642746330362 273.41287571543944 0 0 0 0 -13.962484997298084 85.122540557562999 0 85.122540557562999 -27.726623594669917 0 0 0 0 344.89995898852067 442.39869803002512 0 442.39869803002512 113.65199166363163 0 0 0 0 -54.751304663596201 214.37364588758604 0 214.37364588758604 -10.843390391691798 0 0 0 0 393.71827239012327 420.83433629120191 0 420.83433629120191 -77.786108767846599 0 0 0 0 430.52116817556521 366.08558487094251 0 366.08558487094251 -8.0437322332145413 0 0 0 0 365.34538479685853 93.940332738478901 0 93.940332738478901 77.832672915174044 0 0 0 0 356.783933959563 159.15382856933866 0 159.15382856933866 35.536684878738015 0 0 0 0 -230.74632849314366 1917.7369029257679 0 1917.7369029257679 -397.48216433825291 0 0 0 0 511.83777750315676 -0.090075183285080129 0 -0.090075183285080129 -53.175833448724006 0 0 0 0 50.338878113197566 148.95368106499291 0 148.95368106499291 84.160138793024259 0 0 0 0 -24.481056016100567 57.211575889286991 0 57.211575889286991 -62.728013313994325 0 0 0 0 -2911.7090516505486 -2490.0009703719261 0 -2490.0009703719261 2375.4856887347123 0 0 0 0 526.99325730831333 1780.3018213012911 0 1780.3018213012911 -2225.5052867004997 0 0 0 0 26.192021863676771 84.315921434384791 0 84.315921434384791 -79.575144984056465 0 0 0 0 -1263.0401421134084 2186.8149203412722 0 2186.8149203412722 -1395.2907819680695 0 0 0 0 -71.580963891156273 36.960970867217938 0 36.960970867217938 -13.353460512125764 0 0 0 0 -548.69766219082157 280.0864234538185 0 280.0864234538185 388.984119190005 0 0 0 0 -296.4237668463029 525.9474731803366 0 525.9474731803366 384.70064882047882 0 0 0 0 -378.54122266676859 -95.844936019231682 0 -95.844936019231682 -105.01259739095258 0 0 0 0 -4.3542268431338016 202.18661185938981 0 202.18661185938981 -34.826991487789201 0 0 0 0 -737.64996865630383 133.18252548210876 0 133.18252548210876 -248.7132327582367 0 0 0 0 -344.29612975836426 198.86639568480496 0 198.86639568480496 -903.73499451970565 0 0 0 0 196.12054156005615 -27.481187377510651 0 -27.481187377510651 -479.07175754943455 0 0 0 0 -529.88255555000796 723.09955929745047 0 723.09955929745047 -1076.3337823984184 0 0 0 0 -1416.3319047345722 432.4463828828375 0 432.4463828828375 -922.89706870743976 0 0 0 0 -1422.503051453843 1232.1685396767116 0 1232.1685396767116 -479.5344097246998 0 0 0 0 -754.75141600835923 709.44333801033281 0 709.44333801033281 -994.25535780767677 0 0 0 0 -627.97141134614503 1103.1882069601688 0 1103.1882069601688 -719.17110852563928 0 0 0 0 -1507.9471013862058 209.82574116574688 0 209.82574116574688 -837.867129776816 0 0 0 0 -19.765093761755409 49.909636896730063 0 49.909636896730063 -79.428407935127211 0 0 0 0 -1167.9317186179251 730.3867864964559 0 730.3867864964559 -651.91569145728135 0 0 0 0 -2.9015876559356144 13.26123725241348 0 13.26123725241348 -19.843597496962673 0 0 0 0 -6321.426431582353 610.52223852668249 0 610.52223852668249 2506.3556031354819 0 0 0 0 1917.7747349481215 2026.1562989771919 0 2026.1562989771919 -2114.2786094471812 0 0 0 0 5971.3002215360248 629.52247120119137 0 629.52247120119137 -3252.5495309497492 0 0 0 0 -14.523991907419799 47.117695872704573 0 47.117695872704573 -51.151574395829869 0 0 0 0 -3809.183724895749 -1058.4798838459628 0 -1058.4798838459628 1901.7677538520948 0 0 0 0 4064.9162910126979 1346.9153154224114 0 1346.9153154224114 -1327.3780220623594 0 0 0 0 1374.1619160032715 2837.7758400596795 0 2837.7758400596795 1133.6269928654074 0 0 0 0 -2824.4180701594887 1965.4320067771223 0 1965.4320067771223 1626.316934116534 0 0 0 0 74.923443910742137 111.21754458529722 0 111.21754458529722 48.868176798343143 0 0 0 0 517.98336772424591 -100.68264655435632 0 -100.68264655435632 7.8182929346803576 0 0 0 0 -1937.8615950967505 -185.72570670014829 0 -185.72570670014829 766.37240375054535 0 0 0 0 1683.8945464233693 -1524.6803128874162 0 -1524.6803128874162 -1296.00445023067 0 0 0 0 -924.32834619120695 860.29615840871702 0 860.29615840871702 -566.92129875639512 0 0 0 0 -941.06605966869392 1385.2482591888984 0 1385.2482591888984 2715.808004257211 0 0 0 0 -2609.9684411312483 580.84997693376499 0 580.84997693376499 181.47634783483227 0 0 0 0 -358.43285829483648 3924.9491400058978 0 3924.9491400058978 -1627.6922079728902 0 0 0 0 -2634.1199663607404 1672.1947102723934 0 1672.1947102723934 -3431.660930477301 0 0 0 0 -928.9058534654032 -262.37976378505118 0 -262.37976378505118 -2123.7366101957741 0 0 0 0 767.78823592930712 4193.0173724930792 0 4193.0173724930792 -5371.7611249847687 0 0 0 0 -3071.6618867399156 2520.7935836983888 0 2520.7935836983888 1629.4398328829557 0 0 0 0 -15.121324389256188 14.095042769422705 0 14.095042769422705 -5.902365613374343 0 0 0 0 -4058.3328345434711 4140.0696522499056 0 4140.0696522499056 -873.48363219463499 0 0 0 0 -2655.8024894025875 1895.2680010460172 0 1895.2680010460172 711.57517399915378 0 0 0 0 -3528.7800761542167 1972.5751210665039 0 1972.5751210665039 1353.9112277958629 0 0 0 0 -1870.4427459134022 225.51069485893822 0 225.51069485893822 2826.07536632556 0 0 0 0 1235.7290005190953 1494.5409070166788 0 1494.5409070166788 1874.3333603069477 0 0 0 0 713.40226789578446 1209.590610585743 0 1209.590610585743 -4483.8486071121406 0 0 0 0 -11.905082777883166 22.471016799973057 0 22.471016799973057 -22.881863012994359 0 0 0 0 -4465.4757970637802 818.91734138374159 0 818.91734138374159 -538.48491897041094 0 0 0 0 3008.263982599623 -1133.6377851017023 0 -1133.6377851017023 -1045.7562711929495 0 0 0 0 3589.1513806592702 -423.77576256194152 0 -423.77576256194152 -7137.9733011172939 0 0 0 0 -7.8395820005187886 18.417995620119981 0 18.417995620119981 -39.760181897171606 0 0 0 0 -2096.3494563001732 2827.8781301002746 0 2827.8781301002746 -749.19739898180705 0 0 0 0 -7796.6204697980429 3197.1947751143016 0 3197.1947751143016 -531.91721806798887 0 0 0 0 -33.549566722912004 41.643984822823015 0 41.643984822823015 -35.116250013872303 0 0 0 0 801.01746092966641 1288.5953927021619 0 1288.5953927021619 1824.6532078052333 0 0 0 0 382.06124127066869 -105.20023433084134 0 -105.20023433084134 -2584.0715107799915 0 0 0 0 1741.2374766204593 123.97371806557931 0 123.97371806557931 -2607.0565388262257 0 0 0 0 725.17486168404866 -1254.6647579183773 0 -1254.6647579183773 176.29194414830999 0 0 0 0 -221.13607240303827 291.26141679075226 0 291.26141679075226 -956.74889101219014 0 0 0 0 -1077.9491330310411 2194.606855522361 0 2194.606855522361 -2868.1732097209042 0 0 0 0 -115.42556812791736 1440.2227132452826 0 1440.2227132452826 -306.12998657151184 0 0 0 0 738.38091686053667 543.26333224605332 0 543.26333224605332 -170.22746047051623 0 0 0 0 643.57689270812261 1273.9035267564905 0 1273.9035267564905 -159.4695017428312 0 0 0 0 1318.5322817073175 359.76289620294119 0 359.76289620294119 -110.94417588411306 0 0 0 0 -309.64992373718997 782.63873677515949 0 782.63873677515949 -103.82413204917975 0 0 0 0 -693.3407623621606 1587.4206182934577 0 1587.4206182934577 -356.4780668731255 0 0 0 0 -1860.8573304263991 1273.988366069796 0 1273.988366069796 -296.5629830203834 0 0 0 0 -2071.6813173220944 1870.2562242106178 0 1870.2562242106178 -490.41744540902437 0 0 0 0 -1761.1467120757734 1252.9900261827133 0 1252.9900261827133 -126.30576187185943 0 0 0 0 -1921.7165358172351 1850.342872745503 0 1850.342872745503 -333.57361763891095 0 0 0 0 -1262.6737387073808 999.76941552943026 0 999.76941552943026 -218.53022911085282 0 0 0 0 -2066.5942586712044 1628.5621043126012 0 1628.5621043126012 -646.49410130010801 0 0 0 0 -2806.3627385251675 2124.5731154170644 0 2124.5731154170644 -359.60016213028575 0 0 0 0 -1765.187177194879 1817.395224232343 0 1817.395224232343 -1239.6178562603454 0 0 0 0 -163.45375974249328 1240.1046804181533 0 1240.1046804181533 -572.14033506783016 0 0 0 0 -2153.3842960144175 1499.8644245630239 0 1499.8644245630239 -93.244592032511719 0 0 0 0 -303.03464671593247 1134.0879017893021 0 1134.0879017893021 -83.347649605333572 0 0 0 0 1457.4462539070373 419.98928331804927 0 419.98928331804927 -537.14450720760578 0 0 0 0 1596.2835837466264 700.10392861442961 0 700.10392861442961 -83.718940566614037 0 0 0 0 3253.4473386029567 -328.15773049450945 0 -328.15773049450945 -364.13654117558326 0 0 0 0 2930.1172147729085 465.39694986546237 0 465.39694986546237 -417.82038028122042 0 0 0 0 1.6852603443086833 5.1675258565893287 0 5.1675258565893287 15.892064148374629 0 0 0 0 276.00375933504984 -125.9419033274753 0 -125.9419033274753 147.60536887107446 0 0 0 0 102.08209437885307 3.3904987793794135 0 3.3904987793794135 171.02020774580888 0 0 0 0 4162.7152109230483 408.1345010035584 0 408.1345010035584 -698.15219088958111 0 0 0 0 2935.7884282545419 629.88732577857445 0 629.88732577857445 380.76578397583216 0 0 0 0 422.3943343523697 205.71640286676484 0 205.71640286676484 -56.906649001000915 0 0 0 0 26.924736097857583 -8.6764797896154207 0 -8.6764797896154207 45.064362718938696 0 0 0 0 3993.2299603304491 -140.92645305577025 0 -140.92645305577025 -189.84227692325658 0 0 0 0 304.18082642197623 -175.94779899408604 0 -175.94779899408604 93.491058444556984 0 0 0 0 3185.3300006654172 -328.61876644269796 0 -328.61876644269796 521.78636368343723 0 0 0 0 1644.2581157124951 927.53765221977665 0 927.53765221977665 -325.34985674187192 0 0 0 0 1783.2479131519212 219.97374498238787 0 219.97374498238787 165.78835581618478 0 0 0 0 3124.3914979940218 282.58100026473312 0 282.58100026473312 -313.24458517984021 0 0 0 0 2346.4841162998491 227.84440060309134 0 227.84440060309134 -79.477675848305807 0 0 0 0 2211.8070757687892 804.53046705629095 0 804.53046705629095 -185.54236887022853 0 0 0 0 2537.7492500298104 549.73276098973292 0 549.73276098973292 20.459407327725785 0 0 0 0 2409.6439633329355 330.38307507181162 0 330.38307507181162 -200.23980642308015 0 0 0 0 3716.6477795783139 156.89636769876233 0 156.89636769876233 -252.5806736289087 0 0 0 0 3827.0006138230456 143.1646936927209 0 143.1646936927209 -146.79178519721609 0 0 0 0 3633.1540189337393 40.898423202896083 0 40.898423202896083 365.18426005454967 0 0 0 0 2247.6160589462816 822.50729677556956 0 822.50729677556956 313.84114655558369 0 0 0 0 58.389062028691939 75.16255601455947 0 75.16255601455947 -13.336095318859691 0 0 0 0 -2340.4830151442366 -72.573710774118808 0 -72.573710774118808 -1560.5865306709893 0 0 0 0 -4034.115023967548 -581.46071333026339 0 -581.46071333026339 -1081.8939952433575 0 0 0 0 3640.2287976220705 -34.563031279587449 0 -34.563031279587449 298.05006264836993 0 0 0 0 4892.337587389542 -1327.5286988090375 0 -1327.5286988090375 549.65705511438136 0 0 0 0 4200.1950686838973 -836.32044296841923 0 -836.32044296841923 877.13549996912479 0 0 0 0 -4296.20274701569 3569.900002984301 0 3569.900002984301 -57.677684384056192 0 0 0 0 23.138716337882734 20.040749882839634 0 20.040749882839634 18.787841312180944 0 0 0 0 6840.1828868883531 -922.12938889987709 0 -922.12938889987709 -479.91751390974969 0 0 0 0 -3150.8689620487075 2425.0775713470393 0 2425.0775713470393 -1683.6564996819361 0 0 0 0 -5513.7189531846825 4372.4652681033567 0 4372.4652681033567 -84.369801940280013 0 0 0 0 32.282563794322535 4.4238462645173087 0 4.4238462645173087 -12.890370974490338 0 0 0 0 -5324.0598439639871 2095.2272448330987 0 2095.2272448330987 1506.1961713418568 0 0 0 0 -3526.6483777981484 3005.703548586418 0 3005.703548586418 -3237.9383499161922 0 0 0 0 6756.2365489663862 886.54735782765783 0 886.54735782765783 -363.78773711524263 0 0 0 0 1550.0882669595085 606.0982665597403 0 606.0982665597403 1333.9014015602734 0 0 0 0 4165.2874225727828 574.79874165834553 0 574.79874165834553 -76.588673459598795 0 0 0 0 3976.205699226135 176.63357948104385 0 176.63357948104385 166.83339728674036 0 0 0 0 5318.660232447437 -457.23779613766237 0 -457.23779613766237 -88.573482334584696 0 0 0 0 1564.0178698337622 356.49592711197329 0 356.49592711197329 61.307301457738504 0 0 0 0 112.72736126137897 490.5689150049875 0 490.5689150049875 650.95976601380971 0 0 0 0 1898.985161537661 380.27427313880617 0 380.27427313880617 5.0261219133390114 0 0 0 0 1286.3648629261152 1168.3596734657403 0 1168.3596734657403 -59.234000909869792 0 0 0 0 -333.26300882903161 1041.7038652669726 0 1041.7038652669726 315.42542976443656 0 0 0 0 1067.4964967394626 628.58418495333171 0 628.58418495333171 -216.63187269004993 0 0 0 0 1466.8636902141443 1059.8072993596725 0 1059.8072993596725 28.877558365731602 0 0 0 0 -1759.7715967500117 1069.273049926036 0 1069.273049926036 178.84707229581545 0 0 0 0 -1739.4972595054569 1507.1725127194513 0 1507.1725127194513 0.17598807298054453 0 0 0 0 -311.10545720157097 1087.8526106057398 0 1087.8526106057398 -505.65898419522273 0 0 0 0 -67.960348146862088 1036.2283468195747 0 1036.2283468195747 -513.95277619693661 0 0 0 0 -327.21982205145468 -0.32636560268292669 0 -0.32636560268292669 14.38208687385486 0 0 0 0 -3032.9820846596267 2075.6902992529067 0 2075.6902992529067 -3094.1205712714509 0 0 0 0 -2983.6979464756441 1483.3546763676277 0 1483.3546763676277 -407.87366965683759 0 0 0 0 -1912.0075014594913 6.0280889740097336 0 6.0280889740097336 -998.35307437129086 0 0 0 0 -3872.2528239106468 -356.83288506265671 0 -356.83288506265671 -981.14590409010998 0 0 0 0 -4873.7376886986676 2203.7030678627198 0 2203.7030678627198 -780.74824599219573 0 0 0 0 -0.90386125457007438 1138.9105227173568 0 1138.9105227173568 -2453.1936490579683 0 0 0 0 5.4398967331494532 24.926277146778233 0 24.926277146778233 -36.259221505224389 0 0 0 0 8.2203465425700415 -65.636949278043176 0 -65.636949278043176 -422.60014877479989 0 0 0 0 -5891.3448073795662 1700.9737322732617 0 1700.9737322732617 36.291723128510057 0 0 0 0 -1763.1053706052508 1005.6350682542948 0 1005.6350682542948 -848.61461519374279 0 0 0 0 -2854.9205080507381 2264.2603141492 0 2264.2603141492 -726.51701896861596 0 0 0 0 -3853.564323206665 1646.17752145134 0 1646.17752145134 17.040679412515601 0 0 0 0 -2988.646660852377 1787.4741506943974 0 1787.4741506943974 -486.73889844135556 0 0 0 0 -2977.5501590120402 1677.2019754336361 0 1677.2019754336361 -225.01072846031457 0 0 0 0 -3755.4038189563098 1024.5001309595546 0 1024.5001309595546 -627.77643980487483 0 0 0 0 -36.84633831779567 27.665982032003683 0 27.665982032003683 29.399353008818537 0 0 0 0 -20.427550842336107 191.58550772874685 0 191.58550772874685 -39.578851485128439 0 0 0 0 -3137.6095420328493 1465.4246786356307 0 1465.4246786356307 -452.66133172497939 0 0 0 0 -213.92794267978024 434.7783044551179 0 434.7783044551179 -491.28577702495386 0 0 0 0 -208.55251432491059 455.27424439014794 0 455.27424439014794 -413.62881415511947 0 0 0 0 -3105.9511515908107 1716.9824541182606 0 1716.9824541182606 -519.51914980396396 0 0 0 0 -2622.5219772192504 1893.244945841172 0 1893.244945841172 -1779.9735393026058 0 0 0 0 -75.011115954512206 217.98281840285927 0 217.98281840285927 -79.006259314140152 0 0 0 0 -130.10683201795473 205.12760389938921 0 205.12760389938921 -79.208886715317817 0 0 0 0 -180.82384320116671 114.90115400262584 0 114.90115400262584 211.91503826096596 0 0 0 0 -156.53396935627188 422.0871620298276 0 422.0871620298276 -345.79542474108166 0 0 0 0 -50.249150019636581 46.415631773849213 0 46.415631773849213 75.741377525706639 0 0 0 0 184.68849815721478 265.74680038121005 0 265.74680038121005 -351.77474650608201 0 0 0 0 -359.04958673354849 419.05415009865828 0 419.05415009865828 -258.5362046645896 0 0 0 0 82.902573397772812 123.18026181234944 0 123.18026181234944 17.950596610609466 0 0 0 0 -354.80974699210606 500.12508873268484 0 500.12508873268484 -235.93209909572033 0 0 0 0 -2.6717817380928039 54.146613018448704 0 54.146613018448704 85.856118283013359 0 0 0 0 -1107.8258721708698 844.20362591271987 0 844.20362591271987 -326.92705393004871 0 0 0 0 -19.778419151272374 26.534457235662899 0 26.534457235662899 45.272462851028081 0 0 0 0 -497.35604103102924 984.62665720981568 0 984.62665720981568 -865.14786027601804 0 0 0 0 -782.78911160092684 33.572989647422219 0 33.572989647422219 -379.84986441378715 0 0 0 0 -96.822903352403955 396.87693218351342 0 396.87693218351342 -950.31408371802536 0 0 0 0 181.61201230786537 182.66851061936177 0 182.66851061936177 -186.08039853534683 0 0 0 0 -1978.0303530180863 4103.9368012621271 0 4103.9368012621271 -4766.3114377579186 0 0 0 0 -361.62147633859786 311.51202665208984 0 311.51202665208984 -199.61425265131402 0 0 0 0 15.267369228952241 -0.10400944917640231 0 -0.10400944917640231 3.7536170469886088 0 0 0 0 579.2830732501061 -1163.0113388121172 0 -1163.0113388121172 2118.8055613562465 0 0 0 0 -64.762137499847086 -148.44705826476275 0 -148.44705826476275 -44.905734894651687 0 0 0 0 -168.02136825556863 378.99711708807081 0 378.99711708807081 -192.08150332645164 0 0 0 0 98.93880415840249 -197.66141157565289 0 -197.66141157565289 -110.46562467058538 0 0 0 0 91.634426124323909 64.248501385025349 0 64.248501385025349 -17.081952122146106 0 0 0 0 -529.92825522611383 2247.4989296768472 0 2247.4989296768472 -1721.6567478509969 0 0 0 0 175.6489647665112 580.74881998830824 0 580.74881998830824 -1017.2258915290877 0 0 0 0 -57.143901655718025 61.08133886415817 0 61.08133886415817 -27.354710525850805 0 0 0 0 -557.52561858061381 2242.5965369010155 0 2242.5965369010155 -141.19324187460006 0 0 0 0 -1016.6185180357279 2872.4945458337606 0 2872.4945458337606 -1318.4155530103017 0 0 0 0 -2616.5801744627461 2264.2090369547077 0 2264.2090369547077 1876.490220371983 0 0 0 0 919.44379549015139 1051.8775274898217 0 1051.8775274898217 1072.7887688451592 0 0 0 0 -830.75259788625772 -784.13489365412534 0 -784.13489365412534 2116.0698071133229 0 0 0 0 -7.7446564072892414 6.9420871740715313 0 6.9420871740715313 -2.0134479444269573 0 0 0 0 3566.3617023634433 -2488.192554886482 0 -2488.192554886482 1980.3103089181095 0 0 0 0 -588.63053380011843 1421.8552518247452 0 1421.8552518247452 1038.8916731368226 0 0 0 0 -3.9838185705884825 1330.1813715148601 0 1330.1813715148601 699.52182104217354 0 0 0 0 -584.52166687614567 1777.6118663247248 0 1777.6118663247248 679.50135653174948 0 0 0 0 -360.83634422282194 1726.3921204331855 0 1726.3921204331855 608.54015194618842 0 0 0 0 -624.37139373771788 1955.3794293848041 0 1955.3794293848041 720.2754861049907 0 0 0 0 -175.60420540746418 1857.2255159180349 0 1857.2255159180349 -735.96956820314517 0 0 0 0 -128.11999626015313 1540.6968271330115 0 1540.6968271330115 1354.4074468085309 0 0 0 0 -413.73380898520554 1488.6719642128592 0 1488.6719642128592 349.51846510989708 0 0 0 0 943.29138294466611 1035.7402292379957 0 1035.7402292379957 69.295235492929351 0 0 0 0 -69.73320174725086 -194.67236573103582 0 -194.67236573103582 510.79363780212589 0 0 0 0 447.50127347272064 1959.7860227381461 0 1959.7860227381461 579.0364136947901 0 0 0 0 1090.5004295324579 -17.133273914136225 0 -17.133273914136225 -121.01747929520207 0 0 0 0 949.57940300383416 1349.6470558060973 0 1349.6470558060973 201.28717826714274 0 0 0 0 12.658158048196739 20.394933621228034 0 20.394933621228034 -8.8169142458717715 0 0 0 0 -7.2348707035330051 27.954855873167475 0 27.954855873167475 -1.2447603241168963 0 0 0 0 41.563357566461491 8.4781699867307907 0 8.4781699867307907 152.81598833708995 0 0 0 0 9.8762973125594726 304.09751397233049 0 304.09751397233049 -1707.630189133708 0 0 0 0 -17.422317006174126 -38.411159718030831 0 -38.411159718030831 1069.6782253266356 0 0 0 0 -1389.2851700564242 234.13653587914177 0 234.13653587914177 114.6664194528712 0 0 0 0 -1142.805349746759 -43.333946160726555 0 -43.333946160726555 66.142533853271743 0 0 0 0 -1377.0787137425141 137.0317279008741 0 137.0317279008741 454.34196910407627 0 0 0 0 -1083.3251955613086 -116.94229738235299 0 -116.94229738235299 1162.3224456281969 0 0 0 0 -1216.4873533484497 204.64174331667891 0 204.64174331667891 409.07155887121917 0 0 0 0 -1472.7453795978799 -169.15962921618484 0 -169.15962921618484 582.22900752699934 0 0 0 0 -709.55577075164911 1119.9797919021075 0 1119.9797919021075 -201.55122099888104 0 0 0 0 -1037.2933936226036 876.0543392020918 0 876.0543392020918 1325.6405921096666 0 0 0 0 -1115.9429018374067 373.48398243910924 0 373.48398243910924 -110.11405746368109 0 0 0 0 95.937902106353192 120.66521647488646 0 120.66521647488646 -9.5054606180331689 0 0 0 0 -458.58765390019653 589.6213389763011 0 589.6213389763011 -362.53462006122572 0 0 0 0 -2526.9228095713333 686.98863078464638 0 686.98863078464638 148.89505656449182 0 0 0 0 32.711375593018055 25.039275076786247 0 25.039275076786247 -0.57910042439732479 0 0 0 0 -77.982712432836706 296.21183435392595 0 296.21183435392595 -78.511890232141013 0 0 0 0 637.01389472068922 -145.74206516938557 0 -145.74206516938557 118.48137519496959 0 0 0 0 18.194707510463743 149.35419741432935 0 149.35419741432935 -64.508999695860666 0 0 0 0 -25.413297802074496 38.592613360839579 0 38.592613360839579 72.861974004767944 0 0 0 0 -1783.7284198123598 1196.1280360008095 0 1196.1280360008095 16.730773397430312 0 0 0 0 -551.67422163951233 573.98532317140052 0 573.98532317140052 -455.46485800709343 0 0 0 0 -920.33640275462676 682.99607743322122 0 682.99607743322122 -28.115909835818456 0 0 0 0 15.710538118630346 50.106531386424223 0 50.106531386424223 76.032593235628781 0 0 0 0 -712.10524923509365 1052.7899547755078 0 1052.7899547755078 -419.67724528869621 0 0 0 0 -416.65544669393057 184.36398639856543 0 184.36398639856543 177.98518232928473 0 0 0 0 -418.83810372078187 190.70163619237701 0 190.70163619237701 422.48897430748912 0 0 0 0 -319.73322752145759 -61.879545648538624 0 -61.879545648538624 288.24890188656718 0 0 0 0 5.2645729254139368 54.733175744142557 0 54.733175744142557 -81.793634711382481 0 0 0 0 -49.119699182242613 69.846357398763487 0 69.846357398763487 -23.44694200079266 0 0 0 0 94.440675423566063 283.46397314974456 0 283.46397314974456 4.7028369400140946 0 0 0 0 29.227016820092103 63.622806543455226 0 63.622806543455226 -779.89216700321413 0 0 0 0 38.30111353257297 103.18590538795962 0 103.18590538795962 12.009430291808542 0 0 0 0 146.61509211748489 251.22429131202807 0 251.22429131202807 -146.28463069197187 0 0 0 0 366.93187196259169 978.96054515315336 0 978.96054515315336 -361.46319585331366 0 0 0 0 77.226635366809205 747.72072605763969 0 747.72072605763969 -496.1693872816104 0 0 0 0 -4.7338512544323876 48.031662554629321 0 48.031662554629321 -86.023598767339365 0 0 0 0 229.08196118433625 584.12859000714889 0 584.12859000714889 -795.89898824115517 0 0 0 0 -407.58097179121251 482.30189603718463 0 482.30189603718463 -68.910918301218771 0 0 0 0 -68.833540490634732 288.71147033379748 0 288.71147033379748 48.778071179534891 0 0 0 0 -611.15458694050903 535.90516978074447 0 535.90516978074447 -37.276350151674706 0 0 0 0 -267.22807084512169 109.08259733003069 0 109.08259733003069 376.082440428072 0 0 0 0 -991.86235954708536 615.20552191411116 0 615.20552191411116 -135.70864377369799 0 0 0 0 28.589019820788963 1241.5833908657823 0 1241.5833908657823 -526.15831886401429 0 0 0 0 -236.00365184111433 313.69183063569653 0 313.69183063569653 -422.65313651468023 0 0 0 0 -51.073244405590479 51.624525704425388 0 51.624525704425388 -49.895322095625119 0 0 0 0 -189.5876135963772 952.96763364138315 0 952.96763364138315 -600.10051620460581 0 0 0 0 -310.09703158133379 440.09456808849063 0 440.09456808849063 253.37293575759395 0 0 0 0 113.08709815031762 649.23810838999634 0 649.23810838999634 -666.17710126462043 0 0 0 0 143.94867849662478 801.10910335983863 0 801.10910335983863 77.111655581582454 0 0 0 0 -801.56236940147028 1532.9721575329518 0 1532.9721575329518 -1575.6689001963096 0 0 0 0 -4.4829152477290659 145.05907288328694 0 145.05907288328694 -63.260654015035641 0 0 0 0 590.70492106924576 341.30932131176451 0 341.30932131176451 -654.83381144561281 0 0 0 0 1616.934490616432 -337.11583928519781 0 -337.11583928519781 -714.03123443352524 0 0 0 0 -440.55696622524829 1535.4509605817316 0 1535.4509605817316 -1394.5335100927041 0 0 0 0 -11.7830392208392 16.391669472123894 0 16.391669472123894 14.02181478247121 0 0 0 0 -537.78898096577905 -125.0909948181943 0 -125.0909948181943 19.080013360318844 0 0 0 0 -318.46788255200772 -26.34961061341528 0 -26.34961061341528 -60.177236451854696 0 0 0 0 185.21668266940105 129.11317610491096 0 129.11317610491096 670.06164855416864 0 0 0 0 11.722671689159036 12.766286968211446 0 12.766286968211446 -16.81079844346641 0 0 0 0 191.7000944991014 486.29931668658537 0 486.29931668658537 -651.34089100701385 0 0 0 0 135.83359177312013 401.80663607739552 0 401.80663607739552 -655.69209103137837 0 0 0 0 103.64461911125909 882.66919977800717 0 882.66919977800717 -1010.2247188277834 0 0 0 0 152.64604676518502 749.29843076495308 0 749.29843076495308 -728.36529031828286 0 0 0 0 -56.73082299395773 52.737280478884401 0 52.737280478884401 -44.975093351653726 0 0 0 0 -970.47750038476806 -262.75069933795749 0 -262.75069933795749 780.75580735260155 0 0 0 0 431.60193074951167 -154.22031985623107 0 -154.22031985623107 304.11154458532837 0 0 0 0 -27.568936881830258 153.1800385930365 0 153.1800385930365 -32.016974224810554 0 0 0 0 -1.8165300617045546 61.895031876377956 0 61.895031876377956 -51.651242321772543 0 0 0 0 1685.8069589486111 426.85039784528499 0 426.85039784528499 -726.61718408131856 0 0 0 0 445.49873920078517 348.36593392636632 0 348.36593392636632 -8.7322105977509636 0 0 0 0 426.91222261307257 190.03339736933822 0 190.03339736933822 -230.57788223166426 0 0 0 0 293.29414580084995 136.16650305338044 0 136.16650305338044 -27.849990870214242 0 0 0 0 287.339287147699 112.0456344284521 0 112.0456344284521 -97.785885225748643 0 0 0 0 174.5979595116296 81.255506594185135 0 81.255506594185135 -74.953552291066444 0 0 0 0 -1.7789345939080208 118.64524358163573 0 118.64524358163573 -4.5293526036271601 0 0 0 0 285.93775549858401 166.52094136934102 0 166.52094136934102 -102.90896635535319 0 0 0 0 -666.98876276147712 689.13070771364619 0 689.13070771364619 -488.62525501631899 0 0 0 0 -339.63774626356098 161.28166228562986 0 161.28166228562986 -331.10513558179082 0 0 0 0 -263.16117567018955 271.91650062535336 0 271.91650062535336 -352.29724469542271 0 0 0 0 175.39541156577616 107.63526759851811 0 107.63526759851811 -75.85122940609017 0 0 0 0 64.66415627929382 352.56049050297952 0 352.56049050297952 -368.56054778805265 0 0 0 0 33.252539211352996 53.830475891867536 0 53.830475891867536 -241.67539059217415 0 0 0 0 150.38878542228849 159.06883377866779 0 159.06883377866779 -156.09285293272114 0 0 0 0 111.3884579898513 22.677325822747662 0 22.677325822747662 -95.172765789422556 0 0 0 0 -179.1283379585002 356.57164409849429 0 356.57164409849429 -267.30024956115813 0 0 0 0 74.970013116355403 87.111328059731022 0 87.111328059731022 -205.83553666897933 0 0 0 0 11.041162959219946 449.24255178069143 0 449.24255178069143 -483.08511016788543 0 0 0 0 -361.74365846632281 468.69711136439582 0 468.69711136439582 -378.3997633711333 0 0 0 0 -390.28795956164595 708.46676220782865 0 708.46676220782865 -621.90455198411655 0 0 0 0 -772.08682975934062 674.62596761405439 0 674.62596761405439 -545.66622134124191 0 0 0 0 -471.61517950951384 733.35957025266543 0 733.35957025266543 -837.17188105754758 0 0 0 0 -688.30880787569185 945.36435989527308 0 945.36435989527308 -1080.50487632367 0 0 0 0 -0.38577947209068597 8.9017779046201611 0 8.9017779046201611 0.9902041467239826 0 0 0 0 -1373.1580816269125 1018.5229530695142 0 1018.5229530695142 -869.34937398440525 0 0 0 0 -943.4758501046424 788.77107755905615 0 788.77107755905615 -505.107467810245 0 0 0 0 -943.78697238766654 798.66090208263347 0 798.66090208263347 -457.50768254195282 0 0 0 0 -605.99678580273758 847.8044115258599 0 847.8044115258599 -424.17291369413579 0 0 0 0 -921.69851623792783 849.9852293096028 0 849.9852293096028 -469.67400152873597 0 0 0 0 -542.00792188818377 907.52527797816947 0 907.52527797816947 -574.8913401239115 0 0 0 0 -926.68079076292634 834.25660351928673 0 834.25660351928673 -515.85252469133593 0 0 0 0 30.887955868935151 16.833625508143776 0 16.833625508143776 -77.517161777887139 0 0 0 0 -943.12471831285802 840.13536439699965 0 840.13536439699965 -367.21015383401755 0 0 0 0 -1316.8319275300746 856.27482917758425 0 856.27482917758425 -318.72331478120032 0 0 0 0 -948.34809164747048 815.4724372276919 0 815.4724372276919 -422.44532450078987 0 0 0 0 100.38703888717615 85.54026571169365 0 85.54026571169365 37.066720937340435 0 0 0 0 249.63068516703788 251.12275933273486 0 251.12275933273486 -164.19129653207983 0 0 0 0 -353.42869151488412 99.176314432706931 0 99.176314432706931 154.58291888514941 0 0 0 0 32.503377640935867 43.176527406853282 0 43.176527406853282 6.5678902340531806 0 0 0 0 -925.46172807057155 821.19141272208071 0 821.19141272208071 -430.17451003799943 0 0 0 0 -10.04628622882592 216.90458531153854 0 216.90458531153854 -765.0193757893685 0 0 0 0 -22.864861757527251 101.69581827797811 0 101.69581827797811 16.16703356164362 0 0 0 0 6.2361916435488638 96.633189431970095 0 96.633189431970095 -2.0400641930173151 0 0 0 0 268.86106366675813 127.50540710596215 0 127.50540710596215 33.178573525336105 0 0 0 0 45.969647966309914 87.479123724521685 0 87.479123724521685 6.1127268374265498 0 0 0 0 -11.386429065742561 5.5287842863126855 0 5.5287842863126855 2.7452417434936933 0 0 0 0 256.69916826284316 211.513377525127 0 211.513377525127 -354.28780091302178 0 0 0 0 -381.18242011143593 83.195367986059864 0 83.195367986059864 115.54418151531718 0 0 0 0 -479.03318351486814 710.36348593699222 0 710.36348593699222 84.798789174716148 0 0 0 0 -336.2466049950599 197.3521271033751 0 197.3521271033751 -385.88533095733146 0 0 0 0 -328.53781688344316 692.87272400278016 0 692.87272400278016 -578.09389302889031 0 0 0 0 12.016607283985422 28.253467067280894 0 28.253467067280894 45.486599912106101 0 0 0 0 -3359.6411370248034 3048.4338466975432 0 3048.4338466975432 -1281.6011354216025 0 0 0 0 -728.2257233808632 917.7237636007485 0 917.7237636007485 -319.00800560769858 0 0 0 0 -781.05678396595977 422.40534407111227 0 422.40534407111227 -255.89291991014034 0 0 0 0 226.14171942184112 65.628569608610633 0 65.628569608610633 -102.06896833429346 0 0 0 0 19.328211210145575 13.993139021527014 0 13.993139021527014 -2.3076846785733096 0 0 0 0 -462.59509394321867 437.94703808486338 0 437.94703808486338 -357.40191984985722 0 0 0 0 43.1324355613053 99.548051752786961 0 99.548051752786961 11.946335804088619 0 0 0 0 -593.74549039447447 553.47435100909206 0 553.47435100909206 -184.51612554394524 0 0 0 0 244.85682900245592 220.76022526122688 0 220.76022526122688 -58.882579186523799 0 0 0 0 -621.44591673425748 311.98539824647014 0 311.98539824647014 -426.13925051086699 0 0 0 0 -76.237836369946308 58.767398954754754 0 58.767398954754754 53.194318461115472 0 0 0 0 -82.175984972305741 74.221156843130302 0 74.221156843130302 143.63907905392989 0 0 0 0 -166.73890208445664 215.82236595068389 0 215.82236595068389 49.78154315125721 0 0 0 0 -121.44027362851193 -209.85843214481065 0 -209.85843214481065 560.57071132258716 0 0 0 0 -0.47506539273436488 -3.70528835941289 0 -3.70528835941289 -6.7460665962246367 0 0 0 0 1.4170168671116699 -1.457406892972358 0 -1.457406892972358 140.92688840735354 0 0 0 0 -1044.4986682949238 812.65165207532846 0 812.65165207532846 -757.28130306303137 0 0 0 0 -12.811184238915875 66.828486188674987 0 66.828486188674987 35.603327549082053 0 0 0 0 -849.80278536482729 1109.7426235115472 0 1109.7426235115472 -894.81011450453661 0 0 0 0 -106.10546103535307 26.660946903961303 0 26.660946903961303 178.66564977037706 0 0 0 0 -97.182975037263532 29.402683279902703 0 29.402683279902703 127.9428519146968 0 0 0 0 -23.626057560963488 -3.3785854233057933 0 -3.3785854233057933 -1.3049841026822122 0 0 0 0 -639.3802100608591 375.56299995821792 0 375.56299995821792 1115.5495025438431 0 0 0 0 -95.234575491485884 488.83075283048129 0 488.83075283048129 -723.58091820809591 0 0 0 0 9.5822823458669291 5.0063965952397211 0 5.0063965952397211 2.8158167749267093 0 0 0 0 3.9041348060388827 -2.8962342825822702 0 -2.8962342825822702 -4.7356486928386019 0 0 0 0 -70.250353456009179 111.0618142024905 0 111.0618142024905 -520.38857379401588 0 0 0 0 -611.0806395026666 609.38730483605923 0 609.38730483605923 2467.0473518868966 0 0 0 0 -1.2893168086884543 315.54817285835452 0 315.54817285835452 -501.67017122182483 0 0 0 0 -171.68377367638459 96.450048516780953 0 96.450048516780953 -54.503288765779871 0 0 0 0 0.013684917648788542 255.37474607203512 0 255.37474607203512 -464.39387279381845 0 0 0 0 -255.31163413536706 304.45932070227718 0 304.45932070227718 -184.30891438185063 0 0 0 0 -316.70326243493037 418.49195450523803 0 418.49195450523803 -558.10596126557721 0 0 0 0 3.0565076439718268 -2.1410602866284592 0 -2.1410602866284592 -3.8030733189323911 0 0 0 0 65.766750577953644 428.18424393046917 0 428.18424393046917 -565.41538584778755 0 0 0 0 141.8827516491292 55.094682838949666 0 55.094682838949666 -410.4331658256524 0 0 0 0 19.800266431046623 12.702105188497541 0 12.702105188497541 4.9855362757041917 0 0 0 0 201.42688400053885 397.81350266886147 0 397.81350266886147 -1100.38458156868 0 0 0 0 -319.69791828410234 -173.15585851210199 0 -173.15585851210199 -462.47280591678282 0 0 0 0 -930.65244113852532 646.56075438468179 0 646.56075438468179 -350.52708598627214 0 0 0 0 13.265776728710762 5.5364909698612337 0 5.5364909698612337 0.73532481429620589 0 0 0 0 984.08775547350524 416.90044492950619 0 416.90044492950619 -1155.9041647451622 0 0 0 0 -440.33586171938805 334.51962958273725 0 334.51962958273725 593.71223421487957 0 0 0 0 360.87820212717634 -108.02065535377915 0 -108.02065535377915 -1269.1539105520587 0 0 0 0 -565.45171733491588 -237.21353768270274 0 -237.21353768270274 -808.02282120976452 0 0 0 0 907.34693994413828 352.39224808993458 0 352.39224808993458 -887.91341702305363 0 0 0 0 419.25443537187311 -119.56561953701748 0 -119.56561953701748 -828.83959514134767 0 0 0 0 854.52097054215847 175.71477362462247 0 175.71477362462247 -636.90897830878384 0 0 0 0 345.69310599614255 246.16617884263906 0 246.16617884263906 -637.7430459947791 0 0 0 0 -139.69701505085686 106.85595070802447 0 106.85595070802447 -408.38221418092871 0 0 0 0 635.66547541508044 400.68407434310575 0 400.68407434310575 -329.71512866209378 0 0 0 0 459.29892914256925 16.646230796329291 0 16.646230796329291 -219.42027678140585 0 0 0 0 -228.37707438704092 1239.9894734605004 0 1239.9894734605004 -792.80916391810388 0 0 0 0 33.869079137395602 801.4548531678447 0 801.4548531678447 -467.58839110286499 0 0 0 0 107.78552115013008 427.30493199328157 0 427.30493199328157 -233.87914613210887 0 0 0 0 53.419635115773417 600.37097021922818 0 600.37097021922818 322.38746809479898 0 0 0 0 -117.21759948975523 760.41686105459939 0 760.41686105459939 484.32104140036972 0 0 0 0 287.06564670821535 1159.8434072904347 0 1159.8434072904347 763.16999387946453 0 0 0 0 -420.93336973717669 1138.3969341086231 0 1138.3969341086231 1190.9495765848314 0 0 0 0 576.97916062260629 662.01604250962009 0 662.01604250962009 322.34576880196283 0 0 0 0 1497.3322682372236 335.09730681395013 0 335.09730681395013 -145.88615911560191 0 0 0 0 547.34130139763874 649.73335989588668 0 649.73335989588668 400.81790881745837 0 0 0 0 474.86840294655121 1618.4785650476133 0 1618.4785650476133 1596.6651191937272 0 0 0 0 2513.7707879742084 1081.6794814028362 0 1081.6794814028362 428.10080190975623 0 0 0 0 293.09139661290101 1062.2933120484495 0 1062.2933120484495 1048.9266461800589 0 0 0 0 -101.63594729305623 1484.1959691093348 0 1484.1959691093348 598.80193191113904 0 0 0 0 -274.12615178321721 1393.8168691362598 0 1393.8168691362598 1176.7611889101163 0 0 0 0 -343.09478140899591 1309.7576638133969 0 1309.7576638133969 1425.4623509467492 0 0 0 0 -342.61116609594319 1392.0913655072891 0 1392.0913655072891 1177.1305398775658 0 0 0 0 -341.61622023952077 1575.4373117621035 0 1575.4373117621035 2073.4012796998331 0 0 0 0 -0.14844729229290848 1685.0348842863536 0 1685.0348842863536 1253.1154165583903 0 0 0 0 -104.17181864181475 1231.8725240915255 0 1231.8725240915255 665.93465690953417 0 0 0 0 -0.16323316584748682 1625.1779225253986 0 1625.1779225253986 231.32079674379838 0 0 0 0 -178.01948242510844 1221.2565176336848 0 1221.2565176336848 -984.03736762152221 0 0 0 0 163.88095490142587 1515.9403371633559 0 1515.9403371633559 -851.99618557032954 0 0 0 0 -7.1897338521666825 979.9263802463297 0 979.9263802463297 -781.97550229540138 0 0 0 0 -0.1535875013214536 1619.8214620294282 0 1619.8214620294282 -1269.6996062357332 0 0 0 0 247.52341088098183 1301.4363786159706 0 1301.4363786159706 -2391.4577745311371 0 0 0 0 -9.9586905810574535 988.87195947204691 0 988.87195947204691 -3557.0733109136809 0 0 0 0 156.39970460650511 1531.2835491219821 0 1531.2835491219821 -3109.5004629666219 0 0 0 0 -279.08697784532706 965.80639000152007 0 965.80639000152007 -2518.1472368436539 0 0 0 0 -0.013460582384141162 1609.6348617036144 0 1609.6348617036144 -3569.8494564130192 0 0 0 0 337.91573890845757 1880.8987443468704 0 1880.8987443468704 -2521.2376497571245 0 0 0 0 -106.52279999060556 1380.9536384342528 0 1380.9536384342528 -2760.7438363558922 0 0 0 0 270.53873914683936 1269.5283609643047 0 1269.5283609643047 -2875.0025226770167 0 0 0 0 -209.39302851413959 1446.6928623877143 0 1446.6928623877143 -2903.7202816001936 0 0 0 0 -142.53562080570555 1438.9011513991286 0 1438.9011513991286 -2039.4807631019048 0 0 0 0 494.88824940368067 1414.0131288187804 0 1414.0131288187804 -2054.5851913232582 0 0 0 0 16.974500024458393 1612.5511826622769 0 1612.5511826622769 -1952.5671763868204 0 0 0 0 826.68855521509977 1970.3409104453253 0 1970.3409104453253 -1802.0833956166498 0 0 0 0 208.42321181859006 1332.5017571325948 0 1332.5017571325948 -962.08803555285704 0 0 0 0 222.58154834037123 832.92141389279732 0 832.92141389279732 383.98107394112048 0 0 0 0 559.81065127422335 1496.1407040496742 0 1496.1407040496742 -902.94431833918452 0 0 0 0 1980.4160463987864 2033.2049878283331 0 2033.2049878283331 -1167.8809561214657 0 0 0 0 1281.4119694702131 397.30102508924529 0 397.30102508924529 639.93674877676312 0 0 0 0 211.73309251159662 2770.5893931046194 0 2770.5893931046194 -184.91462819018307 0 0 0 0 -998.89674569986528 1762.584384144151 0 1762.584384144151 -700.46252858139451 0 0 0 0 -1005.6585841763881 1989.0718203059732 0 1989.0718203059732 -1639.2947476546506 0 0 0 0 19.930413922935259 1915.1916747454952 0 1915.1916747454952 -1059.4736007075517 0 0 0 0 121.14894109647139 2309.0738690200596 0 2309.0738690200596 -1231.4126491099878 0 0 0 0 268.11002250656747 1939.932808402521 0 1939.932808402521 -2167.470725440111 0 0 0 0 -436.43737718980992 2018.0503468805728 0 2018.0503468805728 -1380.8357106805315 0 0 0 0 -616.34398599976703 1727.478020296046 0 1727.478020296046 -1645.3908382882837 0 0 0 0 -69.171200277196476 1532.0615405633989 0 1532.0615405633989 -2424.1888026921506 0 0 0 0 -114.61631183378631 1485.4928097045108 0 1485.4928097045108 -2320.7159611712977 0 0 0 0 221.87710205974872 1620.4161476112467 0 1620.4161476112467 -3060.6439092347218 0 0 0 0 -337.18018659114023 1169.2545353812611 0 1169.2545353812611 -1832.1566885458035 0 0 0 0 -369.37844633204804 1412.2147020222646 0 1412.2147020222646 -1783.6128707921362 0 0 0 0 -367.3361666691344 1283.3520846128813 0 1283.3520846128813 -1526.6401176265226 0 0 0 0 -599.9164073253196 1115.4289818446528 0 1115.4289818446528 -1197.8465151809905 0 0 0 0 -720.73621794264182 1397.3804439370579 0 1397.3804439370579 -1562.4884058553671 0 0 0 0 -624.32623907813104 1623.329122542043 0 1623.329122542043 -1132.7956203423037 0 0 0 0 -1112.8304266734485 1564.6200820608401 0 1564.6200820608401 -1077.7833155349999 0 0 0 0 -1318.7352436168585 1484.9154023053179 0 1484.9154023053179 -1090.5268334171033 0 0 0 0 -1139.9181785173246 1078.7972816173296 0 1078.7972816173296 -1020.5087414997579 0 0 0 0 -1502.5022950991042 1211.5400896428073 0 1211.5400896428073 -897.42138381413679 0 0 0 0 -3767.9889379602391 1811.4483914283828 0 1811.4483914283828 -1041.6096668854589 0 0 0 0 -1789.4524957251851 2564.278723780606 0 2564.278723780606 -2681.9648162726662 0 0 0 0 93.260019371227827 105.42744479697649 0 105.42744479697649 -1998.6981753250957 0 0 0 0 -1257.3591573585727 1358.047689318525 0 1358.047689318525 -798.49390911607406 0 0 0 0 -1666.3346665572608 2008.1472246884878 0 2008.1472246884878 -1301.4344219568793 0 0 0 0 -1852.7496296652171 1895.5191623572009 0 1895.5191623572009 -1341.2079186863593 0 0 0 0 -1877.4513447410136 2395.6338833988611 0 2395.6338833988611 -1581.2505184411928 0 0 0 0 -1.2447282502077996 -2.2559276277417837 0 -2.2559276277417837 -8.5529562110446875 0 0 0 0 -138.43877860326029 658.49514126967688 0 658.49514126967688 111.94651915707243 0 0 0 0 15.879881238437292 15.05119034680726 0 15.05119034680726 20.503263795612767 0 0 0 0 947.54716760900919 -463.971759976459 0 -463.971759976459 309.1759807137496 0 0 0 0 2555.3971293627933 -525.96968343324716 0 -525.96968343324716 166.69581684472359 0 0 0 0 368.03769643129635 -224.4268029411287 0 -224.4268029411287 -22.853358095191652 0 0 0 0 33.06276615732105 55.796253433642704 0 55.796253433642704 47.915389923296758 0 0 0 0 80.203325282069272 257.09204910030439 0 257.09204910030439 -294.66299314415551 0 0 0 0 617.69056406040545 -73.141360678720503 0 -73.141360678720503 -40.576971788996161 0 0 0 0 614.80622814100934 -58.266554882990022 0 -58.266554882990022 -116.29793691403756 0 0 0 0 855.1074019880034 -98.790679640496819 0 -98.790679640496819 -321.39584572505919 0 0 0 0 966.80064394173678 519.84696489155613 0 519.84696489155613 -522.37255319712131 0 0 0 0 750.42433253536001 221.57436726038577 0 221.57436726038577 -709.42455156041251 0 0 0 0 730.82220517206588 210.73982221510414 0 210.73982221510414 -158.1446336149238 0 0 0 0 225.26112368388567 542.78047113190405 0 542.78047113190405 -239.41953954674682 0 0 0 0 18.763295348791871 1003.7227516959611 0 1003.7227516959611 -371.63553879183382 0 0 0 0 733.85104591131676 755.04565274116612 0 755.04565274116612 -292.33270093715691 0 0 0 0 1372.5973783959635 807.59282179479487 0 807.59282179479487 -804.62711680546272 0 0 0 0 940.1670659854135 358.7424484828116 0 358.7424484828116 -1041.5686228429622 0 0 0 0 183.7207906806143 428.01126645215118 0 428.01126645215118 25.368307296885177 0 0 0 0 407.88106821256224 222.55975509368454 0 222.55975509368454 133.91938297789602 0 0 0 0 -8.742411461049528 33.689811622565898 0 33.689811622565898 -6.0490874268089669 0 0 0 0 26.006459558266215 102.59263970250686 0 102.59263970250686 -25.034517400745244 0 0 0 0 51.747011760679015 73.179309441493388 0 73.179309441493388 -125.03574864636903 0 0 0 0 463.98933145697811 80.451438816882728 0 80.451438816882728 126.29531906511693 0 0 0 0 -40.504451794433407 90.019933142266382 0 90.019933142266382 -22.847800211038702 0 0 0 0 -47.451579166925512 93.103321265578415 0 93.103321265578415 -21.073733475273912 0 0 0 0 20.219116610770186 63.439562926084875 0 63.439562926084875 3.7332955515068136 0 0 0 0 -7.9770531381053047 38.486961888080913 0 38.486961888080913 0.75415834375012025 0 0 0 0 -6.3139304476148936 66.356597511839681 0 66.356597511839681 -40.48923004684552 0 0 0 0 -41.590033784857951 95.671649518939375 0 95.671649518939375 -20.001452699079891 0 0 0 0 -47.165320593805518 86.947403751288221 0 86.947403751288221 -24.255934863482253 0 0 0 0 -563.71709912550432 1066.3216022616307 0 1066.3216022616307 -845.17989789075364 0 0 0 0 -2571.9363067518279 -114.20591987180524 0 -114.20591987180524 -72.174767367061577 0 0 0 0 510.68719584435894 -875.88631026153053 0 -875.88631026153053 -265.7214282286368 0 0 0 0 -32.226437728688666 19.712343224236406 0 19.712343224236406 0.06590293724411822 0 0 0 0 -14.563724523939925 15.96199939542818 0 15.96199939542818 -13.711595930499769 0 0 0 0 -2284.2633822302669 465.63219356543868 0 465.63219356543868 94.532302686464391 0 0 0 0 -3411.9116582164934 2462.8883548171343 0 2462.8883548171343 -572.93493581045186 0 0 0 0 -242.30705205874983 958.51025741809826 0 958.51025741809826 -2981.349500821847 0 0 0 0 107.2780923293285 27.600441329105024 0 27.600441329105024 -83.719344428174736 0 0 0 0 -4.2085965496919755 5.0042730495011369 0 5.0042730495011369 -28.538570574383812 0 0 0 0 1957.9848931331944 1965.9393979567021 0 1965.9393979567021 -912.69984996327184 0 0 0 0 -227.44750807384844 -787.9050813324593 0 -787.9050813324593 205.56970644126739 0 0 0 0 -3106.8904299462811 2328.376140435098 0 2328.376140435098 -2173.9451382480511 0 0 0 0 -740.3496285713918 5047.7556147308387 0 5047.7556147308387 -190.21561166504807 0 0 0 0 -4596.4007348035084 3007.0687730023346 0 3007.0687730023346 989.55419348351279 0 0 0 0 899.3846706878976 3232.6960692369321 0 3232.6960692369321 468.24021444720711 0 0 0 0 1357.4163569851517 3963.2856111512847 0 3963.2856111512847 18.490933085391589 0 0 0 0 1207.6720803552016 1535.2188465810323 0 1535.2188465810323 -1272.2532007297159 0 0 0 0 32.468144926073649 15.057341910761522 0 15.057341910761522 7.2547337000284884 0 0 0 0 130.12924901733641 411.26999445466936 0 411.26999445466936 1296.4550806761144 0 0 0 0 90.102823331036461 45.809145926433303 0 45.809145926433303 24.113746241845618 0 0 0 0 387.65105430714902 1769.0407213129638 0 1769.0407213129638 4508.1314440907645 0 0 0 0 380.20130912203604 602.19541474447124 0 602.19541474447124 72.310900734864845 0 0 0 0 1285.5846961864445 1863.5023671400468 0 1863.5023671400468 -835.76521195281566 0 0 0 0 378.95841690636007 1187.0642789549674 0 1187.0642789549674 486.71308458998828 0 0 0 0 500.18567019582406 941.23762625760446 0 941.23762625760446 -899.65736896326416 0 0 0 0 696.81759322000653 1772.9250154982592 0 1772.9250154982592 -1006.6214010646327 0 0 0 0 314.05743360935594 1107.3889910058024 0 1107.3889910058024 -1568.358631446974 0 0 0 0 928.57751787902816 1265.7509977246996 0 1265.7509977246996 -1595.4865630201748 0 0 0 0 -6.8375358707271516 769.74211597963222 0 769.74211597963222 -1380.5629507619797 0 0 0 0 797.92697984920596 428.35177323754442 0 428.35177323754442 -2087.5525912690537 0 0 0 0 -2079.8722777093062 -83.099822649461203 0 -83.099822649461203 -1115.7823412121625 0 0 0 0 -935.2432843100396 492.26068508941535 0 492.26068508941535 -1293.2829754591853 0 0 0 0 -1295.3493756041134 1237.1980433930194 0 1237.1980433930194 -1101.9828969776536 0 0 0 0 38.563873179125949 888.70791389802071 0 888.70791389802071 -1340.6024538913207 0 0 0 0 -696.44649917898641 795.24710904782842 0 795.24710904782842 -1156.7161686992467 0 0 0 0 -280.59811002459901 885.33994157175766 0 885.33994157175766 -1281.6801081334452 0 0 0 0 -766.68579633378249 1127.5078360674233 0 1127.5078360674233 -1191.6812406531608 0 0 0 0 -455.98010246695776 1058.5509785723552 0 1058.5509785723552 -1462.6461623367213 0 0 0 0 -353.48803451140702 828.4752852833717 0 828.4752852833717 -1241.3442309319144 0 0 0 0 -161.2617119178758 787.69768654032669 0 787.69768654032669 -1453.5349365855009 0 0 0 0 -114.92511681649376 719.46072872053787 0 719.46072872053787 -1414.0511444044241 0 0 0 0 -241.60678973983158 956.43941030204087 0 956.43941030204087 -1434.7990818839135 0 0 0 0 -72.331028620006691 615.887712205556 0 615.887712205556 -2160.3460720314433 0 0 0 0 -158.6031566130423 987.41970872148045 0 987.41970872148045 -2082.467765002355 0 0 0 0 -49.8191738325404 500.42173925433235 0 500.42173925433235 -1606.6415230691327 0 0 0 0 -163.45523343343302 924.77297149174342 0 924.77297149174342 -1551.7897116661261 0 0 0 0 -130.31003846618478 666.8390605541822 0 666.8390605541822 -1226.7192383705224 0 0 0 0 -445.20774129629717 669.78239111452967 0 669.78239111452967 -1190.0654113784749 0 0 0 0 -671.24604971281951 -75.762231233273269 0 -75.762231233273269 -1306.7662653667157 0 0 0 0 -493.83979849982097 890.16994567654774 0 890.16994567654774 161.6202219561419 0 0 0 0 121.3821448260278 1992.6765028071077 0 1992.6765028071077 -692.9328560816648 0 0 0 0 -311.72475396273148 949.431098388686 0 949.431098388686 -817.59577897913914 0 0 0 0 215.62742191925645 1334.1115749968903 0 1334.1115749968903 -1192.0124863407564 0 0 0 0 51.535977728868602 1143.8024536453513 0 1143.8024536453513 -1370.8131999486359 0 0 0 0 705.30499135780701 1558.6639270512242 0 1558.6639270512242 -1523.4922622497324 0 0 0 0 134.99545424039388 1586.4133133906594 0 1586.4133133906594 -1510.9770015077265 0 0 0 0 525.34874201132334 2429.0123075904139 0 2429.0123075904139 -2023.3618249497231 0 0 0 0 299.99481626981287 2603.1853254753341 0 2603.1853254753341 -2973.6255020806311 0 0 0 0 14.669698456018125 23.646496618089856 0 23.646496618089856 20.997596258704789 0 0 0 0 539.56106964231003 3913.2055306748061 0 3913.2055306748061 1349.2336007841986 0 0 0 0 154.48109951289371 2106.534392442788 0 2106.534392442788 -1476.7836086863463 0 0 0 0 -797.82965743538807 -72.33526881785474 0 -72.33526881785474 1545.603538774056 0 0 0 0 1481.623047127945 1955.6198118353134 0 1955.6198118353134 -272.14480007974271 0 0 0 0 477.91954924893798 514.16495988547831 0 514.16495988547831 -1358.8198702361842 0 0 0 0 1658.737303298265 1296.9843831914343 0 1296.9843831914343 -2210.0696293193832 0 0 0 0 669.88657943301951 -406.50165481634485 0 -406.50165481634485 -1842.7020441761924 0 0 0 0 1.6016484994870837 2.6230805731820794 0 2.6230805731820794 8.2567685755501827 0 0 0 0 -2205.6923856373469 1014.677297169651 0 1014.677297169651 949.5107778473448 0 0 0 0 4036.4749562300422 136.97161964838051 0 136.97161964838051 -1202.7227386831564 0 0 0 0 62.83780088443018 931.18609578418932 0 931.18609578418932 501.52389078450824 0 0 0 0 -137.53496052361879 531.15018071113673 0 531.15018071113673 4544.4314639331224 0 0 0 0 489.60978959767817 391.94541082440719 0 391.94541082440719 1178.2906135996873 0 0 0 0 -612.76047657849267 1504.018427758132 0 1504.018427758132 -2565.1805488451682 0 0 0 0 -1317.0014315794469 2339.1209761536302 0 2339.1209761536302 -3025.0335083997998 0 0 0 0 -2225.6453399855236 2013.6911784356344 0 2013.6911784356344 -1411.6230057412977 0 0 0 0 49.842050217138706 60.998888561660323 0 60.998888561660323 57.098851857199129 0 0 0 0 273.31088822330639 -410.09433740530608 0 -410.09433740530608 1348.2732360663831 0 0 0 0 -806.39979803416645 79.19781422408596 0 79.19781422408596 1025.9640473512918 0 0 0 0 -3353.5486896191724 2157.3952749746004 0 2157.3952749746004 -3207.8147315715833 0 0 0 0 -16.251294100223618 7.4074296338365144 0 7.4074296338365144 -2.4303784047381498 0 0 0 0 -286.15257280884543 2566.8312746284719 0 2566.8312746284719 -9755.0868467922119 0 0 0 0 -1142.0964685584477 532.57369378128897 0 532.57369378128897 -3656.5912932884676 0 0 0 0 -1457.6511230539181 -603.22303482480129 0 -603.22303482480129 -362.77949491645268 0 0 0 0 -636.25605827260006 518.07873932376606 0 518.07873932376606 -2622.8526537982652 0 0 0 0 -1012.1564504671842 979.86646037558967 0 979.86646037558967 -1529.16807585276 0 0 0 0 -1649.0152999614074 948.32179827672007 0 948.32179827672007 -1522.7463368479903 0 0 0 0 -326.25070195524313 1754.4661805258347 0 1754.4661805258347 -2584.6513369464083 0 0 0 0 -867.62858699963544 1004.3123455942805 0 1004.3123455942805 -3619.1083825183905 0 0 0 0 143.05405147586134 1254.2752203361542 0 1254.2752203361542 -2365.9209203077216 0 0 0 0 560.01443728851154 1491.4803956633114 0 1491.4803956633114 -1375.5161615191955 0 0 0 0 573.74390906811459 1606.5779333699184 0 1606.5779333699184 -2086.2587309201772 0 0 0 0 257.77446464585955 737.03253825685351 0 737.03253825685351 -1397.6356982788639 0 0 0 0 -218.47457894010586 471.35589068066474 0 471.35589068066474 -1523.1239498322975 0 0 0 0 -50.445178749068873 792.43746150188417 0 792.43746150188417 -1283.1824640052018 0 0 0 0 -141.79707782788319 1143.0853861452106 0 1143.0853861452106 -1934.5799411319276 0 0 0 0 -173.78705374857236 756.77489658305058 0 756.77489658305058 -732.61775765896164 0 0 0 0 214.73724535142537 133.722988954014 0 133.722988954014 -651.37235068280279 0 0 0 0 216.64099870226346 825.71446333000131 0 825.71446333000131 -61.252768948219455 0 0 0 0 223.91178448285791 199.80294823764689 0 199.80294823764689 -248.80634572144481 0 0 0 0 52.932324179608258 331.44209862304251 0 331.44209862304251 264.47534057293706 0 0 0 0 -18.839328681744519 53.789272163141504 0 53.789272163141504 260.91519640833576 0 0 0 0 132.63268346813857 356.90137948322263 0 356.90137948322263 367.76222618698648 0 0 0 0 481.65380037394061 430.27441307896879 0 430.27441307896879 -1295.4745965473412 0 0 0 0 -625.79623502618051 550.4574171663844 0 550.4574171663844 -266.30456880363272 0 0 0 0 166.05935482098721 1141.5305656295168 0 1141.5305656295168 -1340.975009117421 0 0 0 0 -0.78512387444982323 2.6565917410617885 0 2.6565917410617885 -8.0105571200476859 0 0 0 0 7.9788421823759563 -279.46025654811092 0 -279.46025654811092 273.66181994018007 0 0 0 0 -4205.6552420369408 1740.901719623922 0 1740.901719623922 -678.91486774865189 0 0 0 0 -2.6671559738771009 5.3149204366946208 0 5.3149204366946208 -16.116064689985677 0 0 0 0 -400.15771393312025 2478.8347672672026 0 2478.8347672672026 -2870.1330942998102 0 0 0 0 1036.1906679016538 970.9977593989679 0 970.9977593989679 -1355.5547201924637 0 0 0 0 -2424.4861108397017 1172.2998487552613 0 1172.2998487552613 1073.7177781658829 0 0 0 0 -2331.7312844408443 2870.1590594258487 0 2870.1590594258487 -2164.0301595922392 0 0 0 0 -2465.6328067150607 550.2882170743469 0 550.2882170743469 -2000.5015332272255 0 0 0 0 -1741.3624909133068 1621.7853110748583 0 1621.7853110748583 -452.6227298011072 0 0 0 0 -2300.844688060708 943.96343723309292 0 943.96343723309292 -791.45043719647947 0 0 0 0 -859.9131681908766 1174.8926456444442 0 1174.8926456444442 -1301.1922425312005 0 0 0 0 -641.39983860612847 774.38474725963169 0 774.38474725963169 -921.39005882869242 0 0 0 0 -1178.1467893382942 1756.5470389566308 0 1756.5470389566308 -1368.8388636413802 0 0 0 0 605.05252413300332 239.39459235522372 0 239.39459235522372 -55.059257659304421 0 0 0 0 243.51646754611284 210.4842241040169 0 210.4842241040169 138.5035471417068 0 0 0 0 112.62984586231676 118.96470383734103 0 118.96470383734103 11.839698544969281 0 0 0 0 -14.171351870812941 96.666699817113113 0 96.666699817113113 17.102755068102852 0 0 0 0 139.49714570480864 61.562331599325262 0 61.562331599325262 74.99644999569864 0 0 0 0 179.03673177503515 30.615475517093728 0 30.615475517093728 14.904623195441673 0 0 0 0 363.58544316678308 131.78857750981115 0 131.78857750981115 48.017476668057498 0 0 0 0 331.4870006218116 275.10644039179351 0 275.10644039179351 115.19748201672337 0 0 0 0 -42.059247034085729 32.894285184551649 0 32.894285184551649 22.717872553748819 0 0 0 0 17.561608186952071 258.14972576437867 0 258.14972576437867 167.35325532234856 0 0 0 0 -714.54233710849076 72.578690368532989 0 72.578690368532989 189.03660349121492 0 0 0 0 -391.34228021005401 279.41400075687488 0 279.41400075687488 -83.172322702754172 0 0 0 0 207.92481156199938 190.86163446112187 0 190.86163446112187 -71.252102260215906 0 0 0 0 -19.124572109269877 104.39532764393959 0 104.39532764393959 30.782937513170111 0 0 0 0 -480.79538013029378 2.392037015160895 0 2.392037015160895 161.10611989054451 0 0 0 0 -81.131891577905208 21.396205153200661 0 21.396205153200661 3.0982378748092003 0 0 0 0 -384.66482111044752 350.96556358250564 0 350.96556358250564 -292.10124929698213 0 0 0 0 -1179.8354043517538 138.69897918439301 0 138.69897918439301 135.50807574128703 0 0 0 0 117.29646823083021 257.7664947281246 0 257.7664947281246 198.97532530531316 0 0 0 0 -20.086227879394016 31.997791380871831 0 31.997791380871831 -30.25783309052261 0 0 0 0 92.261977903268416 186.71258772356941 0 186.71258772356941 94.690796752325696 0 0 0 0 121.51885316665721 127.06947129455557 0 127.06947129455557 117.96076361361338 0 0 0 0 55.538434829795733 74.114903990492166 0 74.114903990492166 427.96871511288555 0 0 0 0 25.488312565157855 98.24283069164261 0 98.24283069164261 8.5878252980633647 0 0 0 0 174.94150436599739 121.91174515219245 0 121.91174515219245 -69.796177710388292 0 0 0 0 20.057876118530203 30.326607518501135 0 30.326607518501135 9.9957067934712285 0 0 0 0 43.060957021894865 55.12738671839179 0 55.12738671839179 26.115018210366543 0 0 0 0 41.522151380122523 45.448479184432927 0 45.448479184432927 533.45799896489916 0 0 0 0 -12.853259539146165 68.405822953293764 0 68.405822953293764 55.675523840449173 0 0 0 0 80.896741582513414 73.246812949222289 0 73.246812949222289 16.353343825010356 0 0 0 0 135.51140647650135 84.756408639760537 0 84.756408639760537 38.586562352566432 0 0 0 0 115.94888366141822 84.684538242741837 0 84.684538242741837 121.45000437809358 0 0 0 0 12.226046170020709 355.58494377366151 0 355.58494377366151 35.118598016913893 0 0 0 0 13.786894897151797 174.18169864164702 0 174.18169864164702 -176.93313758599106 0 0 0 0 -28.846811513559601 4.2586939727272366 0 4.2586939727272366 6.0907191839698669 0 0 0 0 37.490706101205433 -5.9655342537153047 0 -5.9655342537153047 53.675411953765433 0 0 0 0 -170.61197845029528 310.07683865011495 0 310.07683865011495 446.47177992221259 0 0 0 0 -21.395393775415982 19.315093783876989 0 19.315093783876989 6.1862048283473996 0 0 0 0 57.718844180560495 49.225010367865877 0 49.225010367865877 5.0086305305093219 0 0 0 0 -25.427001377393026 13.802451279036177 0 13.802451279036177 -21.973677087938995 0 0 0 0 144.09583621927595 72.967335981178621 0 72.967335981178621 31.336472056776984 0 0 0 0 91.409669776912779 109.85350957627816 0 109.85350957627816 55.830037181622174 0 0 0 0 210.36728411982767 138.40313755975512 0 138.40313755975512 -177.95397513166972 0 0 0 0 194.50583814573474 570.37691553925106 0 570.37691553925106 -619.16044874078216 0 0 0 0 16.706532339114347 185.39038622174485 0 185.39038622174485 -135.55440045493015 0 0 0 0 77.292241358212777 185.15547319466077 0 185.15547319466077 -2102.3111453797319 0 0 0 0 6.8576374165713787 -34.588631803839235 0 -34.588631803839235 -301.78518246253589 0 0 0 0 127.70215332828957 232.97345760081771 0 232.97345760081771 -1022.7494521090848 0 0 0 0 -301.75360595007078 752.36471080467891 0 752.36471080467891 -850.48974071505654 0 0 0 0 -494.06281774680428 682.09912939139713 0 682.09912939139713 -805.71650650566153 0 0 0 0 -513.71820728460443 889.96408461593819 0 889.96408461593819 -867.76351710762538 0 0 0 0 -123.75006422394654 918.70921331329737 0 918.70921331329737 -1163.9965533328068 0 0 0 0 136.35853950708406 661.60233344403241 0 661.60233344403241 -545.87916799289087 0 0 0 0 156.88868438292411 712.36012976587517 0 712.36012976587517 -1079.9487066555739 0 0 0 0 361.98294059862383 674.43264147581795 0 674.43264147581795 -936.36517489151447 0 0 0 0 -104.32437488132911 186.29454062459041 0 186.29454062459041 14.924823697127408 0 0 0 0 365.0452259254962 797.11869974889487 0 797.11869974889487 -432.64682048592658 0 0 0 0 2467.7054430025019 2260.5957733989198 0 2260.5957733989198 -3781.3000392842514 0 0 0 0 -84.127187421271316 182.81693174221499 0 182.81693174221499 58.619205040527959 0 0 0 0 223.99571894507244 408.9020593796231 0 408.9020593796231 232.38301296799909 0 0 0 0 223.76086653216043 190.16224576171953 0 190.16224576171953 -17.405890506755895 0 0 0 0 434.14966034385725 -13.416714388680703 0 -13.416714388680703 89.615206274407683 0 0 0 0 192.53807701625919 716.37638115955269 0 716.37638115955269 962.120478457422 0 0 0 0 -1083.8785993426718 -132.03338715939026 0 -132.03338715939026 1652.6102869327501 0 0 0 0 -970.82007374054228 -113.39536640699225 0 -113.39536640699225 1653.4079006494867 0 0 0 0 -913.88279978427454 -62.428637151766452 0 -62.428637151766452 1106.0011828032875 0 0 0 0 -567.11565232582507 529.68035567592597 0 529.68035567592597 2012.5074501798372 0 0 0 0 -1375.8906101684261 142.59185623633675 0 142.59185623633675 2088.4294204316338 0 0 0 0 -36.440968317337649 10.63774115809327 0 10.63774115809327 1.5046185276758308 0 0 0 0 7.4499633138311765 831.53251590686341 0 831.53251590686341 -1798.6372258152842 0 0 0 0 -875.4051032334246 1472.553244894305 0 1472.553244894305 -1221.7083059238939 0 0 0 0 -106.47204887757582 183.77650337470828 0 183.77650337470828 4.5971181412351712 0 0 0 0 1290.4816610338676 -94.090372973354533 0 -94.090372973354533 -2828.6737395775708 0 0 0 0 -1303.8170719947011 539.22991313191596 0 539.22991313191596 89.839388757543929 0 0 0 0 25.040215637824559 46.184443411449777 0 46.184443411449777 -3.8814765968340907 0 0 0 0 177.01113256127428 1101.2335694651338 0 1101.2335694651338 1128.9707265398902 0 0 0 0 793.30732585866645 572.76616050333541 0 572.76616050333541 -179.09220766719955 0 0 0 0 223.92984798695397 1527.1716978652694 0 1527.1716978652694 -740.06301484457799 0 0 0 0 -299.97638758008543 898.3260498210002 0 898.3260498210002 -821.02089589292154 0 0 0 0 181.11518989499018 334.58007162402646 0 334.58007162402646 -253.60036596378995 0 0 0 0 -61.57618294088752 964.78167743010999 0 964.78167743010999 -1691.2599466200336 0 0 0 0 612.0850873982854 450.54156889810838 0 450.54156889810838 -776.34655302272586 0 0 0 0 571.59134107206773 310.9448654531443 0 310.9448654531443 111.89060570774018 0 0 0 0 377.93013743164192 -221.65934225523961 0 -221.65934225523961 -350.76225805585273 0 0 0 0 532.48617334099981 3.8670161867776187 0 3.8670161867776187 -42.866315819555894 0 0 0 0 381.66300263807352 -355.07296588410827 0 -355.07296588410827 45.659680808370467 0 0 0 0 469.50049600862258 -123.43828424732783 0 -123.43828424732783 -1734.4733560692985 0 0 0 0 -1105.2328377020895 1348.991428609108 0 1348.991428609108 -293.98605332513398 0 0 0 0 -273.56898304645438 155.87897354536835 0 155.87897354536835 811.92568133883469 0 0 0 0 -253.83639881381532 192.27781832584878 0 192.27781832584878 117.42457296112843 0 0 0 0 0.60366941094616777 4.239123231195606 0 4.239123231195606 -1.1063703318248486 0 0 0 0 871.93574221788731 269.79927367793425 0 269.79927367793425 -264.1777142456267 0 0 0 0 173.4409526500167 368.0312276987861 0 368.0312276987861 -188.47198445841786 0 0 0 0 387.64830412458105 143.13268461964617 0 143.13268461964617 33.716880340332864 0 0 0 0 -75.67169273469797 135.42990279005181 0 135.42990279005181 -10.562838521762671 0 0 0 0 -22.784872735050158 187.27569610805222 0 187.27569610805222 24.283600129849219 0 0 0 0 24.435052628803533 119.44127231249149 0 119.44127231249149 -898.49931438022759 0 0 0 0 -122.92766693314479 782.5042024698123 0 782.5042024698123 -741.37400917822742 0 0 0 0 -91.480211992243042 135.62440422985378 0 135.62440422985378 11.13263733354546 0 0 0 0 171.38975067355204 121.98567887439276 0 121.98567887439276 -118.9712695982962 0 0 0 0 -56.389618447168345 50.238098610781165 0 50.238098610781165 -2.9361296454639785 0 0 0 0 -52.8727568105096 656.21642557193991 0 656.21642557193991 -936.34209802877376 0 0 0 0 -7.5188129838570603 730.16454694738059 0 730.16454694738059 -860.96926150860963 0 0 0 0 -1634.9225106237864 597.4212311577503 0 597.4212311577503 -628.28144369740767 0 0 0 0 -19.191241717713638 110.47015476802017 0 110.47015476802017 -539.29436656202597 0 0 0 0 -1527.4803047816386 137.82113581815793 0 137.82113581815793 -92.852443066323758 0 0 0 0 -1820.5098633544112 163.55220328983705 0 163.55220328983705 185.01887817967508 0 0 0 0 -1912.7044971304276 287.66310078262904 0 287.66310078262904 198.74169948685449 0 0 0 0 -2675.0716834961786 524.74819317701622 0 524.74819317701622 71.808433585072635 0 0 0 0 -35.11916454252264 -3.5094187716418617 0 -3.5094187716418617 0.18626706857676822 0 0 0 0 -1802.983076894845 -399.4997048792211 0 -399.4997048792211 333.44241738621349 0 0 0 0 -514.9785959344008 1014.5227361206234 0 1014.5227361206234 -2382.7997965467948 0 0 0 0 -2472.3527063221554 2006.4346794536978 0 2006.4346794536978 -903.7159386335843 0 0 0 0 -3123.9311030268291 997.07958058759687 0 997.07958058759687 -60.799044375744415 0 0 0 0 -1613.9878588574938 1003.993088093921 0 1003.993088093921 -69.465122709381831 0 0 0 0 -2346.1010918445245 1678.3594520676197 0 1678.3594520676197 149.0619129563147 0 0 0 0 -1314.6318208974553 980.26983008760726 0 980.26983008760726 2.0874171691684751 0 0 0 0 -269.44048181409016 524.04191151735722 0 524.04191151735722 -256.9707030082136 0 0 0 0 -612.78576213987253 -18.998255168080505 0 -18.998255168080505 -472.97305119132398 0 0 0 0 -1534.922625784362 123.73498099124845 0 123.73498099124845 -2127.7621366043895 0 0 0 0 -1007.5253501492407 994.41608135559363 0 994.41608135559363 -735.98305282594811 0 0 0 0 -750.57725899983052 508.34819149240138 0 508.34819149240138 -1027.0493462444865 0 0 0 0 1150.107262510719 -76.620987649490417 0 -76.620987649490417 -604.72391757914738 0 0 0 0 13.649905853389896 2.0036082875300281 0 2.0036082875300281 -48.289095330077771 0 0 0 0 -1056.9033869741834 994.09371338866913 0 994.09371338866913 -1299.5983391820555 0 0 0 0 -724.99593081578496 1167.1578000079971 0 1167.1578000079971 -1241.9794094257086 0 0 0 0 -1868.8773242898023 1414.3372316914938 0 1414.3372316914938 -1210.0227387008199 0 0 0 0 -897.334940738554 601.51158698545623 0 601.51158698545623 -532.59338374263461 0 0 0 0 -1406.7025885132025 771.99227412680557 0 771.99227412680557 -277.1292295014282 0 0 0 0 -250.88766010417021 373.75403430171718 0 373.75403430171718 -139.98425456509722 0 0 0 0 -692.66912468368537 386.22347183263628 0 386.22347183263628 41.45548917594715 0 0 0 0 -91.041473228222458 1071.0850886021217 0 1071.0850886021217 81.117102774686828 0 0 0 0 -54.085064961146543 45.952376643019512 0 45.952376643019512 -23.733134406073674 0 0 0 0 310.20289855531882 1958.0475903289771 0 1958.0475903289771 1041.4142985690269 0 0 0 0 836.708806993498 1357.8333173014544 0 1357.8333173014544 464.49094102100935 0 0 0 0 -518.1062604560866 991.26001244062354 0 991.26001244062354 479.43707165394153 0 0 0 0 1390.8892770687235 1067.378378635025 0 1067.378378635025 598.51971971552121 0 0 0 0 1293.8064439394475 169.64950612589382 0 169.64950612589382 1358.0050001266063 0 0 0 0 55.868571820320028 13.769821679090029 0 13.769821679090029 -8.7232670614366334 0 0 0 0 895.20640667749103 49.744183968028665 0 49.744183968028665 -2252.2518161063344 0 0 0 0 -545.63227294242824 -1239.3957942518537 0 -1239.3957942518537 -4468.2386299335776 0 0 0 0 -478.19306943716947 1558.855386038791 0 1558.855386038791 -3639.1178797885332 0 0 0 0 699.91160745039815 674.86457605780743 0 674.86457605780743 -2166.0078178513932 0 0 0 0 -185.17595980276383 -215.89519995962473 0 -215.89519995962473 -2057.6523669190065 0 0 0 0 -1354.0474045806332 702.87428776302841 0 702.87428776302841 -4580.1753781565058 0 0 0 0 -1578.5977434507804 -46.192528876461438 0 -46.192528876461438 -28.622921034489991 0 0 0 0 -5.2823662329783474 15.316486549677975 0 15.316486549677975 -4.7626376430372943 0 0 0 0 -2139.9041126867196 3239.6273133709092 0 3239.6273133709092 -838.9610219024471 0 0 0 0 4.7913445012892453 9.8568315288011661 0 9.8568315288011661 -6.3412590468351118 0 0 0 0 -102.34861882939003 129.5967837585049 0 129.5967837585049 3383.4614693651733 0 0 0 0 -1582.76023628033 698.20308507855225 0 698.20308507855225 1302.4837459624032 0 0 0 0 -547.96615023683989 1146.5139592546038 0 1146.5139592546038 1080.6727057629323 0 0 0 0 -148.90151654218789 94.310386481214664 0 94.310386481214664 724.6015337136123 0 0 0 0 -187.3317169228103 898.38122384094459 0 898.38122384094459 1016.1888397269504 0 0 0 0 -1452.5434178018822 563.00015211455911 0 563.00015211455911 651.33554412677768 0 0 0 0 -1456.5862651661428 503.22295126681865 0 503.22295126681865 38.342970147612505 0 0 0 0 -1796.9169234458532 544.60232328825077 0 544.60232328825077 354.86310870213492 0 0 0 0 -1842.2126375560765 832.90257845776796 0 832.90257845776796 -424.55825868903048 0 0 0 0 -1965.8057079958962 1456.667851339007 0 1456.667851339007 -1196.0115712645493 0 0 0 0 -1547.2516530938083 527.77675690029719 0 527.77675690029719 -1476.3105811252171 0 0 0 0 -1364.4267834045168 1528.3048896131586 0 1528.3048896131586 -1331.6999178617407 0 0 0 0 -1785.5066215520783 1362.08728271789 0 1362.08728271789 -515.24979900312155 0 0 0 0 -10.318966513122746 5.6995735771183149 0 5.6995735771183149 -0.14968591722259816 0 0 0 0 -2038.2787740374715 599.40209878385804 0 599.40209878385804 -1633.2249845183542 0 0 0 0 -1901.6284372604568 1700.6246659423523 0 1700.6246659423523 -1113.0790543059848 0 0 0 0 -1735.5816335746786 1598.6222097648397 0 1598.6222097648397 -1091.7629642111424 0 0 0 0 -1331.6417102809646 1174.4257366643651 0 1174.4257366643651 -1225.8952338580111 0 0 0 0 -2519.8718287521187 973.60502173335408 0 973.60502173335408 508.75686867059267 0 0 0 0 -1709.4061996091914 620.5763973311914 0 620.5763973311914 -1679.6204626193357 0 0 0 0 216.29663486569189 -124.78583269283263 0 -124.78583269283263 -404.25449755993577 0 0 0 0 -15.219727492246307 -7.729247111007453 0 -7.729247111007453 1.955079625593136 0 0 0 0 -1318.2087316047109 1357.4238712197402 0 1357.4238712197402 -1779.4068759831134 0 0 0 0 -1320.0527490838431 -243.23060024481674 0 -243.23060024481674 683.16723150909093 0 0 0 0 -36.453137867327314 43.208576405527765 0 43.208576405527765 -41.082800835247326 0 0 0 0 -734.46253618309856 438.57676020471627 0 438.57676020471627 -252.88320408223444 0 0 0 0 224.74157944339095 307.96929708675088 0 307.96929708675088 50.899751588658546 0 0 0 0 -719.49211126805494 675.04740915467517 0 675.04740915467517 128.03271390194277 0 0 0 0 -1678.6867207876639 902.82900234528643 0 902.82900234528643 443.52617363943864 0 0 0 0 -941.4039637001697 4530.9720235461573 0 4530.9720235461573 1477.9989385393674 0 0 0 0 -1134.7290562755661 1792.011437971858 0 1792.011437971858 2637.364342073939 0 0 0 0 -891.87709106259717 2191.1595281994505 0 2191.1595281994505 721.12931125817704 0 0 0 0 1520.4012461032944 4229.1758682178097 0 4229.1758682178097 2962.9960454574903 0 0 0 0 1217.7725911413727 1784.52065587174 0 1784.52065587174 1140.4784199868882 0 0 0 0 -1468.4069116660394 1364.9303056326462 0 1364.9303056326462 1538.8850588488676 0 0 0 0 -75.918116287139128 1635.9884053343631 0 1635.9884053343631 2366.3665355868579 0 0 0 0 -525.9188540657633 877.3097748025757 0 877.3097748025757 -409.41522888434702 0 0 0 0 681.6710300554696 1927.1668240183535 0 1927.1668240183535 -427.41421956859995 0 0 0 0 -3461.0213485599088 205.29961721919972 0 205.29961721919972 -1102.3795768147829 0 0 0 0 -927.28904705832247 1179.5028727266617 0 1179.5028727266617 -820.4569813838898 0 0 0 0 -2019.632860208163 865.3427753689175 0 865.3427753689175 694.03246341676868 0 0 0 0 1864.1996230535442 1678.2579681145144 0 1678.2579681145144 2136.2587629422378 0 0 0 0 649.5524199744541 2095.6675522690384 0 2095.6675522690384 3547.9859528458037 0 0 0 0 929.4494251414726 2022.8689420752562 0 2022.8689420752562 1825.4093317781517 0 0 0 0 764.10967433924088 774.79375573818834 0 774.79375573818834 1686.3955327090662 0 0 0 0 222.8476431290037 769.31783936770807 0 769.31783936770807 4838.1595506057711 0 0 0 0 307.45966611681797 1064.6444105856008 0 1064.6444105856008 1110.4644825330761 0 0 0 0 1024.7967016184703 2093.1994732746753 0 2093.1994732746753 1152.4754069415471 0 0 0 0 -223.92674394528149 -100.50567134050652 0 -100.50567134050652 -264.20461950539539 0 0 0 0 -586.79461238005024 3565.4849655713551 0 3565.4849655713551 6458.2304337481401 0 0 0 0 471.08655154559528 21.997630963436677 0 21.997630963436677 -597.6445616720257 0 0 0 0 36.970359182045968 -1.3024875436886347 0 -1.3024875436886347 -3.7355107716086451 0 0 0 0 -1345.4382358506991 1236.9817851341359 0 1236.9817851341359 -668.04399243296211 0 0 0 0 787.86895324639045 -80.044112146220868 0 -80.044112146220868 -78.165111432957019 0 0 0 0 -80.761275592551101 38.749335084830818 0 38.749335084830818 -240.81677547092841 0 0 0 0 -11.645237177863635 15.502815922165951 0 15.502815922165951 -9.7856811799053673 0 0 0 0 -198.05562455172185 151.65825760850566 0 151.65825760850566 -64.666473836259684 0 0 0 0 -58.586393939539846 63.052419770444189 0 63.052419770444189 -7.6446234351463715 0 0 0 0 4.1266034459907814 70.129990609291212 0 70.129990609291212 -16.963568000292042 0 0 0 0 -403.60497630335158 0.4820755178516265 0 0.4820755178516265 -33.053340701979323 0 0 0 0 6.2307643385429401 56.256884814432851 0 56.256884814432851 18.453613074751047 0 0 0 0 -8.3123986151894087 55.531363716706103 0 55.531363716706103 -16.048643400591189 0 0 0 0 -29.870260442620463 51.111279899160863 0 51.111279899160863 -14.980248986865718 0 0 0 0 103.42072685650783 196.59098403346434 0 196.59098403346434 -131.54238698857807 0 0 0 0 28.956736469495809 119.71757358422838 0 119.71757358422838 -9.1275292372374679 0 0 0 0 -58.350069512387563 220.44750086945351 0 220.44750086945351 244.42203082038759 0 0 0 0 40.240046036225976 143.9049357630829 0 143.9049357630829 -4.8306047411697364 0 0 0 0 201.56272842168983 -407.20266500636535 0 -407.20266500636535 -165.50405093882 0 0 0 0 -6.8488182186404174 4.8369057831622797 0 4.8369057831622797 -4.7902579835915304 0 0 0 0 1850.8559334120946 270.44470894052938 0 270.44470894052938 1588.0949448202591 0 0 0 0 1537.5916523213236 1932.2432411937098 0 1932.2432411937098 -44.621306148183066 0 0 0 0 -341.45366430754075 184.04877524245967 0 184.04877524245967 -2.1546588547280408 0 0 0 0 430.18302734597819 195.80656346400065 0 195.80656346400065 86.437940703541244 0 0 0 0 22.734179596736794 51.000422490598794 0 51.000422490598794 44.163812655926449 0 0 0 0 569.93788356566802 -217.43320076868986 0 -217.43320076868986 -349.26322285061178 0 0 0 0 221.66639047977515 589.68347099915991 0 589.68347099915991 -425.05695080610894 0 0 0 0 425.36412178706564 -399.89463606135666 0 -399.89463606135666 36.778938645438757 0 0 0 0 -7.472471532815689 -608.01037182296022 0 -608.01037182296022 404.92220651355456 0 0 0 0 39.768307086429559 253.26970593307851 0 253.26970593307851 254.186306016054 0 0 0 0 -60.090620727232874 53.057854891275426 0 53.057854891275426 -29.889633920264998 0 0 0 0 625.57004433510156 2152.9236606314626 0 2152.9236606314626 2428.0851286972902 0 0 0 0 5.6723008489979065 26.049763305357452 0 26.049763305357452 -18.695380534670058 0 0 0 0 1059.3947943300591 1450.4459078433501 0 1450.4459078433501 2482.9353953681202 0 0 0 0 35.197973835543962 694.30549959545533 0 694.30549959545533 1391.2046478914708 0 0 0 0 343.3528894388437 1559.7392127631865 0 1559.7392127631865 2550.7845474384667 0 0 0 0 548.40568727449863 2705.1867174372383 0 2705.1867174372383 4121.8302632479536 0 0 0 0 20.466627105655562 9.1125886052891332 0 9.1125886052891332 1.214355401622166 0 0 0 0 1116.8568554385856 347.20553916632343 0 347.20553916632343 -1780.2161183552894 0 0 0 0 2397.1993266247446 1341.5567706004222 0 1341.5567706004222 -1114.7282385881408 0 0 0 0 791.66523301883717 581.73202859868616 0 581.73202859868616 -822.30185379176692 0 0 0 0 766.24371022407286 627.76816690795749 0 627.76816690795749 -792.15818124284851 0 0 0 0 -120.28985160970478 162.42830910932389 0 162.42830910932389 -924.1173133024713 0 0 0 0 -243.30893583246507 415.79642099023476 0 415.79642099023476 -369.64577113877749 0 0 0 0 -130.01111744604714 342.78825884766775 0 342.78825884766775 -653.29231108436215 0 0 0 0 -126.00013546261471 324.25803542757058 0 324.25803542757058 -417.79791801740794 0 0 0 0 35.330346208706032 110.09811718555284 0 110.09811718555284 -343.83193900604965 0 0 0 0 1202.5948970600148 1040.9523101363629 0 1040.9523101363629 -805.96289157163847 0 0 0 0 50.25970547597899 14.383943368788948 0 14.383943368788948 -0.55957316691714332 0 0 0 0 296.31599479723081 1627.0553681544734 0 1627.0553681544734 940.47488985098244 0 0 0 0 118.12919857841916 -464.63040712704242 0 -464.63040712704242 -978.16250087352091 0 0 0 0 133.89430217666086 205.31882909837441 0 205.31882909837441 -157.96510177192977 0 0 0 0 30.087900706246728 99.238942005562421 0 99.238942005562421 -47.38151246312782 0 0 0 0 12.703542384842876 116.79634533849458 0 116.79634533849458 -118.045015029551 0 0 0 0 -781.83072900172556 1586.1680757332797 0 1586.1680757332797 1830.30777127482 0 0 0 0 2841.4190853058244 -1518.7924560818647 0 -1518.7924560818647 -597.0563240081392 0 0 0 0 600.47242485751485 1774.8667695686163 0 1774.8667695686163 -2557.9296626252617 0 0 0 0 -418.29960973483685 592.1909986798737 0 592.1909986798737 -476.01350279639883 0 0 0 0 -581.13231221979368 650.11256727597356 0 650.11256727597356 -184.01145029079635 0 0 0 0 -297.36898463140824 319.21122577913775 0 319.21122577913775 22.857644720446842 0 0 0 0 462.12801123375539 1432.7086707057497 0 1432.7086707057497 -1345.5548675071332 0 0 0 0 -58.861689608213283 49.94111896753612 0 49.94111896753612 -41.819134240718 0 0 0 0 -393.58329485837021 422.86482761094521 0 422.86482761094521 -86.313786887214519 0 0 0 0 1938.7098703268712 754.80430045785033 0 754.80430045785033 -1212.4869229582109 0 0 0 0 -742.6611920995274 1060.6237039342213 0 1060.6237039342213 -571.97757331299363 0 0 0 0 2564.6832170568814 -1167.8483913346317 0 -1167.8483913346317 -174.83656221829006 0 0 0 0 7.4732119846548528 2.727275112818802 0 2.727275112818802 -21.840932719076136 0 0 0 0 -1876.3021345330344 2606.2808206404352 0 2606.2808206404352 -1726.8506061577355 0 0 0 0 474.53984105627751 595.3800302745658 0 595.3800302745658 -134.700169878525 0 0 0 0 -1050.3747387125914 1047.5959419826904 0 1047.5959419826904 -85.212978658521024 0 0 0 0 659.08253448050527 663.87884842148924 0 663.87884842148924 -955.25582737941295 0 0 0 0 -1058.6362933933415 917.56455399403785 0 917.56455399403785 -553.9511907903543 0 0 0 0 1997.378874803544 650.58853697407176 0 650.58853697407176 363.88927518963237 0 0 0 0 7.782963983533989 8.2868604917677828 0 8.2868604917677828 -7.6970339639927943 0 0 0 0 47.03847491304623 174.20362190264859 0 174.20362190264859 -1653.9384704419936 0 0 0 0 49.17992270096056 131.45678653341042 0 131.45678653341042 -1002.6614282203664 0 0 0 0 -1337.7355686322844 1715.9809532625659 0 1715.9809532625659 -1252.3862465209804 0 0 0 0 64.372955487118929 42.630717580494206 0 42.630717580494206 -37.040584199854038 0 0 0 0 -1168.1098026799154 568.20152037288972 0 568.20152037288972 -967.59100347204367 0 0 0 0 -48.358346061792076 55.279130892562527 0 55.279130892562527 -41.346733281407296 0 0 0 0 -641.42476227571024 1219.7660846303697 0 1219.7660846303697 -930.47827756327752 0 0 0 0 -951.70336565717298 2078.1634751837246 0 2078.1634751837246 -836.08691869190079 0 0 0 0 459.35612872242928 4591.1588768150687 0 4591.1588768150687 -69.903724179021083 0 0 0 0 -621.66451377500198 3190.6302277623472 0 3190.6302277623472 -719.37642820447218 0 0 0 0 0.1621034566222761 19.268265550275146 0 19.268265550275146 -9.8413260374032632 0 0 0 0 2820.3580068794763 2928.1936061342312 0 2928.1936061342312 1732.6628497495549 0 0 0 0 3909.6382940757903 2066.8638888131973 0 2066.8638888131973 488.6078063466839 0 0 0 0 2737.0211344182026 3353.70274400778 0 3353.70274400778 1399.0435991222039 0 0 0 0 1389.5410609075916 1133.4756050355936 0 1133.4756050355936 -3286.6316011572781 0 0 0 0 4292.0558689835016 1531.7612445862032 0 1531.7612445862032 -3715.8744656070485 0 0 0 0 1125.2034352194169 1415.5957112153555 0 1415.5957112153555 -2303.3801196057466 0 0 0 0 1090.1503225167398 1208.9276360698423 0 1208.9276360698423 -2432.7665304292459 0 0 0 0 1946.1711696381681 2117.4740380553121 0 2117.4740380553121 -1927.9306228377391 0 0 0 0 872.9345011299738 1660.584196257234 0 1660.584196257234 -1174.2896976099582 0 0 0 0 876.47701501863776 1576.3415043514833 0 1576.3415043514833 -2170.9823297786861 0 0 0 0 719.41478092054604 973.82840835637035 0 973.82840835637035 -1267.7538045097317 0 0 0 0 412.61077138769906 1282.9158817212883 0 1282.9158817212883 -1408.4161831277452 0 0 0 0 953.09221947682818 1061.0293148444671 0 1061.0293148444671 -1671.85509255121 0 0 0 0 964.26556973543484 1045.9399536413694 0 1045.9399536413694 -1780.410542439673 0 0 0 0 1065.6470473204972 1288.6334433698212 0 1288.6334433698212 -1734.8788553345366 0 0 0 0 -84.586156986129936 1246.6020868148335 0 1246.6020868148335 -931.27262427248388 0 0 0 0 246.75837985612452 1020.8962769460486 0 1020.8962769460486 -884.20549870180548 0 0 0 0 -137.07848365075188 734.76484052671003 0 734.76484052671003 -404.66905295876495 0 0 0 0 -36.014273053631769 937.15941080815537 0 937.15941080815537 -903.50159592549608 0 0 0 0 1149.5050207638706 828.37455624667928 0 828.37455624667928 -1567.1764627664088 0 0 0 0 777.97332090098644 842.41130131523823 0 842.41130131523823 -1061.349202479003 0 0 0 0 785.04724489268847 861.55868040569476 0 861.55868040569476 -1252.0262858214937 0 0 0 0 348.90575064346194 626.97847642885608 0 626.97847642885608 -825.47972667937574 0 0 0 0 1301.0715535010968 671.87134850252187 0 671.87134850252187 -1041.2734260611323 0 0 0 0 1364.2699869339122 1394.1221948050515 0 1394.1221948050515 -802.86755238664409 0 0 0 0 1514.1092198928236 1217.8014338617941 0 1217.8014338617941 -914.47461416621809 0 0 0 0 1354.0325610089421 855.06793505541827 0 855.06793505541827 -1823.2851816660841 0 0 0 0 1133.7476123379893 1120.2115218025283 0 1120.2115218025283 -803.56455567945136 0 0 0 0 1095.9850776031089 778.52212333709031 0 778.52212333709031 -1299.2022113780695 0 0 0 0 1283.193825490489 1110.8142476289249 0 1110.8142476289249 -2642.003285815139 0 0 0 0 643.40741058657295 -146.64089937736571 0 -146.64089937736571 -618.62855136165672 0 0 0 0 896.72961399774067 1443.7291810736278 0 1443.7291810736278 -2196.8869725662807 0 0 0 0 1067.8784217445063 973.57852151454426 0 973.57852151454426 -1791.3411032293952 0 0 0 0 1133.8955004805757 1279.3030740751637 0 1279.3030740751637 -2233.9544464968712 0 0 0 0 1273.5616180869692 965.92152775913564 0 965.92152775913564 -2444.1406644578528 0 0 0 0 1290.8514916873246 1466.3874744650675 0 1466.3874744650675 -2896.8624670139397 0 0 0 0 1009.7191227118892 706.10100121498908 0 706.10100121498908 -2732.4623076166208 0 0 0 0 1938.0910517059674 3219.3980538516043 0 3219.3980538516043 2461.8375418592623 0 0 0 0 -5.5518989275288959 12.711652443547429 0 12.711652443547429 -8.8562998857357655 0 0 0 0 1372.8424944826838 671.60354623779131 0 671.60354623779131 -3571.1664059147297 0 0 0 0 1010.0920550536798 727.34219057347605 0 727.34219057347605 -1528.4694155278848 0 0 0 0 1420.2018068498146 939.5968432089503 0 939.5968432089503 -1494.5237541550014 0 0 0 0 941.86290345381713 1735.9941335090116 0 1735.9941335090116 -127.34859391940699 0 0 0 0 -12.026448567337127 24.870794317431976 0 24.870794317431976 -19.409058643983116 0 0 0 0 1070.4155890896218 2088.0967003990372 0 2088.0967003990372 2670.3751926114355 0 0 0 0 1126.1798208450782 1463.0775070158124 0 1463.0775070158124 1608.0351883809753 0 0 0 0 -0.20380244145053439 1449.9459905618642 0 1449.9459905618642 2041.3273589768105 0 0 0 0 404.81699261062022 1832.6345443384671 0 1832.6345443384671 656.75754099258847 0 0 0 0 742.774986171411 1121.87333778015 0 1121.87333778015 -1055.7500053784752 0 0 0 0 0.57426592880801763 1195.7460629406305 0 1195.7460629406305 -1372.9603735815617 0 0 0 0 -302.37371491006343 335.60229851236727 0 335.60229851236727 788.42839915974764 0 0 0 0 -650.32363573390467 74.587960293964898 0 74.587960293964898 -3169.8053352259158 0 0 0 0 876.80317765107611 1656.4981019438055 0 1656.4981019438055 -3987.6448116336978 0 0 0 0 -1140.1067396589497 1740.9195724596939 0 1740.9195724596939 -1107.3775571932961 0 0 0 0 -14.064328342344709 14.540333345105367 0 14.540333345105367 -14.722387029812353 0 0 0 0 -242.46919992766925 1102.349130760449 0 1102.349130760449 597.89216139097698 0 0 0 0 730.74729590804782 -120.74288715179864 0 -120.74288715179864 -4123.9556467027433 0 0 0 0 -0.67691154754720628 569.86799231815894 0 569.86799231815894 -680.85622993107245 0 0 0 0 -282.19458857775317 2031.5278667523526 0 2031.5278667523526 -3972.9361594941929 0 0 0 0 -380.39485438363045 771.2018021473159 0 771.2018021473159 -303.70895038407616 0 0 0 0 -0.1919785119680455 326.1704918753785 0 326.1704918753785 122.30585513018013 0 0 0 0 8.5966767678655742 363.72732099056202 0 363.72732099056202 174.28878748352145 0 0 0 0 -71.41685421805596 298.00784178710819 0 298.00784178710819 87.817130594261926 0 0 0 0 -14.666357940637681 275.48539701176105 0 275.48539701176105 65.287055689397675 0 0 0 0 -130.09074522080482 80.296362024942937 0 80.296362024942937 684.36167586113288 0 0 0 0 515.10181254454073 287.02456118576811 0 287.02456118576811 84.22131349673873 0 0 0 0 297.86951750703156 989.73982981419613 0 989.73982981419613 906.97106453562446 0 0 0 0 -35.392463533211128 38.340436294790806 0 38.340436294790806 -33.52448038037771 0 0 0 0 791.70993395114783 1547.5987918623941 0 1547.5987918623941 224.04986029786596 0 0 0 0 941.73053195414832 1208.1056075919623 0 1208.1056075919623 -283.15437340128119 0 0 0 0 1442.2799099929834 2423.185973830954 0 2423.185973830954 1916.4647345995618 0 0 0 0 -46.944000914106198 48.771319122529533 0 48.771319122529533 -41.35730882172669 0 0 0 0 2657.2444051638013 1080.451906906048 0 1080.451906906048 2404.4053508001234 0 0 0 0 245.40430092607858 1204.53050655884 0 1204.53050655884 187.70946148801886 0 0 0 0 -582.29354275204241 314.08069140308362 0 314.08069140308362 -284.56764204502906 0 0 0 0 1036.8105914817424 378.67174350371351 0 378.67174350371351 -516.64547654688067 0 0 0 0 -67.649332130560651 -154.34516125419759 0 -154.34516125419759 542.65804095485328 0 0 0 0 382.51404072236619 651.3312616118601 0 651.3312616118601 -1012.4047127069571 0 0 0 0 502.67286323882581 -611.22331194808976 0 -611.22331194808976 -2071.4030383564605 0 0 0 0 -0.67968360845145526 2.5687823283122047 0 2.5687823283122047 -0.99081493372559493 0 0 0 0 -60.908888121455675 806.33425218446428 0 806.33425218446428 2302.4081988010148 0 0 0 0 149.96400158718461 706.16655871307012 0 706.16655871307012 884.57549208499404 0 0 0 0 488.13589292881079 -31.548977300575643 0 -31.548977300575643 1396.775063954723 0 0 0 0 350.48572416885872 1041.3102813801997 0 1041.3102813801997 1193.1956761460169 0 0 0 0 441.31742946490704 334.95704963866046 0 334.95704963866046 632.25784238211054 0 0 0 0 0.16236408787278833 10.211624373554308 0 10.211624373554308 -4.364747341538731 0 0 0 0 499.53715829309658 99.603378429652366 0 99.603378429652366 -1422.2463230419671 0 0 0 0 -453.77363220709958 624.75753645064833 0 624.75753645064833 1155.4925742367705 0 0 0 0 885.18276198465901 418.78118718207588 0 418.78118718207588 156.79047070493107 0 0 0 0 -626.47539584722836 1459.9825855568342 0 1459.9825855568342 171.63565435184864 0 0 0 0 -248.28183212620206 665.52409148852894 0 665.52409148852894 1151.738661188283 0 0 0 0 -42.795732980885077 1374.7281327572782 0 1374.7281327572782 1123.4438318089815 0 0 0 0 251.30004127032589 1210.4011538178675 0 1210.4011538178675 98.033541542316016 0 0 0 0 -128.59979840397136 993.50789228518988 0 993.50789228518988 787.84892880158986 0 0 0 0 -42.290303710911758 1394.4208032844783 0 1394.4208032844783 696.1287187339185 0 0 0 0 6.1250751211773604 877.22480812350477 0 877.22480812350477 718.41511762489972 0 0 0 0 -142.62293191225035 1124.5494250395204 0 1124.5494250395204 1281.8265603596192 0 0 0 0 -8.1706176772131585 469.32636143921263 0 469.32636143921263 600.84220480880322 0 0 0 0 574.09971715902793 717.33804509723996 0 717.33804509723996 562.41622472640302 0 0 0 0 -110.09187549323542 743.55238678897877 0 743.55238678897877 570.83211517213931 0 0 0 0 -184.40174831234617 193.55417206595303 0 193.55417206595303 300.04283253876201 0 0 0 0 208.08160671731457 342.19184874002895 0 342.19184874002895 202.99691196907952 0 0 0 0 -81.306407985364785 225.7438907779906 0 225.7438907779906 129.71092817554018 0 0 0 0 235.1203187162173 269.52903046038409 0 269.52903046038409 118.61629484072728 0 0 0 0 -98.818230676362873 215.3359242914994 0 215.3359242914994 533.92155703556637 0 0 0 0 104.36362214799738 176.13311705713568 0 176.13311705713568 -166.99637639887715 0 0 0 0 -121.92388696974376 32.309662107036274 0 32.309662107036274 -20.11716116869502 0 0 0 0 -4.7323340827424545 243.78966545723233 0 243.78966545723233 25.370888762055074 0 0 0 0 -0.18106748496938962 332.36934562716669 0 332.36934562716669 217.80389953954727 0 0 0 0 348.34031413769117 586.60668003415412 0 586.60668003415412 318.22764633926272 0 0 0 0 -3.2607169760667603 2662.3421011647297 0 2662.3421011647297 -1271.290656211444 0 0 0 0 -429.59914101159666 2204.5913519597671 0 2204.5913519597671 -1758.22628398917 0 0 0 0 -442.15157934030867 1898.6427768020367 0 1898.6427768020367 -723.23954288929963 0 0 0 0 -713.91784760577139 1793.5512432299656 0 1793.5512432299656 -612.56325946324796 0 0 0 0 -502.4149110393173 1657.8423253705369 0 1657.8423253705369 -813.70096794959682 0 0 0 0 107.56636797324609 2009.4495988301023 0 2009.4495988301023 -2322.8037477679754 0 0 0 0 -0.03604388809617376 2451.3713926445052 0 2451.3713926445052 -2243.8805902124732 0 0 0 0 4.9103759716526838 2213.4845461129007 0 2213.4845461129007 -1759.0771705661127 0 0 0 0 347.77059150980494 2292.9653151134335 0 2292.9653151134335 -2649.9109445174836 0 0 0 0 190.68135056189203 2224.1521766356709 0 2224.1521766356709 -2603.985518053938 0 0 0 0 -0.94380497188831214 2717.7972705461943 0 2717.7972705461943 -3575.3706637824434 0 0 0 0 860.83688402877306 2205.8833794674065 0 2205.8833794674065 -3534.6632044762009 0 0 0 0 887.03302410076503 561.25798871704683 0 561.25798871704683 -2058.7811425561085 0 0 0 0 -7.1664982912521964 11.474203485092971 0 11.474203485092971 -10.864761753853372 0 0 0 0 891.80265379696357 854.1279334515375 0 854.1279334515375 -5821.4831741121452 0 0 0 0 676.7959362542897 1496.9001603273064 0 1496.9001603273064 -1783.9804264590312 0 0 0 0 1122.5940445832675 1468.3881845551296 0 1468.3881845551296 -2285.9791566415006 0 0 0 0 761.49010219529737 1321.7815133057829 0 1321.7815133057829 -2036.9145834528317 0 0 0 0 391.43502800866918 2155.2615100177491 0 2155.2615100177491 -2455.5010383830668 0 0 0 0 582.14362513273954 2020.9742042791331 0 2020.9742042791331 -2707.1897119900241 0 0 0 0 298.36309964086104 1519.7340432438032 0 1519.7340432438032 -1984.1944214410469 0 0 0 0 -206.05656027392251 1795.1064383461926 0 1795.1064383461926 -2311.0330010457665 0 0 0 0 -815.4532737943664 1546.6677805774052 0 1546.6677805774052 -1286.4601187035878 0 0 0 0 -18.847754117494333 1883.9708340867583 0 1883.9708340867583 -2300.8656645167807 0 0 0 0 -612.75897788236034 1390.4637459410587 0 1390.4637459410587 -1367.7172550181112 0 0 0 0 -87.913614339649939 863.90930723683596 0 863.90930723683596 -840.37800115149003 0 0 0 0 -92.032612851427984 916.36312533736782 0 916.36312533736782 -1482.7982678453554 0 0 0 0 -35.70228097351719 827.03855423424102 0 827.03855423424102 -1143.1119600849051 0 0 0 0 -784.53029312193394 1268.2553985021295 0 1268.2553985021295 -1036.6330369471143 0 0 0 0 -592.33224478611373 1014.8164619956349 0 1014.8164619956349 -957.49722358578583 0 0 0 0 75.138312967578031 34.411504481364375 0 34.411504481364375 -43.551224998961231 0 0 0 0 -303.13962864757195 822.35442406779475 0 822.35442406779475 -943.90121821277717 0 0 0 0 -1364.8342618094284 1027.1045480396651 0 1027.1045480396651 -995.4055663558247 0 0 0 0 69.201619938092676 29.765696638298948 0 29.765696638298948 -48.690451612131142 0 0 0 0 -1507.0067245462269 1490.4637916939973 0 1490.4637916939973 -973.23974302690431 0 0 0 0 -825.99183515337063 1603.5431348363845 0 1603.5431348363845 -1558.7860014502949 0 0 0 0 -1866.6374639879796 2416.5811142401872 0 2416.5811142401872 -1893.4755658123031 0 0 0 0 -2287.2350565083943 1438.8331698032271 0 1438.8331698032271 -712.24110516093788 0 0 0 0 -3979.3935561544677 2575.5458054646533 0 2575.5458054646533 -2555.9955613130005 0 0 0 0 -2972.926361077265 5505.9190777570338 0 5505.9190777570338 -6458.7492875008029 0 0 0 0 -813.54084811011853 2592.8824242420014 0 2592.8824242420014 -3957.4707135920107 0 0 0 0 -1230.4570156474074 1650.1079100896022 0 1650.1079100896022 -3014.8101063329377 0 0 0 0 137.53329721655609 1948.9435065946054 0 1948.9435065946054 -2516.7111741691333 0 0 0 0 -580.97442189518915 2458.3497552065492 0 2458.3497552065492 -3071.3168086915102 0 0 0 0 35.352249736301019 1119.0257321045065 0 1119.0257321045065 -1992.052461316769 0 0 0 0 -775.06021364792832 1164.3584219813129 0 1164.3584219813129 -2733.0837771706683 0 0 0 0 -58.58611480898071 1792.9378926901418 0 1792.9378926901418 -2200.1957662528439 0 0 0 0 -789.55436521075899 1520.4661794498898 0 1520.4661794498898 -765.38561196131013 0 0 0 0 195.06911230676633 1915.5101190327478 0 1915.5101190327478 659.23379400863632 0 0 0 0 -242.39380502230779 596.27407604365726 0 596.27407604365726 -1011.4881891891273 0 0 0 0 -246.07475459986017 2249.9897764645502 0 2249.9897764645502 -1231.283593834145 0 0 0 0 -794.38647334309644 2930.809168845255 0 2930.809168845255 953.63295433712483 0 0 0 0 -433.25495532358764 754.45137253933353 0 754.45137253933353 884.99551956687355 0 0 0 0 -995.43884189844175 3203.9335195006588 0 3203.9335195006588 -4103.0156991771073 0 0 0 0 -1580.3395687549237 1306.9976735194768 0 1306.9976735194768 -1878.4343273041304 0 0 0 0 -2620.5207116730926 4810.995256150658 0 4810.995256150658 -3950.2998632064409 0 0 0 0 -3915.5213589702034 3762.8441554272576 0 3762.8441554272576 -3707.928380633035 0 0 0 0 -2500.4116459420184 5019.1552559411939 0 5019.1552559411939 -2620.7544837375899 0 0 0 0 -3054.5593874248589 3520.6717867754596 0 3520.6717867754596 -3365.3569858498231 0 0 0 0 -1024.2263162865711 3659.80023309018 0 3659.80023309018 -3526.8673950025841 0 0 0 0 -2242.5265623241285 3272.8168311808913 0 3272.8168311808913 -1460.648638277984 0 0 0 0 172.48050563741708 1923.2729026879242 0 1923.2729026879242 -1620.8993425791086 0 0 0 0 -665.6372682180081 2856.6849367428222 0 2856.6849367428222 667.335655939969 0 0 0 0 2262.6744564779656 5214.4637500905737 0 5214.4637500905737 -2878.6681714774459 0 0 0 0 -5323.4814105721307 4626.5521284388378 0 4626.5521284388378 -2116.6498577548773 0 0 0 0 -4597.6126129134573 3313.2560781514367 0 3313.2560781514367 -4116.0266120285087 0 0 0 0 -8079.7853660023247 6400.5114517461625 0 6400.5114517461625 -3423.8609301053802 0 0 0 0 -7280.3057012159552 2923.9054900894844 0 2923.9054900894844 -962.36664412423852 0 0 0 0 -2929.7248775315529 2765.7808878584328 0 2765.7808878584328 -2208.5159127830993 0 0 0 0 -4585.295082982484 3416.7162760962092 0 3416.7162760962092 -1879.4423771453148 0 0 0 0 -4252.9475679990064 1290.9834698736158 0 1290.9834698736158 -1337.8442259365402 0 0 0 0 -5244.9907416788628 3388.9160271606524 0 3388.9160271606524 -2365.611392119783 0 0 0 0 -2435.7502256930602 877.85520035995069 0 877.85520035995069 -360.69952489243587 0 0 0 0 -1315.7824733839952 1628.8529907625489 0 1628.8529907625489 -1820.7949090720213 0 0 0 0 110.33290776074864 457.61986899438489 0 457.61986899438489 -1140.3596139377041 0 0 0 0 -2966.7012294101296 1577.9329779059626 0 1577.9329779059626 -816.40258035005536 0 0 0 0 3.7522433904021568 -3.3162840282338095 0 -3.3162840282338095 0.4805086002550496 0 0 0 0 -87.650498281233013 16.061698078090558 0 16.061698078090558 204.02462315724188 0 0 0 0 -99.089656575641129 47.122674809823366 0 47.122674809823366 67.794604479888221 0 0 0 0 67.394020918232854 119.58724717063888 0 119.58724717063888 215.75311196042458 0 0 0 0 -80.493978385005676 -0.049231683867219544 0 -0.049231683867219544 5.712952942438676 0 0 0 0 -78.561788364953827 120.26816844000132 0 120.26816844000132 285.95317450526636 0 0 0 0 -861.56617960525909 2343.7053258277883 0 2343.7053258277883 -2207.6900878411252 0 0 0 0 -2370.7207439224003 905.83333229646087 0 905.83333229646087 -2497.3255776002625 0 0 0 0 -2508.6245697478589 2716.1443923759944 0 2716.1443923759944 -2999.3989084623099 0 0 0 0 -134.35729886558403 -15.724355880581072 0 -15.724355880581072 27.27165545880905 0 0 0 0 213.10350115090841 83.375980103679467 0 83.375980103679467 204.47710132875363 0 0 0 0 150.79234361553972 -788.05012245977196 0 -788.05012245977196 625.67065180593636 0 0 0 0 -185.61488732384169 394.8554445514601 0 394.8554445514601 -170.8938755334384 0 0 0 0 42.964450220623689 30.786356591738752 0 30.786356591738752 -27.705368060785702 0 0 0 0 457.10503635395435 -246.51973390656349 0 -246.51973390656349 172.43569207785185 0 0 0 0 -247.35407768626465 -197.2273189988191 0 -197.2273189988191 366.53339406356099 0 0 0 0 -333.81770877668168 -253.2337166404468 0 -253.2337166404468 521.97536753110762 0 0 0 0 -509.26186194110051 -600.47967798774698 0 -600.47967798774698 1107.9735412083392 0 0 0 0 23.008567109151045 204.7924038073179 0 204.7924038073179 90.717327903126716 0 0 0 0 -368.26106370364323 246.90299025899549 0 246.90299025899549 303.85921752406284 0 0 0 0 47.989195482397918 17.644728516141186 0 17.644728516141186 298.95458823739318 0 0 0 0 -132.85978541619261 351.88606162558426 0 351.88606162558426 -6.1268106282223016 0 0 0 0 -906.41881212831322 936.78467049123856 0 936.78467049123856 -462.63361527350207 0 0 0 0 74.750605703593465 277.42230439322884 0 277.42230439322884 -60.068330953035911 0 0 0 0 -1071.9216019999876 -229.72391166837042 0 -229.72391166837042 -246.48528671232634 0 0 0 0 -767.79208023054525 305.91019892120676 0 305.91019892120676 515.92395467364258 0 0 0 0 355.72411943419138 599.25520752689772 0 599.25520752689772 -683.05991404272208 0 0 0 0 -816.60889387075804 -147.88279938277083 0 -147.88279938277083 1142.7267468008213 0 0 0 0 -96.315039135876475 -6.7580705852424785 0 -6.7580705852424785 21.081960934282023 0 0 0 0 -3154.0032606126333 4795.3406503724982 0 4795.3406503724982 -3927.9460813424157 0 0 0 0 -1241.1235141643265 -54.165086994631565 0 -54.165086994631565 824.70637635682942 0 0 0 0 -1977.7774753305421 2258.1408004788755 0 2258.1408004788755 -4845.7778549419018 0 0 0 0 -4379.5510310810932 3703.2356939128367 0 3703.2356939128367 -3384.6138905128591 0 0 0 0 -30.326973722392268 1.4146964781810993 0 1.4146964781810993 3.7505862288677179 0 0 0 0 63.486090971920135 24.136561703244752 0 24.136561703244752 -41.410029990969122 0 0 0 0 -4.5803775836684508 1218.8392697761337 0 1218.8392697761337 -802.00680195372115 0 0 0 0 -972.38235229544807 -338.54434378288715 0 -338.54434378288715 1152.4979711603955 0 0 0 0 -331.3086542168021 1250.6447509534264 0 1250.6447509534264 -514.44108674545623 0 0 0 0 581.78055483881326 -1067.6573693114333 0 -1067.6573693114333 -751.68198179324099 0 0 0 0 -858.43458399325027 625.96050769249268 0 625.96050769249268 -1137.1184234841348 0 0 0 0 171.6206407166901 452.12909253860562 0 452.12909253860562 -1016.4595410135516 0 0 0 0 -470.31878736675571 723.62387058280729 0 723.62387058280729 -762.73435088631231 0 0 0 0 909.70118343067588 143.0925752686162 0 143.0925752686162 -682.40121456064662 0 0 0 0 -1095.5033307029153 1385.2172644444327 0 1385.2172644444327 -1013.0422091811924 0 0 0 0 10.854643670024075 1.5324693389580375 0 1.5324693389580375 -45.783231588726039 0 0 0 0 -1420.8256771740125 1107.38420331819 0 1107.38420331819 -224.8108719093143 0 0 0 0 13.716575661829609 1.2251434167931734 0 1.2251434167931734 -54.570249760388833 0 0 0 0 -62.727104508645425 538.99589261516667 0 538.99589261516667 -810.35701449272165 0 0 0 0 -2464.1139941526199 1971.4473374525805 0 1971.4473374525805 -560.65426799768466 0 0 0 0 -2209.1569602554773 1540.6898448903448 0 1540.6898448903448 -402.86128671187907 0 0 0 0 -2741.5381394418073 1471.9503026133898 0 1471.9503026133898 -282.63338621966977 0 0 0 0 -1019.2784073537332 687.24884192096943 0 687.24884192096943 88.651790709787747 0 0 0 0 -2130.6216484666511 1788.0296735669835 0 1788.0296735669835 -256.88089356274577 0 0 0 0 -1155.5175510011031 1528.200135823965 0 1528.200135823965 -447.59076101250685 0 0 0 0 -4.1224336928280536 1319.8881435770745 0 1319.8881435770745 -842.28659360000165 0 0 0 0 -1645.8495810788518 1744.7552727594066 0 1744.7552727594066 -789.21279519220116 0 0 0 0 -2272.0566808464064 1954.7295255860954 0 1954.7295255860954 -408.7170011397393 0 0 0 0 -3767.2974888450408 2163.5634638441697 0 2163.5634638441697 -548.59769962912105 0 0 0 0 -1900.213066874785 1278.8933176290775 0 1278.8933176290775 -1071.2684330272023 0 0 0 0 -950.48425356241933 912.89111831519767 0 912.89111831519767 -3975.0782386081992 0 0 0 0 1306.6601744177606 -1023.6353631778184 0 -1023.6353631778184 -1246.0547596107917 0 0 0 0 3.345293377366545 1.13594543057593 0 1.13594543057593 -19.236852826675715 0 0 0 0 175.62046146424836 -255.0370491839858 0 -255.0370491839858 -2741.5144310089236 0 0 0 0 -2338.8345028560216 2801.7671873193722 0 2801.7671873193722 -2402.8010129755276 0 0 0 0 -911.77507372020045 1141.5489830715378 0 1141.5489830715378 -2682.2895207238907 0 0 0 0 -1198.796640485758 -59.716895342098724 0 -59.716895342098724 -1634.1060395295353 0 0 0 0 -4036.2235439961951 2161.7424229740718 0 2161.7424229740718 -1662.0188897018015 0 0 0 0 -490.42196438266546 807.48925333155785 0 807.48925333155785 -2723.2058964586322 0 0 0 0 -1629.2948844254424 2703.0175423828914 0 2703.0175423828914 -1550.8627290040822 0 0 0 0 -2475.0819767026987 158.22881722643069 0 158.22881722643069 -3937.1890785619617 0 0 0 0 -2477.9281467325054 407.41483898984734 0 407.41483898984734 -2351.3356528657314 0 0 0 0 -1609.9219408923673 2325.4591242312963 0 2325.4591242312963 -1677.0713726419199 0 0 0 0 -1977.3376234985481 2475.3336638705805 0 2475.3336638705805 -1736.0402535655885 0 0 0 0 -2066.0635103534514 3420.3623256451501 0 3420.3623256451501 -3514.8026938823459 0 0 0 0 -86.389794449703913 688.73885419090948 0 688.73885419090948 -2836.6026311460009 0 0 0 0 -344.69280630508729 1688.010192683696 0 1688.010192683696 -4667.8344191372453 0 0 0 0 27.791164088481196 40.006090250049567 0 40.006090250049567 -22.178640584592529 0 0 0 0 -4470.3264618700487 3049.9795380838041 0 3049.9795380838041 -1294.9997949421231 0 0 0 0 -2095.8155647964741 773.3554535277508 0 773.3554535277508 -3079.5087447071855 0 0 0 0 -4042.0497502814396 2553.9102460414288 0 2553.9102460414288 -4447.9731357905548 0 0 0 0 -3882.9777252952626 3087.4524537973339 0 3087.4524537973339 -2280.3665696385942 0 0 0 0 14.406439975600279 18.317976350460526 0 18.317976350460526 -13.97237130788568 0 0 0 0 -6007.9514102436806 1314.3659041940409 0 1314.3659041940409 -38.450117377156857 0 0 0 0 -3415.3465497506259 446.08518513377931 0 446.08518513377931 -244.2170283314772 0 0 0 0 131.95638811553363 88.802121604443528 0 88.802121604443528 -94.992738959295821 0 0 0 0 156.87751534783456 96.912242586317006 0 96.912242586317006 -23.80725515758968 0 0 0 0 87.746623176277069 113.08856042344325 0 113.08856042344325 -6.5061279693641154 0 0 0 0 438.796594587031 109.01116699250997 0 109.01116699250997 -34.97073173415265 0 0 0 0 -45.01508350814737 144.06187727447471 0 144.06187727447471 -22.822173866644448 0 0 0 0 350.20579484797781 153.67069461900974 0 153.67069461900974 -42.109883722296217 0 0 0 0 -141.6723782686895 173.48021191232328 0 173.48021191232328 106.56042878274457 0 0 0 0 -2301.6502690284979 530.42585178154695 0 530.42585178154695 -245.10337217091001 0 0 0 0 -39.164276918441544 18.674987134963089 0 18.674987134963089 5.4460540191697078 0 0 0 0 -50.331904713108088 -297.34625649446025 0 -297.34625649446025 1000.4275273222302 0 0 0 0 488.32936337894353 1390.0422560327133 0 1390.0422560327133 1510.2732465862791 0 0 0 0 -21.247620768658237 28.305925998672095 0 28.305925998672095 -26.867719283702058 0 0 0 0 5.992628042033175 -170.53667412277719 0 -170.53667412277719 28.069097324222639 0 0 0 0 142.51245316697168 61.967191509931581 0 61.967191509931581 -44.103662029665429 0 0 0 0 246.57177297404269 -21.987406181928236 0 -21.987406181928236 -13.055371568276314 0 0 0 0 224.91332319943103 0.37920750788543955 0 0.37920750788543955 -89.817043346149148 0 0 0 0 39.003842095441598 19.36919427179059 0 19.36919427179059 -21.257893284571878 0 0 0 0 1101.0721810666582 676.38847334975435 0 676.38847334975435 127.69959667167859 0 0 0 0 1068.1910895052861 871.68896437423246 0 871.68896437423246 -1023.6465259023826 0 0 0 0 158.89625117270043 1356.9941627382068 0 1356.9941627382068 1516.9299128991261 0 0 0 0 1358.9272206237511 39.212389772481401 0 39.212389772481401 -575.61723500856169 0 0 0 0 711.49730351962353 675.59884289566253 0 675.59884289566253 -309.88605568246567 0 0 0 0 63.224078007027174 43.417094338076424 0 43.417094338076424 -4.8446075307402907 0 0 0 0 1009.3586460909428 38.741953059550724 0 38.741953059550724 -64.534910826056148 0 0 0 0 1130.8702950698498 -59.31834162195446 0 -59.31834162195446 -251.1372976746643 0 0 0 0 35.723429953423846 28.487846609505937 0 28.487846609505937 -2.7920727285520002 0 0 0 0 2526.9031429289607 -943.99082412586722 0 -943.99082412586722 94.206674352284608 0 0 0 0 2353.6484832931319 319.89359689647426 0 319.89359689647426 -547.11609574453905 0 0 0 0 5471.3322147238141 -1675.0989652410572 0 -1675.0989652410572 -86.194163008869509 0 0 0 0 -2612.3077874866767 4399.9843307582632 0 4399.9843307582632 -3772.8813698562444 0 0 0 0 8.9118609227606385 9.2138407253468131 0 9.2138407253468131 3.0433715276950579 0 0 0 0 -2322.7498087989661 1623.7931362265008 0 1623.7931362265008 -1296.7058912906796 0 0 0 0 -2377.1342707308941 3221.8486373681444 0 3221.8486373681444 -2637.5948895506881 0 0 0 0 -1590.2981946025102 1917.7774318932279 0 1917.7774318932279 -2659.0738060038857 0 0 0 0 -1751.5761786819057 2323.1085954484442 0 2323.1085954484442 -2123.5504246239143 0 0 0 0 -1638.6622867975093 1501.7532795376828 0 1501.7532795376828 -275.27190901253198 0 0 0 0 163.68992104713107 190.23767897827202 0 190.23767897827202 -37.85336066246964 0 0 0 0 -1003.126578477877 966.18962631659087 0 966.18962631659087 -1129.6821342023904 0 0 0 0 -0.21255446166644276 -1.5347008355816456 0 -1.5347008355816456 13.891185467574587 0 0 0 0 -1016.9155229615135 398.4881604778202 0 398.4881604778202 200.80607446806971 0 0 0 0 -814.47185189185257 1060.0509700657494 0 1060.0509700657494 -1723.7429016060923 0 0 0 0 -1623.1864988589905 1391.7276912148204 0 1391.7276912148204 -906.0056390936079 0 0 0 0 -787.25694900008966 359.09738300547542 0 359.09738300547542 -109.7860144427832 0 0 0 0 -16.683279791366289 11.285332463887187 0 11.285332463887187 40.558316489974231 0 0 0 0 93.774382251707721 133.92467478884646 0 133.92467478884646 -563.12809310329612 0 0 0 0 -183.36638015913195 35.921002806448087 0 35.921002806448087 141.45687230410113 0 0 0 0 -17.589369396282052 8.7190064827138372 0 8.7190064827138372 2.3585667090275138 0 0 0 0 -77.19307904328889 -74.751865793416073 0 -74.751865793416073 -42.003693629405461 0 0 0 0 -82.979459453592426 -21.332025849354977 0 -21.332025849354977 -8.3520455428224523 0 0 0 0 -79.664909017360628 3.8515275575677208 0 3.8515275575677208 16.96461685470203 0 0 0 0 -60.522413453174522 98.954667444108054 0 98.954667444108054 3.3513721286890359 0 0 0 0 -7.4513569284858363 7.5049828580391704 0 7.5049828580391704 1.4180320005083331 0 0 0 0 -261.47192841605283 -413.79791371108149 0 -413.79791371108149 1.0325062479823828 0 0 0 0 -1013.7313635534956 -182.94722599745728 0 -182.94722599745728 282.68061921314802 0 0 0 0 -616.01130966640631 449.14256573699095 0 449.14256573699095 -75.535848435625667 0 0 0 0 375.30191081148223 -273.59170839877333 0 -273.59170839877333 -685.20900130119117 0 0 0 0 -32.968492074738265 42.688844040718209 0 42.688844040718209 0.69299988816829838 0 0 0 0 -155.96286287865951 1544.2352621246318 0 1544.2352621246318 1531.0444430517236 0 0 0 0 -116.38905350100367 -605.93905777256589 0 -605.93905777256589 511.91132192223449 0 0 0 0 -1386.6247931150574 245.15645093214698 0 245.15645093214698 3682.1053619233571 0 0 0 0 4.857865937981785 42.251041069830904 0 42.251041069830904 -6.4090182369028525 0 0 0 0 2357.5825484589004 1212.5591619030456 0 1212.5591619030456 362.44763891008915 0 0 0 0 2207.7215573233261 1590.672566889938 0 1590.672566889938 -2421.2602082691883 0 0 0 0 -377.86860171682201 1377.3950788358343 0 1377.3950788358343 -1957.1050999759082 0 0 0 0 -546.12122731945419 1032.4258161065736 0 1032.4258161065736 -2448.0056143381953 0 0 0 0 -302.84540557545915 1542.338109578297 0 1542.338109578297 -2432.1638886684377 0 0 0 0 71.992238827733672 301.34444457085192 0 301.34444457085192 -431.89061769490945 0 0 0 0 -122.0217961097369 -547.73490105316159 0 -547.73490105316159 -744.11916136899526 0 0 0 0 -10.380405300061625 49.470653543049352 0 49.470653543049352 -52.125372282865555 0 0 0 0 252.43317830988235 158.6577383521726 0 158.6577383521726 -878.37080209096894 0 0 0 0 -6.2712250604090514 169.71556697339111 0 169.71556697339111 67.38799432344058 0 0 0 0 1859.912695951045 3196.7711738047365 0 3196.7711738047365 3670.4644282457593 0 0 0 0 1180.8226889859034 571.89763229009259 0 571.89763229009259 2238.2037394033396 0 0 0 0 1016.3071837465395 3188.486147646996 0 3188.486147646996 4208.3471857232944 0 0 0 0 2517.8426779363217 1837.927017077076 0 1837.927017077076 945.43870374187827 0 0 0 0 262.50253992092621 1576.9705007417069 0 1576.9705007417069 1229.1580423896376 0 0 0 0 683.56860816245899 1336.7677188307862 0 1336.7677188307862 2039.7194139577623 0 0 0 0 771.75136080781613 -181.41429201508254 0 -181.41429201508254 -508.85944659312372 0 0 0 0 -738.87957690900657 468.89391316570982 0 468.89391316570982 -677.4930324817833 0 0 0 0 -702.90319977153558 616.2498801300826 0 616.2498801300826 -310.34463083735318 0 0 0 0 67.738998196582543 88.415172464825446 0 88.415172464825446 -400.53735732575296 0 0 0 0 -1113.282348331355 747.29025391713367 0 747.29025391713367 -193.98716028970739 0 0 0 0 -1183.633742433185 1429.6145502589761 0 1429.6145502589761 -1053.9367911399459 0 0 0 0 -723.33600676069909 16.123390373752045 0 16.123390373752045 954.04940966235881 0 0 0 0 -2205.7613818781774 2069.5890143611277 0 2069.5890143611277 3770.4816038590216 0 0 0 0 -1166.7236854976945 2820.3476496512594 0 2820.3476496512594 4520.8593538710593 0 0 0 0 -0.1431547524271366 1.4608519241699014 0 1.4608519241699014 4.0911959019018127 0 0 0 0 1340.8623937972588 -52.346965149699827 0 -52.346965149699827 3478.7753728464304 0 0 0 0 -216.79693210158439 -1126.5926964459577 0 -1126.5926964459577 -2935.810715244821 0 0 0 0 -40.634575237010722 -645.00241702327912 0 -645.00241702327912 -5564.9067039297661 0 0 0 0 -11.503417903753927 21.235212686050659 0 21.235212686050659 -21.084368182839512 0 0 0 0 -45.40008584264433 369.51800098043168 0 369.51800098043168 -4028.4518440169923 0 0 0 0 297.75685201145825 842.33170308848639 0 842.33170308848639 -3577.6291292859532 0 0 0 0 -1904.9913527421013 4287.2993304088304 0 4287.2993304088304 1936.1384947541374 0 0 0 0 -490.48753386938188 1504.5212501198694 0 1504.5212501198694 -6069.3697056094243 0 0 0 0 -4069.1606828874646 2191.9097758724965 0 2191.9097758724965 -608.62637296970934 0 0 0 0 -1440.4446448881354 2861.724556289686 0 2861.724556289686 -5067.8972022714588 0 0 0 0 -601.92478346081043 1210.9038977529417 0 1210.9038977529417 -1677.6329854530923 0 0 0 0 -745.61185946530895 2007.3487807054335 0 2007.3487807054335 -1467.3093549406185 0 0 0 0 -1343.2352602914179 2439.6804611679836 0 2439.6804611679836 -3238.4800215789583 0 0 0 0 494.12608068645204 1252.4493451770031 0 1252.4493451770031 -1504.5923189569148 0 0 0 0 335.37176498101326 1009.210847703318 0 1009.210847703318 -1281.267065150314 0 0 0 0 11.5088993562822 1704.035706265684 0 1704.035706265684 -2411.7427436733851 0 0 0 0 477.53632153393119 414.20908652998332 0 414.20908652998332 -2838.8001207754496 0 0 0 0 545.78988548408961 715.60352721644449 0 715.60352721644449 -1887.5401040487923 0 0 0 0 397.65741750039524 136.58505492240511 0 136.58505492240511 -2065.896815767599 0 0 0 0 494.00918073773209 725.56574204085337 0 725.56574204085337 -1365.465908281476 0 0 0 0 395.00311179154232 238.7309725502364 0 238.7309725502364 -859.72231973704766 0 0 0 0 412.45588203498482 847.40114086140966 0 847.40114086140966 -1210.2691470552236 0 0 0 0 552.54389686888317 637.78915256815526 0 637.78915256815526 -1706.6098120543757 0 0 0 0 507.96774919179734 863.32940404754481 0 863.32940404754481 -1018.5728839644871 0 0 0 0 396.8563869353311 960.12225467709504 0 960.12225467709504 -588.83895894853049 0 0 0 0 515.27186730262474 1329.8157406118989 0 1329.8157406118989 -889.18132877878816 0 0 0 0 344.06264814038877 1299.0717729979369 0 1299.0717729979369 -226.04443403957703 0 0 0 0 -12.152012253980502 1202.723603732622 0 1202.723603732622 1046.0697729547101 0 0 0 0 539.3394212248968 974.82850168524601 0 974.82850168524601 -64.679502468687133 0 0 0 0 80.059598903055303 1135.5144828434422 0 1135.5144828434422 727.10422941972502 0 0 0 0 -5.2016364308656193 1648.7113320931385 0 1648.7113320931385 -1055.1494743781004 0 0 0 0 121.37186515290523 1169.902595626525 0 1169.902595626525 -23.125511963211466 0 0 0 0 357.58490621024976 1451.1808895267313 0 1451.1808895267313 10.912267028037604 0 0 0 0 -504.4008327404008 978.74273611572426 0 978.74273611572426 1364.4129254022555 0 0 0 0 -603.93990099763323 791.65135814450332 0 791.65135814450332 4534.4439873222727 0 0 0 0 272.51248655722884 721.90642262641632 0 721.90642262641632 1424.4828162814083 0 0 0 0 -138.85883767026098 1485.6838094591731 0 1485.6838094591731 2295.5689846643072 0 0 0 0 383.82838245781022 385.81853541715827 0 385.81853541715827 2533.2089809167664 0 0 0 0 207.03894065479108 1703.1735779491137 0 1703.1735779491137 2533.137102113018 0 0 0 0 -119.00530889253423 871.5715093710387 0 871.5715093710387 2180.8730002056545 0 0 0 0 82.415193698325311 1040.973300970807 0 1040.973300970807 2242.7989421876555 0 0 0 0 -55.571154024584587 40.684360471858838 0 40.684360471858838 -14.076607127698395 0 0 0 0 406.61101288616192 934.57032760654693 0 934.57032760654693 1068.3101390057218 0 0 0 0 110.8552255682298 131.78580756555311 0 131.78580756555311 -63.139089649164816 0 0 0 0 -11.8837198524634 12.362469097999565 0 12.362469097999565 -155.75909543270245 0 0 0 0 -29.879955929477205 26.201578365414605 0 26.201578365414605 -6.8009522876087942 0 0 0 0 -37.775170854692988 110.92797688816063 0 110.92797688816063 266.27149331840337 0 0 0 0 973.4672133931017 337.81894719685079 0 337.81894719685079 -69.870457546305261 0 0 0 0 -84.855003876166961 35.471923926364923 0 35.471923926364923 -7.0747492652318442 0 0 0 0 12.880805627636107 20.316142495150643 0 20.316142495150643 -9.68726230232879 0 0 0 0 -208.46758998176665 197.92408310721657 0 197.92408310721657 248.68246671243105 0 0 0 0 -248.32296808021783 -59.857018399663502 0 -59.857018399663502 -37.696430129246437 0 0 0 0 33.716000009546406 753.26495537054143 0 753.26495537054143 -1468.6471214418125 0 0 0 0 -278.6209986881031 676.18419178219119 0 676.18419178219119 -836.89786057465244 0 0 0 0 -271.64970869322178 385.69852683923204 0 385.69852683923204 10.838068854442099 0 0 0 0 -9.3291518482510583 273.44009176158579 0 273.44009176158579 -0.50012958278239239 0 0 0 0 -5503.1232359564219 736.31933582157217 0 736.31933582157217 -689.68691332248272 0 0 0 0 -2446.4176199430658 1457.3466476088215 0 1457.3466476088215 -1.069620967954352 0 0 0 0 -5359.2628538888384 2911.5961341416696 0 2911.5961341416696 -554.59648485292564 0 0 0 0 -2.8363814433396328 10.588326700104517 0 10.588326700104517 -979.83115712870494 0 0 0 0 -31.192052462666538 12.444168419291913 0 12.444168419291913 -5.7590144595624508 0 0 0 0 -1149.6538908958682 2151.8333660527242 0 2151.8333660527242 -3283.3162560089841 0 0 0 0 -2532.6033040679176 -222.13329170373618 0 -222.13329170373618 640.96810871285561 0 0 0 0 1059.9161826387408 1275.2355058766007 0 1275.2355058766007 1239.0490967516671 0 0 0 0 -4982.1277253738372 161.97563879791414 0 161.97563879791414 2468.1652717271209 0 0 0 0 -2626.4429549265187 1194.6284072705894 0 1194.6284072705894 2792.4614805370802 0 0 0 0 -2999.2574610440643 3386.4970593843973 0 3386.4970593843973 -1458.7931138309068 0 0 0 0 -6066.4069220503225 2929.9056066362828 0 2929.9056066362828 2054.1672987981874 0 0 0 0 -3357.4313485509701 2089.7676359626712 0 2089.7676359626712 1979.1480331658095 0 0 0 0 -2556.0153553337732 1438.3709742303909 0 1438.3709742303909 2091.8507722988675 0 0 0 0 -2999.578311398669 973.23804687915981 0 973.23804687915981 2397.5069324211217 0 0 0 0 -781.18892011913704 -567.90438870190701 0 -567.90438870190701 2790.9883551807502 0 0 0 0 -2251.6358459688017 1775.5688230888663 0 1775.5688230888663 977.94147101719864 0 0 0 0 -1476.0880325560574 641.6762720568513 0 641.6762720568513 2408.3771959465521 0 0 0 0 -880.43570755860128 1639.1792049157521 0 1639.1792049157521 281.28813565397286 0 0 0 0 -505.64014633482293 1254.6926150250511 0 1254.6926150250511 234.49704492086312 0 0 0 0 -0.35988255192836505 8.6225752207338928 0 8.6225752207338928 7.0121303362715821 0 0 0 0 -2117.8591015831444 1560.5270347406167 0 1560.5270347406167 -727.27753167931223 0 0 0 0 -3494.7210478253692 1271.4588670535159 0 1271.4588670535159 1588.498329193113 0 0 0 0 -515.94375193207816 825.8684088768714 0 825.8684088768714 536.68612138155731 0 0 0 0 -2556.4685361819138 629.47927501161757 0 629.47927501161757 596.3923751475013 0 0 0 0 -2431.6927350391634 1265.700688334211 0 1265.700688334211 868.53945958602708 0 0 0 0 -2570.596289521709 2279.7853794348848 0 2279.7853794348848 983.65790985510102 0 0 0 0 -1496.4288100909034 2639.0977948531872 0 2639.0977948531872 -36.507637651971891 0 0 0 0 -2450.3431299034855 2184.215731030723 0 2184.215731030723 1006.0013066974061 0 0 0 0 132.50759769641445 1755.625165574711 0 1755.625165574711 118.07692606444471 0 0 0 0 1060.4305034751524 2341.0695600118415 0 2341.0695600118415 1.0103458884404972 0 0 0 0 -2789.2158085302508 2253.5726678391293 0 2253.5726678391293 -0.1973139506590087 0 0 0 0 -1038.8023449935426 1064.9040895832877 0 1064.9040895832877 -115.06253361206382 0 0 0 0 3851.2581661916338 1497.7726079938366 0 1497.7726079938366 -993.86696799365745 0 0 0 0 -5.4335904675877487 18.656613561613995 0 18.656613561613995 -6.5388318838062105 0 0 0 0 199.56315310153468 599.06362750166363 0 599.06362750166363 865.97073840018129 0 0 0 0 -7781.9452929371382 2179.4754241987639 0 2179.4754241987639 -166.62659570806136 0 0 0 0 -3013.9655218921107 1813.277201741199 0 1813.277201741199 -226.99439703089593 0 0 0 0 202.5694950313482 1168.4345642774279 0 1168.4345642774279 64.714034707518294 0 0 0 0 -3551.9413107338569 1443.3961774586483 0 1443.3961774586483 -391.45695733078173 0 0 0 0 -7.3787919916970637 40.996138292274367 0 40.996138292274367 -7.673123553653113 0 0 0 0 -2218.987537554247 621.95273869189259 0 621.95273869189259 53.100762744987151 0 0 0 0 -975.53666536276432 659.24834048913726 0 659.24834048913726 -510.08184629223251 0 0 0 0 -866.76216707853018 79.200753887373139 0 79.200753887373139 -9.7769528986027581 0 0 0 0 -302.723504533089 69.441271215997403 0 69.441271215997403 -69.261674376190058 0 0 0 0 -5.6058816892633629 43.280534601860779 0 43.280534601860779 14.203070553469729 0 0 0 0 -1301.1431194409897 830.0141917680121 0 830.0141917680121 -633.60875166996266 0 0 0 0 -2376.0807115918869 487.0903081207216 0 487.0903081207216 -553.8662055512541 0 0 0 0 -3560.789640400566 2386.9242108627659 0 2386.9242108627659 -2602.6162176583748 0 0 0 0 -1890.2095259571934 4326.4977980842796 0 4326.4977980842796 -803.57399893410911 0 0 0 0 -4144.2411032491946 2087.6267005690097 0 2087.6267005690097 -457.89442259704401 0 0 0 0 2.0485215295791477 20.415896348404999 0 20.415896348404999 18.55725192046765 0 0 0 0 -3110.5825500981155 354.33749505590822 0 354.33749505590822 323.04090852286026 0 0 0 0 -4411.0109776628451 2026.3027349744734 0 2026.3027349744734 -953.44214224474854 0 0 0 0 -6206.0322581530781 2385.7330293034611 0 2385.7330293034611 -306.19647944757889 0 0 0 0 -3307.2761223072303 820.13658038039284 0 820.13658038039284 197.41226550328429 0 0 0 0 -2224.0728468081425 1772.2907263129032 0 1772.2907263129032 -1054.3453560050402 0 0 0 0 -5101.8881661198538 2340.3117901628575 0 2340.3117901628575 -40.9965171594813 0 0 0 0 -1774.7472989774251 1411.0266205953521 0 1411.0266205953521 -914.38911296206788 0 0 0 0 -1791.876466438538 1371.2824585407652 0 1371.2824585407652 -1001.2846578695753 0 0 0 0 -5150.6437509729776 3419.6413725534185 0 3419.6413725534185 -719.51814269882743 0 0 0 0 -6211.7255877667485 1650.4523117009667 0 1650.4523117009667 -1937.6320021179272 0 0 0 0 -2.4296253825691849 14.029245362924314 0 14.029245362924314 10.513570655563285 0 0 0 0 -4876.874627394689 2310.696698755768 0 2310.696698755768 -1116.5789828512934 0 0 0 0 -3.080338095875824 31.829693861936676 0 31.829693861936676 -25.588067168563384 0 0 0 0 -14320.630264986059 2702.5655550268857 0 2702.5655550268857 -472.11954113276443 0 0 0 0 4790.2665697668854 2904.9030078447031 0 2904.9030078447031 -957.0178113989241 0 0 0 0 -13391.041379378643 5518.4319591119711 0 5518.4319591119711 2723.0471743569069 0 0 0 0 -7637.4937238447164 -2028.8366126471738 0 -2028.8366126471738 2436.0963336066343 0 0 0 0 8.8798651717445978 21.578047908119032 0 21.578047908119032 -2.2275110720275393 0 0 0 0 2942.0681441099878 1560.75809208391 0 1560.75809208391 832.58989301932161 0 0 0 0 -27.595127085281888 85.190288776119075 0 85.190288776119075 -45.673945937957626 0 0 0 0 683.06799297704129 1676.7095861948255 0 1676.7095861948255 1486.8120808449312 0 0 0 0 66.903371567590511 2284.2108852527672 0 2284.2108852527672 2948.0272244343432 0 0 0 0 -366.22269739006879 298.87311060527281 0 298.87311060527281 152.29334827279672 0 0 0 0 -748.2708620739777 136.16679310422387 0 136.16679310422387 113.71481937944191 0 0 0 0 -3477.3415823056857 969.92562667141465 0 969.92562667141465 -1084.8026402299874 0 0 0 0 -111.12470358654718 206.95391317809299 0 206.95391317809299 -77.010225584264845 0 0 0 0 -16.986176586173592 45.086841262884178 0 45.086841262884178 62.592987554930687 0 0 0 0 -56.631645596791827 60.985603991011857 0 60.985603991011857 -28.971020861976768 0 0 0 0 -698.76593838282861 530.40906017587304 0 530.40906017587304 -68.547249718263629 0 0 0 0 -418.72751727799186 2598.700115782478 0 2598.700115782478 4977.2548824389814 0 0 0 0 -54.917170231884484 76.330854873228787 0 76.330854873228787 -39.378087467325201 0 0 0 0 784.2975734098145 2236.8642948690249 0 2236.8642948690249 1621.6765226206044 0 0 0 0 -217.34478971328645 884.11750518241934 0 884.11750518241934 2823.2705510356172 0 0 0 0 -2270.7295133594744 3370.0478317897214 0 3370.0478317897214 2557.7983300392953 0 0 0 0 -168.05373408407468 511.75544500545766 0 511.75544500545766 719.10183739624335 0 0 0 0 -1043.9577602874306 1079.9343351344851 0 1079.9343351344851 6567.3784381652949 0 0 0 0 174.03362030594144 3754.3585965150123 0 3754.3585965150123 5070.4835029576934 0 0 0 0 29.652922914752708 1536.0099298343157 0 1536.0099298343157 -2223.1300124092959 0 0 0 0 -356.08228438162769 3269.4781481167956 0 3269.4781481167956 -9154.5604019283273 0 0 0 0 -24.950971612833996 24.813843384725942 0 24.813843384725942 -12.99824025452827 0 0 0 0 -3322.8303174477351 5182.2204029226632 0 5182.2204029226632 -3102.3208098374889 0 0 0 0 -1584.4590001456381 1892.2850549774157 0 1892.2850549774157 -1052.8647552082784 0 0 0 0 -1312.2365991696424 3153.6137195315314 0 3153.6137195315314 -3448.7091119669276 0 0 0 0 -864.81217864471546 1351.1410597535942 0 1351.1410597535942 -1627.2543426077827 0 0 0 0 -1292.1546118568658 623.47963636697386 0 623.47963636697386 74.537236132418911 0 0 0 0 -527.18703106500107 788.8490753838887 0 788.8490753838887 -1377.1265962913603 0 0 0 0 -3363.7576211694395 4634.7368957324506 0 4634.7368957324506 3.8586930120800389 0 0 0 0 -1713.1804600530613 2088.2984948883295 0 2088.2984948883295 -1303.6191291702416 0 0 0 0 -2584.371086786392 3531.0337469727237 0 3531.0337469727237 -1640.8181219325197 0 0 0 0 -3815.6742514695798 2737.2719819955455 0 2737.2719819955455 -860.63655626470063 0 0 0 0 -4829.5123118679185 3753.7292017212094 0 3753.7292017212094 -322.93168616754701 0 0 0 0 -3693.11828312531 3397.479873950113 0 3397.479873950113 -1650.5167570989433 0 0 0 0 -5466.5219668771606 4986.5857619852104 0 4986.5857619852104 -2679.6451736068993 0 0 0 0 -33.501005123893265 -115.6443456390989 0 -115.6443456390989 1954.0424478794303 0 0 0 0 -1040.6773568149365 1729.8332407457565 0 1729.8332407457565 1657.6653900728852 0 0 0 0 -1020.9252811395854 1517.6958130251151 0 1517.6958130251151 137.48063849225582 0 0 0 0 -32.445906524424572 28.859773649433066 0 28.859773649433066 1.3275855639735865 0 0 0 0 -1248.9611288105953 4530.8268626752688 0 4530.8268626752688 -7191.9203530409877 0 0 0 0 -15.175523362456772 19.366301110607537 0 19.366301110607537 -3.4411569143001532 0 0 0 0 -362.89063717299723 2354.087503379531 0 2354.087503379531 -4630.4696832483751 0 0 0 0 -3162.5214612059644 4892.9818523665599 0 4892.9818523665599 -2672.6596056986018 0 0 0 0 -78.255378094916523 981.18353559454044 0 981.18353559454044 -1116.2183178189734 0 0 0 0 -1532.9853996598395 3739.2459627018688 0 3739.2459627018688 -1282.1604986752309 0 0 0 0 -550.52232660757727 3260.5358436897513 0 3260.5358436897513 -1493.0517987809435 0 0 0 0 -1692.2738595722694 3444.8733725434686 0 3444.8733725434686 -1067.54658225202 0 0 0 0 -1603.3603797411924 3587.563818666451 0 3587.563818666451 -1599.2357248206972 0 0 0 0 -2252.5650877986045 4320.627848460892 0 4320.627848460892 -1610.9994286714657 0 0 0 0 -2242.7292520998162 4059.8794662335786 0 4059.8794662335786 -1818.0054616887646 0 0 0 0 -2968.4566417573078 3866.7846339163298 0 3866.7846339163298 -1697.946642135852 0 0 0 0 -1892.4295638195035 4364.9442012978107 0 4364.9442012978107 -1644.6235525855882 0 0 0 0 -2104.5518277004012 3783.3439771274861 0 3783.3439771274861 -2555.4338837079522 0 0 0 0 2.4011833468503028 3551.7915008881282 0 3551.7915008881282 -780.14858945758897 0 0 0 0 -926.08004997659009 3312.9817146959176 0 3312.9817146959176 -805.79178210107057 0 0 0 0 -1010.6398858664361 2769.899641390959 0 2769.899641390959 -2417.0748123430676 0 0 0 0 -3741.7509708179277 4779.2310973913118 0 4779.2310973913118 -1.4357190164009312 0 0 0 0 418.1591660677077 1925.6989901128836 0 1925.6989901128836 -484.87663817426073 0 0 0 0 581.83433070589672 87.519270256889286 0 87.519270256889286 -2245.5716978614801 0 0 0 0 -1146.0278297661062 2691.9503735062644 0 2691.9503735062644 326.17498310891096 0 0 0 0 573.57741716472083 1532.3370541237964 0 1532.3370541237964 227.11011727905679 0 0 0 0 -1467.973576639255 2681.5207017633365 0 2681.5207017633365 2336.8475817059516 0 0 0 0 -17.291682127236072 13.659674035944761 0 13.659674035944761 2.6015990911909359 0 0 0 0 -933.80012042263115 325.80853447836489 0 325.80853447836489 5406.2986810230359 0 0 0 0 -2322.3666955669178 5110.2604526737487 0 5110.2604526737487 -539.07846308936132 0 0 0 0 -800.30714797318797 3300.396593526646 0 3300.396593526646 -1594.506591094585 0 0 0 0 -313.55956457213324 2881.7398987298839 0 2881.7398987298839 -2188.4892011223128 0 0 0 0 -2966.6829972279102 3142.082585025606 0 3142.082585025606 -2067.3475299571583 0 0 0 0 -819.09560776267608 3118.9885396412574 0 3118.9885396412574 -2838.1858392231006 0 0 0 0 -1801.0946121316956 4060.2397265279797 0 4060.2397265279797 -1543.5810652107175 0 0 0 0 -1175.5641474376062 2784.5590123632883 0 2784.5590123632883 341.07497673315811 0 0 0 0 -836.42640426346043 3263.5987357312843 0 3263.5987357312843 -1582.4972899865825 0 0 0 0 -418.96595750421693 967.72348029661225 0 967.72348029661225 -1584.3209776659824 0 0 0 0 -325.93160239412464 876.59741961363761 0 876.59741961363761 -1557.7026114217588 0 0 0 0 -510.91258295406442 995.79009930763277 0 995.79009930763277 -1530.4848638146213 0 0 0 0 -418.32577903798301 987.03646844600735 0 987.03646844600735 -1530.8329433200415 0 0 0 0 -407.27051902368112 883.29022864322178 0 883.29022864322178 -1557.816793029182 0 0 0 0 -394.05084684350004 863.17422498566157 0 863.17422498566157 -1531.9462038474157 0 0 0 0 -404.81120923131675 853.26772081726813 0 853.26772081726813 -1537.6377530315949 0 0 0 0 -406.08019861012508 844.7213124424743 0 844.7213124424743 -1537.3184233965585 0 0 0 0 -391.82479294008226 832.46488925318408 0 832.46488925318408 -1576.8595443381346 0 0 0 0 -252.20686066691269 816.04726073193888 0 816.04726073193888 -1584.1452371209161 0 0 0 0 -389.61601199897268 801.11982954165433 0 801.11982954165433 -1547.3561885035306 0 0 0 0 -377.18331947178012 784.82046409741451 0 784.82046409741451 -1553.4178732999135 0 0 0 0 -97.048584685151582 764.44785400437831 0 764.44785400437831 -1558.3198058417911 0 0 0 0 -213.44479108795713 945.1630936586298 0 945.1630936586298 -1483.7141939974972 0 0 0 0 -233.17621883402171 966.51054985562223 0 966.51054985562223 -1585.1056446863604 0 0 0 0 -354.26653646120394 1024.2394111951871 0 1024.2394111951871 -1583.7480915747583 0 0 0 0 16.861714904967812 1023.1665330973483 0 1023.1665330973483 -1585.4784630487266 0 0 0 0 -214.84750666753825 1072.1184555794171 0 1072.1184555794171 -1527.389239311713 0 0 0 0 -690.90443468416925 1425.3675934773346 0 1425.3675934773346 -1525.2522459223983 0 0 0 0 -64.040622669323056 1423.0078821860807 0 1423.0078821860807 -1549.2312271130068 0 0 0 0 -217.09685409775193 1176.2939937722331 0 1176.2939937722331 -1533.5159372301714 0 0 0 0 -935.76830918443011 1355.9217279785662 0 1355.9217279785662 -1528.9333612742776 0 0 0 0 -1336.4195416992297 972.89586121829052 0 972.89586121829052 -1383.2443760694587 0 0 0 0 -909.07966627738278 1294.1871613286203 0 1294.1871613286203 -1388.690548558865 0 0 0 0 -1190.6972971268333 1414.2320020570914 0 1414.2320020570914 -1292.4753080087394 0 0 0 0 -21.262523915300278 -10.471827710926277 0 -10.471827710926277 -11.827965998477794 0 0 0 0 -1043.5846102716278 1276.1965625442172 0 1276.1965625442172 -1217.1949901953922 0 0 0 0 -931.41946827606262 1220.3851230790569 0 1220.3851230790569 -1247.2980747578258 0 0 0 0 -1313.1976752056726 1076.2002266942145 0 1076.2002266942145 -1885.2870824987003 0 0 0 0 -913.76171813573455 1313.3307047748385 0 1313.3307047748385 -1383.377115847863 0 0 0 0 -643.93338327391393 1171.0883458108146 0 1171.0883458108146 -1531.0081004184867 0 0 0 0 -660.17953486560509 1198.2166701447859 0 1198.2166701447859 -1378.8365022630023 0 0 0 0 -970.21385229333828 1109.2107910936902 0 1109.2107910936902 -1398.8510302983923 0 0 0 0 -662.79160048576887 1004.4941679125186 0 1004.4941679125186 -1532.8262897188542 0 0 0 0 -1626.3283018022012 972.38171730295289 0 972.38171730295289 -1124.0661473530636 0 0 0 0 -663.20061817937676 1055.8682419674151 0 1055.8682419674151 -1444.4053058432473 0 0 0 0 -7.4318167824429651 -2.9337144785758937 0 -2.9337144785758937 -4.8888278942157513 0 0 0 0 -735.46830275768298 1046.7998283676861 0 1046.7998283676861 -1445.5282170204155 0 0 0 0 -2327.1802283122233 1994.5208545854402 0 1994.5208545854402 -1582.2852233020021 0 0 0 0 -665.30966456451279 1898.841915881676 0 1898.841915881676 -2951.4050033993553 0 0 0 0 -2.8674540090276537 50.18482947295962 0 50.18482947295962 15.822325430033601 0 0 0 0 -46.443025373053388 76.058437153347768 0 76.058437153347768 -24.610496454275562 0 0 0 0 23.745365260358113 22.886423623883559 0 22.886423623883559 -4.2713973859289922 0 0 0 0 -1653.1328117196244 2572.0862479311181 0 2572.0862479311181 -2623.4495731539573 0 0 0 0 -3031.3859812347437 2553.7213172466727 0 2553.7213172466727 -695.10239975215518 0 0 0 0 -1738.2517119583144 1832.2690034153002 0 1832.2690034153002 -2690.8001042371616 0 0 0 0 -2033.5376813056791 3870.8812540494546 0 3870.8812540494546 -5870.0425967667252 0 0 0 0 313.40366956258367 1859.1566858808364 0 1859.1566858808364 -3466.6342176623293 0 0 0 0 -432.99587016800797 364.43386876443401 0 364.43386876443401 -248.38902404363034 0 0 0 0 -1065.0512918282329 3534.4340501956758 0 3534.4340501956758 -2156.4980909971055 0 0 0 0 -3481.0730167401489 2962.5144024615001 0 2962.5144024615001 -2160.6389453583397 0 0 0 0 -623.4508465547915 1091.2128874845439 0 1091.2128874845439 -756.52330144221196 0 0 0 0 -541.00501173356679 968.15059805430064 0 968.15059805430064 -1182.6711104148999 0 0 0 0 -2.7989163405922852 1.8580253904098072 0 1.8580253904098072 1.0714435954790815 0 0 0 0 -839.31384084232559 913.25909427934675 0 913.25909427934675 -1107.8026898222888 0 0 0 0 -553.67769363981643 1000.2792115471675 0 1000.2792115471675 -1384.7181742126122 0 0 0 0 0.13612580233041172 -0.44206260819564136 0 -0.44206260819564136 -0.10834811594037319 0 0 0 0 -941.67765301520558 1271.8518796583521 0 1271.8518796583521 -1537.6371090745088 0 0 0 0 -740.69838171814627 916.40314177880646 0 916.40314177880646 -1506.3751462607815 0 0 0 0 -629.65283121283755 993.58970812504231 0 993.58970812504231 -1469.7340633490239 0 0 0 0 -608.55079988767829 870.71991080747102 0 870.71991080747102 -1432.8627761938842 0 0 0 0 -460.71140231686877 813.39371087402105 0 813.39371087402105 -1440.5114256009692 0 0 0 0 -448.26626819127705 881.66359269502573 0 881.66359269502573 -1519.288710831257 0 0 0 0 -473.22171227399667 871.4853362779977 0 871.4853362779977 -1508.1138767722878 0 0 0 0 -713.87263172816893 986.20843132771552 0 986.20843132771552 -1464.2854100625555 0 0 0 0 -459.0293329741944 859.7035641464754 0 859.7035641464754 -1501.8982296549657 0 0 0 0 -414.75309012051002 895.74359002275742 0 895.74359002275742 -1474.8026210254757 0 0 0 0 -366.16507576793083 870.06596239921055 0 870.06596239921055 -1534.9724687397975 0 0 0 0 -430.19136502710535 845.64900008562836 0 845.64900008562836 -1459.8376286568237 0 0 0 0 -412.27988227296737 844.06495006159821 0 844.06495006159821 -1306.8183799122344 0 0 0 0 -414.49743594281608 909.43010524628335 0 909.43010524628335 -1475.370510063025 0 0 0 0 -316.5050620951406 888.17934728949331 0 888.17934728949331 -1474.2840214293101 0 0 0 0 -300.19509685629419 846.26899473881349 0 846.26899473881349 -1347.7731226116884 0 0 0 0 -378.87562111402804 769.72379603033187 0 769.72379603033187 -990.78500558575615 0 0 0 0 -336.54743006601348 889.47849229106214 0 889.47849229106214 -1298.4331470717516 0 0 0 0 -488.77152521211246 811.94973891937116 0 811.94973891937116 -1009.0579766591545 0 0 0 0 -548.4364632158904 613.93335024174303 0 613.93335024174303 -514.21540928131435 0 0 0 0 -353.76358498337868 708.72441471496131 0 708.72441471496131 -1023.5988676690322 0 0 0 0 -243.29428202549752 662.7517696415307 0 662.7517696415307 -1067.5038523671101 0 0 0 0 -377.03934761214987 902.43793120072223 0 902.43793120072223 -1364.8465249678848 0 0 0 0 -274.43010132469499 691.29625503158604 0 691.29625503158604 -1115.8800004458753 0 0 0 0 -267.28341633775199 835.14252750868036 0 835.14252750868036 -1505.7179377507127 0 0 0 0 -364.50410167614973 1188.1955184068938 0 1188.1955184068938 -1887.35973228066 0 0 0 0 -627.20968607230498 1237.4605733884018 0 1237.4605733884018 -1455.0016184911656 0 0 0 0 -487.12374100871602 1023.5741802011471 0 1023.5741802011471 -1502.5705936321983 0 0 0 0 -336.5819416413251 949.52412952452141 0 949.52412952452141 -1506.9076390798145 0 0 0 0 -397.0168488923664 887.33547604201885 0 887.33547604201885 -1319.8404674286285 0 0 0 0 -602.48113833527259 1179.5716316172156 0 1179.5716316172156 -2374.0827189085539 0 0 0 0 -601.0386815050324 1208.5565004727541 0 1208.5565004727541 -1894.4521376650882 0 0 0 0 -661.21502789322767 1385.6988242384541 0 1385.6988242384541 -2025.9939035148491 0 0 0 0 -840.93856702983157 1564.1373820057925 0 1564.1373820057925 -1311.3279945967079 0 0 0 0 -884.72588288920633 1767.6760347762793 0 1767.6760347762793 -2006.4180064431275 0 0 0 0 -283.95760666413645 639.31966858250235 0 639.31966858250235 -791.24082999638631 0 0 0 0 -916.67641342323077 1373.4377551479556 0 1373.4377551479556 -1232.7471469350312 0 0 0 0 -1458.329977934829 1949.5139388578173 0 1949.5139388578173 -1193.2508981628926 0 0 0 0 -195.65983726516424 1594.7460903206957 0 1594.7460903206957 -1438.489017800166 0 0 0 0 -679.3268452339471 923.59550058272725 0 923.59550058272725 -1395.3120922701928 0 0 0 0 -662.33288558428831 973.31537269453111 0 973.31537269453111 -1414.2979535888298 0 0 0 0 -558.13794036898253 763.36471960379276 0 763.36471960379276 -1531.2530200131587 0 0 0 0 -767.61027660609034 1261.8789669894031 0 1261.8789669894031 -1455.5354343244981 0 0 0 0 -906.1217334379071 1343.6011109525734 0 1343.6011109525734 -1227.165982254839 0 0 0 0 -1173.3328378788501 1212.7888183292816 0 1212.7888183292816 -1053.5020208953065 0 0 0 0 -2074.8483496753397 984.50453364007262 0 984.50453364007262 -1096.7932894628029 0 0 0 0 -810.21771038536099 814.89163239838672 0 814.89163239838672 -1445.7258017204731 0 0 0 0 -1117.4460153232421 764.8228994616511 0 764.8228994616511 -1376.1702389492129 0 0 0 0 -730.19726680119857 669.34611758231767 0 669.34611758231767 -1460.1313254877168 0 0 0 0 -796.2866297395085 949.92292911035474 0 949.92292911035474 -1267.2402763699938 0 0 0 0 -414.13360211036434 755.07742461392991 0 755.07742461392991 -1607.6707498758915 0 0 0 0 -1417.6287349379254 456.09418862289021 0 456.09418862289021 -1552.3752877421357 0 0 0 0 -812.24458456518187 813.05763316962111 0 813.05763316962111 -1985.3499021029857 0 0 0 0 -2238.3411219700538 1726.3401361668948 0 1726.3401361668948 -1103.2985396270524 0 0 0 0 -1099.6545288840916 814.3811793437435 0 814.3811793437435 -378.41300183942076 0 0 0 0 -1185.742159583122 1121.118310703343 0 1121.118310703343 -256.15118076233193 0 0 0 0 -560.99855356906482 1233.5563477021788 0 1233.5563477021788 -1035.7371314241318 0 0 0 0 -518.30143723805304 715.01242309085501 0 715.01242309085501 -1081.6628216631943 0 0 0 0 689.2872598993531 556.5589873943718 0 556.5589873943718 -1250.0960282771848 0 0 0 0 339.98986049168161 1684.1439968500781 0 1684.1439968500781 -1921.4987719828932 0 0 0 0 -11.507447208809779 14.417344984884892 0 14.417344984884892 -14.884737159931205 0 0 0 0 1140.5149935079062 550.10874556178169 0 550.10874556178169 -1484.3350976975344 0 0 0 0 -2696.5382631884568 908.48895569606248 0 908.48895569606248 1297.8930265226518 0 0 0 0 187.79080754517872 562.37822616586345 0 562.37822616586345 1099.0676658472803 0 0 0 0 947.8808220535393 1515.3319599455572 0 1515.3319599455572 883.27426677997573 0 0 0 0 2243.4969805968058 2133.4788998414188 0 2133.4788998414188 962.54514461618965 0 0 0 0 2889.8383258841659 1336.434447028827 0 1336.434447028827 -1387.0180227450473 0 0 0 0 -12.286153124852987 24.306082516563464 0 24.306082516563464 -25.263966032500662 0 0 0 0 -16.081009076343712 12.580071507302165 0 12.580071507302165 -8.9908996389190747 0 0 0 0 -1571.3990432391729 473.1524068179715 0 473.1524068179715 -537.64466704658844 0 0 0 0 -2952.9419460277677 -1802.9870342854047 0 -1802.9870342854047 594.72068948575179 0 0 0 0 -2328.4173479356941 572.18933458125684 0 572.18933458125684 -137.65801098733209 0 0 0 0 -1295.4750884159585 81.293448308730149 0 81.293448308730149 -142.04731464135693 0 0 0 0 -1584.7133509763325 355.29046188934512 0 355.29046188934512 444.4203582254122 0 0 0 0 -1274.6544586018936 -413.54484114253137 0 -413.54484114253137 -168.73401116015157 0 0 0 0 -1600.8263557201062 -411.44936868724471 0 -411.44936868724471 251.20141847143532 0 0 0 0 -3067.0848449839978 -959.07577719224719 0 -959.07577719224719 -138.04895917858812 0 0 0 0 -1208.6467951881532 -233.99353397549567 0 -233.99353397549567 98.750966970750596 0 0 0 0 -1.739750238892853 51.383193462487327 0 51.383193462487327 -32.988616250623409 0 0 0 0 -311.8523772253975 1457.2067631868413 0 1457.2067631868413 77.957935623300727 0 0 0 0 -702.96258405378831 1095.6403933708207 0 1095.6403933708207 47.241468922584318 0 0 0 0 -762.41724261408672 1256.5924311301933 0 1256.5924311301933 -266.06158405228052 0 0 0 0 -856.14417708008023 926.39101444799235 0 926.39101444799235 -403.71255827107234 0 0 0 0 -1104.4312516942882 1125.433637505208 0 1125.433637505208 -59.483124144666363 0 0 0 0 -1523.6660360787828 373.8087127475228 0 373.8087127475228 -332.39368687095703 0 0 0 0 -1100.2833565325127 875.47499237032025 0 875.47499237032025 58.036435045054532 0 0 0 0 -579.56459094557613 619.83541989896185 0 619.83541989896185 -43.654489791748347 0 0 0 0 -266.61348568876747 1491.8031675496313 0 1491.8031675496313 263.78982160211308 0 0 0 0 -575.96336174957105 1056.6297341609024 0 1056.6297341609024 -194.89668326704123 0 0 0 0 -572.30066203876208 1468.5678223693772 0 1468.5678223693772 359.93599072479992 0 0 0 0 -382.43852709921339 1462.2676030120347 0 1462.2676030120347 344.19522305997089 0 0 0 0 -71.141666268260451 1625.9087293925113 0 1625.9087293925113 435.5478669423901 0 0 0 0 -383.50559287399665 1489.9552329373546 0 1489.9552329373546 639.66896313143661 0 0 0 0 193.5706535885256 1506.2985707309563 0 1506.2985707309563 473.72488588647684 0 0 0 0 -82.708157330747781 1665.52337309836 0 1665.52337309836 285.33396480540978 0 0 0 0 -350.23277131415671 1457.1570194000815 0 1457.1570194000815 380.34258394416247 0 0 0 0 143.07788044195058 1635.6646996138552 0 1635.6646996138552 348.16002772923093 0 0 0 0 372.11446394560335 1616.611969562131 0 1616.611969562131 347.74429845378654 0 0 0 0 -109.39088899128546 1695.8965473854478 0 1695.8965473854478 718.40483471407788 0 0 0 0 828.94737912457458 1933.9094991448983 0 1933.9094991448983 435.1917418896337 0 0 0 0 861.18221683900401 2299.3186316854299 0 2299.3186316854299 1009.9033409254043 0 0 0 0 81.550822801960749 1698.4978799823439 0 1698.4978799823439 1184.4835405892518 0 0 0 0 100.60671949135303 1483.1253832455386 0 1483.1253832455386 346.07742802141001 0 0 0 0 99.602059387987538 1048.8226252796303 0 1048.8226252796303 -34.716615436831489 0 0 0 0 -193.95291537822777 1491.8736535828793 0 1491.8736535828793 521.71934538782807 0 0 0 0 261.06750862587069 1301.3183914870024 0 1301.3183914870024 586.57146378440666 0 0 0 0 64.819743561776704 1144.7261664751859 0 1144.7261664751859 801.95296508504543 0 0 0 0 229.99876094047249 1392.3497290958258 0 1392.3497290958258 1926.3747890890809 0 0 0 0 -309.11821804926149 1221.020273875678 0 1221.020273875678 347.04270073267617 0 0 0 0 -374.46890899613209 1417.5544817655682 0 1417.5544817655682 -85.508624424779555 0 0 0 0 -457.13369484321447 925.61621067779197 0 925.61621067779197 -207.09370483557723 0 0 0 0 -72.650183096306137 1087.7789053691813 0 1087.7789053691813 -772.04266471942537 0 0 0 0 -60.329784231769736 855.9936614260223 0 855.9936614260223 122.08208773593651 0 0 0 0 150.76636513418634 1094.9042363464978 0 1094.9042363464978 -247.35399904020596 0 0 0 0 382.8667526631325 751.44716173555935 0 751.44716173555935 99.463516522257123 0 0 0 0 329.30891784682626 1038.5652276621804 0 1038.5652276621804 676.06276541535044 0 0 0 0 478.478607346746 662.79574536215205 0 662.79574536215205 -745.28351912769722 0 0 0 0 151.62974899909568 905.40632959854702 0 905.40632959854702 -1319.1721056643582 0 0 0 0 75.482477520883549 943.19512867694721 0 943.19512867694721 -899.59031321293151 0 0 0 0 466.23436713635601 927.30182495673944 0 927.30182495673944 -1448.6498303317057 0 0 0 0 23.767940837084097 1149.4216682413007 0 1149.4216682413007 -1519.8220809033955 0 0 0 0 100.39635523011202 758.88892605150068 0 758.88892605150068 -1373.7452966255951 0 0 0 0 -434.49174812015372 772.1702110315382 0 772.1702110315382 -1267.3268023244746 0 0 0 0 -247.90738267702909 937.87574619198858 0 937.87574619198858 -1347.8511743240815 0 0 0 0 -174.20213483879343 706.23490490646509 0 706.23490490646509 -758.7203821115354 0 0 0 0 -1249.3749961073199 1194.4112462026196 0 1194.4112462026196 -1144.4052788109111 0 0 0 0 -4376.9566880464117 741.49700709733588 0 741.49700709733588 -673.51321824788465 0 0 0 0 -1197.7358757815189 1734.7580276006356 0 1734.7580276006356 -1422.7491820619034 0 0 0 0 246.57954271773269 974.19874545299535 0 974.19874545299535 -973.68402298598085 0 0 0 0 834.44727687331761 1687.3462517835869 0 1687.3462517835869 -1609.4848199368062 0 0 0 0 1614.2090516942953 2732.2566530128461 0 2732.2566530128461 -561.5379889611213 0 0 0 0 499.62141078459672 1199.0690412118161 0 1199.0690412118161 -834.23399939856608 0 0 0 0 968.48159406655759 662.95826779844356 0 662.95826779844356 -452.5580045216193 0 0 0 0 374.06064690733183 1271.9133279114903 0 1271.9133279114903 144.03309060819447 0 0 0 0 2089.5875109892513 1098.3177911097882 0 1098.3177911097882 146.91401939759089 0 0 0 0 -1736.9749001964374 2528.7843114336429 0 2528.7843114336429 -573.81284925094224 0 0 0 0 2568.8225050455512 2359.7345682038285 0 2359.7345682038285 -431.95146701813792 0 0 0 0 -31.728530254980754 23.842954365245816 0 23.842954365245816 -14.26155829520269 0 0 0 0 -2264.7986541337887 1088.47567245955 0 1088.47567245955 30.038360394959454 0 0 0 0 -36.345832724217416 2.4104455210939761 0 2.4104455210939761 1.6504531609669186 0 0 0 0 -2308.6609053951543 -2716.7248212079357 0 -2716.7248212079357 2419.2536622983316 0 0 0 0 -7462.2150051801473 -2472.3500988890373 0 -2472.3500988890373 2414.1609948023397 0 0 0 0 -3917.4289264776744 2739.917094102304 0 2739.917094102304 -4213.0492335389135 0 0 0 0 719.13723718738038 2299.1873021479041 0 2299.1873021479041 2200.9043064487632 0 0 0 0 729.98690020367212 918.63705364137422 0 918.63705364137422 699.31848021954647 0 0 0 0 686.54483710235945 976.24558807754511 0 976.24558807754511 1691.926408485393 0 0 0 0 1286.7628906488826 383.66013649318484 0 383.66013649318484 2276.9746697269729 0 0 0 0 2622.6541786128655 492.16996661160374 0 492.16996661160374 824.41041568829678 0 0 0 0 -70.481096682796775 54.125069757675476 0 54.125069757675476 -27.61144010313933 0 0 0 0 -4298.4272174732469 575.12595618251362 0 575.12595618251362 415.96256266461569 0 0 0 0 -4233.1121827592624 996.70187071711189 0 996.70187071711189 527.03902593866223 0 0 0 0 -670.65442642522567 -74.831976593351101 0 -74.831976593351101 175.19165600967244 0 0 0 0 -2727.0053089644207 388.99419981586107 0 388.99419981586107 476.7740775954735 0 0 0 0 -3220.0971043067766 610.05398544650961 0 610.05398544650961 446.65180377700017 0 0 0 0 -1394.8255927593491 1043.0440997960177 0 1043.0440997960177 -238.44634031107125 0 0 0 0 -1499.4547787539486 827.27562886852684 0 827.27562886852684 35.441403359785909 0 0 0 0 91.944022619711177 -174.61308945362543 0 -174.61308945362543 -196.24302478541722 0 0 0 0 919.10229736394831 -325.5686368560564 0 -325.5686368560564 127.74731072975555 0 0 0 0 -53.09445483869905 15.523366559471953 0 15.523366559471953 -1.1445472375689576 0 0 0 0 273.22469720451409 718.09780853177654 0 718.09780853177654 570.82735392343602 0 0 0 0 -18.435147918766233 -436.68551782609211 0 -436.68551782609211 726.66842162431567 0 0 0 0 252.5669963091641 254.34486270124762 0 254.34486270124762 1477.6647798330268 0 0 0 0 4121.1875234749677 2247.6106259376465 0 2247.6106259376465 1404.2920347451582 0 0 0 0 1293.8665380441707 1847.9719433148857 0 1847.9719433148857 1252.8591807963094 0 0 0 0 -3310.986585063074 2474.0063408440765 0 2474.0063408440765 1455.4708603495965 0 0 0 0 -1256.9100104263343 1137.7137609183847 0 1137.7137609183847 1410.1438658809057 0 0 0 0 -17.12505255833932 11.677977573043762 0 11.677977573043762 -2.592906385901756 0 0 0 0 224.47517935762153 1377.3398992522634 0 1377.3398992522634 -2015.9077836233191 0 0 0 0 218.5018759396973 278.02791565318762 0 278.02791565318762 -1246.0565707230562 0 0 0 0 -450.84118128197588 1858.5864229534636 0 1858.5864229534636 -2240.5844347497186 0 0 0 0 -609.86490912422596 875.36459339001158 0 875.36459339001158 -1633.9350891692156 0 0 0 0 -267.55590040893003 1141.0708903709747 0 1141.0708903709747 -2066.3910242196325 0 0 0 0 121.95430898259656 983.26435097354988 0 983.26435097354988 -3364.4426447289588 0 0 0 0 -1155.4191236353945 1260.6126812740986 0 1260.6126812740986 -1821.0703907182251 0 0 0 0 -2238.9805449168816 -1193.6514393892285 0 -1193.6514393892285 -2529.9546938899875 0 0 0 0 108.06956665247708 -245.82700248349283 0 -245.82700248349283 -2490.4561626430223 0 0 0 0 1557.6779911454614 676.95353725778114 0 676.95353725778114 -3019.4651024418417 0 0 0 0 -428.8622323001473 1903.8859979984263 0 1903.8859979984263 1621.3818926739659 0 0 0 0 373.06456752587474 996.19347798813033 0 996.19347798813033 1349.3535859954427 0 0 0 0 -4.8703802935279441 11.081148573633882 0 11.081148573633882 -9.8526909753146015 0 0 0 0 1574.5018103587645 1291.3851181366335 0 1291.3851181366335 -871.6378246157692 0 0 0 0 901.52702055202826 1019.4110966008229 0 1019.4110966008229 1326.8516281514603 0 0 0 0 -20.99878679147497 24.550661823393327 0 24.550661823393327 -15.786712750417564 0 0 0 0 883.36373832510435 1214.6104901566723 0 1214.6104901566723 1746.2314607192675 0 0 0 0 1630.102611649716 846.03851890579972 0 846.03851890579972 -90.357909171812935 0 0 0 0 817.8321684137627 665.75946646547527 0 665.75946646547527 858.99138423756813 0 0 0 0 722.7847152290924 1187.0320470048537 0 1187.0320470048537 -1318.4171412489377 0 0 0 0 574.30363162567664 1168.2835446710233 0 1168.2835446710233 339.20057551971695 0 0 0 0 1485.176201911403 2365.841369756221 0 2365.841369756221 1399.9954055265844 0 0 0 0 1155.4373060219023 -385.92961781529448 0 -385.92961781529448 1274.500871253782 0 0 0 0 -899.314211224475 965.02520056499634 0 965.02520056499634 1591.1374137540406 0 0 0 0 -2833.9043683910859 271.45604350625945 0 271.45604350625945 1937.9219580545468 0 0 0 0 -1524.6811480384204 1680.0121319515456 0 1680.0121319515456 1225.6830863214054 0 0 0 0 -825.47819850396627 812.50823992924779 0 812.50823992924779 -697.10654942653491 0 0 0 0 -1217.6927185310269 1460.4547913799906 0 1460.4547913799906 -1165.0107412915095 0 0 0 0 -621.66722301156551 948.98613397517329 0 948.98613397517329 -965.4444781956845 0 0 0 0 -709.41080069713644 789.08674232302292 0 789.08674232302292 -1129.1309675646798 0 0 0 0 624.30677776537777 1391.3216195189452 0 1391.3216195189452 -995.39151354081696 0 0 0 0 258.50888207783282 638.8910299962954 0 638.8910299962954 -1162.004523482814 0 0 0 0 1459.0639570979256 1305.5999347351899 0 1305.5999347351899 -1181.855507369437 0 0 0 0 1158.6807722062149 1557.1636712756517 0 1557.1636712756517 -985.37329340222641 0 0 0 0 859.38160253121168 1118.0183095873654 0 1118.0183095873654 -877.30370261789358 0 0 0 0 1756.456146029137 1429.0270144965179 0 1429.0270144965179 -1083.3576070988347 0 0 0 0 2154.7207537227514 818.87881316195126 0 818.87881316195126 -793.95379744741513 0 0 0 0 1459.0136540887668 1363.203764497461 0 1363.203764497461 -950.75382517417893 0 0 0 0 1329.3180462208256 1390.5553131723864 0 1390.5553131723864 -825.65470206197278 0 0 0 0 1823.8162923068594 1015.0741417562967 0 1015.0741417562967 -1525.7258841558869 0 0 0 0 2913.5732852380388 1330.5292178793025 0 1330.5292178793025 -1976.6048693750054 0 0 0 0 1926.5264043907518 596.1196637199173 0 596.1196637199173 -631.60135114904551 0 0 0 0 1934.9885958984378 405.66566724133736 0 405.66566724133736 -1199.2236671989886 0 0 0 0 923.02937689346436 1274.8410153803852 0 1274.8410153803852 -643.94941788050346 0 0 0 0 843.30456230879645 857.20668450628 0 857.20668450628 -1241.8956289697526 0 0 0 0 820.13309508992825 1216.4193031344621 0 1216.4193031344621 -1743.2123445212055 0 0 0 0 1709.4411404705024 339.05833536063437 0 339.05833536063437 -2595.2823608682957 0 0 0 0 513.19625846506096 846.06012508683489 0 846.06012508683489 -2385.6577919850406 0 0 0 0 -840.83464024611749 2152.3218562271213 0 2152.3218562271213 -3641.5202783412824 0 0 0 0 -757.62684674405318 1758.6109444033355 0 1758.6109444033355 -2294.1192747108198 0 0 0 0 661.43518320832663 743.22949683414845 0 743.22949683414845 -1616.6429440331704 0 0 0 0 -487.69831912790141 546.67931324813617 0 546.67931324813617 -1236.8243930779572 0 0 0 0 -151.83407552544668 1317.4964983344544 0 1317.4964983344544 -1255.2666293920629 0 0 0 0 -999.42869810182901 42.511414364660595 0 42.511414364660595 -1643.2483489331498 0 0 0 0 -944.81326404312131 702.32913256633037 0 702.32913256633037 -1250.7701431250753 0 0 0 0 -867.52314122488087 418.57106619092428 0 418.57106619092428 -1583.4160577937437 0 0 0 0 -3372.6235272443737 1068.1208464232768 0 1068.1208464232768 -1751.6479483049989 0 0 0 0 -1200.8582779952703 -555.41013415755879 0 -555.41013415755879 -2767.1575202689564 0 0 0 0 -710.99761479893641 2228.0138455997367 0 2228.0138455997367 -3335.7328210529085 0 0 0 0 -3274.6554881952325 1816.7476469533285 0 1816.7476469533285 -346.57348902279045 0 0 0 0 -1345.9353715545221 1411.5851276280519 0 1411.5851276280519 -147.79460699457559 0 0 0 0 -886.64201635497739 465.53658686215931 0 465.53658686215931 -48.704332066918141 0 0 0 0 -1275.6538317751401 943.06045799063577 0 943.06045799063577 -545.62627495266497 0 0 0 0 9.555907237039591 77.411433840993169 0 77.411433840993169 71.344070365910284 0 0 0 0 -1187.8163383341598 -571.30381923230016 0 -571.30381923230016 145.69474597263616 0 0 0 0 148.39042065734247 102.90678648729227 0 102.90678648729227 142.88633769640001 0 0 0 0 122.55805538812274 -6.5162791795737576 0 -6.5162791795737576 -295.03954515965597 0 0 0 0 -2377.0711654346233 241.13423654378857 0 241.13423654378857 345.80005547514884 0 0 0 0 4.1498278830625566 32.248768799131057 0 32.248768799131057 -2.1114805178190181 0 0 0 0 -4.3693972895853221 548.59387644342496 0 548.59387644342496 -4014.9272152436315 0 0 0 0 1152.2552424075984 -320.02761924554397 0 -320.02761924554397 -52.347627587034367 0 0 0 0 17.72045935878258 18.442715987746283 0 18.442715987746283 -5.5837347043341765 0 0 0 0 2289.5818044058979 1446.120263381199 0 1446.120263381199 -3723.8808342146222 0 0 0 0 1728.8640307339519 1608.1325761446715 0 1608.1325761446715 -3329.1530921174563 0 0 0 0 2199.3971473018828 331.07484347437276 0 331.07484347437276 -2869.77587523486 0 0 0 0 2156.268641469971 1816.2831347288302 0 1816.2831347288302 -1006.6269023977802 0 0 0 0 1337.0698287107953 2738.9022679666668 0 2738.9022679666668 3427.4968584782764 0 0 0 0 70.028816727948538 39.961751458051054 0 39.961751458051054 -64.146710221842852 0 0 0 0 4408.7925765417749 3957.1869883644395 0 3957.1869883644395 1628.7518774834753 0 0 0 0 87.893936590946396 141.17518620346527 0 141.17518620346527 209.19850776088424 0 0 0 0 12.196914226660738 99.95696095508174 0 99.95696095508174 202.34577204904417 0 0 0 0 1868.0459546269267 2685.4627818903245 0 2685.4627818903245 5488.0943431010528 0 0 0 0 10.06566302227526 24.303968430428228 0 24.303968430428228 -2.6248725367151202 0 0 0 0 2002.5468379106314 -224.57088907224534 0 -224.57088907224534 -5510.8637724206383 0 0 0 0 412.21998639826779 -47.214082870748825 0 -47.214082870748825 -2119.4774480144551 0 0 0 0 698.45304124759787 -555.24748142818862 0 -555.24748142818862 128.5119307373825 0 0 0 0 -628.97058735073369 1490.1949744276644 0 1490.1949744276644 -3542.0240395486471 0 0 0 0 -4.5049581004201684 6.6358177781381187 0 6.6358177781381187 0.0084632311213113098 0 0 0 0 974.1961850515363 -176.13104119309719 0 -176.13104119309719 -705.35725344435195 0 0 0 0 -3040.9578339971049 3912.3311978215934 0 3912.3311978215934 -3759.6781323201722 0 0 0 0 -4.2724995394767618 -4.275930988209268 0 -4.275930988209268 -2.3638520625199817 0 0 0 0 -568.17499107822732 1844.7174223555703 0 1844.7174223555703 -3137.8712997164403 0 0 0 0 -959.20967210591698 938.58947299944884 0 938.58947299944884 -2352.3489391268522 0 0 0 0 -2286.0686919814179 992.23550116654951 0 992.23550116654951 -1135.4899071644249 0 0 0 0 -15.404169500319739 -5.0573545182681414 0 -5.0573545182681414 -5.0847099105799316 0 0 0 0 -1346.6434353299226 215.22508259582236 0 215.22508259582236 -2636.5723311490583 0 0 0 0 -1071.4412691601392 1961.2705216149188 0 1961.2705216149188 -3071.6811486121951 0 0 0 0 -435.65526505322123 206.58857757844817 0 206.58857757844817 -2545.1657103775069 0 0 0 0 119.81685027778349 1009.1350460485828 0 1009.1350460485828 -2285.1828429537709 0 0 0 0 175.42363000136538 410.26173128050868 0 410.26173128050868 -2566.5738360338219 0 0 0 0 -125.26491550772334 635.1696997416002 0 635.1696997416002 -1953.8708113269531 0 0 0 0 -160.48187060095006 204.79421744195133 0 204.79421744195133 -1871.0911572468467 0 0 0 0 -396.03366568667116 342.03546840792114 0 342.03546840792114 -1592.8525370060634 0 0 0 0 -194.77108794530795 45.116566240612883 0 45.116566240612883 -1867.878446143397 0 0 0 0 -37.183849387256487 345.43890303794615 0 345.43890303794615 -1790.1774026875501 0 0 0 0 233.97260929025651 121.24970628380834 0 121.24970628380834 -1611.5445990333683 0 0 0 0 -739.73209411115749 272.25755825200758 0 272.25755825200758 -1598.9044744884886 0 0 0 0 704.75098266989517 396.22224040581204 0 396.22224040581204 -1915.8486175637008 0 0 0 0 131.37660347921337 373.44115305389278 0 373.44115305389278 -712.13063229387626 0 0 0 0 236.97240201631212 487.75891379270615 0 487.75891379270615 -216.78002454066882 0 0 0 0 318.07053001620807 552.5868779013108 0 552.5868779013108 -804.75859795694851 0 0 0 0 235.52281323002535 709.5626459956984 0 709.5626459956984 -171.80740234686527 0 0 0 0 60.105525876395404 622.78746913475334 0 622.78746913475334 415.86875087663066 0 0 0 0 402.39133448322536 348.04051205888391 0 348.04051205888391 204.05064730654703 0 0 0 0 68.324088838787247 492.56757243043603 0 492.56757243043603 -216.48880758087034 0 0 0 0 -363.81314606813248 -89.908012612286257 0 -89.908012612286257 1744.2084521507641 0 0 0 0 -966.44848453796294 972.12359967204975 0 972.12359967204975 1603.5648854548053 0 0 0 0 -788.24171568293241 2071.5761867004912 0 2071.5761867004912 -153.13939717365429 0 0 0 0 115.10669643591973 255.13968919706531 0 255.13968919706531 -1880.6727598903526 0 0 0 0 14.48841078238911 669.59325746950344 0 669.59325746950344 -653.65698997650179 0 0 0 0 302.83965605100639 345.41511240800719 0 345.41511240800719 -457.66901191635407 0 0 0 0 -138.43310257973644 1979.7473339377539 0 1979.7473339377539 -2931.4641682660658 0 0 0 0 -2.7812620763354232 11.869725774571094 0 11.869725774571094 -17.20269501315471 0 0 0 0 17.035896872885331 61.043500266164145 0 61.043500266164145 -95.316951199474261 0 0 0 0 -891.75677246898249 501.48906636591346 0 501.48906636591346 -1099.7938645382237 0 0 0 0 16.092281820725248 98.028918007145222 0 98.028918007145222 14.579097446497499 0 0 0 0 -448.08607875818416 1035.285645017866 0 1035.285645017866 -1547.6597902085341 0 0 0 0 -49.624612096427882 191.63289627545601 0 191.63289627545601 -250.72717366891447 0 0 0 0 860.73794851001003 933.66211045294767 0 933.66211045294767 517.62863828294212 0 0 0 0 -12.856160750838342 5.8457884144361572 0 5.8457884144361572 24.570474266976248 0 0 0 0 816.14182316340157 505.83514640835347 0 505.83514640835347 242.59200480987784 0 0 0 0 -955.16283289346029 912.94841681297112 0 912.94841681297112 -1120.7959088648204 0 0 0 0 -173.99767271694145 778.93453765253071 0 778.93453765253071 -1350.5023460884113 0 0 0 0 123.76425010881212 402.14821701055916 0 402.14821701055916 -121.13474815768132 0 0 0 0 463.17939000445767 247.9274280446989 0 247.9274280446989 -221.79286488727666 0 0 0 0 -20.703568444871053 238.15804475232289 0 238.15804475232289 -201.96728619135683 0 0 0 0 186.53554501526378 50.571604397642659 0 50.571604397642659 -15.714132961147698 0 0 0 0 271.51091317937971 461.72286883031484 0 461.72286883031484 -434.54702761245426 0 0 0 0 -1746.0368502124475 2819.7965015363625 0 2819.7965015363625 -2918.0538511980558 0 0 0 0 0.87193886026227574 16.601994934520178 0 16.601994934520178 2.9551282344091305 0 0 0 0 216.18258904810864 80.310235621913307 0 80.310235621913307 -239.62559732158843 0 0 0 0 14.523217358066461 13.616473040399285 0 13.616473040399285 -75.560598172439086 0 0 0 0 7.9226303637115052 72.135839552851394 0 72.135839552851394 -77.047063867590623 0 0 0 0 185.13329283672647 21.283670615644951 0 21.283670615644951 -323.56486496375874 0 0 0 0 18.335182755349791 103.58070973644251 0 103.58070973644251 24.876404434125362 0 0 0 0 -277.1759252441625 489.16803489616723 0 489.16803489616723 -455.57328763002442 0 0 0 0 -550.33813625600305 680.88166328928492 0 680.88166328928492 -567.82157449657097 0 0 0 0 5.7840247859180707 22.203274773645774 0 22.203274773645774 -6.8683338443516959 0 0 0 0 -526.96021492021282 834.60857217205375 0 834.60857217205375 -437.81973941635806 0 0 0 0 -1466.8984706926531 790.95506053252757 0 790.95506053252757 -200.73047354869777 0 0 0 0 89.481710617088538 938.20283537555952 0 938.20283537555952 -616.36699277851585 0 0 0 0 -474.18362822526797 950.30421687163107 0 950.30421687163107 -559.82944563994533 0 0 0 0 -131.69091246645257 686.19726862493553 0 686.19726862493553 -1148.0030785751296 0 0 0 0 -296.72892147595121 959.88529458880657 0 959.88529458880657 -764.89586819614487 0 0 0 0 -377.15134382752876 732.32042571445345 0 732.32042571445345 -845.48095980897779 0 0 0 0 -569.62045021595259 955.77258839318529 0 955.77258839318529 -1043.6020488846989 0 0 0 0 -499.34933203202672 761.98479169564962 0 761.98479169564962 -1070.7975377303082 0 0 0 0 -426.65266338484798 683.42119175543485 0 683.42119175543485 -785.67084412301483 0 0 0 0 -699.78836298068927 824.10829326297971 0 824.10829326297971 -851.86379762596334 0 0 0 0 -910.21981824274553 321.25611679221765 0 321.25611679221765 -184.40853167735622 0 0 0 0 -516.3816719094466 740.63843071350129 0 740.63843071350129 -928.26738897047471 0 0 0 0 -551.48882535936355 579.46765661083555 0 579.46765661083555 -1129.099014902109 0 0 0 0 -150.9114415246695 112.03469002697238 0 112.03469002697238 -317.61552090678015 0 0 0 0 -106.13367381705757 582.82588414904603 0 582.82588414904603 -458.87923713191776 0 0 0 0 -610.35022130252764 785.41328964151398 0 785.41328964151398 -429.02110612860997 0 0 0 0 150.38069686039375 730.02004137634754 0 730.02004137634754 -105.75729148319806 0 0 0 0 -210.50926231551784 627.37071329211904 0 627.37071329211904 -134.94599644592381 0 0 0 0 160.58621897543344 341.19583997201698 0 341.19583997201698 -88.563821147323324 0 0 0 0 -376.42300157819409 488.46416590984882 0 488.46416590984882 -100.21956572495401 0 0 0 0 52.145740971296618 500.99179880533484 0 500.99179880533484 520.74330238536641 0 0 0 0 123.16928496762557 182.10262319767207 0 182.10262319767207 -113.14691801675144 0 0 0 0 334.38241462141741 353.13185114394582 0 353.13185114394582 522.26840195112163 0 0 0 0 1006.6455681982188 1404.1176370345565 0 1404.1176370345565 -198.95677953570339 0 0 0 0 -2.2179453261890671 5.3017149327521906 0 5.3017149327521906 -6.6146541363508504 0 0 0 0 -2324.3966796525856 947.11954314712784 0 947.11954314712784 559.35932499117916 0 0 0 0 -681.49313406983492 1388.8812309217828 0 1388.8812309217828 -176.68085950086243 0 0 0 0 -280.34357688514137 569.21857621512208 0 569.21857621512208 -543.78704697894864 0 0 0 0 73.703388892376097 134.83127232205152 0 134.83127232205152 -165.40761462219962 0 0 0 0 159.13847702912608 131.4049899684469 0 131.4049899684469 83.175846856145654 0 0 0 0 18.631606478347294 48.263688292455086 0 48.263688292455086 -63.29561776921409 0 0 0 0 80.881611846401938 314.9574805877055 0 314.9574805877055 94.238841597412829 0 0 0 0 -45.992684922399349 250.39018452746677 0 250.39018452746677 14.266798833705252 0 0 0 0 -31.208518949868903 36.685765846825689 0 36.685765846825689 102.71922091135639 0 0 0 0 100.86824132689799 58.55304513995361 0 58.55304513995361 102.09952062816592 0 0 0 0 -61.333289488960872 2.0101664714602521 0 2.0101664714602521 54.947739118375466 0 0 0 0 165.51246289706614 15.663112342474051 0 15.663112342474051 -10.41143849195214 0 0 0 0 59.61181555821986 179.70198357813661 0 179.70198357813661 207.62405818427214 0 0 0 0 7.9756605331482291 81.265560063892636 0 81.265560063892636 65.433848752356539 0 0 0 0 35.080147605558565 58.514747864189047 0 58.514747864189047 -105.83962256429686 0 0 0 0 -772.41586394947808 561.81505333264067 0 561.81505333264067 16.80194286358892 0 0 0 0 -7.9451891891949344 126.03847935491649 0 126.03847935491649 166.16041315953771 0 0 0 0 -91.239276689564576 1065.6461911697115 0 1065.6461911697115 -135.01409616699812 0 0 0 0 9.1229086860433029 49.319370496930333 0 49.319370496930333 -110.87715717341257 0 0 0 0 -135.96914420507528 46.613489016970561 0 46.613489016970561 -106.19914884500031 0 0 0 0 -138.14392407458217 199.3011869525144 0 199.3011869525144 -102.71626753464807 0 0 0 0 23.238122311267944 89.545663368755413 0 89.545663368755413 -143.23269693210023 0 0 0 0 23.881503730674012 80.958057296284096 0 80.958057296284096 -53.073965502349893 0 0 0 0 7.6176397086040595 58.083026236961246 0 58.083026236961246 -61.712715475144137 0 0 0 0 117.80418283735798 91.185520599214215 0 91.185520599214215 -794.56136851260089 0 0 0 0 -24.913802706432762 113.64905310038012 0 113.64905310038012 -74.606600008279202 0 0 0 0 -613.54554555098002 419.41397464445618 0 419.41397464445618 -95.937387309750193 0 0 0 0 17.450064338107893 17.6938253471005 0 17.6938253471005 -11.040274690052684 0 0 0 0 -908.02243285915756 1147.6778746156342 0 1147.6778746156342 -562.37644606328831 0 0 0 0 -1027.3974049565659 1216.9527303927971 0 1216.9527303927971 23.938349537522299 0 0 0 0 -4.7388387052487815 1056.2794359380205 0 1056.2794359380205 -341.88618851840147 0 0 0 0 -351.05620843538782 446.49057903407083 0 446.49057903407083 -1233.0440179732104 0 0 0 0 46.601168340006552 643.77312391561281 0 643.77312391561281 -526.87051419916679 0 0 0 0 -491.86129007968884 1245.8834571317066 0 1245.8834571317066 -1147.8839146958489 0 0 0 0 331.97954355250113 919.65343150557601 0 919.65343150557601 -1223.0579865600939 0 0 0 0 46.52019607717375 1420.5249092442427 0 1420.5249092442427 928.85504494354245 0 0 0 0 -630.86030702837161 210.09179868323554 0 210.09179868323554 137.80069959974935 0 0 0 0 -66.245137028218892 48.461930330719895 0 48.461930330719895 -24.337333640550213 0 0 0 0 27.119001731538447 -122.79641757399077 0 -122.79641757399077 -64.155009006368346 0 0 0 0 513.22865736871609 538.39961016539019 0 538.39961016539019 797.30835644205217 0 0 0 0 -679.11063470562658 1166.8227694343004 0 1166.8227694343004 840.39695203967858 0 0 0 0 197.34714671158872 872.06154358609638 0 872.06154358609638 -341.03029501932906 0 0 0 0 -968.80263689752974 1086.8041725649018 0 1086.8041725649018 -29.503881875512889 0 0 0 0 -816.91589671907423 821.22946839747601 0 821.22946839747601 42.869089673979488 0 0 0 0 -673.69856057110883 596.93796996251331 0 596.93796996251331 -28.76287784694432 0 0 0 0 -755.61359510258626 349.3372097817919 0 349.3372097817919 -12.195378241944127 0 0 0 0 -1572.9100326171756 987.15058744282578 0 987.15058744282578 140.6115247843336 0 0 0 0 -66.829859921459729 59.00965096697945 0 59.00965096697945 -30.056030183271417 0 0 0 0 -858.61272607479623 1003.3195419841504 0 1003.3195419841504 -910.03266132291174 0 0 0 0 -598.08327040274526 785.50725024963685 0 785.50725024963685 19.770701641537016 0 0 0 0 1395.2621918094856 604.78599287390261 0 604.78599287390261 1077.6448966163443 0 0 0 0 -7.0050177896986696 16.93590615596014 0 16.93590615596014 -1.3573294129616897 0 0 0 0 -3011.530797148007 1224.8119557906175 0 1224.8119557906175 980.69830262102187 0 0 0 0 -955.52505339291383 1499.7516084376548 0 1499.7516084376548 389.4264060719288 0 0 0 0 58.692886356184317 27.514002418058226 0 27.514002418058226 -143.46544636134058 0 0 0 0 -1113.4970104093372 1002.2187495779872 0 1002.2187495779872 -77.657154448519577 0 0 0 0 -2.5411427844943475 47.414021298669041 0 47.414021298669041 -65.676634615643593 0 0 0 0 61.602875282424066 38.315880710521014 0 38.315880710521014 -187.6332035625237 0 0 0 0 -343.53994359920034 1044.5780049608875 0 1044.5780049608875 1449.0430883500158 0 0 0 0 13.765557876246675 8.8396406540030057 0 8.8396406540030057 -15.159511123704533 0 0 0 0 -599.81913254142273 1158.9267948374763 0 1158.9267948374763 987.93971071451597 0 0 0 0 -104.80510079579471 521.95287746823305 0 521.95287746823305 297.89108551258687 0 0 0 0 -652.50471110735089 1020.7600272968702 0 1020.7600272968702 276.86476164025953 0 0 0 0 -787.66942556106369 909.1098754604609 0 909.1098754604609 198.32788594762678 0 0 0 0 -851.81327699841495 1426.0913807450233 0 1426.0913807450233 1.0729137891758 0 0 0 0 -1428.7966496227164 1143.4334830696607 0 1143.4334830696607 208.9982123493055 0 0 0 0 -303.42322182169301 448.33832071795041 0 448.33832071795041 1744.2001907294034 0 0 0 0 -8.3719418214759003 9.3779339377609858 0 9.3779339377609858 1.8570382827355445 0 0 0 0 -521.93854182260839 1858.4021486886923 0 1858.4021486886923 -2225.7393020593445 0 0 0 0 -1330.9712955547147 1815.6518723943445 0 1815.6518723943445 -140.16712328493668 0 0 0 0 214.34998126598657 413.86090093635721 0 413.86090093635721 0.46416995668550953 0 0 0 0 48.623728962549649 610.92900676152203 0 610.92900676152203 325.25674618079211 0 0 0 0 143.72957749468333 439.23663499219401 0 439.23663499219401 175.10919712987379 0 0 0 0 -429.13732215423079 276.9511202112044 0 276.9511202112044 -387.85643766444991 0 0 0 0 -18.962635205660717 12.393789552761859 0 12.393789552761859 4.3883717025483406 0 0 0 0 -63.493887352800812 280.49891898182977 0 280.49891898182977 947.96907952761103 0 0 0 0 51.94184998710989 87.675699438448646 0 87.675699438448646 204.85182277507192 0 0 0 0 378.22559123259998 564.6119052664726 0 564.6119052664726 580.59751882936143 0 0 0 0 -101.32915906511698 724.91621587966074 0 724.91621587966074 547.10385118873091 0 0 0 0 -1148.4665239785973 666.66673462795734 0 666.66673462795734 585.67541598184471 0 0 0 0 -33.539743129607814 691.29598491680372 0 691.29598491680372 556.86980977236817 0 0 0 0 -8.3509099730883065 12.133407886171383 0 12.133407886171383 -10.488972837671326 0 0 0 0 210.29662141019435 899.43882542581559 0 899.43882542581559 503.23991741363716 0 0 0 0 497.39738816953468 831.69377634330158 0 831.69377634330158 756.62076358191189 0 0 0 0 267.92082527171806 363.74944073864026 0 363.74944073864026 514.1800935959327 0 0 0 0 743.65816278936109 842.11273055560014 0 842.11273055560014 772.64035151261487 0 0 0 0 244.3644735283815 368.62562578808866 0 368.62562578808866 595.02222894674924 0 0 0 0 368.0952425768628 477.32160053306143 0 477.32160053306143 244.04595193818386 0 0 0 0 -352.96676689089509 525.85861017364368 0 525.85861017364368 736.17021046661284 0 0 0 0 354.28163984928688 415.4430829253688 0 415.4430829253688 535.21110444232181 0 0 0 0 -6.9114731368063644 10.864567619051826 0 10.864567619051826 -10.410171878890822 0 0 0 0 935.99146163196929 898.35423605765391 0 898.35423605765391 294.35521814276581 0 0 0 0 -443.2456471612395 122.68457509855943 0 122.68457509855943 339.1044282844523 0 0 0 0 -1501.7302025299068 320.88379816779343 0 320.88379816779343 351.78204378910232 0 0 0 0 -1.2331094395436395 4.0437534770833423 0 4.0437534770833423 -6.297322705308261 0 0 0 0 1011.7768665002332 611.8538728351632 0 611.8538728351632 0.61314195836894214 0 0 0 0 846.92111777539321 524.08561022429058 0 524.08561022429058 313.62230483836902 0 0 0 0 571.06877446705403 820.12349044641451 0 820.12349044641451 0.17326254049839918 0 0 0 0 106.31227510767349 893.07812970733357 0 893.07812970733357 329.91386570921168 0 0 0 0 -64.644576435654017 824.72674949403154 0 824.72674949403154 407.47687500964093 0 0 0 0 438.07647433540842 662.36143257952062 0 662.36143257952062 174.10416889622866 0 0 0 0 66.011824042732769 936.68557587853866 0 936.68557587853866 0.05741319851949811 0 0 0 0 -272.62782373774098 902.94748951816291 0 902.94748951816291 265.16705321845075 0 0 0 0 -367.0199391758797 1108.4508909757315 0 1108.4508909757315 0.37940064033318777 0 0 0 0 -525.77368746404682 1188.3274269321555 0 1188.3274269321555 191.0264700714024 0 0 0 0 -54.980105054725982 900.30647738619246 0 900.30647738619246 225.00772594480077 0 0 0 0 -514.15083830327785 1031.0783235579729 0 1031.0783235579729 398.61461188043177 0 0 0 0 -2355.5698291773333 527.34388352998212 0 527.34388352998212 231.91501785125001 0 0 0 0 -805.36347228948944 970.88582628675795 0 970.88582628675795 211.47534532389545 0 0 0 0 -927.05341474764646 1231.1836539369106 0 1231.1836539369106 -0.76636082535126182 0 0 0 0 -481.45493277215337 802.76798796192816 0 802.76798796192816 228.49291201824963 0 0 0 0 -659.89424557915117 763.41912359226262 0 763.41912359226262 408.54348188568179 0 0 0 0 -533.40173528566083 1064.8347222314769 0 1064.8347222314769 570.20696636812136 0 0 0 0 -718.10326660447026 1228.2242756362866 0 1228.2242756362866 531.46677597431699 0 0 0 0 -494.88117670417523 1063.1887825930571 0 1063.1887825930571 548.0729266651324 0 0 0 0 408.22065368714175 768.30589426586084 0 768.30589426586084 408.19484586865292 0 0 0 0 -488.60789427162126 1129.4605398395106 0 1129.4605398395106 1049.2036881635431 0 0 0 0 -683.82580968108959 856.52673188572226 0 856.52673188572226 609.90794964592351 0 0 0 0 -744.62772216882877 1180.3158180202299 0 1180.3158180202299 511.66790088329981 0 0 0 0 -492.39802089389923 1081.2458602515908 0 1081.2458602515908 514.13605066132732 0 0 0 0 -617.08850136643377 1221.6247470777416 0 1221.6247470777416 475.38029290171107 0 0 0 0 -420.59626463544555 1108.726854455861 0 1108.726854455861 480.89976497201314 0 0 0 0 -611.10144435160328 1385.2932123622668 0 1385.2932123622668 91.007148781471187 0 0 0 0 -283.84405116361086 939.12228446851077 0 939.12228446851077 203.37122394499602 0 0 0 0 -757.53362088447102 1508.7323461496417 0 1508.7323461496417 -349.58254226029385 0 0 0 0 -1644.3869402215387 1115.8752154448666 0 1115.8752154448666 -243.42261086193139 0 0 0 0 992.36756771505316 402.46075306940475 0 402.46075306940475 52.548388696479378 0 0 0 0 -15.766416405509517 961.44299981831136 0 961.44299981831136 88.500900202401681 0 0 0 0 -138.46090908458609 637.91026321109894 0 637.91026321109894 494.73940388867049 0 0 0 0 -191.32386520271393 571.52802212635288 0 571.52802212635288 458.23982866966981 0 0 0 0 -341.08673313208419 821.75791667858721 0 821.75791667858721 367.93256648696843 0 0 0 0 -499.67023549811347 1003.7700522235245 0 1003.7700522235245 610.69940127922746 0 0 0 0 -397.43707023477691 764.41975472199556 0 764.41975472199556 534.38298540710821 0 0 0 0 -496.82238151943238 730.05034137966868 0 730.05034137966868 730.60501184042369 0 0 0 0 -120.08332204931594 1612.8304353991989 0 1612.8304353991989 1102.6002197540947 0 0 0 0 -462.76375927020308 761.56024614441412 0 761.56024614441412 476.48585883516353 0 0 0 0 -1302.6101306339751 1200.7251652722698 0 1200.7251652722698 641.47207450424321 0 0 0 0 -502.44855220268801 723.18400975453551 0 723.18400975453551 523.90121275567799 0 0 0 0 -704.85141198135534 488.81673240871169 0 488.81673240871169 1455.831037905853 0 0 0 0 -235.16105925274314 739.46492867676716 0 739.46492867676716 402.75034982553188 0 0 0 0 -332.08182209286315 601.34054341589217 0 601.34054341589217 595.88234076826484 0 0 0 0 -350.49631441393285 638.64378174417652 0 638.64378174417652 607.31331537161168 0 0 0 0 -281.1920843801272 501.65066762302013 0 501.65066762302013 845.8849381209584 0 0 0 0 -286.30845978863363 -210.90994207451877 0 -210.90994207451877 1404.4561898263746 0 0 0 0 -144.75618397616381 24.620338621065457 0 24.620338621065457 593.84008385852212 0 0 0 0 15.019673556409543 190.86509666853817 0 190.86509666853817 -23.955992331904781 0 0 0 0 -1981.2779544673542 2854.2613457080033 0 2854.2613457080033 -906.00354831575532 0 0 0 0 -5926.8015880866151 2030.4127497351728 0 2030.4127497351728 -2675.4097863755887 0 0 0 0 -5.0315404380401105 7.3463449716503533 0 7.3463449716503533 11.68403086088 0 0 0 0 -2032.9343211592814 3375.5699730504066 0 3375.5699730504066 -5396.8955991153489 0 0 0 0 -178.3304468003771 310.69724287549616 0 310.69724287549616 -799.2461015330482 0 0 0 0 13.184263937391805 30.011447402460959 0 30.011447402460959 14.908646384212147 0 0 0 0 -2556.2979610454931 937.65685883554397 0 937.65685883554397 532.6223167849239 0 0 0 0 -24.500851849463658 14.777658309679396 0 14.777658309679396 9.7520502350291682 0 0 0 0 -5631.8487308077747 1511.8505201826047 0 1511.8505201826047 1542.7900180334293 0 0 0 0 -110.2252215241997 541.5118158874011 0 541.5118158874011 -1106.6977902560029 0 0 0 0 12.634940250133255 37.209750775631306 0 37.209750775631306 25.722059885292879 0 0 0 0 -2120.809942196458 1287.9038793318032 0 1287.9038793318032 -619.27303954074159 0 0 0 0 -841.86102837070939 223.95881898642983 0 223.95881898642983 -1386.8757952075684 0 0 0 0 1450.2171353697777 3707.6048598308626 0 3707.6048598308626 -3827.4208381452772 0 0 0 0 -773.03848407935584 6657.7683527531335 0 6657.7683527531335 -4754.6446415223763 0 0 0 0 -3672.503985955831 6083.0847752619302 0 6083.0847752619302 -2962.9879276027204 0 0 0 0 -559.23143838652686 3531.8777126087371 0 3531.8777126087371 -2207.9679350607039 0 0 0 0 -1311.364167082058 2157.5909238205131 0 2157.5909238205131 -3445.4241582177347 0 0 0 0 -1422.978370817189 1243.7764034427819 0 1243.7764034427819 -3364.2792892943835 0 0 0 0 -35.196895231609233 300.93806989458972 0 300.93806989458972 -13.138405163917923 0 0 0 0 -15.090254478675547 9.4353248436397053 0 9.4353248436397053 14.257521034068418 0 0 0 0 -121.27818784674673 103.7870593409607 0 103.7870593409607 -9.4676273565855809 0 0 0 0 194.61143477630685 161.71932081572595 0 161.71932081572595 -0.090043030708329752 0 0 0 0 88.739970993701718 56.873887016990921 0 56.873887016990921 -179.43173421272513 0 0 0 0 75.956444562281831 113.56356679317832 0 113.56356679317832 -77.008868471923051 0 0 0 0 226.72039719179156 119.69983540462272 0 119.69983540462272 79.583405451907311 0 0 0 0 15.435261788326898 45.149592599860625 0 45.149592599860625 74.386950404150411 0 0 0 0 -2.5473168085065154 -2.5432258113598039 0 -2.5432258113598039 5.7227097909122904 0 0 0 0 268.93624633584841 445.37791304093844 0 445.37791304093844 349.56441294535762 0 0 0 0 -23.47015714536974 191.37247220874997 0 191.37247220874997 182.14892647427041 0 0 0 0 413.0052975029721 1231.1675690901902 0 1231.1675690901902 724.23458464982104 0 0 0 0 567.81442768635134 873.43652040044253 0 873.43652040044253 1166.7031337209021 0 0 0 0 386.51971754045462 1296.1533924009873 0 1296.1533924009873 657.6236367833917 0 0 0 0 -594.45784731338517 2291.205022568065 0 2291.205022568065 -5846.0739565039767 0 0 0 0 -8.4467850081917746 15.530212426497712 0 15.530212426497712 -1.4476921022816776 0 0 0 0 -249.20556667263736 1040.4484539669938 0 1040.4484539669938 -2779.1996244170005 0 0 0 0 -22.226197584090258 33.427905247892511 0 33.427905247892511 -2.4344443289660562 0 0 0 0 -103.70707595983913 620.26123073392955 0 620.26123073392955 -1580.6998662717306 0 0 0 0 -235.98335106434024 462.06404380802996 0 462.06404380802996 -1128.7850219248212 0 0 0 0 -33.615044073813962 44.239403123555604 0 44.239403123555604 6.6164076327968191 0 0 0 0 -318.87155300100858 578.74916638358263 0 578.74916638358263 -918.37163171693351 0 0 0 0 -63.630973498873573 93.472595312443445 0 93.472595312443445 15.352139062724916 0 0 0 0 13.12084550391458 26.940766723924725 0 26.940766723924725 1.7786611963970245 0 0 0 0 -36.898201329591757 23.671422938408796 0 23.671422938408796 150.30011011348688 0 0 0 0 1628.7073310428641 683.44176906326902 0 683.44176906326902 -2.0148961049271747 0 0 0 0 5.3618632881999773 8.1850804390991243 0 8.1850804390991243 9.940715992108494 0 0 0 0 -2396.9979692066991 1238.3999889436091 0 1238.3999889436091 987.75576450527296 0 0 0 0 -1152.1330215067173 753.24695679967408 0 753.24695679967408 -1318.7105797734039 0 0 0 0 -959.17084496283496 1913.87912040847 0 1913.87912040847 1193.1193983974845 0 0 0 0 -1563.7786077156343 1028.7812581558392 0 1028.7812581558392 880.38331680110423 0 0 0 0 489.33717091512335 1568.1644525260563 0 1568.1644525260563 313.48611565124884 0 0 0 0 192.81400310594108 433.60545121347241 0 433.60545121347241 607.0523594795668 0 0 0 0 312.77902049482327 1216.2589356784301 0 1216.2589356784301 1214.5037608862331 0 0 0 0 1025.5630213587433 1456.5032825533926 0 1456.5032825533926 783.22650396378594 0 0 0 0 214.90043663588312 864.24631773639885 0 864.24631773639885 607.15865772496909 0 0 0 0 39.811730146975606 1070.9817042606082 0 1070.9817042606082 367.44408863248827 0 0 0 0 433.64165530128162 489.65807791756379 0 489.65807791756379 382.29342857780284 0 0 0 0 425.87997847246095 428.68029603800551 0 428.68029603800551 -63.0030458321271 0 0 0 0 -637.50452023265643 870.13625233861239 0 870.13625233861239 1414.7092265283864 0 0 0 0 -7.2218732194536734 9.1820820363014946 0 9.1820820363014946 -3.1979429692496524 0 0 0 0 -2646.8674470040332 1020.2994748964193 0 1020.2994748964193 766.54747369562392 0 0 0 0 -0.98363534574493805 3.130073101332524 0 3.130073101332524 -0.91971927420229349 0 0 0 0 1770.0351027487159 1650.2401485781884 0 1650.2401485781884 403.66064803209156 0 0 0 0 -671.073716498473 1088.8639644010636 0 1088.8639644010636 86.850525240995921 0 0 0 0 -2.3615050760692018 7.129188848039707 0 7.129188848039707 -2.3274304351014052 0 0 0 0 54.820874633443964 952.94934863287199 0 952.94934863287199 -383.94362230076513 0 0 0 0 -371.65237082198655 518.02534169580031 0 518.02534169580031 124.15243096467748 0 0 0 0 -924.47928448428956 1363.7253426541356 0 1363.7253426541356 -51.822829135053325 0 0 0 0 -71.669408645729163 804.89652705824119 0 804.89652705824119 59.418345005818992 0 0 0 0 71.963814156773878 956.19607084973541 0 956.19607084973541 0.7674622881296691 0 0 0 0 -0.92003043565433273 1.6081339720938921 0 1.6081339720938921 -2.2056224461994134 0 0 0 0 1517.9933114103051 482.52290359726976 0 482.52290359726976 -168.45901299227262 0 0 0 0 242.83041805288883 550.9460430700492 0 550.9460430700492 -123.98706093950022 0 0 0 0 6.5158178074698299 1090.4001546120271 0 1090.4001546120271 -1315.9414401248505 0 0 0 0 -330.91941100305598 994.27344640983938 0 994.27344640983938 0.084168768851668574 0 0 0 0 -179.47024818781244 1020.0570833062884 0 1020.0570833062884 -240.55340506273205 0 0 0 0 -542.6016509267929 401.0971153215105 0 401.0971153215105 72.361807740249787 0 0 0 0 -33.547087980065044 830.57667811898864 0 830.57667811898864 -0.60755101987160742 0 0 0 0 153.64032685974689 650.04820034709701 0 650.04820034709701 22.865270601510929 0 0 0 0 -1064.3419328140899 871.65375409795524 0 871.65375409795524 0.19445608531532343 0 0 0 0 -1540.3415247309549 534.57811575858432 0 534.57811575858432 415.33212055456534 0 0 0 0 -2076.750880325736 1106.505543636591 0 1106.505543636591 0.66210025365580805 0 0 0 0 -2754.2348452846441 1388.5925145508663 0 1388.5925145508663 465.95231552655878 0 0 0 0 -2107.1566790655197 1633.8724829024541 0 1633.8724829024541 -942.5656053743005 0 0 0 0 -4779.1612024475671 2073.3621912539602 0 2073.3621912539602 -551.58683752109573 0 0 0 0 -903.83118456824786 1660.6460006836132 0 1660.6460006836132 -1759.1174299772829 0 0 0 0 -10.644685512057515 9.300903791218218 0 9.300903791218218 -3.5454038921708673 0 0 0 0 47.228472182292535 402.64946123614209 0 402.64946123614209 789.87460116707371 0 0 0 0 292.65000196430674 304.64094834071147 0 304.64094834071147 -758.34313273083535 0 0 0 0 -19.341705186309603 15.834061579915101 0 15.834061579915101 -4.8064910059756585 0 0 0 0 -155.63591347333909 799.96318871188123 0 799.96318871188123 894.54495875480643 0 0 0 0 -1705.6668708708298 -144.83335738097958 0 -144.83335738097958 1495.4336836267321 0 0 0 0 -934.02478439504193 189.95344125800329 0 189.95344125800329 -190.65770112117752 0 0 0 0 -1892.171887400782 661.71719773689256 0 661.71719773689256 -2.1982962253096048 0 0 0 0 0.411159024963343 2.6054829016621994 0 2.6054829016621994 0.11691742398647875 0 0 0 0 -1190.2644632895972 997.51733202304604 0 997.51733202304604 -257.82199924399902 0 0 0 0 -1460.8751769543705 973.79416744868649 0 973.79416744868649 -0.38936439977260306 0 0 0 0 -726.63987473467569 1101.1267792252911 0 1101.1267792252911 -370.15268987658783 0 0 0 0 -1940.9181361135579 1521.8757056557661 0 1521.8757056557661 -80.140145080498769 0 0 0 0 -1228.170273875458 1402.0731753850587 0 1402.0731753850587 -96.102939525997499 0 0 0 0 -1767.4266830182642 1161.7886127744423 0 1161.7886127744423 -0.19574376523544476 0 0 0 0 -1909.1563994689604 1287.9919261174073 0 1287.9919261174073 106.68422978179296 0 0 0 0 -2085.4001007880706 1251.9913678996745 0 1251.9913678996745 99.333249660521687 0 0 0 0 1499.2652897621801 128.84986625870806 0 128.84986625870806 -522.16427380556706 0 0 0 0 0.16575457104351798 4.085563173612563 0 4.085563173612563 -9.6251527831000203 0 0 0 0 746.75680500314411 863.79778201110457 0 863.79778201110457 -280.9779698283819 0 0 0 0 -682.54140778244982 725.27880501831532 0 725.27880501831532 166.31563081711647 0 0 0 0 -652.645404059469 1626.9836604065058 0 1626.9836604065058 -604.05846581629885 0 0 0 0 -749.83525020789102 820.22884506110586 0 820.22884506110586 124.03596475350787 0 0 0 0 -396.92890131321474 1001.6682264254923 0 1001.6682264254923 126.75737407815177 0 0 0 0 -677.45206997975038 759.54456158535322 0 759.54456158535322 317.26402295992011 0 0 0 0 -711.00455490499735 822.96887374218204 0 822.96887374218204 198.76397979458125 0 0 0 0 -406.41573506346685 1236.2584910156729 0 1236.2584910156729 392.76331332791597 0 0 0 0 4392.2714945152329 -330.56061680425773 0 -330.56061680425773 -1964.754776706628 0 0 0 0 -878.19708472030652 -446.49056683048184 0 -446.49056683048184 1802.3112776857452 0 0 0 0 1.9229597075836509 3.6031585792872107 0 3.6031585792872107 4.711447107221602 0 0 0 0 -20.116091344796587 954.27145168112474 0 954.27145168112474 80.546295735504827 0 0 0 0 943.87263849361625 1580.5123880961619 0 1580.5123880961619 1765.7776553138392 0 0 0 0 1267.7912996573996 310.97492321131904 0 310.97492321131904 -132.00057187199127 0 0 0 0 -402.33643008730087 941.19341923192314 0 941.19341923192314 167.44100930661079 0 0 0 0 683.1275970337374 626.43641358189052 0 626.43641358189052 -282.38403735726024 0 0 0 0 1.5959485115092686 8.9414473773060337 0 8.9414473773060337 2.9877928211111566 0 0 0 0 0.83681668308931201 15.793743388445705 0 15.793743388445705 3.2915909007207347 0 0 0 0 3357.2110914764853 2193.0917628571915 0 2193.0917628571915 -14.198886024300009 0 0 0 0 1000.0460606337947 487.76932920918625 0 487.76932920918625 123.81373348389752 0 0 0 0 1030.0400375437584 33.550090966986318 0 33.550090966986318 -40.369746808137279 0 0 0 0 1172.5886881985571 379.46089993426722 0 379.46089993426722 87.354990218242165 0 0 0 0 2502.0506081531757 -223.13618437469268 0 -223.13618437469268 -424.91034953779308 0 0 0 0 2249.5650759356977 1186.0170861538936 0 1186.0170861538936 -1634.4699875788647 0 0 0 0 4480.939373327752 154.29244722207295 0 154.29244722207295 463.64746535208542 0 0 0 0 2.9883580259935201 4.7821340556449172 0 4.7821340556449172 2.6961115438297156 0 0 0 0 5.566609212042394 9.3009807574209447 0 9.3009807574209447 12.593643017152203 0 0 0 0 -1462.2171299797083 1117.6565224934311 0 1117.6565224934311 409.36014525109749 0 0 0 0 -1330.711289248713 538.752742836381 0 538.752742836381 255.31573692866368 0 0 0 0 -1119.8157839616324 787.36702198686544 0 787.36702198686544 -198.99431861865014 0 0 0 0 -569.48043763890382 287.24427319763345 0 287.24427319763345 -313.32449156779694 0 0 0 0 -34.046717368923737 747.92509629456708 0 747.92509629456708 -129.03871751599945 0 0 0 0 34.495311102522237 53.334437392217296 0 53.334437392217296 263.15664767826092 0 0 0 0 250.36439568545393 268.25372898748174 0 268.25372898748174 -338.94940265241894 0 0 0 0 -346.14435013765615 380.94461498572491 0 380.94461498572491 -9.3218437781615648 0 0 0 0 -28.662237303639508 59.9209835242888 0 59.9209835242888 -61.163041642572466 0 0 0 0 -281.6493395067082 548.62309733104485 0 548.62309733104485 -147.08362445770763 0 0 0 0 -288.71032708610642 521.77364594936444 0 521.77364594936444 -243.51143345862511 0 0 0 0 2.955653610370554 48.002849496393686 0 48.002849496393686 39.273626276108416 0 0 0 0 -788.98762683620225 650.07168899876706 0 650.07168899876706 -129.29605593971792 0 0 0 0 -30.338543859674388 60.578663612678639 0 60.578663612678639 -56.947250838202592 0 0 0 0 -295.35983209214919 402.28973124945333 0 402.28973124945333 -350.18856752460124 0 0 0 0 88.070703151395719 301.17083503735921 0 301.17083503735921 224.14347995573189 0 0 0 0 15.555535002021344 24.238325918480797 0 24.238325918480797 34.473890070361563 0 0 0 0 812.27089602124761 406.60749288409716 0 406.60749288409716 -2.172951812564861 0 0 0 0 72.786741313302628 -191.82401492292411 0 -191.82401492292411 92.571361348178471 0 0 0 0 -263.22352171849343 181.39824690049136 0 181.39824690049136 101.97388131561456 0 0 0 0 721.94218001213449 188.30742484760412 0 188.30742484760412 -126.1244222742971 0 0 0 0 696.1798225491757 204.43359736713683 0 204.43359736713683 764.3914110113983 0 0 0 0 1711.6488031137196 469.03861526028049 0 469.03861526028049 -175.3652289173333 0 0 0 0 -2.1619953218415624 17.700407556349262 0 17.700407556349262 -5.4035770033954122 0 0 0 0 800.08694934462892 75.864773121303642 0 75.864773121303642 137.45166496891761 0 0 0 0 -1611.2456404673744 1123.5872074492872 0 1123.5872074492872 383.18948300613556 0 0 0 0 -2234.891703041586 1938.4656660940091 0 1938.4656660940091 -233.20260054390019 0 0 0 0 27.470434896655547 964.99163597874031 0 964.99163597874031 -536.84542049089214 0 0 0 0 -1204.8349613734717 1583.6562429624028 0 1583.6562429624028 -574.52367006721761 0 0 0 0 -1411.3049335963328 1202.0393069635247 0 1202.0393069635247 -575.42648438186734 0 0 0 0 -3439.4081453386548 1334.4968363890075 0 1334.4968363890075 -316.14338535837305 0 0 0 0 -3323.8587033802414 1888.6744746455224 0 1888.6744746455224 -489.68516088220349 0 0 0 0 -3554.7200744262373 1719.5096489886928 0 1719.5096489886928 -299.69136686214188 0 0 0 0 -2938.1007480258395 2598.7663504757802 0 2598.7663504757802 -1982.6554938285844 0 0 0 0 0.90732462714179496 21.066978663662475 0 21.066978663662475 -29.627393702101926 0 0 0 0 -2454.0160685997653 1650.6724000827526 0 1650.6724000827526 -1081.2302167891758 0 0 0 0 -2945.6374845581104 960.96649647720915 0 960.96649647720915 -1320.1803507581353 0 0 0 0 -3867.6039704561917 1813.758265663113 0 1813.758265663113 -277.05730291415239 0 0 0 0 -2714.1983196623837 2765.0164550266309 0 2765.0164550266309 -1174.7657350985392 0 0 0 0 -1766.1317300732535 2089.370960993474 0 2089.370960993474 -743.89434468188119 0 0 0 0 -4722.2327601813749 358.23266748609603 0 358.23266748609603 303.41768418505671 0 0 0 0 2.8868234800997392 11.518110261931184 0 11.518110261931184 -8.9203459648508669 0 0 0 0 -7.8121097365395649 32.743941715160062 0 32.743941715160062 35.219860713878006 0 0 0 0 -1388.1943249091191 473.29766984000162 0 473.29766984000162 -84.781290919403546 0 0 0 0 -345.97244188926356 386.16393795234035 0 386.16393795234035 -115.16811465476349 0 0 0 0 -605.19558243392021 416.5666838355246 0 416.5666838355246 -98.975660088493896 0 0 0 0 -587.67325986012111 397.50900812131295 0 397.50900812131295 -359.10353677545208 0 0 0 0 4.0211607689590503 14.921351528820679 0 14.921351528820679 27.227427426649683 0 0 0 0 -885.76612323003917 519.64174541555985 0 519.64174541555985 53.12069728973438 0 0 0 0 -1622.1156412011269 1836.8529121892498 0 1836.8529121892498 -783.4959138231934 0 0 0 0 -2244.4476083954578 1593.6136086720253 0 1593.6136086720253 -371.81002558808541 0 0 0 0 -1948.1429944766132 562.0960023196094 0 562.0960023196094 106.25266978531727 0 0 0 0 -1221.9818841779052 990.98016424174421 0 990.98016424174421 -297.8466517177003 0 0 0 0 -1407.3122404435489 1635.6111345396057 0 1635.6111345396057 -822.63370187883265 0 0 0 0 -1662.6947299389346 1952.0762858421003 0 1952.0762858421003 -1065.4232287326886 0 0 0 0 -1775.3818509073224 2169.0077305715549 0 2169.0077305715549 -967.43910890328698 0 0 0 0 -880.16574385768718 1451.2631993533359 0 1451.2631993533359 3776.699135442861 0 0 0 0 -1198.6737100027112 2744.4944106886251 0 2744.4944106886251 -421.18627340026796 0 0 0 0 -1756.8886525588973 2280.9968261685572 0 2280.9968261685572 -1597.1892967189779 0 0 0 0 -918.36086949545279 1082.1962062724342 0 1082.1962062724342 -1678.1157561346117 0 0 0 0 -546.48923399616706 834.57894611295342 0 834.57894611295342 -982.70247198967263 0 0 0 0 -1378.5123151445523 1550.3956499491615 0 1550.3956499491615 -1083.4496157961839 0 0 0 0 -1049.9831560145885 1203.6993755550138 0 1203.6993755550138 -809.0042754978931 0 0 0 0 -1396.227575071855 1215.879053591816 0 1215.879053591816 -1057.9285234051349 0 0 0 0 -710.24858189646875 1170.5141334654036 0 1170.5141334654036 -1243.0058277230419 0 0 0 0 -776.83496102516438 559.01374679592845 0 559.01374679592845 -807.54982157543498 0 0 0 0 2.7244554876095108 4.3226302610654557 0 4.3226302610654557 1.5331208041380933 0 0 0 0 -139.40939907413167 239.31960111080843 0 239.31960111080843 -991.90215892290871 0 0 0 0 -44.443192608975551 377.35885293385218 0 377.35885293385218 -1034.8527427925401 0 0 0 0 -106.64287832608352 272.76148984289466 0 272.76148984289466 -1190.0000180664356 0 0 0 0 -14.845220788476581 1322.3633460247802 0 1322.3633460247802 -1774.0806657661451 0 0 0 0 -1.1805411792761262 2.3564760509839573 0 2.3564760509839573 0.53129061033502012 0 0 0 0 -293.0167462349973 648.82655335108211 0 648.82655335108211 -1052.1246800059453 0 0 0 0 -901.63670844360445 -108.81293371888023 0 -108.81293371888023 -2532.8718027559371 0 0 0 0 -610.21500364219628 494.04975896333053 0 494.04975896333053 -1290.9225963599401 0 0 0 0 -447.66207652331991 175.29059490000509 0 175.29059490000509 -1225.7942075208994 0 0 0 0 -204.30978125616559 396.53600223189278 0 396.53600223189278 -1161.734190492949 0 0 0 0 -156.08397885803711 387.25521031804692 0 387.25521031804692 -594.69800937961554 0 0 0 0 -317.18725599286654 56.791416604741244 0 56.791416604741244 -1195.0206409088514 0 0 0 0 -769.90991050002594 -223.01175024127588 0 -223.01175024127588 -1364.3655148490798 0 0 0 0 -547.83914859551578 230.28748906970941 0 230.28748906970941 -447.69068728914135 0 0 0 0 -1370.9661131497105 338.58855781542661 0 338.58855781542661 -414.6596022064623 0 0 0 0 -496.76050354057065 128.48302691886784 0 128.48302691886784 -500.33505487129878 0 0 0 0 -986.49952072284214 220.86177781420702 0 220.86177781420702 -52.303648641653126 0 0 0 0 -987.54912485396153 262.0617093470064 0 262.0617093470064 289.57055376452627 0 0 0 0 6.460766315040205 10.558758479757785 0 10.558758479757785 10.281579794276126 0 0 0 0 -35.232115396405334 118.88826855397201 0 118.88826855397201 -201.4290814470296 0 0 0 0 -556.59335239040638 107.31848209508462 0 107.31848209508462 -110.51446305168793 0 0 0 0 -811.34860139655484 432.66420395601017 0 432.66420395601017 -519.52309157871059 0 0 0 0 -1237.3979914626188 932.36401735205436 0 932.36401735205436 -259.45022346050246 0 0 0 0 -1300.8163028551089 942.05882702227973 0 942.05882702227973 -255.695374036266 0 0 0 0 -1166.0147424118218 972.30756909895717 0 972.30756909895717 -303.00139180920087 0 0 0 0 -853.55497821507606 276.73952829903283 0 276.73952829903283 -31.499467534158612 0 0 0 0 -1290.4834332089151 344.60165630446863 0 344.60165630446863 29.659178024972789 0 0 0 0 3.3902459311641433 2.0959968846586676 0 2.0959968846586676 -0.9047649111979581 0 0 0 0 -1131.7322404532229 434.92519820362213 0 434.92519820362213 48.647377190252882 0 0 0 0 -1481.4320139494112 630.36522686498938 0 630.36522686498938 -172.74339073873125 0 0 0 0 -957.4972714019018 103.17237360571744 0 103.17237360571744 21.491607047384605 0 0 0 0 -7.539460840158192 0.19183590511468651 0 0.19183590511468651 7.043928071559435 0 0 0 0 -782.28647651060737 561.42910176092118 0 561.42910176092118 113.68888847064227 0 0 0 0 -980.26079979188262 289.63533342386654 0 289.63533342386654 -169.10631567542441 0 0 0 0 83.879858948617766 782.20723119143804 0 782.20723119143804 -129.17025582073256 0 0 0 0 -687.93964636169449 377.44369869639922 0 377.44369869639922 -21.233712601999287 0 0 0 0 -702.64481717146464 472.05658532220696 0 472.05658532220696 1138.9283017738489 0 0 0 0 -50.102993461551563 57.038646560812879 0 57.038646560812879 -31.661680625474389 0 0 0 0 -483.966734567618 474.04076141364931 0 474.04076141364931 1513.8910237766395 0 0 0 0 -17.959548126586313 18.317153878881811 0 18.317153878881811 3.8431511779179459 0 0 0 0 204.87032392644869 -641.10955118149286 0 -641.10955118149286 693.9422358290758 0 0 0 0 -341.77353339038746 786.7717398294626 0 786.7717398294626 682.91292486513555 0 0 0 0 -208.73704561916065 1570.4456340651286 0 1570.4456340651286 -3863.4977427695412 0 0 0 0 690.62205768719468 1034.2650900722801 0 1034.2650900722801 -1246.6847776974028 0 0 0 0 -619.40765211913549 504.23997118489933 0 504.23997118489933 -772.04101581551367 0 0 0 0 -545.59011239351184 -40.390582927007927 0 -40.390582927007927 -264.83735177505878 0 0 0 0 466.58301609466395 -453.4790335882717 0 -453.4790335882717 30.816063201345969 0 0 0 0 -714.61876707919509 -145.2430626055866 0 -145.2430626055866 -73.458771500372677 0 0 0 0 2844.7901943126708 959.67985764998593 0 959.67985764998593 -804.44119850672723 0 0 0 0 -985.05309062382184 2760.3021397018165 0 2760.3021397018165 -1276.7071161353379 0 0 0 0 -50.023284698261705 235.43079915252747 0 235.43079915252747 143.47045808612893 0 0 0 0 -77.598364038029104 -79.525990232155891 0 -79.525990232155891 -48.98912638505135 0 0 0 0 -919.5514901972856 -1584.8376170107804 0 -1584.8376170107804 381.30726607232646 0 0 0 0 -2147.4887920810797 2933.1631896305626 0 2933.1631896305626 -1671.6396780465438 0 0 0 0 -16.47695791085107 20.265309492043855 0 20.265309492043855 -23.218946330251242 0 0 0 0 444.86693132981964 3033.8740090205392 0 3033.8740090205392 -1616.7185578251374 0 0 0 0 1687.505867241438 2272.6195726331498 0 2272.6195726331498 -4579.6412430382334 0 0 0 0 483.92430005998176 3739.4900486258557 0 3739.4900486258557 -3584.1187389875122 0 0 0 0 4048.4492944061858 1146.733952010778 0 1146.733952010778 -2154.9849309605488 0 0 0 0 -1929.7674586093199 609.14590466639493 0 609.14590466639493 -94.943512736761477 0 0 0 0 -71.966638561505533 -950.69427439641731 0 -950.69427439641731 -2465.6184375783196 0 0 0 0 856.14585751634877 1222.2974125958281 0 1222.2974125958281 2071.493459414356 0 0 0 0 1207.0241100829808 -749.94338369533943 0 -749.94338369533943 459.60693436487054 0 0 0 0 -3532.2351037068402 1453.1641157340637 0 1453.1641157340637 -319.11816732565057 0 0 0 0 4062.8204302327249 3348.8419081554748 0 3348.8419081554748 -4014.9583247017581 0 0 0 0 -2.5767847456456927 10.449770197346695 0 10.449770197346695 -25.258222906614833 0 0 0 0 -1575.810229498984 569.66169135739619 0 569.66169135739619 49.299056537478464 0 0 0 0 250.77967487844035 85.370112249926024 0 85.370112249926024 -249.29715928938822 0 0 0 0 -194.15287435348 -257.34855399485969 0 -257.34855399485969 -191.09142640442587 0 0 0 0 198.51204708988735 -53.045076858237735 0 -53.045076858237735 -615.2562124664255 0 0 0 0 -49.081250856594124 -28.08373800827394 0 -28.08373800827394 1148.2561147748493 0 0 0 0 1210.8058437951331 1433.3344522121624 0 1433.3344522121624 1411.5313319426496 0 0 0 0 848.29259146595359 1309.4936879878805 0 1309.4936879878805 1523.655588571477 0 0 0 0 -5.8519511654919825 31.260606773821934 0 31.260606773821934 -42.186361317634578 0 0 0 0 -8.3335853834156488 4.7032704309321502 0 4.7032704309321502 3.0603136149175043 0 0 0 0 2039.9123759807917 979.03104874018754 0 979.03104874018754 337.89978237697505 0 0 0 0 -773.75637474109499 790.29715850316279 0 790.29715850316279 -920.49505076513742 0 0 0 0 -420.55134380889103 560.8206002368679 0 560.8206002368679 -771.48808350595937 0 0 0 0 -900.10362156257361 1788.4328209644009 0 1788.4328209644009 -1354.4137164954518 0 0 0 0 -1077.3065755497655 1759.1934357832579 0 1759.1934357832579 -1134.0723741761758 0 0 0 0 -1274.9448005156519 1757.6144978292286 0 1757.6144978292286 -1127.6800233920658 0 0 0 0 -24.23467486795067 7.6700695512794255 0 7.6700695512794255 -5.049572265067809 0 0 0 0 -328.50960725789992 890.93658235536714 0 890.93658235536714 -1892.3992749540485 0 0 0 0 -1469.7801047470732 1848.5600877135003 0 1848.5600877135003 -1131.1450165782153 0 0 0 0 -2757.1664381177065 624.91754067677539 0 624.91754067677539 -849.81658572615561 0 0 0 0 -2596.8264634780262 222.62197385204854 0 222.62197385204854 44.512037748412695 0 0 0 0 -1686.139025846931 -879.98691809223965 0 -879.98691809223965 -440.29865318957309 0 0 0 0 -270.43212247820065 -350.22425841746735 0 -350.22425841746735 -410.86500709570828 0 0 0 0 -756.4224895167572 -539.58334485943487 0 -539.58334485943487 -250.3279906566313 0 0 0 0 -1320.1979653847734 -164.30104374888469 0 -164.30104374888469 132.55471745610703 0 0 0 0 -1067.9970527841808 58.40309403957508 0 58.40309403957508 -73.109821386402473 0 0 0 0 555.5381263885356 455.64514881093055 0 455.64514881093055 396.27104764693649 0 0 0 0 43.653399428099313 10.432381847698906 0 10.432381847698906 -28.784982821844778 0 0 0 0 255.56269441534096 -32.37555099488236 0 -32.37555099488236 215.41059141507139 0 0 0 0 1245.1734893030625 926.99072125564999 0 926.99072125564999 389.25668823893648 0 0 0 0 1051.4938162698381 384.55259275684512 0 384.55259275684512 78.920907879306469 0 0 0 0 95.077872286070487 55.52987044362817 0 55.52987044362817 -29.654748143977486 0 0 0 0 -26.851794474709667 43.254073190060566 0 43.254073190060566 -7.9566947860690789 0 0 0 0 151.45111606163201 31.804730705872032 0 31.804730705872032 -65.451903483597334 0 0 0 0 26.230530794673541 43.34850650766748 0 43.34850650766748 130.22453582849266 0 0 0 0 -45.586637398662688 40.805497685783166 0 40.805497685783166 -14.69366997396321 0 0 0 0 -297.19244557627735 43.803857493199757 0 43.803857493199757 6.8676814059581375 0 0 0 0 -52.506548936138643 -17.596789568880922 0 -17.596789568880922 138.56612753245281 0 0 0 0 -157.87945206124959 -24.619022845919972 0 -24.619022845919972 -284.27352245274233 0 0 0 0 -602.6001846095786 -177.55301443193821 0 -177.55301443193821 -56.945449053397169 0 0 0 0 -482.69042910228745 -139.52896730764769 0 -139.52896730764769 -47.003297783769085 0 0 0 0 236.56196262632875 -161.08811584062278 0 -161.08811584062278 -58.067657152394531 0 0 0 0 53.030535764366505 2242.6631933752069 0 2242.6631933752069 -3103.0461016723712 0 0 0 0 17.721265264157594 4.8031428305016846 0 4.8031428305016846 2.8461033740981065 0 0 0 0 365.16486143296061 80.208986059282324 0 80.208986059282324 -85.754000126900792 0 0 0 0 22.833499313779289 113.27489882213693 0 113.27489882213693 -50.667124644905471 0 0 0 0 -181.0134605360754 -4.582359627209371 0 -4.582359627209371 -156.631746963365 0 0 0 0 315.42456992142979 421.22838280095311 0 421.22838280095311 -399.60138009896036 0 0 0 0 -628.2646377206147 13.785469977301545 0 13.785469977301545 5.3824045780056622 0 0 0 0 -433.58609463795347 69.074369907175424 0 69.074369907175424 1.2288360647216905 0 0 0 0 -634.82859245201757 -79.265494536331062 0 -79.265494536331062 102.10281916859094 0 0 0 0 -664.48249523539016 29.332040502573363 0 29.332040502573363 62.695804243456223 0 0 0 0 -759.5655156889419 -37.961790685476444 0 -37.961790685476444 150.09919820792857 0 0 0 0 -740.01879036867058 59.105981301530846 0 59.105981301530846 82.899122017901391 0 0 0 0 -773.16907375772462 64.268936429551104 0 64.268936429551104 85.138027429100475 0 0 0 0 18.876919117219149 122.77806995678756 0 122.77806995678756 -18.779574318478126 0 0 0 0 429.77324919964212 247.7558341961485 0 247.7558341961485 -137.54323583230143 0 0 0 0 113.61536049626011 275.70908901069197 0 275.70908901069197 38.887741392667522 0 0 0 0 -982.68750239119572 -68.794806465346483 0 -68.794806465346483 225.75849264743738 0 0 0 0 -758.39726661318832 281.72366029486147 0 281.72366029486147 223.29957669976284 0 0 0 0 -807.40439251585303 -107.97166235683835 0 -107.97166235683835 138.07483679812867 0 0 0 0 -774.24830881384105 -185.50226141730673 0 -185.50226141730673 23.491404345011688 0 0 0 0 -815.21589918071777 -103.54989937581558 0 -103.54989937581558 174.31632436037762 0 0 0 0 -783.16474244692449 -51.090389972785488 0 -51.090389972785488 213.7855324735865 0 0 0 0 -769.19366856817851 -72.898505453238613 0 -72.898505453238613 105.36098788893287 0 0 0 0 -761.51545565293418 -50.408671581943054 0 -50.408671581943054 154.58729806938936 0 0 0 0 -776.22197793433861 16.510155077034142 0 16.510155077034142 114.63159270414326 0 0 0 0 -778.47168813814096 42.225185157381929 0 42.225185157381929 300.60775294269843 0 0 0 0 -693.65991013003713 101.18978779866302 0 101.18978779866302 315.21320366334112 0 0 0 0 -666.34705317137878 73.934801422121382 0 73.934801422121382 334.17044905471266 0 0 0 0 -513.21045589752794 352.84732979554974 0 352.84732979554974 404.15427689469652 0 0 0 0 -622.94794422889208 184.86881071930111 0 184.86881071930111 279.6492574968579 0 0 0 0 -545.52773251081908 541.7242715711418 0 541.7242715711418 423.54870280055911 0 0 0 0 -755.00617532281467 469.38787375953689 0 469.38787375953689 167.68189293044998 0 0 0 0 -229.45473396812031 489.45023910645978 0 489.45023910645978 146.319814211216 0 0 0 0 -276.23245932641248 479.11032572053955 0 479.11032572053955 422.4076597057865 0 0 0 0 34.928311484216238 858.76353972529978 0 858.76353972529978 550.27857247166685 0 0 0 0 -122.48973044252398 469.89961940777721 0 469.89961940777721 297.23625822353642 0 0 0 0 441.57701466854724 1186.3811998500896 0 1186.3811998500896 601.76232386013362 0 0 0 0 259.15267598356968 842.51633983113425 0 842.51633983113425 178.51892996163224 0 0 0 0 -1.7394777294171853 9.1922263560837223 0 9.1922263560837223 -10.792921838416135 0 0 0 0 1893.8972153371815 -339.71686034690356 0 -339.71686034690356 545.6425277866656 0 0 0 0 337.95281037907353 1295.7694836731389 0 1295.7694836731389 1208.1491854147403 0 0 0 0 837.18157860629435 1146.6217751702352 0 1146.6217751702352 1553.3517549784738 0 0 0 0 1200.403521057362 1623.8880786445079 0 1623.8880786445079 727.93250932147203 0 0 0 0 1270.940161406691 728.19480071573344 0 728.19480071573344 355.54724377306411 0 0 0 0 482.40828628993404 426.62165514280787 0 426.62165514280787 1185.2668515614723 0 0 0 0 -53.995754388049136 769.81915395894612 0 769.81915395894612 460.98927138728322 0 0 0 0 91.538606735315625 542.96647838229546 0 542.96647838229546 813.36326811985782 0 0 0 0 365.68576737890726 735.73732756816025 0 735.73732756816025 393.11710791726364 0 0 0 0 97.347506325064387 603.9935266370594 0 603.9935266370594 547.30457504223159 0 0 0 0 62.485629178984709 370.72347638884094 0 370.72347638884094 91.017575204503373 0 0 0 0 137.75188235493715 298.89597626349314 0 298.89597626349314 -720.44780743660522 0 0 0 0 -245.90590942232757 585.99478768375411 0 585.99478768375411 -58.876469636772526 0 0 0 0 100.66691346472635 488.1523091783456 0 488.1523091783456 -293.04071269226552 0 0 0 0 721.0682511170844 487.67481450326159 0 487.67481450326159 -408.73367608038825 0 0 0 0 341.34690025833879 674.26435991706967 0 674.26435991706967 524.97096572110604 0 0 0 0 502.31699292385019 380.78229817684041 0 380.78229817684041 -264.44105631284765 0 0 0 0 241.54482507605826 743.59602555452147 0 743.59602555452147 -515.03031729876966 0 0 0 0 441.43206992949786 452.62684816431647 0 452.62684816431647 -1071.3591121502395 0 0 0 0 -105.76945461539162 561.33614874588966 0 561.33614874588966 -981.10080350644421 0 0 0 0 -739.72358717788381 699.05208964046687 0 699.05208964046687 -564.91386350392713 0 0 0 0 -122.38950247680623 435.98183154866274 0 435.98183154866274 -1365.3032607946734 0 0 0 0 -1558.1103620230224 1232.5243249015475 0 1232.5243249015475 -1326.5222947155489 0 0 0 0 -839.6570944211212 385.93441759886264 0 385.93441759886264 -365.28634621103993 0 0 0 0 -1225.0314034844034 139.17713403211383 0 139.17713403211383 182.33086462477513 0 0 0 0 -758.23861909114908 546.97424304156448 0 546.97424304156448 -243.88047016444034 0 0 0 0 -265.33167947902257 332.52000487210171 0 332.52000487210171 -301.4475772112055 0 0 0 0 -103.7937073581852 191.7785432737146 0 191.7785432737146 542.61551026269444 0 0 0 0 -272.4629322187684 150.00110093256808 0 150.00110093256808 691.81805765833997 0 0 0 0 -332.70044782181503 83.362416032730835 0 83.362416032730835 723.04429162573069 0 0 0 0 -242.64977571110649 122.1663660503109 0 122.1663660503109 605.47644675464835 0 0 0 0 -236.32812631770867 146.50497328646088 0 146.50497328646088 687.34173380944412 0 0 0 0 128.83154834118614 288.82888719711627 0 288.82888719711627 612.69318210679921 0 0 0 0 -109.85333935695962 152.06642008920608 0 152.06642008920608 666.55482849531109 0 0 0 0 -162.42788452732566 228.29334849312727 0 228.29334849312727 614.91057448161882 0 0 0 0 104.16305001769069 263.16090042417636 0 263.16090042417636 501.35515270265751 0 0 0 0 -52.923231424567348 322.5084432688891 0 322.5084432688891 292.53451545961434 0 0 0 0 -24.408660685352515 243.21467489733186 0 243.21467489733186 503.69324603481982 0 0 0 0 -198.40594629399129 276.8814553670818 0 276.8814553670818 611.87081334882532 0 0 0 0 -241.88721195047401 340.7888115724345 0 340.7888115724345 528.94815890336758 0 0 0 0 -304.47039786065579 156.22594022950216 0 156.22594022950216 832.3944714954705 0 0 0 0 -358.97976978712541 313.22163874705439 0 313.22163874705439 792.15238077277172 0 0 0 0 -376.79119415329478 384.02399389528728 0 384.02399389528728 625.76027214570786 0 0 0 0 -405.94434286661271 385.93009016031283 0 385.93009016031283 1189.1112605899834 0 0 0 0 -344.89419964575791 67.416519938211422 0 67.416519938211422 937.5904087855306 0 0 0 0 -23.749331513503421 880.94900023203809 0 880.94900023203809 1557.7728426288522 0 0 0 0 -361.60403807397779 62.363433467713548 0 62.363433467713548 1988.7592741521366 0 0 0 0 4.0137500015162999 7.9455445043930126 0 7.9455445043930126 16.939336116145796 0 0 0 0 156.55199925697889 -580.67231367123895 0 -580.67231367123895 1276.7203515541914 0 0 0 0 7.2796770827917499 -117.00689963067271 0 -117.00689963067271 -25.199427182291402 0 0 0 0 -126.87077673859312 -135.79294035866042 0 -135.79294035866042 711.30665945573128 0 0 0 0 -334.17799606035987 60.420104792938218 0 60.420104792938218 942.13476592252846 0 0 0 0 15.91979184658733 23.677562766357596 0 23.677562766357596 40.396333524375507 0 0 0 0 -168.27533136585407 260.12567420312553 0 260.12567420312553 107.90283668758275 0 0 0 0 -188.56558716317159 130.63961274063331 0 130.63961274063331 184.50849418382859 0 0 0 0 -164.58905378107738 94.913828566583106 0 94.913828566583106 132.62324767312384 0 0 0 0 47.333966995280207 -166.70756352063836 0 -166.70756352063836 -44.142465448036091 0 0 0 0 -113.43598209467018 8.5903994635082199 0 8.5903994635082199 94.651503559100092 0 0 0 0 280.83561285014002 -448.07057157824238 0 -448.07057157824238 164.50358144738129 0 0 0 0 -585.74480887764366 -750.73002464452293 0 -750.73002464452293 1756.279574284461 0 0 0 0 14.46107782942147 4.5720709517277101 0 4.5720709517277101 13.083373898058909 0 0 0 0 -75.057827768105199 158.25395611891872 0 158.25395611891872 -203.88325533347961 0 0 0 0 -99.26378482086875 328.69160841125995 0 328.69160841125995 -320.01032291993033 0 0 0 0 -8.1993896519400096 9.2996060611138205 0 9.2996060611138205 22.556883006586332 0 0 0 0 -160.51827483234229 270.67242504403112 0 270.67242504403112 -42.141646160736855 0 0 0 0 -134.93304957273358 93.309426087580505 0 93.309426087580505 14.695211541955359 0 0 0 0 -139.78392877805163 71.393305886493181 0 71.393305886493181 340.18149453861406 0 0 0 0 -202.58301495490014 68.980617989553139 0 68.980617989553139 565.05279223622347 0 0 0 0 0.8668584959814325 292.71757938028895 0 292.71757938028895 208.58011720463401 0 0 0 0 292.84752545405354 417.77325919689611 0 417.77325919689611 335.36473631503031 0 0 0 0 -95.924084262747783 139.55974311209866 0 139.55974311209866 537.0511549115472 0 0 0 0 351.5431630788371 210.53265810121957 0 210.53265810121957 -66.695479144342244 0 0 0 0 204.99422553897602 399.60091836990614 0 399.60091836990614 -47.213188580283713 0 0 0 0 148.96686156890064 223.74861498088285 0 223.74861498088285 -563.01420570077607 0 0 0 0 34.81099818443181 106.28302284004167 0 106.28302284004167 -23.793190854165005 0 0 0 0 388.97202654907596 198.92225710497587 0 198.92225710497587 -186.9199421825997 0 0 0 0 457.83400819557573 105.29150233448308 0 105.29150233448308 -66.392541882116348 0 0 0 0 794.72187811274489 482.5624030840554 0 482.5624030840554 -171.1729581704667 0 0 0 0 9.0492183093738277 -193.66992822756583 0 -193.66992822756583 -259.74319333341555 0 0 0 0 26.770313628699007 20.770455431684923 0 20.770455431684923 4.1115725814169082 0 0 0 0 12.200582441464405 1.4636544606344728 0 1.4636544606344728 -1.3507505302652874 0 0 0 0 837.47422903295956 -36.636028984532459 0 -36.636028984532459 -905.53073065110948 0 0 0 0 -38.343881704306114 148.90798508813896 0 148.90798508813896 -757.06226653994963 0 0 0 0 293.8420594033762 366.02168951496265 0 366.02168951496265 483.34377238154411 0 0 0 0 722.61852985262522 345.82903767874814 0 345.82903767874814 448.02822893441771 0 0 0 0 125.09042429031979 429.23684025957482 0 429.23684025957482 24.547126986726653 0 0 0 0 127.44820185059689 379.46394625319954 0 379.46394625319954 131.24658172437921 0 0 0 0 121.19818269046118 413.87063878910703 0 413.87063878910703 15.250075821822975 0 0 0 0 16.887932749741594 -139.17014966870192 0 -139.17014966870192 -176.87391949084122 0 0 0 0 -5.9895098071662574 42.505879092529426 0 42.505879092529426 -25.8581971991361 0 0 0 0 97.734217907860511 73.572480264319893 0 73.572480264319893 -825.84983409632696 0 0 0 0 -45.613264701591106 423.83436636137776 0 423.83436636137776 94.312468428513967 0 0 0 0 676.82511645330669 70.426203677110607 0 70.426203677110607 -307.79349581407587 0 0 0 0 404.08701658478094 659.63605379656656 0 659.63605379656656 165.83599014722859 0 0 0 0 168.34201576265332 68.389083616610151 0 68.389083616610151 -825.48857767753361 0 0 0 0 844.57969698614761 -66.671702035906492 0 -66.671702035906492 131.30086805898463 0 0 0 0 95.821483536521555 489.97849891569058 0 489.97849891569058 99.201229695230722 0 0 0 0 263.01903284076252 423.27878703814349 0 423.27878703814349 19.034026905668725 0 0 0 0 -394.5745674287682 -1198.7099165928521 0 -1198.7099165928521 -53.978595066495473 0 0 0 0 -1107.7168946837555 2409.3579515392339 0 2409.3579515392339 -2043.6154836190399 0 0 0 0 44.363861497602812 -5.2247361047200798 0 -5.2247361047200798 -4.1770721844958416 0 0 0 0 466.30662804679014 656.74558825019631 0 656.74558825019631 713.8740097003174 0 0 0 0 -14.488462880962629 5.5716161456337545 0 5.5716161456337545 -6.564574724486647 0 0 0 0 209.09820353787654 541.01539735269034 0 541.01539735269034 1564.6439449153258 0 0 0 0 466.8117882950819 636.16687076978633 0 636.16687076978633 768.21467025903985 0 0 0 0 451.24672769519384 455.49419889914861 0 455.49419889914861 1122.7597611704841 0 0 0 0 417.17707363474574 701.72484091792012 0 701.72484091792012 754.58956640580436 0 0 0 0 275.87762310408289 598.08866819877585 0 598.08866819877585 706.98847391892923 0 0 0 0 396.27254923861619 559.9998127581639 0 559.9998127581639 450.55450777034275 0 0 0 0 387.10824910697193 744.51156703299785 0 744.51156703299785 600.78666884708218 0 0 0 0 338.881894062215 700.11652547345147 0 700.11652547345147 772.13395602543096 0 0 0 0 588.4144037724036 657.84742295817705 0 657.84742295817705 711.3316772129765 0 0 0 0 415.72813638491789 757.80574609499308 0 757.80574609499308 663.88646882819012 0 0 0 0 354.86198684576084 695.96772469519055 0 695.96772469519055 635.0636936808005 0 0 0 0 630.54672143183416 1099.8082516046998 0 1099.8082516046998 1002.897755010752 0 0 0 0 333.74720006969801 658.07947467490158 0 658.07947467490158 996.56256413596566 0 0 0 0 72.780143856492941 285.57627881280496 0 285.57627881280496 698.38527249041363 0 0 0 0 524.13839330131304 375.0461149114708 0 375.0461149114708 645.52951958261838 0 0 0 0 122.04064863126496 335.52904102420143 0 335.52904102420143 786.49989357049344 0 0 0 0 361.68548146988906 1182.5324869276665 0 1182.5324869276665 1751.3967751235177 0 0 0 0 1112.7090179560291 1010.4448867454994 0 1010.4448867454994 802.42483338079182 0 0 0 0 425.01333124388475 808.39347675038152 0 808.39347675038152 1121.8468905213522 0 0 0 0 431.8533243072161 487.59643193992088 0 487.59643193992088 787.75853178900434 0 0 0 0 198.49662560138677 539.32027225912316 0 539.32027225912316 783.59374001620745 0 0 0 0 349.42887563042677 413.6370658692249 0 413.6370658692249 471.38616017060122 0 0 0 0 402.0619462928853 486.33061632815588 0 486.33061632815588 803.2217501240666 0 0 0 0 273.78174443742319 629.81380633462686 0 629.81380633462686 704.5152010981983 0 0 0 0 41.737253365237848 511.83647508647118 0 511.83647508647118 440.2425226343039 0 0 0 0 12.564496002392843 322.50248382185237 0 322.50248382185237 525.40414225656423 0 0 0 0 291.8818460744078 334.00904634994367 0 334.00904634994367 510.50068442360498 0 0 0 0 83.442483013524907 295.52470547018311 0 295.52470547018311 225.02010695572244 0 0 0 0 84.274457194089337 287.83649077363225 0 287.83649077363225 219.5481704727863 0 0 0 0 -183.55208334624331 27.458558911821456 0 27.458558911821456 -253.32118160864047 0 0 0 0 27.071925447118701 203.34168074459012 0 203.34168074459012 289.82995068471064 0 0 0 0 108.59016624258584 316.22382668323553 0 316.22382668323553 -11.053565634123515 0 0 0 0 285.34649875979085 468.61472183326259 0 468.61472183326259 138.93186132211122 0 0 0 0 153.14057771155785 542.69708172755782 0 542.69708172755782 456.23026330738867 0 0 0 0 431.00376154948026 447.16259619077027 0 447.16259619077027 -363.27454237174243 0 0 0 0 -289.69664525057306 424.04225650345325 0 424.04225650345325 136.61676924543099 0 0 0 0 -488.98583217385749 617.79746224389237 0 617.79746224389237 -42.461369847733295 0 0 0 0 -114.11136488265038 870.37196745416441 0 870.37196745416441 -675.26061860146001 0 0 0 0 920.00721946370322 552.94103567929415 0 552.94103567929415 -979.92732747845002 0 0 0 0 313.10019471161559 598.10184041747925 0 598.10184041747925 -5.6490759164153133 0 0 0 0 358.25922302361869 405.02028536479338 0 405.02028536479338 -1014.8291179521766 0 0 0 0 271.78441940237826 163.75863394423504 0 163.75863394423504 478.62104550810182 0 0 0 0 229.60043914572452 691.05229750374565 0 691.05229750374565 911.81894011469558 0 0 0 0 226.40110856984018 373.66740764682197 0 373.66740764682197 368.98288371032686 0 0 0 0 324.64720479606331 686.54579183323949 0 686.54579183323949 669.41523450057139 0 0 0 0 226.18503226256871 531.28915741003584 0 531.28915741003584 531.83982574684342 0 0 0 0 361.02811818443297 538.53207604373165 0 538.53207604373165 110.56310695441789 0 0 0 0 435.14583272554501 400.30301050798334 0 400.30301050798334 140.56108801229857 0 0 0 0 339.11119408997911 -28.670953656823258 0 -28.670953656823258 -510.7266877196671 0 0 0 0 914.49379379317543 40.105341296468396 0 40.105341296468396 -661.91933783596323 0 0 0 0 280.41649671682535 -112.67418599975645 0 -112.67418599975645 -251.38642588700168 0 0 0 0 -158.31014398742991 -361.32465708925156 0 -361.32465708925156 -299.65783618055502 0 0 0 0 -189.62119793893362 59.632174762198702 0 59.632174762198702 -49.475017599238299 0 0 0 0 270.96666882981663 286.84892201362527 0 286.84892201362527 -52.142331514682155 0 0 0 0 521.82252568042895 67.795441563881468 0 67.795441563881468 -1651.4279356599436 0 0 0 0 128.12436925726797 346.31718056024692 0 346.31718056024692 -1159.3652947185037 0 0 0 0 -369.96032148947415 1622.5432658630889 0 1622.5432658630889 -3612.3520160737608 0 0 0 0 435.35081186903335 38.589332132156414 0 38.589332132156414 -532.64674542169087 0 0 0 0 -72.80214236604661 694.29741094000929 0 694.29741094000929 218.23760464565567 0 0 0 0 -89.888830219082593 1596.794606061565 0 1596.794606061565 -1721.9068394694696 0 0 0 0 -3027.8341499861563 1130.5431716985804 0 1130.5431716985804 16.329238502978114 0 0 0 0 -1.2028447381864513 6.9836443746502255 0 6.9836443746502255 -3.650171800002795 0 0 0 0 -323.21742873872427 686.26395503335516 0 686.26395503335516 -367.04605868796352 0 0 0 0 -915.91914257029566 1316.5509880553946 0 1316.5509880553946 -651.19019789561207 0 0 0 0 1.0033553994287026 2.812369492891591 0 2.812369492891591 -12.11893717167527 0 0 0 0 2248.1929653035659 168.23569782618142 0 168.23569782618142 -1132.0071914453001 0 0 0 0 1383.2346690094892 -430.1220632503173 0 -430.1220632503173 -754.3598440278729 0 0 0 0 110.38067760120612 98.956416750035714 0 98.956416750035714 -241.62782964701546 0 0 0 0 -334.5009130274193 453.1221079148454 0 453.1221079148454 116.46447018519393 0 0 0 0 -204.99089748235565 396.64542455559422 0 396.64542455559422 -498.92276163015777 0 0 0 0 -428.76109251689923 449.60791439824243 0 449.60791439824243 -55.737045889385627 0 0 0 0 -249.58898172321642 652.9478124213274 0 652.9478124213274 -989.8736846234242 0 0 0 0 -404.42456516226957 346.45121628846391 0 346.45121628846391 -509.17815347480064 0 0 0 0 -32.00369101859178 823.37696143356516 0 823.37696143356516 -1540.2227964141057 0 0 0 0 1.6796295210261292 5.8309803354558198 0 5.8309803354558198 1.8540808094138015 0 0 0 0 -50.142972441826714 580.82500901362801 0 580.82500901362801 169.43469561540405 0 0 0 0 -166.97038919206898 278.50777906916119 0 278.50777906916119 -539.22686683631036 0 0 0 0 -249.2259826573154 430.2848049800341 0 430.2848049800341 154.70961623472976 0 0 0 0 -342.1211957003743 401.59568823283553 0 401.59568823283553 634.25344181823311 0 0 0 0 -368.2239959300332 510.38175108617361 0 510.38175108617361 459.66215141239809 0 0 0 0 -86.687130823651387 508.34776423747826 0 508.34776423747826 139.55005267381785 0 0 0 0 -16.986489133108989 399.80201251620019 0 399.80201251620019 286.85362016687941 0 0 0 0 81.502908615999331 387.21538914325356 0 387.21538914325356 -73.388905423955293 0 0 0 0 -87.00901967567188 546.59365013327624 0 546.59365013327624 572.81025485484861 0 0 0 0 -308.55648582083813 502.40639699160238 0 502.40639699160238 564.00059859358953 0 0 0 0 -300.96830409912218 733.54746579898347 0 733.54746579898347 197.53391553623078 0 0 0 0 -237.50587081078993 1131.1700463600573 0 1131.1700463600573 -490.19600227745832 0 0 0 0 -1.253024794968951 8.0114905679990613 0 8.0114905679990613 2.799893202820158 0 0 0 0 -99.471084020740818 256.78444741737621 0 256.78444741737621 -1047.1293061856341 0 0 0 0 -719.34750297565552 697.35082973872341 0 697.35082973872341 -1241.4144401467493 0 0 0 0 107.16826951911207 520.56513136536523 0 520.56513136536523 -859.89669970254181 0 0 0 0 3.034219885683882 9.3953105922903433 0 9.3953105922903433 3.3465423127676956 0 0 0 0 -292.63199008876836 271.27015508763725 0 271.27015508763725 -289.47129214348388 0 0 0 0 -142.88886321375321 249.59476564043143 0 249.59476564043143 -714.81230848495034 0 0 0 0 -71.53384492161058 452.03883782200865 0 452.03883782200865 -706.64968924454297 0 0 0 0 -216.31716703667189 353.012398180741 0 353.012398180741 63.107825331622735 0 0 0 0 -41.587246516850428 214.86618154692405 0 214.86618154692405 109.84097771425149 0 0 0 0 -199.478461478604 397.4130110367405 0 397.4130110367405 483.9678440655407 0 0 0 0 -180.41923465045693 118.46904257078131 0 118.46904257078131 810.00045715247688 0 0 0 0 -18.87507746817937 29.700960302114254 0 29.700960302114254 422.33922520084889 0 0 0 0 -611.55596415631589 422.21793681139388 0 422.21793681139388 1160.772543796731 0 0 0 0 -45.23212161732954 206.49723173047823 0 206.49723173047823 -279.6247961565241 0 0 0 0 -400.33698527333036 321.80056768702343 0 321.80056768702343 260.85451789517538 0 0 0 0 -308.19510003439791 261.56195920515165 0 261.56195920515165 23.754629476548871 0 0 0 0 -84.528776272036339 311.91070021129417 0 311.91070021129417 77.426173014100641 0 0 0 0 -357.97078058928673 446.22277593049512 0 446.22277593049512 478.30243546175188 0 0 0 0 -696.21148879732937 695.88918357857619 0 695.88918357857619 350.40330809103762 0 0 0 0 -105.72597657671577 547.43676348814188 0 547.43676348814188 -87.790390092894086 0 0 0 0 -1075.2252097016972 947.48627086633496 0 947.48627086633496 -174.97201625084563 0 0 0 0 -973.44692558607494 1293.0354416894406 0 1293.0354416894406 -717.78925949920085 0 0 0 0 -473.13803714312962 1093.813846332705 0 1093.813846332705 -1581.9764754037315 0 0 0 0 -128.3148066875583 479.56884775176877 0 479.56884775176877 -614.40288413796952 0 0 0 0 -422.04883472617439 152.4146489253435 0 152.4146489253435 -22.688887967349729 0 0 0 0 -17.91617344948142 15.330932148815407 0 15.330932148815407 5.4040763952941688 0 0 0 0 -177.09557459782081 56.782691878266633 0 56.782691878266633 1212.5854698869516 0 0 0 0 24.764392908395166 206.93314791039666 0 206.93314791039666 842.6967239639489 0 0 0 0 -266.96227424619428 -357.95356046760571 0 -357.95356046760571 1910.9357501135382 0 0 0 0 -8.4968350623852587 6.0504227057264188 0 6.0504227057264188 3.7322511841244932 0 0 0 0 -537.65986452306242 834.30792732787086 0 834.30792732787086 19.821003116026986 0 0 0 0 177.08165019565786 377.91478257846029 0 377.91478257846029 288.58708431423292 0 0 0 0 -159.41548399117892 1317.2998742510099 0 1317.2998742510099 9.8756845824827906 0 0 0 0 -397.10115437759305 893.56893572543049 0 893.56893572543049 -59.699693526927149 0 0 0 0 -501.36342714952843 963.65959819841737 0 963.65959819841737 8.5611041318043135 0 0 0 0 -772.3957513291316 908.79943281059968 0 908.79943281059968 36.02952959893446 0 0 0 0 -0.39970614166815999 4.0258850411698006 0 4.0258850411698006 -8.9390742178186429 0 0 0 0 0.69601468277048006 8.8970386053203043 0 8.8970386053203043 -20.871902048713537 0 0 0 0 847.75363926532009 980.62488546688837 0 980.62488546688837 -599.82220574286475 0 0 0 0 663.71256423393243 414.66511896042448 0 414.66511896042448 -175.83198794553755 0 0 0 0 -25.251389394688886 453.55750721297227 0 453.55750721297227 261.28609181614593 0 0 0 0 1445.2881151717083 453.02177962928545 0 453.02177962928545 -228.58950171616743 0 0 0 0 -3.9832689820100313 1056.135216902614 0 1056.135216902614 -398.19002311454096 0 0 0 0 -222.27427729411284 1032.0071634719643 0 1032.0071634719643 -375.78534429403953 0 0 0 0 -388.64083126054902 844.54345757086412 0 844.54345757086412 -49.748123810335528 0 0 0 0 -1943.3842698701972 1496.4713737603442 0 1496.4713737603442 87.583051818044623 0 0 0 0 -117.90631323598063 917.11797370061686 0 917.11797370061686 -666.93375827903219 0 0 0 0 -3.3249775940203108 467.73357729464988 0 467.73357729464988 37.144727868784685 0 0 0 0 -16.064218798892398 496.94749568901898 0 496.94749568901898 -219.51179297543422 0 0 0 0 43.906258895892279 444.08891190417125 0 444.08891190417125 -11.961175341333728 0 0 0 0 276.21715096793196 546.36796962600783 0 546.36796962600783 -236.04457245742924 0 0 0 0 353.07102903925261 425.19701264651667 0 425.19701264651667 -224.99300399546155 0 0 0 0 214.31166210809897 603.94008670272888 0 603.94008670272888 55.471733977261465 0 0 0 0 616.59399094092078 953.99721560510807 0 953.99721560510807 212.35804050392471 0 0 0 0 337.19713610121835 425.08278303108818 0 425.08278303108818 -127.10558668637532 0 0 0 0 2995.1945136405466 303.93474643308218 0 303.93474643308218 -150.02956328750588 0 0 0 0 489.57035085232201 382.61281333990337 0 382.61281333990337 123.05725665888167 0 0 0 0 1050.4393475571705 477.60338449393748 0 477.60338449393748 31.04254431190202 0 0 0 0 886.57045325392392 80.695639664729242 0 80.695639664729242 42.478924886323512 0 0 0 0 247.80167501383403 291.41454753662401 0 291.41454753662401 29.98721917354851 0 0 0 0 65.739498864921188 635.03595788629173 0 635.03595788629173 4.9413214631786104 0 0 0 0 529.30008115880355 529.83757563907238 0 529.83757563907238 -29.937771249329671 0 0 0 0 115.79913126998872 669.29047436825203 0 669.29047436825203 201.26015218810062 0 0 0 0 315.53762946405914 501.24713271802466 0 501.24713271802466 205.07680522640339 0 0 0 0 -35.838643370610953 506.95162960383459 0 506.95162960383459 131.85478835108734 0 0 0 0 -159.86712570414238 705.99655489658471 0 705.99655489658471 172.91033659063396 0 0 0 0 136.89606945707055 629.52481868608447 0 629.52481868608447 -24.398152803041739 0 0 0 0 -350.15003878263815 954.63621225315001 0 954.63621225315001 -141.15926628031593 0 0 0 0 26.450175098943873 596.68831900408259 0 596.68831900408259 -65.816604820094653 0 0 0 0 -115.35869893464223 892.87684247065226 0 892.87684247065226 -262.15253473009216 0 0 0 0 144.2522376279594 69.54267626820365 0 69.54267626820365 493.2757152302147 0 0 0 0 -89.86352115749105 630.43710045050102 0 630.43710045050102 111.16245676702238 0 0 0 0 -320.50049219096763 461.51946700418557 0 461.51946700418557 1020.4496535233193 0 0 0 0 -1.178040763418096 6.9457096458452838 0 6.9457096458452838 -3.7051081238333268 0 0 0 0 411.59428531989397 285.70874965770054 0 285.70874965770054 0.5666499120707158 0 0 0 0 -434.5330757104548 714.04393955242267 0 714.04393955242267 507.8793095149158 0 0 0 0 93.105286968173459 727.56858899988583 0 727.56858899988583 498.17836573593377 0 0 0 0 760.40142899196144 849.43736860994977 0 849.43736860994977 192.81062463647686 0 0 0 0 900.8664543584382 503.19683402291412 0 503.19683402291412 263.88748401979683 0 0 0 0 366.18882225013294 1107.5455507318256 0 1107.5455507318256 2.2443757674918743 0 0 0 0 2343.9544774705919 513.61140840303233 0 513.61140840303233 -176.95721154587227 0 0 0 0 1376.7006493896261 985.17477671605593 0 985.17477671605593 -0.19446678637721226 0 0 0 0 972.36723264924512 286.94533213955583 0 286.94533213955583 304.52838515875919 0 0 0 0 -1465.5135305988151 854.16347953716468 0 854.16347953716468 -45.253615223013185 0 0 0 0 -1095.0364884320861 916.7223520838088 0 916.7223520838088 -34.950521693070186 0 0 0 0 -1335.2277155842894 746.97520839647041 0 746.97520839647041 -49.487175156697049 0 0 0 0 -1146.5688112732696 220.7435374149627 0 220.7435374149627 60.493010308040539 0 0 0 0 -1196.3948823897226 666.20039494254161 0 666.20039494254161 -2.700569354230538 0 0 0 0 -755.94162109091121 328.57266462745611 0 328.57266462745611 -108.90999949316029 0 0 0 0 -660.35953183738457 566.43252059052975 0 566.43252059052975 -168.40953216920025 0 0 0 0 -996.24239646924252 934.35832437414501 0 934.35832437414501 -147.29011196103238 0 0 0 0 -892.36619592203351 819.46273910361924 0 819.46273910361924 -439.48312261986575 0 0 0 0 -888.87525748052212 846.02786530282356 0 846.02786530282356 -238.86866388493218 0 0 0 0 -968.50361731614248 1036.8890559388092 0 1036.8890559388092 -153.08791209543415 0 0 0 0 -353.89687466715986 922.06821604283323 0 922.06821604283323 -386.70503245318105 0 0 0 0 -317.87712221061156 1029.3268800548249 0 1029.3268800548249 -321.77087143922108 0 0 0 0 -396.16586360038491 940.4533665014751 0 940.4533665014751 -207.72123010415089 0 0 0 0 -1213.328154446499 1347.3523869975979 0 1347.3523869975979 -255.13353513462062 0 0 0 0 -1.1963480184384707 6.8349917917205403 0 6.8349917917205403 -4.0945973076359792 0 0 0 0 -97.40616849503931 1007.771983168961 0 1007.771983168961 -623.17169808286417 0 0 0 0 428.5439415932633 390.58139132123324 0 390.58139132123324 -192.94301237937543 0 0 0 0 412.23931751593409 284.06534755173743 0 284.06534755173743 0.10330993021489121 0 0 0 0 -1108.717744607653 758.30185978671943 0 758.30185978671943 781.47833939556585 0 0 0 0 -1150.3081085664526 992.43859487574082 0 992.43859487574082 -530.06883393781027 0 0 0 0 -1779.8108117837837 905.29169784301484 0 905.29169784301484 0.61418345289712306 0 0 0 0 -1673.8031992349206 940.45228287766804 0 940.45228287766804 -238.16949174726324 0 0 0 0 -1273.7046247754188 738.82578597706015 0 738.82578597706015 -149.56270997141837 0 0 0 0 -1761.79840935627 1183.529078389256 0 1183.529078389256 -834.3177325813449 0 0 0 0 -2298.4237903976573 183.54769260478133 0 183.54769260478133 307.4374227199296 0 0 0 0 -2496.2938341688714 1374.1064559534643 0 1374.1064559534643 -639.58130810505827 0 0 0 0 -2283.0759685525409 455.51493328718061 0 455.51493328718061 -341.7062002212042 0 0 0 0 -819.70982961950358 331.08133836345223 0 331.08133836345223 -1.0257221451756777 0 0 0 0 -26.008406398849303 3.9980312403322387 0 3.9980312403322387 3.791981952206811 0 0 0 0 -10.285097909811384 1.6863668619608632 0 1.6863668619608632 1.3547387440010539 0 0 0 0 -67.30606171808904 66.275843313676887 0 66.275843313676887 358.00966406674706 0 0 0 0 -9.0235015592625132 7.9761561608611373 0 7.9761561608611373 0.0026683493051677942 0 0 0 0 -551.09316628894885 395.54542862984817 0 395.54542862984817 -290.7584392610006 0 0 0 0 0.17651693016506442 -1.9547776643462385 0 -1.9547776643462385 -3.5742860795396041 0 0 0 0 -20.399306885764588 13.677283860235946 0 13.677283860235946 -6.7119061723371942 0 0 0 0 24.873469534057222 248.30317109176758 0 248.30317109176758 65.598445613024523 0 0 0 0 -582.51521824498195 56.757796812846209 0 56.757796812846209 56.711918801018328 0 0 0 0 -535.5661036336387 -558.41279255668633 0 -558.41279255668633 395.17502558440901 0 0 0 0 -18.716109538567252 184.41208179142268 0 184.41208179142268 -5.8279387186630629 0 0 0 0 -500.74111594026908 -74.327789761868189 0 -74.327789761868189 23.790437314164592 0 0 0 0 30.706332409696188 29.689801095511939 0 29.689801095511939 61.247978701256216 0 0 0 0 -48.733866636554012 166.77115553262411 0 166.77115553262411 -168.08613323756435 0 0 0 0 -267.62753027386498 64.748795787687413 0 64.748795787687413 -76.536083531929762 0 0 0 0 46.232736631762236 10.048604528536089 0 10.048604528536089 -185.42725845918176 0 0 0 0 33.336914647938102 28.228297172936436 0 28.228297172936436 -40.367347844876349 0 0 0 0 -22.369926245257375 -101.14475875440985 0 -101.14475875440985 -77.25480186198547 0 0 0 0 -289.69007549683738 240.58801927721652 0 240.58801927721652 -140.55036264055525 0 0 0 0 136.0883056691091 57.231122233562928 0 57.231122233562928 -47.192953052450321 0 0 0 0 -16.803734344769424 23.276614732993096 0 23.276614732993096 -12.502739022224148 0 0 0 0 93.557067691959674 295.87152033882739 0 295.87152033882739 154.38943412326626 0 0 0 0 82.766160132538062 41.890556493948679 0 41.890556493948679 -32.162690641067456 0 0 0 0 86.757551798087661 26.238301377263269 0 26.238301377263269 -53.405972344844486 0 0 0 0 75.64219599396165 26.188815263434662 0 26.188815263434662 -50.121843305110815 0 0 0 0 -21.28925248523052 17.920345996642936 0 17.920345996642936 -10.566044690638137 0 0 0 0 139.76477583630185 181.81130299449433 0 181.81130299449433 2.0865295224830334 0 0 0 0 168.82834233013273 210.32175506210115 0 210.32175506210115 137.26945038020494 0 0 0 0 268.96794857596251 283.5658294114437 0 283.5658294114437 -48.476766414911253 0 0 0 0 -8.9916980694397353 7.9835643486148911 0 7.9835643486148911 -0.0042523472802713513 0 0 0 0 240.5946467904796 -79.989671494884533 0 -79.989671494884533 33.357783059036592 0 0 0 0 -0.61285205752216143 6.6317916037808402 0 6.6317916037808402 2.086336707775871 0 0 0 0 525.41252158714633 200.65178321913118 0 200.65178321913118 -87.341585221653077 0 0 0 0 217.24781231903762 441.28318625229804 0 441.28318625229804 0.049494351507746615 0 0 0 0 -278.52884464940871 156.21466527633311 0 156.21466527633311 -28.196786442204029 0 0 0 0 42.077560425517731 385.67277399302111 0 385.67277399302111 -85.679440567284473 0 0 0 0 -607.841671041675 420.73619884178333 0 420.73619884178333 -0.085957365445210598 0 0 0 0 -314.53917146766616 698.02643663977506 0 698.02643663977506 261.88172398970346 0 0 0 0 -2342.4113639993593 343.85721590576577 0 343.85721590576577 249.03864617607906 0 0 0 0 1401.8060483943846 619.8475783550748 0 619.8475783550748 248.70896050269948 0 0 0 0 -0.7904947041504613 1.1559749468612779 0 1.1559749468612779 2.6759020720892295 0 0 0 0 -604.28716587676172 58.303543165879091 0 58.303543165879091 -230.35340089313831 0 0 0 0 -2275.0570948638924 393.55309933962417 0 393.55309933962417 480.40489471844921 0 0 0 0 194.86305596027159 127.4735434956292 0 127.4735434956292 23.619378967734519 0 0 0 0 0.58069321670778606 8.984952490088034 0 8.984952490088034 -0.17190367502553272 0 0 0 0 -465.03238105162745 457.30793119283044 0 457.30793119283044 273.01375271435245 0 0 0 0 -72.108819530854817 129.63831091728935 0 129.63831091728935 545.74706642451929 0 0 0 0 4.5953516342428884 8.8577673034440636 0 8.8577673034440636 -0.73519276099568742 0 0 0 0 -90.879971682932194 -269.85761448387836 0 -269.85761448387836 -257.02523099372047 0 0 0 0 -386.8596301831858 154.79973463343777 0 154.79973463343777 -52.225382020631514 0 0 0 0 5.1529654038288868 7.1842685890202347 0 7.1842685890202347 -7.3001333847723799 0 0 0 0 -260.88201587495132 308.69075217227874 0 308.69075217227874 -431.09210556242033 0 0 0 0 -1128.4023809338105 157.46631115679338 0 157.46631115679338 -444.79824665588967 0 0 0 0 -243.75351297955785 -631.38866614994186 0 -631.38866614994186 219.37570453068474 0 0 0 0 -41.287893561380656 22.946078221605376 0 22.946078221605376 -9.1750933425255141 0 0 0 0 145.82819614472101 -147.10394307370007 0 -147.10394307370007 -347.07697797122091 0 0 0 0 -191.54740327186641 996.03055478421743 0 996.03055478421743 512.52822264781571 0 0 0 0 2.3173277087080137 14.195818341517139 0 14.195818341517139 -14.153458124537451 0 0 0 0 -60.927372930491401 153.7499659821915 0 153.7499659821915 -17.935286771971732 0 0 0 0 -781.94712375327072 818.66823271551402 0 818.66823271551402 -196.35760169048444 0 0 0 0 -2009.9136141185299 802.42769413272617 0 802.42769413272617 187.88912140441244 0 0 0 0 -1216.3378406335796 91.711550065738265 0 91.711550065738265 665.29090493742842 0 0 0 0 78.837989688647212 29.612560505363945 0 29.612560505363945 -84.194671542965807 0 0 0 0 -87.768900234936154 -26.191506959628896 0 -26.191506959628896 -16.008399414946325 0 0 0 0 -1.3016980628694341 -2.6039471901173101 0 -2.6039471901173101 4.6655093562280854 0 0 0 0 -133.87518103743059 130.15423339246627 0 130.15423339246627 -57.125695642433129 0 0 0 0 -406.619396385242 309.65954007959226 0 309.65954007959226 -124.3789561917074 0 0 0 0 -92.615452091144107 23.406271857358661 0 23.406271857358661 -42.044875205552671 0 0 0 0 -1280.6390273270081 257.41694032207306 0 257.41694032207306 -2804.6094929176616 0 0 0 0 5.1272130698552871 15.370823743303504 0 15.370823743303504 -27.790795741463626 0 0 0 0 -2176.4074295056198 145.9367671154323 0 145.9367671154323 666.09702010205729 0 0 0 0 -205.8703809967119 104.17617561916268 0 104.17617561916268 -59.519829339178614 0 0 0 0 -2162.920480851848 1972.8484403434995 0 1972.8484403434995 254.34161189556471 0 0 0 0 -844.13552582409466 462.60156197867764 0 462.60156197867764 889.73342073694221 0 0 0 0 -563.95163851916732 273.56903356603289 0 273.56903356603289 -75.51739657955477 0 0 0 0 -379.17701421116362 295.03876810106885 0 295.03876810106885 -92.155698977177963 0 0 0 0 -447.68793829434435 208.52318703138735 0 208.52318703138735 -175.09433561000333 0 0 0 0 -59.813527858190355 600.4119373045105 0 600.4119373045105 647.03591088675603 0 0 0 0 -51.22119754065352 180.40528960687516 0 180.40528960687516 283.55161102543934 0 0 0 0 -163.10905506496783 1187.5597820552211 0 1187.5597820552211 -1808.9549581969623 0 0 0 0 179.65958404002595 496.78631422262697 0 496.78631422262697 -494.7636881400249 0 0 0 0 -16.790330212655874 10.710835635323065 0 10.710835635323065 -5.6298130738600207 0 0 0 0 -1581.5857514686868 -398.06992850906681 0 -398.06992850906681 798.58982461428968 0 0 0 0 -466.15612612259429 1076.1306170724056 0 1076.1306170724056 -602.64601803163532 0 0 0 0 -974.34085969690932 792.63882485696377 0 792.63882485696377 56.267238555126823 0 0 0 0 109.48458312537696 595.43508784566075 0 595.43508784566075 -280.63406354488689 0 0 0 0 -63.596694501662569 692.85681740877044 0 692.85681740877044 -496.57739488358493 0 0 0 0 -205.42553904218948 530.1235856958665 0 530.1235856958665 -290.77216936094919 0 0 0 0 -177.50913707666405 308.06569550418499 0 308.06569550418499 225.70032747846562 0 0 0 0 257.61244415506371 272.25059083825909 0 272.25059083825909 216.67883941639047 0 0 0 0 -163.07651386722864 183.50270662453113 0 183.50270662453113 716.83349813977838 0 0 0 0 21.146402915284852 416.95381666146568 0 416.95381666146568 204.89260259596631 0 0 0 0 -39.58374095056206 586.29610108231282 0 586.29610108231282 -349.92402046076313 0 0 0 0 -249.54760732284922 337.48804404580733 0 337.48804404580733 185.51715234088624 0 0 0 0 -121.09087326993904 361.39685381075833 0 361.39685381075833 215.13789144525072 0 0 0 0 -85.091122787140193 220.81736475791695 0 220.81736475791695 -76.230514650407713 0 0 0 0 -29.747659484259202 252.68996693966619 0 252.68996693966619 7.245554735258338 0 0 0 0 -220.1223923209036 281.12467347711208 0 281.12467347711208 3.3125075590214692 0 0 0 0 -207.15933896668139 304.18357531241054 0 304.18357531241054 406.13296079696738 0 0 0 0 -56.038009025302017 299.24094905031961 0 299.24094905031961 405.18711203474595 0 0 0 0 -75.894705570430233 172.62437285183478 0 172.62437285183478 376.61951376829529 0 0 0 0 -72.297635096692829 330.28160565193684 0 330.28160565193684 537.59912682659342 0 0 0 0 -70.736087421391858 112.86440489206871 0 112.86440489206871 763.79227525940223 0 0 0 0 -94.77325406122327 260.96997177671437 0 260.96997177671437 916.01239901880035 0 0 0 0 -164.59471268202469 182.27635265106437 0 182.27635265106437 785.47712832444813 0 0 0 0 41.793689681187971 136.3447075986187 0 136.3447075986187 765.90004837944434 0 0 0 0 2.3423301547163646 5.1644449653280731 0 5.1644449653280731 1.1653220574256409 0 0 0 0 -110.44681010431668 277.62921548726445 0 277.62921548726445 -308.52241569664329 0 0 0 0 -46.931535241414025 24.72663132585518 0 24.72663132585518 -5.3941561702960144 0 0 0 0 35.641743188252519 15.478735777262727 0 15.478735777262727 2.3117393661000278 0 0 0 0 -27.148727304171189 -55.174308617584757 0 -55.174308617584757 17.516999084939016 0 0 0 0 53.450519807491219 186.849137492929 0 186.849137492929 -54.88785215633834 0 0 0 0 -84.364988212750177 -69.777926195922191 0 -69.777926195922191 15.887168741945061 0 0 0 0 43.296746052097262 16.390010237220565 0 16.390010237220565 0.31936254863154545 0 0 0 0 233.06886662374018 113.75215609441511 0 113.75215609441511 -295.96930027980852 0 0 0 0 -91.532252988989569 -21.018477391022628 0 -21.018477391022628 -195.71036539608031 0 0 0 0 178.53306801412327 383.16314385255464 0 383.16314385255464 301.9134855188895 0 0 0 0 434.61518323150813 135.04098090072512 0 135.04098090072512 -240.38634868808367 0 0 0 0 -48.787554562282992 24.879392523486672 0 24.879392523486672 -10.164985131189781 0 0 0 0 25.573054351931205 482.52660023872158 0 482.52660023872158 870.51012424276269 0 0 0 0 -2.4577464907342801 2835.1768316144298 0 2835.1768316144298 3851.3923202504229 0 0 0 0 3155.2519945488602 2788.1336172528681 0 2788.1336172528681 -1.0311864549730672 0 0 0 0 4341.3438259617978 3933.1893299768199 0 3933.1893299768199 748.74209207032982 0 0 0 0 946.33501714651356 4213.5871329753063 0 4213.5871329753063 4879.9882503127446 0 0 0 0 825.46578191828303 3669.1207077817162 0 3669.1207077817162 5280.6423923082475 0 0 0 0 -2103.8739638206025 102.14856915108976 0 102.14856915108976 3529.7508221160242 0 0 0 0 7330.319704430236 3081.0094757639599 0 3081.0094757639599 1065.7757991056715 0 0 0 0 10.644878885205799 20.583555209006931 0 20.583555209006931 43.215163222702301 0 0 0 0 449.07463016085967 432.45193686167477 0 432.45193686167477 -368.5332590881153 0 0 0 0 238.77737412840361 -220.37661989938351 0 -220.37661989938351 425.98224852020212 0 0 0 0 -1555.9968231859821 -61.967482411384481 0 -61.967482411384481 521.2520142471476 0 0 0 0 -0.051002346204398918 0.86566576547957652 0 0.86566576547957652 6.788728244533786 0 0 0 0 -259.28735585588583 1469.7061947501752 0 1469.7061947501752 1755.0053849947144 0 0 0 0 1881.4898284671945 1239.1324469521351 0 1239.1324469521351 1644.905457523826 0 0 0 0 1214.8143298456271 2380.3801602817402 0 2380.3801602817402 2291.4750224023082 0 0 0 0 1001.2777213104564 1534.5431337372484 0 1534.5431337372484 453.47022518806625 0 0 0 0 831.04514021005889 1373.1141116197978 0 1373.1141116197978 305.3983874637488 0 0 0 0 509.83101968989649 1550.6078311480815 0 1550.6078311480815 1189.2462957194948 0 0 0 0 537.21672848597518 959.22890533796453 0 959.22890533796453 3.320300126472592 0 0 0 0 -49.453493473993149 975.41741080777138 0 975.41741080777138 598.05399829390808 0 0 0 0 -313.51843096979422 877.52843706333704 0 877.52843706333704 577.62501911786967 0 0 0 0 77.653366327169351 762.24376399945322 0 762.24376399945322 719.87512198870536 0 0 0 0 505.98064083940699 1048.0589944470266 0 1048.0589944470266 586.79409208347715 0 0 0 0 261.22123677228228 675.37415277426771 0 675.37415277426771 739.85160537367483 0 0 0 0 333.27042692575196 81.974304552553804 0 81.974304552553804 35.312768770294497 0 0 0 0 -206.88777720545113 166.06845369317671 0 166.06845369317671 191.79121222428512 0 0 0 0 -539.4966956328135 895.87472179104225 0 895.87472179104225 1422.3682431657944 0 0 0 0 -39.427165359142236 383.47065111002303 0 383.47065111002303 55.438282499839261 0 0 0 0 107.77088193291274 76.208983229043952 0 76.208983229043952 0.4679825491621159 0 0 0 0 -389.88775775383692 204.41589807310811 0 204.41589807310811 117.01372312023886 0 0 0 0 -349.63423551135929 578.93292287217628 0 578.93292287217628 -170.07073014166235 0 0 0 0 -317.14341872440855 326.07151242643158 0 326.07151242643158 -72.424597806908423 0 0 0 0 -3.4266170558824456 -1.5529802763596052 0 -1.5529802763596052 3.4627967231896264 0 0 0 0 -64.436911153461551 258.72430474907742 0 258.72430474907742 -217.4147387103003 0 0 0 0 -247.17725580882689 138.59108781721443 0 138.59108781721443 27.162072740859003 0 0 0 0 -336.95883504240192 263.19431192654883 0 263.19431192654883 -122.75712964705599 0 0 0 0 -364.33538805137505 252.42318802126101 0 252.42318802126101 -117.58247910215869 0 0 0 0 -406.00040225716657 278.92836742346117 0 278.92836742346117 -95.201749670959543 0 0 0 0 -315.48149596931762 269.53499411912344 0 269.53499411912344 -117.86697257657943 0 0 0 0 -343.24811331149249 283.68078107477959 0 283.68078107477959 -147.17839828506112 0 0 0 0 -268.88004561350681 258.02966966075473 0 258.02966966075473 -114.95573596174654 0 0 0 0 -348.42198723605907 244.69281661121749 0 244.69281661121749 -93.198476759076584 0 0 0 0 -206.71262100702734 264.75041996914661 0 264.75041996914661 -112.93594114817097 0 0 0 0 -343.27678459044546 237.69854349878733 0 237.69854349878733 -103.98891094358987 0 0 0 0 -339.39905700198142 239.39426659219316 0 239.39426659219316 -114.13768240867648 0 0 0 0 -93.735198995968091 22.85459008695959 0 22.85459008695959 102.4589319034057 0 0 0 0 -195.05392508549266 394.39530935939547 0 394.39530935939547 -231.4407361074409 0 0 0 0 -302.71460487430886 172.2341864400787 0 172.2341864400787 -42.851959204417653 0 0 0 0 -234.67355563738965 146.21696237038122 0 146.21696237038122 -78.56225966985221 0 0 0 0 -348.82348156389344 222.95607081914932 0 222.95607081914932 -42.271914068463957 0 0 0 0 310.85854835112696 358.13698938478774 0 358.13698938478774 177.61064458702458 0 0 0 0 -460.00166993969469 283.03755920078402 0 283.03755920078402 -64.186358471153653 0 0 0 0 -11.892373752397717 23.374503538413421 0 23.374503538413421 15.595054348747908 0 0 0 0 590.83146975885029 92.817317241046112 0 92.817317241046112 -163.01177289006409 0 0 0 0 -23.64758540444177 18.064764156928078 0 18.064764156928078 -4.8269886090001819 0 0 0 0 15.72245972783081 80.29835531126551 0 80.29835531126551 -123.02414122335716 0 0 0 0 26.320816066407133 164.36789920330921 0 164.36789920330921 -110.81250145862577 0 0 0 0 27.413832293677842 192.40242852560186 0 192.40242852560186 -170.30906728268019 0 0 0 0 -311.56529920351022 263.48941939843644 0 263.48941939843644 -180.22059446811909 0 0 0 0 4.2781927349569742 203.29174637315009 0 203.29174637315009 -93.167639307357604 0 0 0 0 -245.84439887019107 465.48092061463103 0 465.48092061463103 5.4464624761967571 0 0 0 0 -391.76107263263839 191.35480323567754 0 191.35480323567754 -82.145549299195409 0 0 0 0 51.183994057908421 658.70085988019855 0 658.70085988019855 220.41306933929445 0 0 0 0 501.71002453171241 331.44619613215764 0 331.44619613215764 -141.64342429273529 0 0 0 0 109.39231321282568 51.054255471477518 0 51.054255471477518 12.079869129207509 0 0 0 0 1235.8985639582097 69.666486123860523 0 69.666486123860523 -264.18653208567412 0 0 0 0 3.3422078762909138 6.8213601016362304 0 6.8213601016362304 14.866310130574561 0 0 0 0 -1101.5860696117161 283.78137796593364 0 283.78137796593364 57.54456325666979 0 0 0 0 243.75779848126695 631.01948517940036 0 631.01948517940036 106.02888393058674 0 0 0 0 -1448.8423224748985 1062.9505191619974 0 1062.9505191619974 -44.382457556879672 0 0 0 0 -184.66954567084758 36.584657795090607 0 36.584657795090607 -170.07305721222656 0 0 0 0 21.194957782220797 53.864726907360478 0 53.864726907360478 109.36560314334713 0 0 0 0 1296.9816083831247 989.41202133332808 0 989.41202133332808 444.09831331785244 0 0 0 0 630.99014216643991 192.25111297783587 0 192.25111297783587 109.89399796462385 0 0 0 0 -258.51478493749892 665.120313023981 0 665.120313023981 -349.06982431656797 0 0 0 0 27.964876870929288 68.522549752999964 0 68.522549752999964 150.24702523916739 0 0 0 0 -1092.7481581932225 711.13787202746607 0 711.13787202746607 235.82410255467403 0 0 0 0 -193.24356194128632 111.00448245990265 0 111.00448245990265 292.30495782964863 0 0 0 0 13.667774699197849 91.442336844864514 0 91.442336844864514 172.30622712936832 0 0 0 0 43.99469194887206 -8.7247122233966365 0 -8.7247122233966365 264.15307491733711 0 0 0 0 -33.411432940560189 439.70187257994257 0 439.70187257994257 343.69840191208641 0 0 0 0 903.22509745038406 1019.9937922137033 0 1019.9937922137033 509.46815346003496 0 0 0 0 196.95286917232443 468.27335194716943 0 468.27335194716943 709.30136341162142 0 0 0 0 66.319260390708223 535.77210869601549 0 535.77210869601549 753.20811441107071 0 0 0 0 -1.3338896586064948 486.20494895114825 0 486.20494895114825 1978.0687971371808 0 0 0 0 194.10990293032955 817.07564587212983 0 817.07564587212983 1032.7397661542636 0 0 0 0 4.5445930817659246 1379.8705708709604 0 1379.8705708709604 1067.728681411063 0 0 0 0 1787.2176120175864 866.78196465387737 0 866.78196465387737 181.89638771266618 0 0 0 0 2610.795067644427 3376.9827905825769 0 3376.9827905825769 2509.1999591802451 0 0 0 0 4.1940279247386343 -6.048907971418231 0 -6.048907971418231 -2.9910578321081402 0 0 0 0 32.203532559273299 85.525712135757203 0 85.525712135757203 -230.57651388114755 0 0 0 0 -5.5481791963812839 6.1547991441939871 0 6.1547991441939871 25.861193520948348 0 0 0 0 -12.889331608967041 97.817883597665059 0 97.817883597665059 98.981714011810254 0 0 0 0 -105.65298876765883 94.394875012025295 0 94.394875012025295 150.44235830090838 0 0 0 0 20.634678908449132 152.41190362268389 0 152.41190362268389 -60.453931066316727 0 0 0 0 15.437849497895797 49.640506329686303 0 49.640506329686303 99.678462491917116 0 0 0 0 -80.636966675840085 -1.1334282987081679 0 -1.1334282987081679 296.37488262513943 0 0 0 0 7.4427642899061937 17.389084398282932 0 17.389084398282932 48.974270228235753 0 0 0 0 -48.753346877521835 51.087159688860993 0 51.087159688860993 13.79854176659137 0 0 0 0 -0.012138022771978285 94.132525713252107 0 94.132525713252107 35.990543689855258 0 0 0 0 -324.88201781891985 -159.95938387754722 0 -159.95938387754722 1519.2249223608524 0 0 0 0 497.41078720343648 198.0932354351462 0 198.0932354351462 92.945429424755275 0 0 0 0 0.012913206300424918 0.78844926148275363 0 0.78844926148275363 3.0169037560522156 0 0 0 0 -0.30298360403673996 -0.53517601189540187 0 -0.53517601189540187 4.2350716619424915 0 0 0 0 -33.426987149472552 -5.5151747711832968 0 -5.5151747711832968 0.023021802617780196 0 0 0 0 -57.844818397046765 10.378605405094277 0 10.378605405094277 66.465449783529039 0 0 0 0 99.982926224227413 188.11546332789294 0 188.11546332789294 415.63027596821485 0 0 0 0 -35.625969187509327 35.093985632396652 0 35.093985632396652 88.940497665840667 0 0 0 0 -37.009751387988217 77.801425140103674 0 77.801425140103674 127.94187809476716 0 0 0 0 -56.836911963211605 46.445859548730368 0 46.445859548730368 83.028977327456232 0 0 0 0 -64.873864319146378 31.688611780187784 0 31.688611780187784 139.16445825736446 0 0 0 0 -95.379393653571242 5.5509744067642259 0 5.5509744067642259 23.099366744066295 0 0 0 0 -49.34364709998772 21.356861486579874 0 21.356861486579874 104.50451715130475 0 0 0 0 -91.997969826916233 2.5091342495434219 0 2.5091342495434219 226.03288018319438 0 0 0 0 -49.204654180633952 89.107012442145788 0 89.107012442145788 129.57539713618462 0 0 0 0 -9.61996706413629 152.51596254718606 0 152.51596254718606 227.09839999211545 0 0 0 0 -29.412466993875569 99.39675122747758 0 99.39675122747758 102.66253892604436 0 0 0 0 -13.259785467176698 119.88229163984943 0 119.88229163984943 127.89505895212596 0 0 0 0 -24.175789616798284 88.750755902510718 0 88.750755902510718 91.742846564622596 0 0 0 0 -22.652124837735471 60.197419582209207 0 60.197419582209207 59.422704916581367 0 0 0 0 -37.485554135739221 89.119068955260445 0 89.119068955260445 129.01986447600939 0 0 0 0 -41.028428798075765 76.646481173404027 0 76.646481173404027 97.281026423599542 0 0 0 0 -50.929157130303793 63.142102517798776 0 63.142102517798776 65.191780537090381 0 0 0 0 -44.658888879872393 53.381105510474299 0 53.381105510474299 64.748420747797354 0 0 0 0 -35.110260752117028 77.571003189645126 0 77.571003189645126 73.95591747679282 0 0 0 0 -67.632047282357235 58.717085338867037 0 58.717085338867037 65.170336374547333 0 0 0 0 -66.778855676122475 82.455679113627411 0 82.455679113627411 69.862190756335622 0 0 0 0 -50.29452752785437 72.84556500994222 0 72.84556500994222 85.243001503578853 0 0 0 0 -62.636860181271913 47.650663633037766 0 47.650663633037766 78.940432691044407 0 0 0 0 -171.57019915281853 64.557089193425782 0 64.557089193425782 133.01817607412522 0 0 0 0 3.7094168871881266 68.556868947116527 0 68.556868947116527 73.87182798772119 0 0 0 0 -39.657583560649073 59.25991161618731 0 59.25991161618731 102.48283736589656 0 0 0 0 -68.298554678331129 60.831352560220694 0 60.831352560220694 250.31524805241497 0 0 0 0 97.374539511074545 76.047959848903702 0 76.047959848903702 100.24748042004467 0 0 0 0 -18.506554647857342 16.151592555319041 0 16.151592555319041 -6.1304222260746428 0 0 0 0 97.962334490133799 218.88042527624566 0 218.88042527624566 116.42065977785387 0 0 0 0 -29.779057161852108 109.70258772240544 0 109.70258772240544 8.2429578561864716 0 0 0 0 -1.0706185361195821 128.71118867235782 0 128.71118867235782 38.508674911786329 0 0 0 0 -112.72557537314424 138.21563242287812 0 138.21563242287812 152.9133328912867 0 0 0 0 -7.7310762028209865 183.74951312494522 0 183.74951312494522 -61.736195291479817 0 0 0 0 -68.570259514163354 69.846280941772875 0 69.846280941772875 77.655348337604664 0 0 0 0 -249.06288878757914 61.180652593553532 0 61.180652593553532 104.28779480068624 0 0 0 0 -170.01921424722968 251.54709955363069 0 251.54709955363069 48.212153050873894 0 0 0 0 -5.8172776882784021 65.05888772760855 0 65.05888772760855 83.001453037907709 0 0 0 0 32.308445096423384 104.55287669939207 0 104.55287669939207 -113.92242042178987 0 0 0 0 -442.04737265233416 75.004699612516561 0 75.004699612516561 -32.053517937689321 0 0 0 0 -123.45848684100201 121.15272773051402 0 121.15272773051402 -272.56098939015646 0 0 0 0 -124.98655412718654 224.31896336769569 0 224.31896336769569 193.9378219023929 0 0 0 0 3.7887947849433203 54.876177208007107 0 54.876177208007107 -7.6240599329308623 0 0 0 0 -363.17124607745791 251.73007761596818 0 251.73007761596818 -34.32465471548494 0 0 0 0 -288.86628498676873 104.53546032996383 0 104.53546032996383 -107.50032827625546 0 0 0 0 -97.675234574149385 0.14704692905972649 0 0.14704692905972649 101.33101262712239 0 0 0 0 -419.12258306889044 389.50822638942554 0 389.50822638942554 -81.678636090684449 0 0 0 0 -143.35164462105604 228.87480141807828 0 228.87480141807828 -162.5012969695963 0 0 0 0 -64.634509478637483 -10.866237910988275 0 -10.866237910988275 85.177757389319595 0 0 0 0 11.954106693156206 44.618493439792985 0 44.618493439792985 96.764223732827759 0 0 0 0 -4.5565627381874947 84.902388119910029 0 84.902388119910029 20.893268308209372 0 0 0 0 -9.7125264620929244 60.267746378595518 0 60.267746378595518 102.6012251059168 0 0 0 0 28.392489191784989 57.137632248777663 0 57.137632248777663 133.25347884127405 0 0 0 0 -143.22375534959428 66.631851485275547 0 66.631851485275547 89.02608234139916 0 0 0 0 -68.901482208261115 40.386916953129628 0 40.386916953129628 24.950434767526588 0 0 0 0 -155.15704258810001 50.142369609478919 0 50.142369609478919 206.23760836868314 0 0 0 0 -86.819464278669329 98.858022312691901 0 98.858022312691901 236.98756561295886 0 0 0 0 6.6100379160016018 124.60722714816802 0 124.60722714816802 197.84232016227907 0 0 0 0 91.578814817694365 3.5369204892922426 0 3.5369204892922426 340.38411730833468 0 0 0 0 -225.28968072930002 116.82835020682251 0 116.82835020682251 301.76632346599945 0 0 0 0 -4.5284058932908877 94.948239651468924 0 94.948239651468924 163.11417187951776 0 0 0 0 483.70411139716452 36.884888833388686 0 36.884888833388686 -522.61322444523103 0 0 0 0 11.426277889148764 79.451717843420951 0 79.451717843420951 133.5985779147889 0 0 0 0 6.6729414862202248 191.6227674492111 0 191.6227674492111 30.377029908093391 0 0 0 0 -54.085206715913955 232.52712898424943 0 232.52712898424943 410.64949436314055 0 0 0 0 36.388096421782393 149.26986553001188 0 149.26986553001188 337.51907187676989 0 0 0 0 -252.25896237342386 205.4987175622955 0 205.4987175622955 327.53972254108521 0 0 0 0 -7.3982446136215003 304.56308319007985 0 304.56308319007985 521.00113004748709 0 0 0 0 885.19105433891673 512.33783233174472 0 512.33783233174472 -296.03540277729917 0 0 0 0 -12.775205006881151 256.53524803563778 0 256.53524803563778 126.85084577352973 0 0 0 0 197.29513614447205 427.52569785251399 0 427.52569785251399 276.78550422575063 0 0 0 0 -203.038795224762 -7.5041443356894888 0 -7.5041443356894888 634.63852229437907 0 0 0 0 -84.601467759399384 -52.491943459499453 0 -52.491943459499453 77.694750618480612 0 0 0 0 16.2677273736372 27.143095097862215 0 27.143095097862215 30.395193637180626 0 0 0 0 -25.737977052456699 165.88776893151226 0 165.88776893151226 151.85074434085982 0 0 0 0 4.4710992268760918 23.170418703447126 0 23.170418703447126 63.712597276668873 0 0 0 0 190.26565694190185 205.70148039536161 0 205.70148039536161 89.245138838479761 0 0 0 0 38.063333683559904 99.888061291945633 0 99.888061291945633 179.74369679125812 0 0 0 0 -10.151855583389988 107.42982132233738 0 107.42982132233738 51.333098971401341 0 0 0 0 -62.044621544548136 94.48110299365726 0 94.48110299365726 3.6881957465666346 0 0 0 0 14.703457728290232 103.43116114761506 0 103.43116114761506 33.84864482015837 0 0 0 0 32.750110356471154 118.86061183599577 0 118.86061183599577 1.2226990928828627 0 0 0 0 18.26054929649581 63.642898865377674 0 63.642898865377674 166.97657467986383 0 0 0 0 -28.32599051494617 113.21484112762846 0 113.21484112762846 39.209925602102885 0 0 0 0 48.609198725335744 197.68184753830255 0 197.68184753830255 77.864458206557231 0 0 0 0 -15.573991517502691 93.239287501294712 0 93.239287501294712 106.71580811488093 0 0 0 0 -101.81193607274326 188.23960574195371 0 188.23960574195371 89.887494036367571 0 0 0 0 -57.877177774498705 189.57100681312295 0 189.57100681312295 72.097503395940294 0 0 0 0 -13.067493926936493 76.398192710323741 0 76.398192710323741 104.82038243333673 0 0 0 0 -47.468545088522717 59.953626919983876 0 59.953626919983876 191.39327817150303 0 0 0 0 27.744696618835661 78.632000030046569 0 78.632000030046569 16.471693879614122 0 0 0 0 10.008062567102854 81.288967836437763 0 81.288967836437763 92.963952345334746 0 0 0 0 -100.68623996987299 108.4810405401804 0 108.4810405401804 24.569739522186865 0 0 0 0 -3.2511723761672329 104.13840190237897 0 104.13840190237897 101.07311464416853 0 0 0 0 -36.654625070470502 38.272981784306467 0 38.272981784306467 12.88848198694177 0 0 0 0 9.9459696530666051 54.170461421584079 0 54.170461421584079 66.989333344142779 0 0 0 0 -195.83780153896078 114.54065360943787 0 114.54065360943787 306.63185318536125 0 0 0 0 -36.076450392128493 47.411108733211996 0 47.411108733211996 78.304617502059045 0 0 0 0 -145.73825053899782 9.9238757433486171 0 9.9238757433486171 -38.613876260118559 0 0 0 0 27.937082670637324 118.6627320826114 0 118.6627320826114 125.49494992052388 0 0 0 0 -32.633616756600247 -13.002185145470889 0 -13.002185145470889 17.777323422001871 0 0 0 0 134.16143264761922 232.91241788706975 0 232.91241788706975 135.19640288810479 0 0 0 0 -5.5365932417334989 115.82730801535945 0 115.82730801535945 114.93783445355075 0 0 0 0 -51.303453045489732 201.36791339644697 0 201.36791339644697 368.9045098083734 0 0 0 0 -47.142883195782929 55.355331511302012 0 55.355331511302012 18.040219940881428 0 0 0 0 -66.21790414879797 140.5767910067807 0 140.5767910067807 176.69654716073273 0 0 0 0 -75.104358312411932 145.64088954098406 0 145.64088954098406 176.99924153800839 0 0 0 0 -72.704220505575904 179.0700917123213 0 179.0700917123213 51.680484710639575 0 0 0 0 -7.8130050020820363 97.892181791449332 0 97.892181791449332 40.493432852175133 0 0 0 0 -26.813086568164977 86.108218590116678 0 86.108218590116678 -21.695446563336759 0 0 0 0 -67.098471947727376 223.42528849094379 0 223.42528849094379 -35.523127880238462 0 0 0 0 -28.505276673084722 97.328523965218693 0 97.328523965218693 -2.7853741519310518 0 0 0 0 10.754381474398542 132.65056640400871 0 132.65056640400871 31.406371019751532 0 0 0 0 -151.62945329479408 134.80409749240789 0 134.80409749240789 87.968893547149491 0 0 0 0 -7.5191107410407199 26.009211407403825 0 26.009211407403825 25.368629416865872 0 0 0 0 62.924207672273042 144.65679253615963 0 144.65679253615963 33.603518918389454 0 0 0 0 -71.761624466145804 175.11672589890259 0 175.11672589890259 83.267170730308862 0 0 0 0 -69.175201249076054 76.287119142070878 0 76.287119142070878 129.95868773481925 0 0 0 0 -94.884655294154072 61.283075235252909 0 61.283075235252909 201.03945615381235 0 0 0 0 -19.343939956423128 164.29257578753459 0 164.29257578753459 32.159109504369553 0 0 0 0 -107.04818310936753 165.2180402122267 0 165.2180402122267 145.57362690044101 0 0 0 0 -46.255782706546597 113.68839369816124 0 113.68839369816124 188.44989002263173 0 0 0 0 4.0688679162267363 119.10580165484498 0 119.10580165484498 186.83975186210591 0 0 0 0 -35.391435197961982 24.327308992076723 0 24.327308992076723 263.05145110865124 0 0 0 0 75.485719180447632 77.942289761529537 0 77.942289761529537 206.41018984868424 0 0 0 0 37.54867582742736 -8.5158030558741302 0 -8.5158030558741302 267.22736077447189 0 0 0 0 -69.07484396910877 -8.0457963505468797 0 -8.0457963505468797 329.32941922656028 0 0 0 0 -82.438512639113469 32.806412477581034 0 32.806412477581034 285.23176726570819 0 0 0 0 -71.494778100517578 70.760602177790133 0 70.760602177790133 204.80307109671412 0 0 0 0 -92.398131721274694 83.905437846377026 0 83.905437846377026 216.14286849100608 0 0 0 0 -90.815759829274612 73.301499064444215 0 73.301499064444215 282.9336601497489 0 0 0 0 -113.72757320065284 88.241861860908102 0 88.241861860908102 300.11925083359529 0 0 0 0 -149.86147769348463 119.64884370562504 0 119.64884370562504 399.78187597662327 0 0 0 0 -171.40478703358531 41.018697650226386 0 41.018697650226386 340.01738099177601 0 0 0 0 -118.3947538859793 43.267338782694424 0 43.267338782694424 337.36676968346001 0 0 0 0 -117.41747467609821 36.183085259253858 0 36.183085259253858 307.53112583831535 0 0 0 0 -9.0187936800677448 7.9383337678800672 0 7.9383337678800672 -5.3137750747973769 0 0 0 0 -124.11234967812197 20.419539597205585 0 20.419539597205585 347.21367095653841 0 0 0 0 310.9706992112333 33.952541962207761 0 33.952541962207761 -459.77528759527195 0 0 0 0 562.05281587439822 259.28097391413758 0 259.28097391413758 -457.58379017585867 0 0 0 0 -803.59236091768253 590.14626943561598 0 590.14626943561598 713.33121860527899 0 0 0 0 -39.68612702008204 89.984181058120129 0 89.984181058120129 17.439592238005218 0 0 0 0 -47.529139839170966 59.732289114006562 0 59.732289114006562 51.227349603024777 0 0 0 0 -43.262036901200588 59.363590884698283 0 59.363590884698283 -7.5051804484672857 0 0 0 0 -347.98675094959617 169.87435328069114 0 169.87435328069114 88.023187910061097 0 0 0 0 -7.1574605100746567 12.345454093191336 0 12.345454093191336 -7.9869361026151893 0 0 0 0 36.747036699787714 178.11553605501831 0 178.11553605501831 86.825579792406643 0 0 0 0 194.26611859950935 -239.28666176789557 0 -239.28666176789557 -250.24839030965813 0 0 0 0 -101.80983842286514 -0.27562537712219637 0 -0.27562537712219637 113.23958924596081 0 0 0 0 -20.723220668165595 82.461182211416599 0 82.461182211416599 41.877464371646056 0 0 0 0 -0.20450544299092144 74.481242560890678 0 74.481242560890678 0.88090009844745509 0 0 0 0 -35.717160651224049 54.094347945460498 0 54.094347945460498 19.590731910035586 0 0 0 0 1.4847149791551715 4.5173844222473463 0 4.5173844222473463 9.8020054430670172 0 0 0 0 -20.058802041850868 78.029145967666409 0 78.029145967666409 42.115520673967694 0 0 0 0 17.652898166736492 56.412479756311342 0 56.412479756311342 65.861416428398741 0 0 0 0 -22.685876561823534 62.484149011404952 0 62.484149011404952 16.673918319575023 0 0 0 0 -19.873305776680354 142.54236275624135 0 142.54236275624135 208.71664764165325 0 0 0 0 -29.024897362733043 24.843324221050921 0 24.843324221050921 14.716119994463639 0 0 0 0 -38.724847555451561 134.66208167090372 0 134.66208167090372 206.10273048898671 0 0 0 0 -18.375318360864185 153.7694932960585 0 153.7694932960585 136.26440405065659 0 0 0 0 -18.730741690174909 107.33688931101642 0 107.33688931101642 155.30647289651097 0 0 0 0 -3.6390271282289177 125.10985546541633 0 125.10985546541633 127.2063447666369 0 0 0 0 -7.3873969614796806 99.867750731427805 0 99.867750731427805 60.031217466166709 0 0 0 0 17.710466002938915 66.985585427858211 0 66.985585427858211 24.822227778412298 0 0 0 0 30.374245855491608 107.77752976000193 0 107.77752976000193 32.536008814917295 0 0 0 0 41.687587990469183 75.718332539294352 0 75.718332539294352 -14.337174958491232 0 0 0 0 23.239692725450681 63.183872929085794 0 63.183872929085794 10.011280313762768 0 0 0 0 5.2923588641278911 83.513453754370857 0 83.513453754370857 12.564511438540649 0 0 0 0 33.216820598696359 63.056169962190324 0 63.056169962190324 -21.468313755525742 0 0 0 0 30.812070373212919 103.89431100743241 0 103.89431100743241 35.483783303876407 0 0 0 0 2.7669679407771923 69.821353797140659 0 69.821353797140659 1.0719341340196138 0 0 0 0 -16.966989754501327 137.8459129449019 0 137.8459129449019 -8.7798739329325599 0 0 0 0 24.47616073073732 83.114677806444888 0 83.114677806444888 31.967782055166026 0 0 0 0 39.084292036248371 72.240408444493369 0 72.240408444493369 7.1272944034037664 0 0 0 0 -16.283974396152189 48.597898669424467 0 48.597898669424467 55.793363929267798 0 0 0 0 -2.142862172546927 43.383489681439528 0 43.383489681439528 33.037456404298325 0 0 0 0 -23.232127261420828 47.643170204351918 0 47.643170204351918 58.563351750257425 0 0 0 0 12.196774860506252 47.690129569694136 0 47.690129569694136 76.576655182554589 0 0 0 0 -2.9619499921106183 23.259317245768671 0 23.259317245768671 40.022444785914786 0 0 0 0 -2.4551333123235963 39.846670663566329 0 39.846670663566329 4.8255597432653303 0 0 0 0 -94.182615733094281 7.401762428929942 0 7.401762428929942 67.151675677334424 0 0 0 0 9.1246590536602241 31.888625749199775 0 31.888625749199775 15.702054164621359 0 0 0 0 3.4250260602857452 59.114637757273158 0 59.114637757273158 7.4792410740046762 0 0 0 0 -2.1576233060287677 5.3620145243050317 0 5.3620145243050317 4.2398484675452721 0 0 0 0 -0.010546608711592853 29.144495822220051 0 29.144495822220051 -22.340435505746427 0 0 0 0 -0.3126292540691793 483.56136068081832 0 483.56136068081832 27.347900090679104 0 0 0 0 6.624287409179658 -1.6314447641390259 0 -1.6314447641390259 -5.1512861988265399 0 0 0 0 5.3469583757541841 -51.742854574069497 0 -51.742854574069497 83.064297529985197 0 0 0 0 -1.5121948468049595 -0.78561392052641565 0 -0.78561392052641565 5.2723540037221568 0 0 0 0 29.34574936228455 115.61283100811124 0 115.61283100811124 212.89099782009362 0 0 0 0 -0.10436173664884722 121.96094947685427 0 121.96094947685427 174.17457564323558 0 0 0 0 -1.7693176917091478 105.815733034804 0 105.815733034804 248.53124507227039 0 0 0 0 155.4345025937364 215.45570657018106 0 215.45570657018106 195.82988780876622 0 0 0 0 -15.31664184568217 20.463298748116358 0 20.463298748116358 16.311201195116155 0 0 0 0 -7.2807670324546052 43.804162557033123 0 43.804162557033123 54.22363617811061 0 0 0 0 -48.235423212670867 14.191509763804163 0 14.191509763804163 27.955274044684131 0 0 0 0 -27.25735382939456 188.93138045005617 0 188.93138045005617 219.04057293330698 0 0 0 0 -14.561405180080328 43.73559312173893 0 43.73559312173893 56.551436538022244 0 0 0 0 -56.052558433031663 136.16010212153196 0 136.16010212153196 723.2095054475285 0 0 0 0 0.057812118660990564 -0.21409831669035384 0 -0.21409831669035384 2.6981558865961759 0 0 0 0 -52.145565629616613 106.28495719742205 0 106.28495719742205 123.06405600419384 0 0 0 0 -40.900949289833079 83.658367023906976 0 83.658367023906976 166.65507742253249 0 0 0 0 -9.4777008930686861 193.9074380176462 0 193.9074380176462 220.30756308943091 0 0 0 0 -0.019769306571106426 116.57989192838431 0 116.57989192838431 -35.726777720919927 0 0 0 0 -37.778231872682227 82.393911954241048 0 82.393911954241048 14.906340495828772 0 0 0 0 -8.1140455663553439 41.992563904605049 0 41.992563904605049 125.3109401808033 0 0 0 0 10.010860075592063 134.2304367308825 0 134.2304367308825 47.311168527201517 0 0 0 0 35.363612192908477 -20.530237614628277 0 -20.530237614628277 183.88497727023787 0 0 0 0 -19.70178634642798 -83.03370338503737 0 -83.03370338503737 270.05890569071789 0 0 0 0 -102.19992493280733 132.63049483281793 0 132.63049483281793 260.39747279063431 0 0 0 0 -109.07117482848116 23.294370760078891 0 23.294370760078891 174.2022581701749 0 0 0 0 -184.61445128398191 192.23452888613247 0 192.23452888613247 64.583716922439635 0 0 0 0 -156.23480260673387 103.48905825805559 0 103.48905825805559 312.27814102341654 0 0 0 0 -226.80788134325121 292.67288861508132 0 292.67288861508132 257.2864121394814 0 0 0 0 -177.40245235025941 355.72010709825554 0 355.72010709825554 249.62006844733696 0 0 0 0 -182.7163195029425 305.38545316037198 0 305.38545316037198 553.18094923174067 0 0 0 0 -186.2055013045283 290.33233046422538 0 290.33233046422538 488.46190961572574 0 0 0 0 -48.232028848637128 139.00269592208497 0 139.00269592208497 604.38742478279164 0 0 0 0 -74.674169403631822 45.269910415867344 0 45.269910415867344 415.01600745844189 0 0 0 0 -67.670690819625634 95.281179811896436 0 95.281179811896436 649.6197732880828 0 0 0 0 -51.32642443136865 97.920122730647563 0 97.920122730647563 1021.5917738458957 0 0 0 0 495.68727272606338 -120.02867870475166 0 -120.02867870475166 540.99863401916809 0 0 0 0 1068.873339420883 208.90079514305398 0 208.90079514305398 623.25295548986469 0 0 0 0 236.67006344921538 415.57963247262524 0 415.57963247262524 572.34908417603583 0 0 0 0 152.94632876099786 192.01361431661644 0 192.01361431661644 405.85979711834807 0 0 0 0 -242.24775023692928 242.38805006160601 0 242.38805006160601 540.58307274599792 0 0 0 0 73.485619557563041 -147.64429331120482 0 -147.64429331120482 341.26845837042492 0 0 0 0 -49.908969660114963 67.250011300202459 0 67.250011300202459 476.98657826657291 0 0 0 0 -10.967971126793884 4.6420725573782988 0 4.6420725573782988 -0.34065796029700834 0 0 0 0 147.74218229389226 664.46975274430588 0 664.46975274430588 -2897.8871848655072 0 0 0 0 -70.045730952646409 142.89182979573525 0 142.89182979573525 -410.99824527571036 0 0 0 0 -328.91853535810515 559.80620594189895 0 559.80620594189895 -1395.9694482404157 0 0 0 0 -3.2927571064660697 5.3161983289508896 0 5.3161983289508896 2.1037909841861051 0 0 0 0 -73.490718173590722 365.16792846346652 0 365.16792846346652 -201.06298486006563 0 0 0 0 -37.263624777642946 9.2941637383853504 0 9.2941637383853504 1.7415081691400474 0 0 0 0 -74.689618679425621 601.20614915157057 0 601.20614915157057 -1962.2484228184039 0 0 0 0 2.0602456906199222 562.13268901666015 0 562.13268901666015 -1431.1884593320719 0 0 0 0 -69.590231436423323 6.5309875686472765 0 6.5309875686472765 3.7618455138720464 0 0 0 0 -179.17284919189115 -96.00455930197495 0 -96.00455930197495 317.53982385012205 0 0 0 0 -334.7126461040607 560.0419211786575 0 560.0419211786575 -784.26832083385671 0 0 0 0 -129.13797664367303 659.92094665945842 0 659.92094665945842 -547.0781983017223 0 0 0 0 -76.276478442479856 292.18874987949675 0 292.18874987949675 -654.74847926403163 0 0 0 0 -317.98792292142753 514.8762386743183 0 514.8762386743183 -530.4219405506883 0 0 0 0 -204.02414070606756 324.40218407587963 0 324.40218407587963 -974.60252348981157 0 0 0 0 -427.84611012001551 424.1925014513472 0 424.1925014513472 -379.04886074498063 0 0 0 0 -347.20793162354676 358.07554499953403 0 358.07554499953403 -523.29259340101271 0 0 0 0 -487.42158716762788 329.19164316146635 0 329.19164316146635 -2.2200082910676429 0 0 0 0 -543.10390333173564 219.86426637326076 0 219.86426637326076 96.179772970106569 0 0 0 0 -109.35317639655483 21.223463788286153 0 21.223463788286153 -0.35489914822717594 0 0 0 0 -434.2960220015666 190.98619579638762 0 190.98619579638762 115.90035019830975 0 0 0 0 -128.37469363263517 156.53556268164539 0 156.53556268164539 39.076835142506752 0 0 0 0 -96.4393137266743 -144.15880102025403 0 -144.15880102025403 82.579737461404875 0 0 0 0 -395.42126327182632 197.27849199966295 0 197.27849199966295 -123.8964002407738 0 0 0 0 -438.71647032580222 281.22930283824098 0 281.22930283824098 -141.91249737364706 0 0 0 0 -480.31571553047979 260.74983792551211 0 260.74983792551211 -94.890782402653713 0 0 0 0 -577.30492356600007 308.53622485883534 0 308.53622485883534 -116.14231406460749 0 0 0 0 -454.71920028235763 311.07524411304621 0 311.07524411304621 -180.26663468184415 0 0 0 0 -468.34352822054643 304.59933837724384 0 304.59933837724384 -178.60493019706337 0 0 0 0 -402.22252753173234 210.28762413724326 0 210.28762413724326 -163.06056553476083 0 0 0 0 -470.44566910498543 282.53483923664317 0 282.53483923664317 -134.24757974594831 0 0 0 0 -409.94392928900197 303.77393349725753 0 303.77393349725753 -357.27225176792126 0 0 0 0 -381.74204348918283 260.60135519492906 0 260.60135519492906 -295.93758913164493 0 0 0 0 -444.05277777001902 160.88527511894063 0 160.88527511894063 68.762159695063019 0 0 0 0 -23.241756741351026 5.173365243141177 0 5.173365243141177 0.30816400848743797 0 0 0 0 -7.1949295004459444 19.063033022152808 0 19.063033022152808 -25.003558843120913 0 0 0 0 -459.23099177591212 255.54378469030053 0 255.54378469030053 -346.9786607856222 0 0 0 0 -564.33514794547955 269.97210870916024 0 269.97210870916024 -99.561366791662294 0 0 0 0 -589.39383150107096 246.09274254835691 0 246.09274254835691 -120.47520278015872 0 0 0 0 -868.92153587704524 250.00056202043197 0 250.00056202043197 -27.82016041141469 0 0 0 0 -500.91360063292086 374.04910307799582 0 374.04910307799582 -308.14957529678941 0 0 0 0 -9.85754758892665 28.523327752338162 0 28.523327752338162 -3.155972999751441 0 0 0 0 55.08913347154207 60.845149701284953 0 60.845149701284953 -50.777018955104381 0 0 0 0 -368.93732167827693 303.87151602234007 0 303.87151602234007 -193.47114846430486 0 0 0 0 -151.40837680210825 84.276345320977271 0 84.276345320977271 -258.35046691237949 0 0 0 0 4.4546495928042305 66.743701947445444 0 66.743701947445444 -40.23863269439596 0 0 0 0 19.348040075947296 -8.4640709810539079 0 -8.4640709810539079 1.9909434543437783 0 0 0 0 -542.83889442321379 430.69544231866894 0 430.69544231866894 -207.9715793854557 0 0 0 0 -420.47078568654251 258.86372492779628 0 258.86372492779628 -95.127910003764555 0 0 0 0 -472.21602555992285 299.75474045689043 0 299.75474045689043 -179.1135400357889 0 0 0 0 -481.971702407056 340.89676703274017 0 340.89676703274017 -202.42858048944618 0 0 0 0 -523.47164349164814 328.90396454930305 0 328.90396454930305 -131.14417826849967 0 0 0 0 -550.0719796322519 403.18597005843185 0 403.18597005843185 -232.62034002243308 0 0 0 0 -609.40761153411586 388.50571766262874 0 388.50571766262874 -147.0426980353368 0 0 0 0 -474.41226796049159 514.22443440725328 0 514.22443440725328 -506.37490190775134 0 0 0 0 -561.48124617052963 446.36494432808831 0 446.36494432808831 -218.81183246592991 0 0 0 0 -64.398974532974535 157.77205310259887 0 157.77205310259887 -197.0940280953655 0 0 0 0 -710.69322160197771 453.83650938107894 0 453.83650938107894 -167.73821844300255 0 0 0 0 -651.62089285979891 202.23955247795675 0 202.23955247795675 -220.18742234795354 0 0 0 0 -229.27240105601959 237.30627875310893 0 237.30627875310893 -276.71718623995548 0 0 0 0 -395.14344135212013 362.53502140940691 0 362.53502140940691 -129.90445867856033 0 0 0 0 -526.82995318727626 258.78436727126973 0 258.78436727126973 -13.687497317732777 0 0 0 0 -442.59348932303692 71.700232564926409 0 71.700232564926409 395.91745982714929 0 0 0 0 -392.80570118326432 206.66618330011261 0 206.66618330011261 16.670996110522537 0 0 0 0 -433.26299516404106 192.96688421034196 0 192.96688421034196 -57.733719190669945 0 0 0 0 -410.14563428473775 283.36094980598136 0 283.36094980598136 -138.78719973936677 0 0 0 0 -111.95159228588238 -12.388400084898691 0 -12.388400084898691 87.657299444954674 0 0 0 0 -367.52095558019937 245.85432122615748 0 245.85432122615748 -152.13677876972361 0 0 0 0 -364.97109545949934 269.49407452959895 0 269.49407452959895 -188.97369344386971 0 0 0 0 -1812.0696130284923 819.33630742476089 0 819.33630742476089 697.75629108742578 0 0 0 0 1241.7625317067141 653.97581005937536 0 653.97581005937536 -2773.344301569392 0 0 0 0 -1565.6150382807245 1314.789244974032 0 1314.789244974032 -657.36786071350798 0 0 0 0 -417.22065662400564 176.50190876875422 0 176.50190876875422 360.09670875716256 0 0 0 0 -2051.0247978067855 417.96865485088347 0 417.96865485088347 906.02423055499094 0 0 0 0 -6.7521435226808535 167.00887469048757 0 167.00887469048757 -41.188560437731212 0 0 0 0 -25.163924831519836 6.084205170030998 0 6.084205170030998 -6.1771122878580513 0 0 0 0 -190.97122359651257 -494.83426554338075 0 -494.83426554338075 179.35668270611495 0 0 0 0 -211.17976999142411 421.52863100884133 0 421.52863100884133 -355.12276918024872 0 0 0 0 -117.44159302549087 -20.702616316091735 0 -20.702616316091735 42.231024927785256 0 0 0 0 -330.57538712921087 249.25325534099829 0 249.25325534099829 59.250013960774595 0 0 0 0 -502.29586404233123 452.33166434700252 0 452.33166434700252 -255.54319603911426 0 0 0 0 -415.29079250525683 175.42582302977098 0 175.42582302977098 -39.085309783462435 0 0 0 0 -267.90637417996186 23.971063280565431 0 23.971063280565431 95.380019574775361 0 0 0 0 -247.97508246757934 102.90461710762975 0 102.90461710762975 -164.09893891122192 0 0 0 0 -511.75961784460378 54.086193706039921 0 54.086193706039921 -146.06371059763478 0 0 0 0 -486.1856834924256 139.09316382097313 0 139.09316382097313 80.017372970469296 0 0 0 0 -391.07801326355548 271.87508040582179 0 271.87508040582179 -501.23100321099628 0 0 0 0 57.459099432932121 49.554884614095656 0 49.554884614095656 -77.584830455232122 0 0 0 0 -112.19058765753863 -11.493925138952633 0 -11.493925138952633 76.825068487265298 0 0 0 0 -830.20327619885211 568.94536788736877 0 568.94536788736877 14.067172241600929 0 0 0 0 308.54478768477566 -644.92814143444411 0 -644.92814143444411 208.45732817886164 0 0 0 0 -427.40923997664504 298.6008840148279 0 298.6008840148279 -202.52693296318466 0 0 0 0 -447.81142379235826 524.95209348032949 0 524.95209348032949 -440.18171881656599 0 0 0 0 -439.5785083056544 111.37127143057296 0 111.37127143057296 170.36664707073942 0 0 0 0 950.75029799740332 -582.85388363869788 0 -582.85388363869788 -998.92297996761044 0 0 0 0 -896.43854790687328 289.77836998816929 0 289.77836998816929 102.65066455106717 0 0 0 0 -788.31239400760387 419.42710890136368 0 419.42710890136368 111.48459260084201 0 0 0 0 -470.26551836670842 315.18833927210653 0 315.18833927210653 53.893706578761339 0 0 0 0 -430.61633127531968 331.16962202909053 0 331.16962202909053 -10.280401454743696 0 0 0 0 -399.02516339289286 219.54722847251833 0 219.54722847251833 90.332091712451074 0 0 0 0 -392.91231580592284 216.08865939581301 0 216.08865939581301 205.46201112610288 0 0 0 0 -254.84634871437447 365.99785400694236 0 365.99785400694236 87.881789661420044 0 0 0 0 -466.17318188511126 291.2539496008103 0 291.2539496008103 156.32329716300592 0 0 0 0 -269.02975142232026 448.69315430289134 0 448.69315430289134 101.02145811694209 0 0 0 0 -297.37648787157377 471.15363966714358 0 471.15363966714358 89.154809982224833 0 0 0 0 -407.36067697202088 263.50887635236722 0 263.50887635236722 -153.61849482846446 0 0 0 0 -98.844692914164625 850.6973855602555 0 850.6973855602555 249.92467251504422 0 0 0 0 -195.32941761528491 592.68287776442594 0 592.68287776442594 -192.35519964399282 0 0 0 0 -312.82724741019774 675.97927677666303 0 675.97927677666303 790.18690116441576 0 0 0 0 -344.36390618147561 810.99935186619405 0 810.99935186619405 886.41480906639481 0 0 0 0 -456.78104736276146 747.50690748245688 0 747.50690748245688 1307.7088479893282 0 0 0 0 -314.17204560525715 447.21661776228575 0 447.21661776228575 1840.9439274627948 0 0 0 0 -327.20239522040356 290.92010281287367 0 290.92010281287367 1520.9822792991763 0 0 0 0 -344.7629086691104 462.76649078021183 0 462.76649078021183 1117.4295243389206 0 0 0 0 98.981818306870991 383.18300189473666 0 383.18300189473666 1858.377605523041 0 0 0 0 578.56444984844711 453.51065898669185 0 453.51065898669185 997.98298250720836 0 0 0 0 328.07798579827067 510.3719489776413 0 510.3719489776413 1546.5486404204858 0 0 0 0 224.71082136267796 43.137362850597128 0 43.137362850597128 1453.8261464491225 0 0 0 0 58.140954026835971 613.88061400107108 0 613.88061400107108 1681.0828047393006 0 0 0 0 1242.6710500921472 457.79777587612625 0 457.79777587612625 1547.3038730733242 0 0 0 0 -356.34039081877563 1563.4555635456927 0 1563.4555635456927 818.86617543018656 0 0 0 0 343.88389707752503 -133.39373978471849 0 -133.39373978471849 3216.7946021533571 0 0 0 0 -20.589533055607006 15.151861161298569 0 15.151861161298569 -6.8821427209629746 0 0 0 0 -256.08536863472546 542.27039662981406 0 542.27039662981406 3083.5524661554664 0 0 0 0 343.83136255366844 768.39314348922926 0 768.39314348922926 2368.6539215602679 0 0 0 0 -14.434332381967309 15.450949302480737 0 15.450949302480737 -9.0660791444654478 0 0 0 0 825.83596651286643 -1030.6939811353514 0 -1030.6939811353514 2531.8344610143686 0 0 0 0 -380.12938720808597 256.74055461550597 0 256.74055461550597 -1011.4815648697113 0 0 0 0 -326.71425802668091 1518.556557214004 0 1518.556557214004 -1213.7929693016922 0 0 0 0 -289.01397662586533 581.23192755895434 0 581.23192755895434 -73.494055057992227 0 0 0 0 -827.88800055847969 119.91021860700857 0 119.91021860700857 -214.71029056957923 0 0 0 0 -660.84505025978433 361.38835225993535 0 361.38835225993535 81.846758953935932 0 0 0 0 29.669260793249123 -184.83518786728382 0 -184.83518786728382 937.50988570513437 0 0 0 0 -159.46933766415168 -322.20104313810589 0 -322.20104313810589 902.26548495667521 0 0 0 0 348.66546268737875 -136.81037005473627 0 -136.81037005473627 935.33985231267252 0 0 0 0 -690.48011304021929 -36.087931283051148 0 -36.087931283051148 649.55954466137337 0 0 0 0 -232.05714497799636 -44.617276387230959 0 -44.617276387230959 250.37193099680007 0 0 0 0 -96.468320301035419 -258.24365200306056 0 -258.24365200306056 507.98418416944332 0 0 0 0 -415.78097269608406 49.223082526237704 0 49.223082526237704 937.26500864763511 0 0 0 0 -432.78756589182012 -32.002562580230006 0 -32.002562580230006 549.98821994214086 0 0 0 0 -637.31493662393768 303.86995419951563 0 303.86995419951563 820.03553375304909 0 0 0 0 -538.0857955635438 138.43498685609666 0 138.43498685609666 1071.8682754216134 0 0 0 0 -241.27765535368235 40.914655066619162 0 40.914655066619162 793.55933026754064 0 0 0 0 -101.87240303323779 -120.46612759903655 0 -120.46612759903655 1609.4189040369238 0 0 0 0 -211.96592791983858 129.05164602724835 0 129.05164602724835 1055.3860265214171 0 0 0 0 82.591497449553572 558.00132137848414 0 558.00132137848414 1091.4109333590022 0 0 0 0 -185.49997630000871 489.48418600164587 0 489.48418600164587 1142.6506903330737 0 0 0 0 172.78770899149822 532.83432823244948 0 532.83432823244948 569.82333030516747 0 0 0 0 -449.46832789434848 420.27426966934581 0 420.27426966934581 588.87582153719268 0 0 0 0 -193.35728361728434 559.31973355476839 0 559.31973355476839 626.50271058117505 0 0 0 0 -153.01080769299006 663.06157278368482 0 663.06157278368482 289.22075736432453 0 0 0 0 -114.18945202822215 557.43397667622776 0 557.43397667622776 315.00981114967726 0 0 0 0 -32.884284303654567 698.47584778131568 0 698.47584778131568 536.4110412633745 0 0 0 0 -270.19366938469466 619.07506566040684 0 619.07506566040684 604.13555094896583 0 0 0 0 36.924742271570722 465.34124077879824 0 465.34124077879824 582.89731223322451 0 0 0 0 -399.45752419233031 511.64689186090254 0 511.64689186090254 1082.7035748851777 0 0 0 0 54.265448172664037 219.07204062058008 0 219.07204062058008 968.14947310724529 0 0 0 0 -37.035603656011517 364.45514634565916 0 364.45514634565916 742.04110033751931 0 0 0 0 -16.366281895257998 376.59951913464465 0 376.59951913464465 1005.1871584112523 0 0 0 0 79.981993100285763 414.80757368411287 0 414.80757368411287 998.56889295825385 0 0 0 0 128.08963992545978 559.52062806763934 0 559.52062806763934 644.30112121498678 0 0 0 0 -3.2226632793635872 1.0528730129213102 0 1.0528730129213102 8.6058934461555054 0 0 0 0 657.85913480834279 750.26046570080507 0 750.26046570080507 419.18635078755506 0 0 0 0 -1785.1028412799969 -572.24143404074493 0 -572.24143404074493 564.79887799712014 0 0 0 0 -1142.856911665649 -482.17512009680649 0 -482.17512009680649 -59.597419225843623 0 0 0 0 -1546.0536795415974 -41.2435751920857 0 -41.2435751920857 811.76755784504348 0 0 0 0 -1286.4719201822008 -183.36060201340297 0 -183.36060201340297 612.29544439294841 0 0 0 0 -797.9358185660094 218.4023192715249 0 218.4023192715249 409.09233898794628 0 0 0 0 -912.21039654506603 136.32572023759712 0 136.32572023759712 553.48551477765432 0 0 0 0 -774.60402001821058 26.06389917141496 0 26.06389917141496 557.97161369636888 0 0 0 0 -469.86502412476693 492.23512883367221 0 492.23512883367221 342.73388871923089 0 0 0 0 -692.21533613582869 280.76639054228144 0 280.76639054228144 321.09728483101935 0 0 0 0 -2.6653496912094425 -4.2413018433655054 0 -4.2413018433655054 17.361496729776491 0 0 0 0 -640.01404284730961 70.320701452241337 0 70.320701452241337 146.8847346198163 0 0 0 0 -514.66835631190042 161.45832765400701 0 161.45832765400701 -6.0505246494394669 0 0 0 0 -148.11803168858751 85.593197553025675 0 85.593197553025675 108.62060254719836 0 0 0 0 -266.95689240492356 430.87020982912509 0 430.87020982912509 173.86502504113014 0 0 0 0 -369.23420538997743 340.77829868393019 0 340.77829868393019 102.41732779756421 0 0 0 0 -68.323455305664538 397.22927958214859 0 397.22927958214859 -132.61135345755611 0 0 0 0 16.581582814906142 243.04848997057707 0 243.04848997057707 95.55195406238272 0 0 0 0 26.489462599354169 120.70350463834495 0 120.70350463834495 51.515151611437943 0 0 0 0 -128.21911964048923 92.664598324205144 0 92.664598324205144 240.39238338108407 0 0 0 0 -68.650225209558812 454.65045556894984 0 454.65045556894984 290.09107234567637 0 0 0 0 -27.129080187878571 655.66782924061408 0 655.66782924061408 292.53691062820144 0 0 0 0 -12.159188765712315 551.03376092680264 0 551.03376092680264 67.273233413579874 0 0 0 0 -89.330398425277963 560.58650790080719 0 560.58650790080719 -84.831474878068548 0 0 0 0 -49.374559291783953 669.5796825006546 0 669.5796825006546 160.79031247457897 0 0 0 0 -258.60572259464971 568.65423911147445 0 568.65423911147445 207.56979126000078 0 0 0 0 -31.20810260118742 450.13062756641011 0 450.13062756641011 -57.262834205568652 0 0 0 0 -9.6987044906272786 381.16833771848178 0 381.16833771848178 -499.61449614175945 0 0 0 0 -5.0959964074281743 644.71046832094726 0 644.71046832094726 -58.798077769766678 0 0 0 0 -16.440356068912479 505.58557153209495 0 505.58557153209495 -463.41666016666568 0 0 0 0 -46.402424833278928 549.75895030661195 0 549.75895030661195 -484.44409226872085 0 0 0 0 -32.544316671104752 473.69704658485716 0 473.69704658485716 -952.87827076138637 0 0 0 0 -265.81595249366364 847.82245030303602 0 847.82245030303602 -873.87769471256615 0 0 0 0 -146.64925172638323 799.66420046266285 0 799.66420046266285 -861.0261075266535 0 0 0 0 -289.02280548481212 801.76418264210224 0 801.76418264210224 -360.13000916704186 0 0 0 0 -510.62128475018426 900.98394518434179 0 900.98394518434179 -361.92701607590425 0 0 0 0 -509.20670747803774 946.09425368084908 0 946.09425368084908 492.58346240207902 0 0 0 0 -162.70506678544916 780.89460580704326 0 780.89460580704326 117.06792874276289 0 0 0 0 -174.28716121042089 639.07992931954504 0 639.07992931954504 -279.66046556561196 0 0 0 0 -364.51899358477021 495.777882568731 0 495.777882568731 869.38105531933252 0 0 0 0 -383.32284879010695 531.9487875198829 0 531.9487875198829 878.23139933400671 0 0 0 0 -400.93280435574707 532.58311865519499 0 532.58311865519499 882.03266105233342 0 0 0 0 -190.54032001237647 399.57976322995819 0 399.57976322995819 1029.0109407271084 0 0 0 0 -307.28566845217756 601.54874968674449 0 601.54874968674449 1083.0751503249339 0 0 0 0 -323.2285254021408 715.32905261243286 0 715.32905261243286 492.18259584878012 0 0 0 0 -140.85733291324141 146.81614368255396 0 146.81614368255396 850.25612562318565 0 0 0 0 -299.56364219259558 543.71054370437923 0 543.71054370437923 902.85505733855825 0 0 0 0 -336.44281765152118 464.49555314448662 0 464.49555314448662 991.19483023516659 0 0 0 0 -299.57669023358903 594.08752005337738 0 594.08752005337738 696.4656637062144 0 0 0 0 -286.6102764531679 604.75507689989172 0 604.75507689989172 426.42958531281329 0 0 0 0 -204.64256632426986 606.58987190145126 0 606.58987190145126 390.17638717452064 0 0 0 0 -343.01727097670664 504.01135030061778 0 504.01135030061778 829.28180863126181 0 0 0 0 303.54862305766437 -315.54768435606093 0 -315.54768435606093 1409.0834402378678 0 0 0 0 -125.51261600936414 619.2295459862944 0 619.2295459862944 1695.6928897719044 0 0 0 0 435.80317639421992 867.20999477439909 0 867.20999477439909 950.97746101929806 0 0 0 0 536.08436936966609 382.18052284051373 0 382.18052284051373 222.75087330056704 0 0 0 0 299.471279753001 115.12666397487192 0 115.12666397487192 47.938037122192327 0 0 0 0 -27.605655944025784 382.63157335590222 0 382.63157335590222 1250.4956825537665 0 0 0 0 -0.40545713998230326 1.0786146629611437 0 1.0786146629611437 0.97207321562044058 0 0 0 0 -97.917000067624031 152.74199537032109 0 152.74199537032109 527.77028028553468 0 0 0 0 -295.70577126751232 178.26163674689997 0 178.26163674689997 -166.7060746976058 0 0 0 0 -534.48384911839821 909.0202263085157 0 909.0202263085157 -364.47195759098395 0 0 0 0 -467.08254966250388 1007.1348009857029 0 1007.1348009857029 -684.70221805362962 0 0 0 0 3.7593227221903476 -0.35037754045066549 0 -0.35037754045066549 -0.38377277746909044 0 0 0 0 -866.08026948057523 -9.1191192363330629 0 -9.1191192363330629 1244.1113364335324 0 0 0 0 -324.63424961600685 925.14325283550716 0 925.14325283550716 -52.37590635594097 0 0 0 0 -952.10214796086075 1194.4664985975251 0 1194.4664985975251 -791.40195090531779 0 0 0 0 -428.89364765644132 358.93904428236419 0 358.93904428236419 -1072.9538705432205 0 0 0 0 -739.09956313599832 1296.0434750200366 0 1296.0434750200366 -1045.8623135376811 0 0 0 0 -555.76258921652334 847.03976304162643 0 847.03976304162643 -2759.7088408753625 0 0 0 0 -402.53543506984715 1501.401278681471 0 1501.401278681471 -2624.0056658097747 0 0 0 0 -876.45957867143443 1819.6942037574481 0 1819.6942037574481 -1898.5342665761709 0 0 0 0 -50.238871966983424 783.24072707249434 0 783.24072707249434 -1508.9442720827647 0 0 0 0 -642.71749825260486 900.73030071397079 0 900.73030071397079 -740.09400272541097 0 0 0 0 -1594.5219362792413 597.71101132617332 0 597.71101132617332 -1329.8169252295338 0 0 0 0 -1333.7250893941527 1796.8488312440895 0 1796.8488312440895 -1811.079025255196 0 0 0 0 -58.426575213932665 47.611778390622931 0 47.611778390622931 -3154.0659673578175 0 0 0 0 -0.42580933131793586 36.612110466137494 0 36.612110466137494 55.578037830583469 0 0 0 0 -52.507687424193136 1319.2552026657504 0 1319.2552026657504 -3222.0120699176332 0 0 0 0 -192.25662927341182 -251.4162105555879 0 -251.4162105555879 -457.62364926422015 0 0 0 0 389.6548768976354 457.88102839293424 0 457.88102839293424 -2950.0786219041329 0 0 0 0 389.65487689740257 457.88102839334169 0 457.88102839334169 -2950.0786219034344 0 0 0 0 -230.8961116510327 1203.3035756399768 0 1203.3035756399768 -2417.6165866105584 0 0 0 0 389.65487689705333 457.88102839293424 0 457.88102839293424 -2950.0786219039001 0 0 0 0 -67.969240665219502 11.565542016761071 0 11.565542016761071 49.655769137597851 0 0 0 0 -961.44856435686233 750.02555122193007 0 750.02555122193007 -546.72355015747598 0 0 0 0 -190.01751891759704 45.405338664804731 0 45.405338664804731 996.35788263939321 0 0 0 0 -16.025984293226429 80.746869217392685 0 80.746869217392685 124.49594445597522 0 0 0 0 0.44541443460090591 59.539408605460835 0 59.539408605460835 152.82784864898127 0 0 0 0 -21.628407851909287 72.659233956466778 0 72.659233956466778 97.251157393853646 0 0 0 0 -60.760106868867297 55.718257952634303 0 55.718257952634303 258.81518722278997 0 0 0 0 -45.017056932893638 96.246202731108013 0 96.246202731108013 241.23951205576594 0 0 0 0 -56.815904210918092 63.313475653221509 0 63.313475653221509 128.43043408573362 0 0 0 0 930.92988979555957 -449.85134528337221 0 -449.85134528337221 146.84368364221882 0 0 0 0 -1359.9173738951213 919.80416927870829 0 919.80416927870829 -11.212843771791086 0 0 0 0 -1580.7298590894461 1713.6789164222246 0 1713.6789164222246 -709.18072824249975 0 0 0 0 -2.6036755630630068 91.191168585704872 0 91.191168585704872 145.73957757069275 0 0 0 0 61.167520926781378 107.0360603601531 0 107.0360603601531 77.864227174567958 0 0 0 0 29.163370282133769 111.67273925586436 0 111.67273925586436 97.725879090459387 0 0 0 0 1.2486348230013391 79.823676904823515 0 79.823676904823515 130.8831800367916 0 0 0 0 -1036.8853742261417 98.013953927147668 0 98.013953927147668 539.96038851056073 0 0 0 0 -759.28734836979129 2468.1673050345416 0 2468.1673050345416 -4605.7455926806724 0 0 0 0 554.21089396777097 -201.01795408892212 0 -201.01795408892212 1050.444771152077 0 0 0 0 -21.557093854759387 -9.3688105431518238 0 -9.3688105431518238 -3.2323562764977538 0 0 0 0 -2.7615061567841792 5.5335750004993258 0 5.5335750004993258 43.60881462848306 0 0 0 0 -159.60840849809756 1164.3393870300933 0 1164.3393870300933 -2812.4679425081995 0 0 0 0 -837.1914147984935 631.66373908164678 0 631.66373908164678 -702.03117818593205 0 0 0 0 -149.9039199964609 871.58475650761102 0 871.58475650761102 -1402.598700794857 0 0 0 0 -315.45057328231633 -45.903901165875141 0 -45.903901165875141 342.58094949460065 0 0 0 0 -1414.8922741548304 383.14869936158357 0 383.14869936158357 373.37178791471524 0 0 0 0 78.234396360596293 215.755851829741 0 215.755851829741 108.65695028872869 0 0 0 0 24.448951748854597 -48.013214109290857 0 -48.013214109290857 73.482712290700874 0 0 0 0 81.949500052777438 138.09368728855873 0 138.09368728855873 179.25089749230199 0 0 0 0 104.50341460775235 192.95223783756956 0 192.95223783756956 67.020416873670911 0 0 0 0 7.5513562645937782 212.62472438309487 0 212.62472438309487 70.187453929532239 0 0 0 0 -836.59734708913311 406.95689519048028 0 406.95689519048028 342.4806413003098 0 0 0 0 -383.66642914326439 479.59712144700825 0 479.59712144700825 215.06727874075295 0 0 0 0 196.74366899640881 183.07702973053165 0 183.07702973053165 28.489963741485553 0 0 0 0 116.96068722149357 230.06490140787355 0 230.06490140787355 96.263466067721311 0 0 0 0 72.185359107988916 250.33984113558108 0 250.33984113558108 90.084251443848189 0 0 0 0 92.035023973294301 165.48215433973382 0 165.48215433973382 235.24869262898574 0 0 0 0 28.168479711504915 10.608146475213289 0 10.608146475213289 7.3461028070887551 0 0 0 0 -19.350128251195599 26.070309522861862 0 26.070309522861862 1.4403232580746135 0 0 0 0 3.0978785112638434 106.57685769173804 0 106.57685769173804 49.531017485729535 0 0 0 0 -260.58829369004525 245.80644520139322 0 245.80644520139322 396.962854001511 0 0 0 0 364.93628890527907 -153.84292924871625 0 -153.84292924871625 -126.57134559215046 0 0 0 0 4.0716014818803501 -4.9179704554896659 0 -4.9179704554896659 -1.5995963881812543 0 0 0 0 -620.77557798499038 -333.39165899323416 0 -333.39165899323416 1199.3868602847215 0 0 0 0 8.3976440044075957 11.693427463599392 0 11.693427463599392 34.365882328712381 0 0 0 0 175.6363741546229 405.62881224615558 0 405.62881224615558 248.98195325607594 0 0 0 0 14.088198072501882 4.9083834987443993 0 4.9083834987443993 13.731545849063611 0 0 0 0 -48.250177541107405 4.3447822385642212 0 4.3447822385642212 429.30883143199026 0 0 0 0 83.140411019499879 30.72121019163751 0 30.72121019163751 187.81144317146391 0 0 0 0 -9.58414650522991 35.963961235749224 0 35.963961235749224 108.07167624530922 0 0 0 0 71.894825665629469 487.46596636470349 0 487.46596636470349 -1329.8879406310298 0 0 0 0 36.024472328055708 652.69353403893183 0 652.69353403893183 -1407.7990414143715 0 0 0 0 103.94438387319826 129.75487474874072 0 129.75487474874072 42.427927350427495 0 0 0 0 359.31848533796438 383.53069969918215 0 383.53069969918215 -2185.5276554876473 0 0 0 0 -295.53933395340573 1115.476756592223 0 1115.476756592223 -1526.6427841711557 0 0 0 0 84.270549764733005 517.197961351907 0 517.197961351907 -791.99938154839037 0 0 0 0 836.8713258029602 592.08863995203865 0 592.08863995203865 -197.92965393019404 0 0 0 0 89.601607192596475 131.1120846012019 0 131.1120846012019 46.489228888884995 0 0 0 0 -108.35686486415943 297.19653433498024 0 297.19653433498024 444.91521633710363 0 0 0 0 -143.43593098438214 -108.18823325369158 0 -108.18823325369158 23.794707624911098 0 0 0 0 -232.43187599658268 16.643865210182412 0 16.643865210182412 388.12951973683084 0 0 0 0 -18.484566383369383 218.40901950114494 0 218.40901950114494 257.71493798642769 0 0 0 0 -68.846117386608967 252.5755335838694 0 252.5755335838694 240.7660008311359 0 0 0 0 29.452670259561273 292.20375267336931 0 292.20375267336931 655.34162496551289 0 0 0 0 -29.189830821516807 400.45257775377831 0 400.45257775377831 458.65280362321573 0 0 0 0 204.29925614621607 28.165806553719449 0 28.165806553719449 -177.18813817955288 0 0 0 0 4.4303036802555766 -6.2781125858472535 0 -6.2781125858472535 -0.1592624592553733 0 0 0 0 406.81221352727152 697.27545558015117 0 697.27545558015117 609.12906395532082 0 0 0 0 586.89723200444132 397.0324092762603 0 397.0324092762603 377.39411054248922 0 0 0 0 50.554933277948294 60.877908414739068 0 60.877908414739068 -67.290724512829911 0 0 0 0 43.599732478440274 94.824953026749426 0 94.824953026749426 -95.503227409928513 0 0 0 0 18.859604528959608 149.05473850324779 0 149.05473850324779 -35.018033218017081 0 0 0 0 98.070108420812176 73.560146737698233 0 73.560146737698233 -348.32019326519367 0 0 0 0 62.26784936469349 123.8815974609424 0 123.8815974609424 44.199902185886046 0 0 0 0 -37.29374802793609 180.34631427094428 0 180.34631427094428 180.70981718803523 0 0 0 0 99.457048814350856 283.74389297166636 0 283.74389297166636 188.82310870435776 0 0 0 0 90.569779230136191 170.16573239492573 0 170.16573239492573 83.759739553075633 0 0 0 0 49.102748377379612 70.312461182955303 0 70.312461182955303 -20.405235585742048 0 0 0 0 138.36317909625359 176.17547914166062 0 176.17547914166062 82.775820129085332 0 0 0 0 226.07044623209003 49.114426199243098 0 49.114426199243098 61.610026711132377 0 0 0 0 39.581090314321045 34.636869588477566 0 34.636869588477566 60.803215047722915 0 0 0 0 21.144489129335852 91.410185781198379 0 91.410185781198379 7.9085672815708676 0 0 0 0 314.80726953140584 74.581334252936358 0 74.581334252936358 42.926790146811982 0 0 0 0 -287.6191856296864 529.00077263570347 0 529.00077263570347 67.113241687504342 0 0 0 0 280.81112670603034 192.94593234673084 0 192.94593234673084 85.535009354203794 0 0 0 0 20.792414945728126 33.308241034612102 0 33.308241034612102 46.136380483055831 0 0 0 0 406.78031984242261 445.72803170866973 0 445.72803170866973 -24.153786479553673 0 0 0 0 118.73357818964723 188.95292693156443 0 188.95292693156443 88.568605527398176 0 0 0 0 331.24411230674923 177.80422383559653 0 177.80422383559653 71.911330213712063 0 0 0 0 1188.0242494406266 -176.56889995550591 0 -176.56889995550591 -208.09986842941362 0 0 0 0 -502.41962846451497 134.33805032190685 0 134.33805032190685 106.80666079794173 0 0 0 0 97.809495514084119 91.207745990817784 0 91.207745990817784 89.242893052381987 0 0 0 0 327.59660718766281 139.84602309578804 0 139.84602309578804 -76.566845496388851 0 0 0 0 280.12277101803102 570.15667156221434 0 570.15667156221434 317.04782401811099 0 0 0 0 5.796277221685159 318.49075401663868 0 318.49075401663868 298.1127748444851 0 0 0 0 85.101020338435774 470.14186282148148 0 470.14186282148148 173.2426729850049 0 0 0 0 115.99500991047535 390.97968124835461 0 390.97968124835461 124.8328273522493 0 0 0 0 -10.952020370190439 708.43301490793965 0 708.43301490793965 -133.66832537122536 0 0 0 0 -327.19849274735316 446.5665579169181 0 446.5665579169181 140.34068222732094 0 0 0 0 -186.82755955366156 51.962702750479366 0 51.962702750479366 87.042051785523654 0 0 0 0 -11.664259596136901 4.5974329697288567 0 4.5974329697288567 -3.6222440806998293 0 0 0 0 180.97482737926475 88.932050607450947 0 88.932050607450947 -509.73040149731969 0 0 0 0 324.13916592035821 607.91042660146559 0 607.91042660146559 -386.37703664390574 0 0 0 0 -247.77586398469066 -57.937066669584055 0 -57.937066669584055 203.28450906443322 0 0 0 0 1619.2868058502791 181.13466350525414 0 181.13466350525414 124.52424850135503 0 0 0 0 859.62335182053357 440.21461400261978 0 440.21461400261978 -580.51825867903608 0 0 0 0 -627.12049762890092 320.98031412733872 0 320.98031412733872 42.377464448545652 0 0 0 0 15.006078818076418 22.848377411963028 0 22.848377411963028 25.05731570416819 0 0 0 0 -375.3208340518031 275.99526985059492 0 275.99526985059492 -115.84131738667202 0 0 0 0 -564.92827442142516 153.79140382856167 0 153.79140382856167 375.05849171605223 0 0 0 0 5.8738322674920909 7.6677103713760033 0 7.6677103713760033 7.2570321751620384 0 0 0 0 -322.62466247577686 75.988750453130706 0 75.988750453130706 -64.615538993733935 0 0 0 0 -293.52777551069812 238.38115407439045 0 238.38115407439045 86.057392808019358 0 0 0 0 -360.93016213403735 474.45875708637823 0 474.45875708637823 584.24166508953931 0 0 0 0 302.0916525001885 721.38055457986775 0 721.38055457986775 196.25829812516895 0 0 0 0 -30.353559365961701 214.5954075561458 0 214.5954075561458 671.73880958715745 0 0 0 0 761.1387000640716 243.21981776406574 0 243.21981776406574 -95.129780625466083 0 0 0 0 412.48311346823903 -119.947418983651 0 -119.947418983651 291.02369600062229 0 0 0 0 -60.107918532317854 251.42937151560182 0 251.42937151560182 237.3233522933333 0 0 0 0 10.121283691925782 273.93191973928606 0 273.93191973928606 169.46624060750764 0 0 0 0 -27.647836114585516 332.7749397598127 0 332.7749397598127 270.06225279904174 0 0 0 0 -22.918940251402091 330.4428901803476 0 330.4428901803476 50.481086210929789 0 0 0 0 -101.71942487747583 174.33046584669137 0 174.33046584669137 104.90969454207061 0 0 0 0 -299.29109572288144 298.09152503717451 0 298.09152503717451 47.902895885610633 0 0 0 0 -225.42239508658531 167.75561124520937 0 167.75561124520937 -27.975635423179483 0 0 0 0 -149.65254722108511 248.70693680912154 0 248.70693680912154 -5.6990630822474486 0 0 0 0 -110.98224242612923 239.76425104004738 0 239.76425104004738 -10.537553804613708 0 0 0 0 -285.00195250377146 101.3697979719509 0 101.3697979719509 -118.93667369379546 0 0 0 0 -120.54999152735763 297.16807970547234 0 297.16807970547234 39.721854052026174 0 0 0 0 65.070910003904046 107.25803901142834 0 107.25803901142834 118.16741593274716 0 0 0 0 48.152843721749377 401.5490736315478 0 401.5490736315478 -90.221321835553681 0 0 0 0 115.24274296370641 297.63595684647771 0 297.63595684647771 -117.87922527586488 0 0 0 0 113.95026097617665 541.09881174988914 0 541.09881174988914 198.57906486839784 0 0 0 0 -70.931828678279999 357.86352874030126 0 357.86352874030126 110.266740621395 0 0 0 0 0.062715974883758463 375.40643817968521 0 375.40643817968521 -349.01885699836566 0 0 0 0 272.07727974580484 109.90644818319925 0 109.90644818319925 -153.48973737364213 0 0 0 0 419.92174696529401 433.19190908789824 0 433.19190908789824 -377.93352268323173 0 0 0 0 -4.1432332770956464 5.495179641798984 0 5.495179641798984 1.5737767590782141 0 0 0 0 -709.09687925006438 583.6367618751483 0 583.6367618751483 -439.09341660911014 0 0 0 0 -88.875381718156859 527.95036473116488 0 527.95036473116488 -375.69048711810478 0 0 0 0 122.11530626140302 409.21925886265672 0 409.21925886265672 -329.2715133431193 0 0 0 0 -533.8091891782824 392.63012205144332 0 392.63012205144332 -62.918848229863215 0 0 0 0 -91.945047520097546 123.12715397873561 0 123.12715397873561 20.646324519533664 0 0 0 0 -92.515974426022126 279.22684363124336 0 279.22684363124336 -407.20890011638403 0 0 0 0 74.537288510298822 48.621516758292273 0 48.621516758292273 -175.91778131703904 0 0 0 0 70.25549895685981 -10.96827380459581 0 -10.96827380459581 -731.84828307935095 0 0 0 0 141.2095352586839 301.36140555395968 0 301.36140555395968 -610.82362744228158 0 0 0 0 0.0088254714501090348 30.268337254608923 0 30.268337254608923 41.643877861875808 0 0 0 0 -5.7704656579593916 -1.676135186834955 0 -1.676135186834955 3.3489340057540176 0 0 0 0 8.9405231761047617 25.603805464998004 0 25.603805464998004 14.079611239081714 0 0 0 0 -8.3600813897646731 23.86675550675136 0 23.86675550675136 13.935185299807927 0 0 0 0 6.5864461678138468 30.538207354591577 0 30.538207354591577 13.50916396491084 0 0 0 0 12.53548183882323 22.674873526783074 0 22.674873526783074 7.8564025197302954 0 0 0 0 7.2836851843348995 35.784342920641393 0 35.784342920641393 20.926653222035384 0 0 0 0 -17.623267971968744 65.056065957071041 0 65.056065957071041 -110.38997423490218 0 0 0 0 -3.3879046811991884 4.2304161597245411 0 4.2304161597245411 3.5744496886113808 0 0 0 0 -39.170719759858912 88.216701482397184 0 88.216701482397184 -60.438504363359243 0 0 0 0 5.8744721374487483 16.436617248770688 0 16.436617248770688 0.52024347286862849 0 0 0 0 47.478408985738497 25.560182550718309 0 25.560182550718309 -7.3139258911833167 0 0 0 0 25.258008712349692 23.61303905972818 0 23.61303905972818 7.7622872790088877 0 0 0 0 47.016919050831348 22.325472878394066 0 22.325472878394066 -10.532995921690599 0 0 0 0 11.463083387716324 28.083242529852214 0 28.083242529852214 6.1705150341294939 0 0 0 0 15.61531681020449 17.88003687600542 0 17.88003687600542 2.6046570149684811 0 0 0 0 26.649411458746158 27.915330345103627 0 27.915330345103627 17.43213152289826 0 0 0 0 43.929627498495393 18.25166084014927 0 18.25166084014927 -10.512822147778991 0 0 0 0 40.847022514746641 21.762766937532433 0 21.762766937532433 -0.81989855159190483 0 0 0 0 238.44161273977079 -126.96912879504453 0 -126.96912879504453 16.378366789358552 0 0 0 0 304.73368440446211 -52.248006178957439 0 -52.248006178957439 -74.41927962722184 0 0 0 0 126.23742196976673 77.904710734117543 0 77.904710734117543 -45.347952103009447 0 0 0 0 81.760838712939119 60.959727142270538 0 60.959727142270538 -49.007155829007218 0 0 0 0 193.30263193837106 18.968189775505437 0 18.968189775505437 -100.68642954283449 0 0 0 0 38.34546155789576 61.994199932095398 0 61.994199932095398 -24.943737557972781 0 0 0 0 81.364491932446043 2.6463410967096479 0 2.6463410967096479 -17.056972674191911 0 0 0 0 36.443074893552932 27.255249837126826 0 27.255249837126826 -26.527446339738816 0 0 0 0 70.007724999508355 27.244119250681251 0 27.244119250681251 -17.004148837469984 0 0 0 0 49.107717064712801 15.796771165152521 0 15.796771165152521 -21.557495610884786 0 0 0 0 16.180197151140362 -4.6247367488981155 0 -4.6247367488981155 -12.748717058294119 0 0 0 0 71.718189197505126 44.577312423200055 0 44.577312423200055 153.0864846004697 0 0 0 0 588.1294147168519 374.7643095630192 0 374.7643095630192 104.49314440006856 0 0 0 0 115.03905944689177 206.28935398640169 0 206.28935398640169 310.62197353753436 0 0 0 0 11.880780399057073 1.50792337452026 0 1.50792337452026 -9.412144543841606 0 0 0 0 264.47330906265415 125.94379687969194 0 125.94379687969194 -17.27743242521683 0 0 0 0 456.39084290666506 -105.1846124777021 0 -105.1846124777021 -168.95093073110911 0 0 0 0 326.62249142222572 200.69843262053473 0 200.69843262053473 12.174064261031162 0 0 0 0 258.56244981786585 92.337444093489466 0 92.337444093489466 -29.540632238262333 0 0 0 0 214.68687600479461 107.42453919325635 0 107.42453919325635 -24.165492332642316 0 0 0 0 47.448062519135419 17.109368496530806 0 17.109368496530806 -7.7943608603090979 0 0 0 0 6.3517164054100022 -1.8510773681229011 0 -1.8510773681229011 -10.2999350036946 0 0 0 0 208.56290980459016 103.90050846015038 0 103.90050846015038 3.7476097178878263 0 0 0 0 -277.31998018192826 17.966793903106009 0 17.966793903106009 29.933050025720149 0 0 0 0 7.3727984958044317 17.541983528375226 0 17.541983528375226 3.2418482884669686 0 0 0 0 5.8455662124155339 5.0039052860878428 0 5.0039052860878428 -5.9071030379767251 0 0 0 0 -900.37555630580755 463.03454342123223 0 463.03454342123223 -286.33570199951646 0 0 0 0 209.3730890591396 69.323909344362619 0 69.323909344362619 21.861373328978516 0 0 0 0 325.45402256751549 -21.730674221609661 0 -21.730674221609661 -159.72586127861723 0 0 0 0 333.2130990949081 147.78940111950578 0 147.78940111950578 -474.48125009037904 0 0 0 0 254.25291795001249 165.05093026778923 0 165.05093026778923 -159.94873084648498 0 0 0 0 261.30124595141388 135.98928025453279 0 135.98928025453279 -40.190271941901301 0 0 0 0 212.00676682827179 44.762516092618171 0 44.762516092618171 -74.484392213307729 0 0 0 0 257.13167702234932 130.359637923837 0 130.359637923837 -47.350663701043231 0 0 0 0 224.36165676805831 161.39995569571875 0 161.39995569571875 -5.7676095776478178 0 0 0 0 232.74015058981604 145.52248001084081 0 145.52248001084081 3.672061524077435 0 0 0 0 109.94594756540735 147.13818541112272 0 147.13818541112272 32.774598270038496 0 0 0 0 51.082977976129939 48.386082254062899 0 48.386082254062899 -8.3462861104903823 0 0 0 0 44.860546135365439 166.89633268792022 0 166.89633268792022 48.304169238843315 0 0 0 0 252.39113303802515 53.218526080539959 0 53.218526080539959 7.2778048632608261 0 0 0 0 127.76291191991186 232.08288845016068 0 232.08288845016068 -153.09622407236748 0 0 0 0 111.35378385332569 128.21754129514221 0 128.21754129514221 9.4592485022388075 0 0 0 0 175.49366082850611 2.9346714171260828 0 2.9346714171260828 -23.913105097941298 0 0 0 0 1003.5101308890153 -12.611876767012291 0 -12.611876767012291 -330.58008940090076 0 0 0 0 466.57183352147695 357.2774704272706 0 357.2774704272706 219.81506970929331 0 0 0 0 113.07903733710958 118.00288044839905 0 118.00288044839905 -24.363517765936166 0 0 0 0 -78.088802822523576 248.31360640390994 0 248.31360640390994 -18.253892467022524 0 0 0 0 -99.68251863666228 223.5575373833999 0 223.5575373833999 15.778739262783347 0 0 0 0 -149.81007458796375 244.78831839186387 0 244.78831839186387 33.528077829032554 0 0 0 0 -87.827059059105522 270.28409428018495 0 270.28409428018495 -54.985225594675285 0 0 0 0 22.782514093618374 270.30445163316472 0 270.30445163316472 -54.994675112357072 0 0 0 0 -72.640690278196416 511.41881869618373 0 511.41881869618373 -311.30955296069442 0 0 0 0 -251.76602092222311 93.598604006649111 0 93.598604006649111 282.98086077875632 0 0 0 0 -500.15682711848058 504.7297186392243 0 504.7297186392243 133.43200775498553 0 0 0 0 -434.25533418837585 272.33735597192572 0 272.33735597192572 860.98272206740512 0 0 0 0 -177.7807582555688 230.54705092042423 0 230.54705092042423 187.41832701069507 0 0 0 0 -222.81254317652201 144.7716811268474 0 144.7716811268474 54.186378440936096 0 0 0 0 -237.37352186067437 91.131439669017709 0 91.131439669017709 54.500660854755552 0 0 0 0 -150.54875337489648 195.54379074402095 0 195.54379074402095 59.235421659250278 0 0 0 0 -240.04338196069875 101.78130069275721 0 101.78130069275721 34.744066124898382 0 0 0 0 -173.48984497046331 116.72765062073267 0 116.72765062073267 -38.112207179015968 0 0 0 0 -107.70395896118134 199.37211018489324 0 199.37211018489324 -38.541206360184447 0 0 0 0 39.129359939957794 84.000179266862688 0 84.000179266862688 91.991971650917549 0 0 0 0 -202.28258174321672 182.80319087024691 0 182.80319087024691 109.48399451066507 0 0 0 0 1.4778857576407916 15.359019535295374 0 15.359019535295374 14.566948809142133 0 0 0 0 -135.7554010367603 207.97886894733165 0 207.97886894733165 83.956050175707787 0 0 0 0 -101.01745545238373 202.8256741357618 0 202.8256741357618 25.737450819811784 0 0 0 0 27.191064416113193 53.816228729842734 0 53.816228729842734 49.114565825846228 0 0 0 0 22.39896110308473 88.159308321264689 0 88.159308321264689 -50.679004776648071 0 0 0 0 -37.130506959820195 115.0675327991321 0 115.0675327991321 129.72627592197387 0 0 0 0 35.04208371706757 81.487465879588513 0 81.487465879588513 21.533823430700437 0 0 0 0 6.9618837171704939 13.665078333581135 0 13.665078333581135 30.279966160284459 0 0 0 0 312.16464674450981 196.01653817690749 0 196.01653817690749 -304.45208181375347 0 0 0 0 -1102.9140687153704 420.45673597079076 0 420.45673597079076 -1703.060588406297 0 0 0 0 -109.39476492075482 -273.73764621655573 0 -273.73764621655573 443.88439898627985 0 0 0 0 0.047323345366990566 3.9765403792203244 0 3.9765403792203244 5.5271290683140535 0 0 0 0 784.6748339945043 85.208498274478188 0 85.208498274478188 -327.29170613491442 0 0 0 0 162.12329781713197 517.29301518737338 0 517.29301518737338 -1325.5082958635503 0 0 0 0 -1716.6333340874444 1607.4644764433942 0 1607.4644764433942 238.00419252294523 0 0 0 0 216.50007726973854 186.81777827940823 0 186.81777827940823 -256.97177981139066 0 0 0 0 -10.111137158136728 5.4878646041615582 0 5.4878646041615582 -2.2544529699629265 0 0 0 0 -272.73549913938041 257.68691545719048 0 257.68691545719048 253.98351454152362 0 0 0 0 -1546.6283578025323 -102.09257127084493 0 -102.09257127084493 153.56481102241378 0 0 0 0 512.31388151076681 440.79852565349574 0 440.79852565349574 -265.55562640358403 0 0 0 0 -180.41385447411449 115.18233698362019 0 115.18233698362019 -69.186307562078582 0 0 0 0 -130.27525833566324 288.13240936841248 0 288.13240936841248 72.851267233090766 0 0 0 0 -321.06169453530674 145.44008110670075 0 145.44008110670075 54.415359472521232 0 0 0 0 -209.89095741578421 241.92939404089338 0 241.92939404089338 88.425449541915441 0 0 0 0 -197.18141977100095 232.83117099483934 0 232.83117099483934 27.597890669945627 0 0 0 0 -341.88804623697069 184.33018329733386 0 184.33018329733386 163.26194176202262 0 0 0 0 112.48300016055857 153.37066216628864 0 153.37066216628864 103.32138561636779 0 0 0 0 -493.82217727515672 471.34885362154455 0 471.34885362154455 167.44792795510511 0 0 0 0 332.20085444377037 17.254970068896 0 17.254970068896 -383.09799595106961 0 0 0 0 112.59416808008828 147.04450019187772 0 147.04450019187772 91.094033445226074 0 0 0 0 -369.90685525383014 243.79748246373492 0 243.79748246373492 41.716065619064466 0 0 0 0 130.53210516643594 208.27255783708915 0 208.27255783708915 -297.96368388820338 0 0 0 0 72.356353115770617 162.97270577186737 0 162.97270577186737 92.74717161643639 0 0 0 0 153.93600488099764 -75.898260283658601 0 -75.898260283658601 -332.30109765648012 0 0 0 0 -1.3706742563226726 71.287333915952331 0 71.287333915952331 -102.84433348122002 0 0 0 0 111.35668536608864 65.426616475040646 0 65.426616475040646 -343.96497749498667 0 0 0 0 117.36611564405575 258.87078600312708 0 258.87078600312708 80.56679748040915 0 0 0 0 124.24053823074792 110.0531035812437 0 110.0531035812437 -121.85747489024106 0 0 0 0 172.04817885164812 170.07543176822946 0 170.07543176822946 93.071732771396 0 0 0 0 95.912126597084267 146.73158483799048 0 146.73158483799048 71.504110231271937 0 0 0 0 -5.7641715571955388 66.971346869928141 0 66.971346869928141 -23.258925401228709 0 0 0 0 309.83115629604072 268.70593939774619 0 268.70593939774619 -153.86265707330313 0 0 0 0 306.67027923065052 322.97044430431356 0 322.97044430431356 68.937798382627079 0 0 0 0 -175.23526397769456 564.25762139249491 0 564.25762139249491 -172.82612367441106 0 0 0 0 -307.52745140664774 11.869829599314471 0 11.869829599314471 139.93653502801317 0 0 0 0 79.659968239837326 259.57446562427504 0 259.57446562427504 189.64512999534782 0 0 0 0 172.92900301134796 394.63027133472497 0 394.63027133472497 192.80898426232056 0 0 0 0 -58.224032239617713 40.833153799572898 0 40.833153799572898 -31.095153292549199 0 0 0 0 111.41854838366271 150.46053932628638 0 150.46053932628638 -114.82950503225584 0 0 0 0 37.393200348567916 6.4462414914869441 0 6.4462414914869441 -80.492837637541015 0 0 0 0 -44.231309709636662 44.741810740423318 0 44.741810740423318 -29.95319992295606 0 0 0 0 30.321174765093019 176.23185237259895 0 176.23185237259895 250.18486325236086 0 0 0 0 68.664364577431115 153.31743796186311 0 153.31743796186311 158.1083389029227 0 0 0 0 -23.20624017965747 226.19504599094034 0 226.19504599094034 252.16921157953766 0 0 0 0 132.63449695092277 246.23410760247498 0 246.23410760247498 249.51716335242781 0 0 0 0 232.37618359964108 126.12731144754798 0 126.12731144754798 73.390948193969962 0 0 0 0 495.15152847170248 277.29227949762935 0 277.29227949762935 158.81965532744653 0 0 0 0 122.30138811323559 194.97256424754596 0 194.97256424754596 245.70935197047447 0 0 0 0 36.901257814199198 204.67916480348504 0 204.67916480348504 325.60115959554969 0 0 0 0 113.17817980886321 132.03194096133666 0 132.03194096133666 137.8444499031466 0 0 0 0 163.75489885050047 362.75691939912394 0 362.75691939912394 492.83133444840496 0 0 0 0 49.350232660246547 120.77734914738539 0 120.77734914738539 415.22566868851936 0 0 0 0 -3.7463092542956247 5.2510327705871305 0 5.2510327705871305 3.0827883461322756 0 0 0 0 -1.0495104483852629 759.49665190543055 0 759.49665190543055 504.45735216350295 0 0 0 0 583.63359843369108 553.03519433390466 0 553.03519433390466 413.81140431316453 0 0 0 0 160.41340570832836 405.44044123705316 0 405.44044123705316 929.32227097374562 0 0 0 0 0.33445804213988595 61.394344668522535 0 61.394344668522535 70.767046261216819 0 0 0 0 -141.05569950784047 59.311198685727504 0 59.311198685727504 84.438767913452466 0 0 0 0 145.75290235772263 206.3631841139304 0 206.3631841139304 154.76996168186452 0 0 0 0 -5.3279583777683399 7.3869453822331934 0 7.3869453822331934 1.7028956892667111 0 0 0 0 94.567060377274174 110.03823364377604 0 110.03823364377604 126.32942144362096 0 0 0 0 110.77842368051643 146.60838650543883 0 146.60838650543883 156.74954928713851 0 0 0 0 0.017184640668046456 199.43264710638303 0 199.43264710638303 168.43870752026123 0 0 0 0 -2.7475833170756232 1512.4102794729906 0 1512.4102794729906 -96.982678732651038 0 0 0 0 87.641767869907198 610.04004305847138 0 610.04004305847138 -50.68192801105215 0 0 0 0 423.3536084711377 1010.0805589616421 0 1010.0805589616421 -1570.0669692813699 0 0 0 0 -210.63345926100737 -696.04427192558251 0 -696.04427192558251 -1800.36014654516 0 0 0 0 -17.695056218537502 22.776856388692977 0 22.776856388692977 42.453292556227098 0 0 0 0 -7.7518439780185417 5.576425037632589 0 5.576425037632589 -7.2929919726933434 0 0 0 0 0.11908752497246622 73.060935185186693 0 73.060935185186693 44.564377445851278 0 0 0 0 2.82103337381443 -4.5758625924919798 0 -4.5758625924919798 0.41627064688099091 0 0 0 0 35.605465785221895 1.3690685592628142 0 1.3690685592628142 -83.115781931071979 0 0 0 0 -251.63126249294146 480.62915209095445 0 480.62915209095445 952.25132898663287 0 0 0 0 -0.09179105213843286 62.624603495642077 0 62.624603495642077 -71.610144485879573 0 0 0 0 53.208730951533653 41.216815666204639 0 41.216815666204639 -197.17921897315682 0 0 0 0 6.4152957971639353 5.4359258893355502 0 5.4359258893355502 -11.898111414666291 0 0 0 0 -9.5751213645280586 21.003248803502572 0 21.003248803502572 -22.679240713731488 0 0 0 0 35.605465785211969 78.602821584954356 0 78.602821584954356 -52.336926944815787 0 0 0 0 229.52509570690017 80.899398533004387 0 80.899398533004387 -486.69734103739029 0 0 0 0 45.600158883197878 7.6521028781490443 0 7.6521028781490443 -11.65145536325103 0 0 0 0 125.50223895059025 32.821073061669267 0 32.821073061669267 -327.13708939457865 0 0 0 0 -29.82789940139628 -204.37249138252264 0 -204.37249138252264 -512.89488173620907 0 0 0 0 78.002859545245883 43.809214804987278 0 43.809214804987278 -263.95848861153354 0 0 0 0 357.36736996481341 327.24691683692163 0 327.24691683692163 -218.80977208719196 0 0 0 0 381.34709392985678 563.8778727468034 0 563.8778727468034 -411.07663992797842 0 0 0 0 175.45575976997497 83.69745922149832 0 83.69745922149832 -396.39000814393876 0 0 0 0 134.24403797238483 791.02325826968263 0 791.02325826968263 158.47838823826532 0 0 0 0 221.76583218900487 661.83585768291596 0 661.83585768291596 352.51016495516842 0 0 0 0 476.34669311770995 474.45750560304441 0 474.45750560304441 -70.69813919076114 0 0 0 0 297.96765823189344 407.34877170848449 0 407.34877170848449 299.09344444676753 0 0 0 0 338.46147271775408 499.07021403434555 0 499.07021403434555 253.54875459261166 0 0 0 0 473.97561483504251 369.56802336277542 0 369.56802336277542 314.05708998605587 0 0 0 0 271.66485983051825 550.57130285268977 0 550.57130285268977 554.82990107544902 0 0 0 0 191.57997199747479 364.67052743164095 0 364.67052743164095 237.13273877669053 0 0 0 0 282.2073709682154 487.4235689832658 0 487.4235689832658 210.43517266112849 0 0 0 0 312.79776004664018 290.152524253499 0 290.152524253499 -81.435864629998605 0 0 0 0 326.56633344711736 462.25834579649927 0 462.25834579649927 -36.514447071630457 0 0 0 0 405.84087708737934 411.9990792363169 0 411.9990792363169 -11.03488420746362 0 0 0 0 118.32547158293892 257.24019647219666 0 257.24019647219666 -5.984276182953181 0 0 0 0 215.94126578698342 212.39896051318192 0 212.39896051318192 -170.84516856890332 0 0 0 0 30.399561723290731 -0.3024319389094785 0 -0.3024319389094785 0.51039795039174085 0 0 0 0 179.13213780536898 442.83164790786213 0 442.83164790786213 477.76379546913813 0 0 0 0 10.899417331205541 -0.36258011971277426 0 -0.36258011971277426 0.11567371695165463 0 0 0 0 178.15788924874505 657.41850937345407 0 657.41850937345407 821.4490400886898 0 0 0 0 367.30356797960121 462.12335366858133 0 462.12335366858133 -56.987600572854717 0 0 0 0 521.88419325221912 504.17408022388372 0 504.17408022388372 -190.44237145989609 0 0 0 0 357.99098298304125 387.85886913073659 0 387.85886913073659 -195.4467631083462 0 0 0 0 560.2004185343103 745.01066844897832 0 745.01066844897832 267.64123256439052 0 0 0 0 -471.85507244505425 1045.535798766573 0 1045.535798766573 826.59112765448299 0 0 0 0 553.60634339268108 148.48257892017881 0 148.48257892017881 -414.83258780805045 0 0 0 0 112.37654776739659 153.31395647018275 0 153.31395647018275 105.45242174100034 0 0 0 0 -623.11953691799135 348.17367502613433 0 348.17367502613433 21.10630800378749 0 0 0 0 70.856428276321822 323.96440359804592 0 323.96440359804592 -136.37341519952679 0 0 0 0 -327.38578528075595 195.58075913916764 0 195.58075913916764 8.6656749081594171 0 0 0 0 -625.03699135848728 457.89043692344785 0 457.89043692344785 168.041723318398 0 0 0 0 90.225026342290221 392.39050704205511 0 392.39050704205511 -18.897098499201093 0 0 0 0 243.87914768701012 389.87354859985408 0 389.87354859985408 -29.648508034966653 0 0 0 0 151.35897143409238 423.18184861816189 0 423.18184861816189 327.35428782733652 0 0 0 0 25.534246933326358 294.60802229291585 0 294.60802229291585 218.19334230204549 0 0 0 0 19.477407444803248 338.15745366399528 0 338.15745366399528 39.99390718529321 0 0 0 0 -96.284322904451983 136.93758336668543 0 136.93758336668543 263.07379427143132 0 0 0 0 -187.35889358642453 292.6198576340189 0 292.6198576340189 443.10228940221714 0 0 0 0 -20.31283039750997 186.99436434797644 0 186.99436434797644 348.41433095352113 0 0 0 0 176.31637812734698 331.11890451666841 0 331.11890451666841 381.11766664281095 0 0 0 0 -76.196570693165995 150.34651834722717 0 150.34651834722717 425.37294912710308 0 0 0 0 -81.840523605147609 224.48213953542654 0 224.48213953542654 430.82448113945065 0 0 0 0 -93.64669370779302 223.75343839654306 0 223.75343839654306 537.45630712894854 0 0 0 0 -89.651881190002314 155.07397857537217 0 155.07397857537217 495.3181630794279 0 0 0 0 -46.872588266822277 50.713003144964432 0 50.713003144964432 37.508504572575632 0 0 0 0 -55.573481370636728 40.527099294282152 0 40.527099294282152 26.371384817698527 0 0 0 0 -9.1425928948810906 51.150269373484946 0 51.150269373484946 15.379488970539569 0 0 0 0 -50.017947743652655 48.035318887501944 0 48.035318887501944 5.4221230710446457 0 0 0 0 -20.755499752001015 39.135735322083228 0 39.135735322083228 -4.483271877492812 0 0 0 0 -186.20239629976732 390.31744320842853 0 390.31744320842853 -1872.8677305144865 0 0 0 0 -424.95955044071889 295.63988158733605 0 295.63988158733605 124.97161664817486 0 0 0 0 -37.964204157979111 68.578173279643693 0 68.578173279643693 -18.788440345895651 0 0 0 0 97.971085230761673 56.738509616073202 0 56.738509616073202 104.05717656999332 0 0 0 0 -312.99598131969105 173.61566251033491 0 173.61566251033491 224.1791843066178 0 0 0 0 -40.843818036984885 41.271730873036859 0 41.271730873036859 13.152772727092497 0 0 0 0 62.128434157464653 182.47836492059605 0 182.47836492059605 -25.310728358663027 0 0 0 0 4.1313465443269024 71.054079556970521 0 71.054079556970521 -3.881214439239427 0 0 0 0 95.786459507129621 143.2375105653191 0 143.2375105653191 -163.97585509921919 0 0 0 0 74.604990213440033 26.926025504468555 0 26.926025504468555 87.678350781558493 0 0 0 0 -15.031945368183614 54.517099990812824 0 54.517099990812824 5.4059434331133067 0 0 0 0 -13.831286332046147 89.368955462860981 0 89.368955462860981 61.750495839102996 0 0 0 0 -27.409950534612619 127.08969235828752 0 127.08969235828752 2.4717047419428102 0 0 0 0 -35.952902608245495 56.980189802697737 0 56.980189802697737 -70.425916235862246 0 0 0 0 -145.9882918317162 69.44960311313298 0 69.44960311313298 83.12154334132174 0 0 0 0 -11.370514134336076 40.244770333478279 0 40.244770333478279 7.4412463220414455 0 0 0 0 -5.8277202771780594 11.292676826879045 0 11.292676826879045 -11.342774123077536 0 0 0 0 -35.025081889296416 72.177035258956494 0 72.177035258956494 -35.819825309906264 0 0 0 0 -38.928787471639225 41.042915751208739 0 41.042915751208739 -38.584669717401283 0 0 0 0 -57.100561171071604 24.885788726628562 0 24.885788726628562 22.213162136192295 0 0 0 0 -56.472219392773695 28.718521190049159 0 28.718521190049159 37.69494461516706 0 0 0 0 0.97711989116010045 -0.11135235673839361 0 -0.11135235673839361 1.4156327593179152 0 0 0 0 50.175264997611521 58.171218221612889 0 58.171218221612889 -57.279104799887079 0 0 0 0 -14.093845919749583 37.103302183638959 0 37.103302183638959 -56.569502562885646 0 0 0 0 -6.0880125916496581 34.972254835328023 0 34.972254835328023 10.16642437958617 0 0 0 0 8.981633317322121 91.478600972217919 0 91.478600972217919 -84.151864584991927 0 0 0 0 16.844422556911013 59.163869094465099 0 59.163869094465099 -50.503005523043157 0 0 0 0 -23.396575748498435 60.7921217226924 0 60.7921217226924 -36.389345371654372 0 0 0 0 20.349881746253232 107.61271091411652 0 107.61271091411652 13.32696728100882 0 0 0 0 -7.5193199506260271 0.72500478824420611 0 0.72500478824420611 15.377210192976776 0 0 0 0 -80.306949689349494 77.199781478893613 0 77.199781478893613 60.668673250556367 0 0 0 0 -23.166714741819646 34.919799162771859 0 34.919799162771859 -6.3534545224503312 0 0 0 0 -56.590353978535859 42.080539362775426 0 42.080539362775426 42.040714832097592 0 0 0 0 17.170517579186708 -130.93242929167172 0 -130.93242929167172 466.57439175203081 0 0 0 0 90.187062136421446 71.1792647822258 0 71.1792647822258 -39.399573417722792 0 0 0 0 373.37566858937498 330.96211921417853 0 330.96211921417853 542.5621727440398 0 0 0 0 -16.321565452715731 316.38941675740352 0 316.38941675740352 846.84104754438522 0 0 0 0 229.68378623606986 353.28813778313997 0 353.28813778313997 1306.4821236265379 0 0 0 0 441.18212416392635 666.32157670682318 0 666.32157670682318 635.43869549863302 0 0 0 0 340.83978472545277 806.87130166879615 0 806.87130166879615 1430.5168174327191 0 0 0 0 591.47759943272104 740.18721783054389 0 740.18721783054389 878.45070879381296 0 0 0 0 302.30361449308839 385.87283529827437 0 385.87283529827437 834.7061543738273 0 0 0 0 -183.65296763248625 831.82220212859102 0 831.82220212859102 857.49208506184732 0 0 0 0 143.52287899068324 516.17604061836073 0 516.17604061836073 582.043206362614 0 0 0 0 -52.857656262989622 569.93085604380758 0 569.93085604380758 1111.3862037714061 0 0 0 0 33.072825286915759 574.71827958204085 0 574.71827958204085 731.56085293842534 0 0 0 0 -276.66002499655588 405.35757620322147 0 405.35757620322147 991.82871975139642 0 0 0 0 66.074839993787464 690.18239081418142 0 690.18239081418142 1019.462886434613 0 0 0 0 -73.598334372925819 23.223189923898559 0 23.223189923898559 -1.1431229096385778 0 0 0 0 -20.574940780825727 31.311586636256777 0 31.311586636256777 -29.441354715251492 0 0 0 0 463.03887660801411 209.88464447587103 0 209.88464447587103 18.99932130968682 0 0 0 0 2.6659164040174801 451.42314936097046 0 451.42314936097046 1055.9700351731808 0 0 0 0 244.61363833257928 763.84322397575852 0 763.84322397575852 1720.9978429633156 0 0 0 0 3.3307187065115613 5.8635416427255649 0 5.8635416427255649 -8.3196476463731557 0 0 0 0 -11.321279759606114 50.227849936250834 0 50.227849936250834 -7.7069086618740812 0 0 0 0 -16.621601270104293 45.463779378875415 0 45.463779378875415 -4.6765020506705923 0 0 0 0 11.104250455144211 66.384878754737656 0 66.384878754737656 -134.77174548599214 0 0 0 0 -2.4159517879942314 40.046965492883331 0 40.046965492883331 -4.6474953227195996 0 0 0 0 -13.431542431702837 48.836771538337416 0 48.836771538337416 -118.57702547206281 0 0 0 0 0.43465093024707357 47.418025028646127 0 47.418025028646127 -33.830126632300448 0 0 0 0 -16.4734622024082 28.401472417899129 0 28.401472417899129 -20.205643745595911 0 0 0 0 16.74352825304959 150.5809108522426 0 150.5809108522426 466.34410526548891 0 0 0 0 -52.598951597261475 177.18880169401382 0 177.18880169401382 458.15380676207405 0 0 0 0 -54.889925280054513 262.3490053415851 0 262.3490053415851 898.89417490374763 0 0 0 0 -17.932626660491223 -106.26687359868993 0 -106.26687359868993 749.66487017535655 0 0 0 0 12.070595280128316 17.098150214999151 0 17.098150214999151 8.7529646583806446 0 0 0 0 54.197545373303001 95.918421166753433 0 95.918421166753433 -15.895662228511355 0 0 0 0 7.7498669358028565 20.55157790890064 0 20.55157790890064 -26.119198722148212 0 0 0 0 -836.66654712203308 833.11724745884976 0 833.11724745884976 -721.17604399611514 0 0 0 0 0.76528935034571077 28.27615334861256 0 28.27615334861256 -9.7527939016207235 0 0 0 0 -242.79585723250057 -71.995332305107695 0 -71.995332305107695 -60.012039816097968 0 0 0 0 9.9484068789938078 15.507748700565912 0 15.507748700565912 -29.827232188508727 0 0 0 0 1.8860476781828766 -2.3525612239768634 0 -2.3525612239768634 -5.3401381256422553 0 0 0 0 -1.2007958641764844 -2.1791467436886371 0 -2.1791467436886371 -1.0986844952174279 0 0 0 0 -542.34610362275271 650.75774865276298 0 650.75774865276298 -612.04073826746981 0 0 0 0 -350.83759997476591 953.05470462308358 0 953.05470462308358 -1208.6596304601546 0 0 0 0 6.2079293006972875 694.26231261600424 0 694.26231261600424 -1021.2735284739506 0 0 0 0 -37.41799013398122 27.15725366139668 0 27.15725366139668 55.69660612699613 0 0 0 0 -0.019020144041860476 62.145537892793072 0 62.145537892793072 -20.499273048483701 0 0 0 0 5.9610953328019036 4.0231581674772201 0 4.0231581674772201 5.9153415633732287 0 0 0 0 -119.07779163194937 -588.06281675385526 0 -588.06281675385526 3294.9419393773132 0 0 0 0 -349.19788246508688 129.87347481659344 0 129.87347481659344 1058.9651720162065 0 0 0 0 -306.24563995291828 421.30879158297421 0 421.30879158297421 1527.2469549454909 0 0 0 0 -38.514952050834836 1144.3307769808794 0 1144.3307769808794 611.24818608653732 0 0 0 0 -207.06158297209186 872.30935248452442 0 872.30935248452442 1459.0977863240983 0 0 0 0 1.824720393618918 1591.1145835430762 0 1591.1145835430762 1846.1105907630645 0 0 0 0 -123.92547441746137 770.58532359117817 0 770.58532359117817 496.78953987624482 0 0 0 0 -66.38693577455706 130.27808846001062 0 130.27808846001062 -100.36270710784811 0 0 0 0 -31.389363189853611 91.539515612104879 0 91.539515612104879 -69.736069976286672 0 0 0 0 -78.083720832626568 135.02940603053139 0 135.02940603053139 -105.85706443794152 0 0 0 0 -84.187890148634324 45.546763408790866 0 45.546763408790866 -182.21748295960424 0 0 0 0 30.443792512349319 289.72167774835179 0 289.72167774835179 124.85275052365978 0 0 0 0 -45.553383183446186 50.845451478256848 0 50.845451478256848 -54.571137494264434 0 0 0 0 157.27249010479136 149.3763143623928 0 149.3763143623928 72.527550259124837 0 0 0 0 159.33519054522418 370.35341349619932 0 370.35341349619932 105.66166362183139 0 0 0 0 593.31788036553189 324.82449611380252 0 324.82449611380252 47.745715229169946 0 0 0 0 -111.67416496611258 413.39106430481661 0 413.39106430481661 138.97687631510871 0 0 0 0 -48.781113798063018 50.424571457073966 0 50.424571457073966 -52.358201169201081 0 0 0 0 -128.48427246075153 21.830469925649595 0 21.830469925649595 -105.7646374150645 0 0 0 0 -118.19957585766679 72.78232884186491 0 72.78232884186491 -58.419835855493147 0 0 0 0 -221.75937117911963 191.30340600582895 0 191.30340600582895 -121.46482575948903 0 0 0 0 -115.76870622675415 57.978563321539696 0 57.978563321539696 -195.92606281857297 0 0 0 0 -142.32185019517055 96.388360510272832 0 96.388360510272832 -12.331004773317545 0 0 0 0 -51.668509044626262 108.95276601127262 0 108.95276601127262 -101.22574864416674 0 0 0 0 -56.62172084046324 117.99536910367988 0 117.99536910367988 38.739145892162924 0 0 0 0 79.028638909330766 142.96335324855681 0 142.96335324855681 -65.832241208474443 0 0 0 0 68.793120629095938 67.490103958516556 0 67.490103958516556 53.877115841598425 0 0 0 0 133.97747722105851 152.45904941756635 0 152.45904941756635 28.1417860409274 0 0 0 0 308.24745671586061 205.23989326299306 0 205.23989326299306 -115.55445037528989 0 0 0 0 120.18352823516761 87.818918420623959 0 87.818918420623959 5.9454147489450406 0 0 0 0 -144.21782692908164 318.67401789094038 0 318.67401789094038 9.4218209287937498 0 0 0 0 123.59380752342258 294.77891632066894 0 294.77891632066894 -76.782029020163463 0 0 0 0 151.10777517839597 329.2531775164498 0 329.2531775164498 -92.921827439071535 0 0 0 0 -223.27604753006744 507.45724135569253 0 507.45724135569253 0.43038870880832292 0 0 0 0 2.6743665211106418 324.79506921299981 0 324.79506921299981 -71.182081657838808 0 0 0 0 108.07418620935977 146.20930518613457 0 146.20930518613457 101.69456663303163 0 0 0 0 115.19396122645412 222.14687243126536 0 222.14687243126536 8.1403551556140883 0 0 0 0 -608.02502780727809 757.42704111909552 0 757.42704111909552 -128.29903032902075 0 0 0 0 -62.173568268655799 167.11339086753287 0 167.11339086753287 -155.99245320366754 0 0 0 0 -37.086984558147378 420.32074502890828 0 420.32074502890828 -315.88740168847653 0 0 0 0 121.97620333967643 149.84940522051693 0 149.84940522051693 -129.85337988357787 0 0 0 0 110.53100443212315 222.56868761925944 0 222.56868761925944 -111.63433108607569 0 0 0 0 117.74837330453738 225.30442318267524 0 225.30442318267524 -111.32733125968662 0 0 0 0 45.105455332313795 152.89056682589126 0 152.89056682589126 -184.42858558556327 0 0 0 0 1.8479174455368934 55.636822974095281 0 55.636822974095281 -26.673147349618791 0 0 0 0 41.738049938783661 138.50818462158168 0 138.50818462158168 -13.368035453262564 0 0 0 0 37.443031283892424 59.661874660912254 0 59.661874660912254 0.46478618891090662 0 0 0 0 85.42523711360991 198.1110289006574 0 198.1110289006574 54.720953275776992 0 0 0 0 29.990117017368902 89.950753518023703 0 89.950753518023703 47.949365629585373 0 0 0 0 17.817476012860425 98.187398395218224 0 98.187398395218224 45.352830864354473 0 0 0 0 10.779399257720797 102.4124288881103 0 102.4124288881103 42.850195909872127 0 0 0 0 4.277667477959767 75.644987422259419 0 75.644987422259419 116.53207210951587 0 0 0 0 -15.975861301178043 13.699953076178758 0 13.699953076178758 14.070294405247026 0 0 0 0 -495.50777843650576 120.37395533817926 0 120.37395533817926 18.34915618183004 0 0 0 0 -755.48584327549906 267.6582566485713 0 267.6582566485713 439.54785410239492 0 0 0 0 102.8967005131999 151.82357767048234 0 151.82357767048234 175.42849944671616 0 0 0 0 129.09880986499775 182.57316220350549 0 182.57316220350549 -19.299102753266197 0 0 0 0 107.99265318831597 150.88408358048304 0 150.88408358048304 77.641506403215161 0 0 0 0 -41.020790206530364 206.8039783042268 0 206.8039783042268 -126.50102033630401 0 0 0 0 17.905494187961523 72.304589900699369 0 72.304589900699369 70.246462400141397 0 0 0 0 6.3120756293646991 55.938254366657929 0 55.938254366657929 -5.1749273513269145 0 0 0 0 97.937960064054323 190.01773725653686 0 190.01773725653686 31.32931352550937 0 0 0 0 -49.191357302974211 246.95372800140399 0 246.95372800140399 -228.07987744115144 0 0 0 0 -8.1844991384805894 10.803708404432129 0 10.803708404432129 31.951673440673865 0 0 0 0 -74.376373032922857 304.65463716439035 0 304.65463716439035 -284.41008023471386 0 0 0 0 -243.17622152037166 -1111.6279934261377 0 -1111.6279934261377 762.20510849858078 0 0 0 0 -98.086467151040665 60.662034605095897 0 60.662034605095897 15.095211504058968 0 0 0 0 -140.43269806471653 308.98115357525921 0 308.98115357525921 -52.50621991901653 0 0 0 0 -148.74660767626483 340.00324489396417 0 340.00324489396417 -167.72280403730065 0 0 0 0 -310.9059079210856 426.26474705955661 0 426.26474705955661 -122.83465837952053 0 0 0 0 -207.01178328040987 413.38873411132317 0 413.38873411132317 -225.0794206866467 0 0 0 0 -272.32337772537721 354.49841417962784 0 354.49841417962784 10.655701489061357 0 0 0 0 -37.656472761475015 58.535363665054319 0 58.535363665054319 193.69167180090136 0 0 0 0 -182.71840704575879 261.81683872882581 0 261.81683872882581 93.906467793662159 0 0 0 0 -146.59002637534286 279.08693190361703 0 279.08693190361703 29.900783515450712 0 0 0 0 -192.71727985929465 338.01000820587137 0 338.01000820587137 45.932295070665532 0 0 0 0 -180.15969243337167 300.27442338274841 0 300.27442338274841 -38.836616962208154 0 0 0 0 -194.19870437501231 334.08708107220878 0 334.08708107220878 39.695907112111854 0 0 0 0 -164.78333379447577 274.45209961462456 0 274.45209961462456 89.259190709865152 0 0 0 0 -18.296390289753617 76.905087969040437 0 76.905087969040437 13.867697039773248 0 0 0 0 -297.18547591048991 287.49493065999286 0 287.49493065999286 73.624411764135402 0 0 0 0 -165.8111375817316 252.08444333155558 0 252.08444333155558 83.131056426034775 0 0 0 0 -457.51600475111627 214.89087304889318 0 214.89087304889318 167.29539564597962 0 0 0 0 -225.45966104026593 130.08399692490588 0 130.08399692490588 169.18293890248697 0 0 0 0 -121.26545217915555 352.06544947263774 0 352.06544947263774 3.292342344229894 0 0 0 0 35.446528451198731 31.226635696410312 0 31.226635696410312 15.760107206957773 0 0 0 0 -268.76844264355896 -199.50575400949882 0 -199.50575400949882 39.318521984634572 0 0 0 0 -305.42759581403516 419.87230470817383 0 419.87230470817383 -20.550875753472155 0 0 0 0 -226.03997389457072 -16.825249741383232 0 -16.825249741383232 296.03588076839469 0 0 0 0 -102.55833140641334 182.5041773662299 0 182.5041773662299 160.32707927478259 0 0 0 0 -62.198031724372413 176.77533847258746 0 176.77533847258746 -275.40601722868973 0 0 0 0 84.291694810497575 99.58075579000888 0 99.58075579000888 75.066574273072547 0 0 0 0 180.21143329096958 -86.854208270084655 0 -86.854208270084655 268.91598761168825 0 0 0 0 4.585826517926705 30.57159232570055 0 30.57159232570055 -37.447337810558714 0 0 0 0 25.174760568945203 146.95411710399094 0 146.95411710399094 67.69052440122914 0 0 0 0 -4.4850483244517818 145.29518908966065 0 145.29518908966065 191.31551269596196 0 0 0 0 134.07664244773332 223.29355123113191 0 223.29355123113191 113.22576947609559 0 0 0 0 124.53150441613616 190.1440364447169 0 190.1440364447169 133.8199481046795 0 0 0 0 12.975434231688268 96.98555964053412 0 96.98555964053412 48.390752661492229 0 0 0 0 -42.264754878462099 51.33734211607495 0 51.33734211607495 -6.3716654298988686 0 0 0 0 74.121412883945936 128.24421351136112 0 128.24421351136112 26.405945220542201 0 0 0 0 61.302218135053408 210.51162158870227 0 210.51162158870227 -252.58866217677092 0 0 0 0 107.07553655612719 208.12421420358623 0 208.12421420358623 107.89512513846057 0 0 0 0 118.94042505140533 215.2026329868695 0 215.2026329868695 111.95923941809156 0 0 0 0 120.33532952777932 207.59389899147845 0 207.59389899147845 76.665511445171433 0 0 0 0 76.92095842960407 249.35658873330613 0 249.35658873330613 54.697972441988213 0 0 0 0 105.06429230870162 183.70938710788619 0 183.70938710788619 47.182514160835126 0 0 0 0 101.41445677651791 179.07362848129742 0 179.07362848129742 104.47168238168888 0 0 0 0 43.086234993257676 190.22905971279488 0 190.22905971279488 -27.941645437054831 0 0 0 0 -187.89953762211371 355.99609043343298 0 355.99609043343298 36.867705536740687 0 0 0 0 -5.4667525961594947 246.52120200206059 0 246.52120200206059 76.635900639015745 0 0 0 0 -4.6587571469653994 237.81814538694925 0 237.81814538694925 139.13580927826115 0 0 0 0 -140.80576218428905 291.50650682485684 0 291.50650682485684 162.33766036163433 0 0 0 0 85.154554471344454 217.11353886849611 0 217.11353886849611 116.28839893219265 0 0 0 0 22.18963856236951 262.05036984569597 0 262.05036984569597 127.77425039676291 0 0 0 0 56.504407051732414 274.8308950720002 0 274.8308950720002 220.55706633494674 0 0 0 0 40.722886112853303 218.17068107726664 0 218.17068107726664 231.45466886271061 0 0 0 0 -47.948442062730578 15.743203424007888 0 15.743203424007888 11.931203606196803 0 0 0 0 36.862037914717803 180.22070549133241 0 180.22070549133241 252.85053572431934 0 0 0 0 -51.708582692590426 251.19344488332899 0 251.19344488332899 218.70173789454202 0 0 0 0 -51.291462591776508 257.45487134255654 0 257.45487134255654 174.4915816197099 0 0 0 0 -46.466628742287867 287.79863137202301 0 287.79863137202301 214.50978901119379 0 0 0 0 -77.449577511579264 268.69751744141104 0 268.69751744141104 213.78778976519425 0 0 0 0 -33.722264720347994 260.00845481300735 0 260.00845481300735 155.52067427938164 0 0 0 0 -32.305958241122426 235.2727235289185 0 235.2727235289185 35.495280540802923 0 0 0 0 -132.80133210306667 390.17147762994682 0 390.17147762994682 143.17932044611371 0 0 0 0 -44.708768931755912 56.57862080329015 0 56.57862080329015 -43.499228660744407 0 0 0 0 -247.12203141527425 224.55957080144071 0 224.55957080144071 445.92234157404164 0 0 0 0 -120.27561687221169 328.71597370254676 0 328.71597370254676 -60.322963924219948 0 0 0 0 5.9826754233332053 18.577184059266727 0 18.577184059266727 -11.86377466667655 0 0 0 0 131.43716863080044 218.89522233803473 0 218.89522233803473 198.05504231357736 0 0 0 0 98.306033528831904 282.6393679416924 0 282.6393679416924 110.95653126417528 0 0 0 0 44.738239524594974 224.90730835660725 0 224.90730835660725 141.22919664494475 0 0 0 0 99.532239948344795 151.68221048099258 0 151.68221048099258 125.18007633040907 0 0 0 0 0.28941456016036682 284.64067211898146 0 284.64067211898146 188.61274934415633 0 0 0 0 -49.467158883919183 296.93902030318804 0 296.93902030318804 188.28836035995118 0 0 0 0 259.03286163501616 319.89765636553238 0 319.89765636553238 132.86337679393546 0 0 0 0 432.5919219611169 328.41018185181201 0 328.41018185181201 105.39761660849763 0 0 0 0 -4.1849388604817079 5.7687357795497007 0 5.7687357795497007 0.54441995966666923 0 0 0 0 500.6923528659936 180.94031754772914 0 180.94031754772914 144.08656127306676 0 0 0 0 509.90556000033394 251.92877999288248 0 251.92877999288248 169.20878019268457 0 0 0 0 -73.371037349104881 112.02564496639388 0 112.02564496639388 120.3565528981253 0 0 0 0 -2.7364566997008666 3.4624164506943487 0 3.4624164506943487 1.2576234615531305 0 0 0 0 -336.29963372384373 133.5985473818937 0 133.5985473818937 165.36865416773162 0 0 0 0 618.16740628563275 376.41047964050722 0 376.41047964050722 47.16418340166274 0 0 0 0 292.04047098051524 434.82432396579497 0 434.82432396579497 74.064288547733668 0 0 0 0 440.98422267783826 177.15045340716551 0 177.15045340716551 15.669589934630494 0 0 0 0 -3.0353785955637704 3.0349549863993275 0 3.0349549863993275 -14.38490095951768 0 0 0 0 432.2476290081031 234.92264948755746 0 234.92264948755746 101.86233411626381 0 0 0 0 -376.88766444231442 149.46941688527659 0 149.46941688527659 234.11091155134818 0 0 0 0 90.091877406215644 288.75478682299126 0 288.75478682299126 100.66319533607202 0 0 0 0 -95.18872146288777 989.44447471781041 0 989.44447471781041 891.93129296369625 0 0 0 0 -137.93733680217701 632.53773523446125 0 632.53773523446125 -324.39567536503614 0 0 0 0 -259.30066872869884 78.867117714701067 0 78.867117714701067 -20.590593663153413 0 0 0 0 -284.36443593112472 343.40718944531841 0 343.40718944531841 106.778580421269 0 0 0 0 265.01573394972365 70.485932363275424 0 70.485932363275424 -144.06524542695843 0 0 0 0 270.1166634184774 -173.4854444486482 0 -173.4854444486482 1134.9593328792762 0 0 0 0 -158.55169683436907 896.52611160694232 0 896.52611160694232 1627.5163497099784 0 0 0 0 -449.17129279598885 670.87854133841574 0 670.87854133841574 2530.9886184760999 0 0 0 0 -31.684722566787968 -32.465677301986943 0 -32.465677301986943 564.59335791604326 0 0 0 0 209.27966956653472 446.8713080834832 0 446.8713080834832 390.40333559277678 0 0 0 0 -88.400111110226135 -32.750230234645642 0 -32.750230234645642 202.62484150714317 0 0 0 0 74.275951964205888 -198.67665246590605 0 -198.67665246590605 -1021.9619326406209 0 0 0 0 -950.39347378126331 958.2458769689556 0 958.2458769689556 -760.37285669961057 0 0 0 0 269.88377511040017 1.0738820821952686 0 1.0738820821952686 -646.4894175956033 0 0 0 0 835.55697369242989 291.67360469063715 0 291.67360469063715 -667.20964642085255 0 0 0 0 70.756125407475338 -483.76129389288417 0 -483.76129389288417 19.418652585980453 0 0 0 0 -1197.7367757214961 -7.6249836676324776 0 -7.6249836676324776 100.13538222001534 0 0 0 0 -4.7566351022404092 7.4215371651724809 0 7.4215371651724809 -0.0083770560731437627 0 0 0 0 511.92935996856249 452.42936500402357 0 452.42936500402357 -68.395631826839235 0 0 0 0 644.13331161376118 346.66779449089881 0 346.66779449089881 7.0472467632280313 0 0 0 0 -508.71221102857817 567.19029703006163 0 567.19029703006163 -273.40313649486416 0 0 0 0 -568.96924502500951 679.46555087809975 0 679.46555087809975 653.7335897661651 0 0 0 0 517.51826166754472 824.35538311305936 0 824.35538311305936 -211.1130964402164 0 0 0 0 -504.77483969154127 454.16568152016407 0 454.16568152016407 176.14405029864793 0 0 0 0 -791.06136712926673 311.47372127259405 0 311.47372127259405 374.14581547583111 0 0 0 0 -3.1854886854971483 3.768711995385587 0 3.768711995385587 0.99393845599428232 0 0 0 0 -234.05552502384671 205.27537213362666 0 205.27537213362666 -97.980632019365657 0 0 0 0 -531.60923709737835 136.42045970962135 0 136.42045970962135 63.718896685466461 0 0 0 0 -693.14168956421781 320.75747756190503 0 320.75747756190503 687.20728965467424 0 0 0 0 -564.75011331091446 154.15036769250173 0 154.15036769250173 418.49801193468011 0 0 0 0 -632.95865595976647 437.69566103328907 0 437.69566103328907 277.88470208502986 0 0 0 0 9.4261979040910973 11.874135819943803 0 11.874135819943803 14.512804414983933 0 0 0 0 17.000236786232563 1344.9930601743945 0 1344.9930601743945 1159.6538230172409 0 0 0 0 1827.1703595499494 290.32001758980005 0 290.32001758980005 -313.30653801874723 0 0 0 0 -774.75380794086959 236.11781062513728 0 236.11781062513728 177.61559223003133 0 0 0 0 -327.02659349393798 1012.1339411008375 0 1012.1339411008375 473.39703125691085 0 0 0 0 -1081.9364770760149 411.09628630935913 0 411.09628630935913 165.33424644944171 0 0 0 0 539.54042403836502 710.04982669949095 0 710.04982669949095 -147.31120307982201 0 0 0 0 -165.14862271476886 551.00049035838674 0 551.00049035838674 -25.043382091171225 0 0 0 0 -273.36656732107804 846.24353184986467 0 846.24353184986467 158.90013505744719 0 0 0 0 -711.23362071777228 453.77276643109872 0 453.77276643109872 -85.961213203638181 0 0 0 0 357.41718931333162 163.05013385461643 0 163.05013385461643 105.28173404947302 0 0 0 0 68.876253727270523 359.3762707376809 0 359.3762707376809 -56.569410954587511 0 0 0 0 -18.340167058355291 392.91657176989975 0 392.91657176989975 25.69554017516748 0 0 0 0 59.962965617072769 596.49957634245675 0 596.49957634245675 -145.60815939905297 0 0 0 0 -495.28992880304577 707.42166978577006 0 707.42166978577006 -9.4367414602602366 0 0 0 0 -264.90580392426637 566.25499190651317 0 566.25499190651317 -45.511134677151858 0 0 0 0 -242.10006055732447 629.29499041420968 0 629.29499041420968 -103.72299735913111 0 0 0 0 -362.96071340629715 623.11362756244489 0 623.11362756244489 -82.090932852326659 0 0 0 0 -269.8213494096417 620.52641068052617 0 620.52641068052617 -91.796909088610846 0 0 0 0 -280.2079309945766 596.970746419016 0 596.970746419016 -144.37368063173199 0 0 0 0 -201.06697254910978 551.05505757705396 0 551.05505757705396 -148.99134621424309 0 0 0 0 -304.68084570905921 433.34586350086829 0 433.34586350086829 14.217578461641097 0 0 0 0 -378.4397346470214 536.7602806212526 0 536.7602806212526 -49.529029582081421 0 0 0 0 -271.0350746559634 428.97564327880536 0 428.97564327880536 -138.30466083966894 0 0 0 0 -283.97918867258704 463.58556301340286 0 463.58556301340286 219.78017474251101 0 0 0 0 -229.93124371822341 343.31154892274208 0 343.31154892274208 58.856030272258067 0 0 0 0 -412.11844764050329 148.09663214463217 0 148.09663214463217 62.010830103055923 0 0 0 0 14.308301851266521 10.935353713047419 0 10.935353713047419 6.1533168534161007 0 0 0 0 -366.87252476980211 262.56341608117509 0 262.56341608117509 -66.121834142217267 0 0 0 0 -257.03546763226041 147.4776702343006 0 147.4776702343006 -146.86205615932886 0 0 0 0 -38.186543418739149 60.423625964447297 0 60.423625964447297 -43.523117419279842 0 0 0 0 9.5892391992039023 38.135753638468714 0 38.135753638468714 43.072287543041682 0 0 0 0 -418.96415357972 373.6046648181682 0 373.6046648181682 49.031239558386005 0 0 0 0 105.79769894333731 103.04345576062406 0 103.04345576062406 -5.0925665181566728 0 0 0 0 242.64359415387065 35.498361933394477 0 35.498361933394477 -23.982517116159656 0 0 0 0 123.6024864828214 -250.56016578214167 0 -250.56016578214167 -475.96872367355274 0 0 0 0 333.09743964875906 87.929622450860734 0 87.929622450860734 -21.322996020851861 0 0 0 0 -559.17271434878057 94.8063523409769 0 94.8063523409769 844.00201681090039 0 0 0 0 -183.28789910144405 907.90030781625501 0 907.90030781625501 858.10754326945607 0 0 0 0 146.540017512541 11.796062265345896 0 11.796062265345896 2.9513961648094931 0 0 0 0 1819.3123900458595 842.11931009545856 0 842.11931009545856 -441.88832346179788 0 0 0 0 190.37539776178892 -50.714536791939281 0 -50.714536791939281 0.28175946563715115 0 0 0 0 3003.5189978927665 -56.946738500327228 0 -56.946738500327228 20.769164627436567 0 0 0 0 -61.665524816293328 158.54334566591933 0 158.54334566591933 -197.09206852837087 0 0 0 0 174.07784486607488 117.02687963582139 0 117.02687963582139 -294.16458976058493 0 0 0 0 449.33342596799866 -13.729859424533061 0 -13.729859424533061 -213.72445557914034 0 0 0 0 176.16776784196409 -23.57764039104697 0 -23.57764039104697 -66.67576118868601 0 0 0 0 235.80609702866968 112.74285388354929 0 112.74285388354929 -48.822279627464013 0 0 0 0 36.497496512244645 119.67228465684219 0 119.67228465684219 -61.618999332560279 0 0 0 0 -24.302764951597553 97.548726623461476 0 97.548726623461476 -56.472523257537432 0 0 0 0 556.11492244620831 72.887340098670393 0 72.887340098670393 -196.5763224515722 0 0 0 0 238.67566613941744 125.98109627121084 0 125.98109627121084 -60.227275396649475 0 0 0 0 -384.83747496707656 531.51177423866829 0 531.51177423866829 244.81038839999383 0 0 0 0 405.20761531128665 394.50391611544546 0 394.50391611544546 -34.334594923384429 0 0 0 0 201.27204772355617 526.26549786445321 0 526.26549786445321 -46.862971291797294 0 0 0 0 -3.7473454521121425 16.211581411953048 0 16.211581411953048 -25.376404732394242 0 0 0 0 12.242981591960415 223.16465206667999 0 223.16465206667999 417.34758495027199 0 0 0 0 -591.17762782744103 491.03011850225266 0 491.03011850225266 -497.6160707158997 0 0 0 0 239.78590265095409 129.8000460314197 0 129.8000460314197 -121.06300721479465 0 0 0 0 83.262529744001881 102.87445331389003 0 102.87445331389003 -83.393664124322072 0 0 0 0 67.193151686955844 -12.553939838130901 0 -12.553939838130901 134.22354021752835 0 0 0 0 -46.910177706371542 379.13266967966587 0 379.13266967966587 27.106635991254734 0 0 0 0 43.59445083196789 11.827546930027864 0 11.827546930027864 -38.778755199066822 0 0 0 0 -732.82275977068639 377.82974871773695 0 377.82974871773695 -172.17645145313145 0 0 0 0 2.341743457750141 42.1759107982449 0 42.1759107982449 -88.590591656110178 0 0 0 0 -709.35448633141641 438.06590057996073 0 438.06590057996073 -28.649251898648799 0 0 0 0 -965.49144764940138 102.09796574258507 0 102.09796574258507 -163.37939431433915 0 0 0 0 635.58725533731922 -49.447046242512442 0 -49.447046242512442 -312.31635708068006 0 0 0 0 -1135.3829639584874 669.27520754759735 0 669.27520754759735 -25.190770556073403 0 0 0 0 -2226.0960087220155 91.389252695680625 0 91.389252695680625 409.06265066885135 0 0 0 0 -9.587185556545073 24.776000683875537 0 24.776000683875537 -53.245744691103518 0 0 0 0 509.22688710756483 274.85115323346236 0 274.85115323346236 152.92147954904794 0 0 0 0 -4.7931729046948668 -3.1640013361030412 0 -3.1640013361030412 -11.282160384956349 0 0 0 0 -583.08344198863779 537.0327722696702 0 537.0327722696702 385.40499868973347 0 0 0 0 661.24829501834756 293.89166030811975 0 293.89166030811975 -29.405007336474227 0 0 0 0 1018.333370903114 539.74178456284426 0 539.74178456284426 65.96935319568729 0 0 0 0 596.5675128956791 535.43666063739511 0 535.43666063739511 303.06450562674218 0 0 0 0 355.42623215637286 267.96193840796059 0 267.96193840796059 184.06352849798668 0 0 0 0 502.70961774415628 65.277867823026099 0 65.277867823026099 -107.54576340623044 0 0 0 0 740.84726637853601 738.11301071767866 0 738.11301071767866 482.24857108558172 0 0 0 0 432.89699597246363 406.72478872488864 0 406.72478872488864 332.47907479510832 0 0 0 0 2517.5210103116988 927.48566291897623 0 927.48566291897623 68.769841411471134 0 0 0 0 1907.9393688999407 1597.895056321333 0 1597.895056321333 844.47555290351011 0 0 0 0 808.30368503084173 1118.3665422456779 0 1118.3665422456779 1535.2092771256339 0 0 0 0 943.16998809190409 754.5488342178553 0 754.5488342178553 609.12816939186087 0 0 0 0 778.10944819348515 1144.7861540841259 0 1144.7861540841259 918.2914158344829 0 0 0 0 1240.1728226324776 852.03248633976091 0 852.03248633976091 422.96096886598389 0 0 0 0 944.74245960047119 576.60376346542307 0 576.60376346542307 232.76152579018162 0 0 0 0 1465.5066241687164 1059.1090069743841 0 1059.1090069743841 437.56774016453733 0 0 0 0 1804.3394582464825 492.4353179224654 0 492.4353179224654 64.769757750778808 0 0 0 0 1334.3011994155822 538.19509050398483 0 538.19509050398483 72.949326767590946 0 0 0 0 1885.1717528837908 167.08869352899637 0 167.08869352899637 65.290552910724728 0 0 0 0 1356.8657507158932 669.81662631613654 0 669.81662631613654 89.112951238294045 0 0 0 0 1008.2836979780113 651.49253072733882 0 651.49253072733882 195.67548996344158 0 0 0 0 1089.029980447518 186.28321314072514 0 186.28321314072514 72.29036712422203 0 0 0 0 40.416860908544493 9.1702029940670116 0 9.1702029940670116 -19.833225585085483 0 0 0 0 151.17949195796973 5.8153940414754288 0 5.8153940414754288 -77.779640716369954 0 0 0 0 976.70701618589737 611.72545147862616 0 611.72545147862616 252.80799949751236 0 0 0 0 954.89554536962532 693.43722121373321 0 693.43722121373321 515.37365243435124 0 0 0 0 1102.3897912607499 727.1010768720862 0 727.1010768720862 194.53823317419119 0 0 0 0 1413.3771415508672 1534.6664625581743 0 1534.6664625581743 536.73211350276347 0 0 0 0 13.442640817816795 3.7563231281518341 0 3.7563231281518341 -16.610998842010446 0 0 0 0 80.193535408994649 -87.649060754416496 0 -87.649060754416496 -277.80415320103384 0 0 0 0 57.826566550628741 71.543571665515401 0 71.543571665515401 -59.892058872821508 0 0 0 0 159.55097910856421 -1.7312369492456128 0 -1.7312369492456128 -45.067381080971245 0 0 0 0 -3162.6792410204653 -351.3305066143339 0 -351.3305066143339 294.6110212188587 0 0 0 0 -4.2254041549200707 9.4231561093301934 0 9.4231561093301934 -17.305386273401396 0 0 0 0 688.22856184538978 -255.41957554821056 0 -255.41957554821056 -560.72320544030845 0 0 0 0 985.40122929841709 224.70988222998176 0 224.70988222998176 -293.71054208493661 0 0 0 0 300.13935569957539 1049.426335200149 0 1049.426335200149 98.58500358386209 0 0 0 0 639.37511048871966 2076.1368558116565 0 2076.1368558116565 1687.4399535860603 0 0 0 0 1535.8818843326962 444.64554822387322 0 444.64554822387322 321.11739337732433 0 0 0 0 981.38029619418376 120.58541200582385 0 120.58541200582385 -148.73822581937202 0 0 0 0 795.88312504431815 1834.0669755530553 0 1834.0669755530553 -752.3725841198675 0 0 0 0 -1167.7737963238906 575.89377492279982 0 575.89377492279982 609.04988613801834 0 0 0 0 498.75846565826214 447.49903453280058 0 447.49903453280058 601.76509234712512 0 0 0 0 6.0653455118206807 3.5722359097819094 0 3.5722359097819094 -7.8717675160815972 0 0 0 0 119.45896848178745 -614.34669861707789 0 -614.34669861707789 -664.13079369085972 0 0 0 0 -227.25075302517507 431.11824044745754 0 431.11824044745754 1128.7486577993022 0 0 0 0 252.67389874932996 1183.3297051547015 0 1183.3297051547015 -1034.1341507467387 0 0 0 0 160.03529940679437 178.93758460285073 0 178.93758460285073 -730.37173959257052 0 0 0 0 -19.58533242980883 29.562574597475852 0 29.562574597475852 -9.6215995424747121 0 0 0 0 -16.363247111003204 20.63698690490412 0 20.63698690490412 -7.023984987470655 0 0 0 0 -269.20247048686724 480.00771217785041 0 480.00771217785041 2476.8527986546515 0 0 0 0 346.70897690015227 -21.820168348321658 0 -21.820168348321658 1296.0071668809942 0 0 0 0 91.279881614631449 246.92292084578912 0 246.92292084578912 157.53998224852512 0 0 0 0 176.20508957467246 182.08719359621955 0 182.08719359621955 -139.95879486915328 0 0 0 0 -193.37845173694586 58.819281005094354 0 58.819281005094354 -171.38954668920087 0 0 0 0 304.13055752452055 188.17965184365858 0 188.17965184365858 -430.98677354304164 0 0 0 0 -99.65017151927168 145.82483618979825 0 145.82483618979825 -157.36303957790278 0 0 0 0 -12.377459478598212 35.725028098858559 0 35.725028098858559 -25.025859972714514 0 0 0 0 -0.57662880201367273 16.330031745994603 0 16.330031745994603 -40.371391514742065 0 0 0 0 55.454605244362028 7.1826901289559828 0 7.1826901289559828 -222.31616658716112 0 0 0 0 -49.000708630992449 84.603079725000498 0 84.603079725000498 -55.140017413147234 0 0 0 0 66.674250878473686 38.808410171519427 0 38.808410171519427 -140.96982564928476 0 0 0 0 60.277950407587923 45.954399127730198 0 45.954399127730198 -59.09230119790459 0 0 0 0 21.154287289187778 38.047431173185601 0 38.047431173185601 -31.446648072695552 0 0 0 0 14.659288627055389 36.977369892888383 0 36.977369892888383 -32.234900069996002 0 0 0 0 -12.579453118454083 40.008038229676444 0 40.008038229676444 -48.512513825508329 0 0 0 0 17.505343592340992 25.641949900477783 0 25.641949900477783 -41.820934098837753 0 0 0 0 -14.564876581061981 55.374886701476953 0 55.374886701476953 -42.948899376608324 0 0 0 0 40.507511125045319 36.870048152098875 0 36.870048152098875 -29.653250875545069 0 0 0 0 -1089.5394236929133 957.22354257102961 0 957.22354257102961 247.95787827801541 0 0 0 0 -1098.273545466669 1352.5100529900446 0 1352.5100529900446 -2008.5643883755156 0 0 0 0 46.65548821857891 45.659525091124017 0 45.659525091124017 -44.77604988433351 0 0 0 0 218.71207447257257 42.287412891382701 0 42.287412891382701 -119.79659432501649 0 0 0 0 -95.860954387331731 158.16055577257794 0 158.16055577257794 -120.46618323620351 0 0 0 0 99.992166941417963 14.201612076333276 0 14.201612076333276 -4.6867595539697504 0 0 0 0 1.6242883631930809 0.025317827642666657 0 0.025317827642666657 0.38404104233228509 0 0 0 0 1245.7612775053276 -315.58052138761923 0 -315.58052138761923 -2140.9743704155262 0 0 0 0 1644.9474767604042 2902.9235317066632 0 2902.9235317066632 -8019.4720394485121 0 0 0 0 39.422065998266262 36.237557647203772 0 36.237557647203772 -44.669119140632461 0 0 0 0 -5642.9133656270278 1461.7325833505674 0 1461.7325833505674 5130.7492911652589 0 0 0 0 -158.57996958599688 806.47082191840673 0 806.47082191840673 -3440.3621144848148 0 0 0 0 -1807.9037310197091 2770.8691559375293 0 2770.8691559375293 -2197.8762304597767 0 0 0 0 -16.285049015549632 27.776198411529133 0 27.776198411529133 8.3305442158555749 0 0 0 0 -2709.6114173483829 879.3811708610823 0 879.3811708610823 -280.4125558573578 0 0 0 0 -2711.0904309383395 1544.0042745814881 0 1544.0042745814881 -991.30689624615479 0 0 0 0 -1139.9326403646701 553.9541961793293 0 553.9541961793293 -378.85326020628418 0 0 0 0 -40.115883706054319 139.09688452640853 0 139.09688452640853 101.21323442884864 0 0 0 0 8.0012299448594248 73.099475920377316 0 73.099475920377316 90.119123394004873 0 0 0 0 -142.48592664008174 528.70760438810248 0 528.70760438810248 -1332.6257179357963 0 0 0 0 -90.592327897000359 210.08470197207544 0 210.08470197207544 106.35141756629082 0 0 0 0 -95.355573461294952 32.601775748684744 0 32.601775748684744 45.676620463499525 0 0 0 0 310.13819863779281 -59.332416396654935 0 -59.332416396654935 355.62969516090743 0 0 0 0 -17.631603815359995 507.93775911038756 0 507.93775911038756 637.53693635224045 0 0 0 0 -469.13604534736078 -84.959553325075831 0 -84.959553325075831 522.56563524631201 0 0 0 0 -876.92431426933035 332.91830932864013 0 332.91830932864013 622.95842635100757 0 0 0 0 -2476.3944925144897 1062.0767773473381 0 1062.0767773473381 -674.86011292662442 0 0 0 0 -134.57034097996075 -616.57682974479121 0 -616.57682974479121 787.35281662060879 0 0 0 0 -7.728254161896345 9.3648702274829247 0 9.3648702274829247 7.2393978561691554 0 0 0 0 -2798.1955683383858 1224.6806754349382 0 1224.6806754349382 1325.6295393096661 0 0 0 0 -2383.3952113936975 382.98531020244991 0 382.98531020244991 2478.4631656864549 0 0 0 0 -1359.167441668571 -295.7886539073661 0 -295.7886539073661 1450.9471931100416 0 0 0 0 6.0152068630333986 24.149023848012682 0 24.149023848012682 -12.719832345367518 0 0 0 0 -2592.1486226338457 1319.3951616982849 0 1319.3951616982849 -246.06842850973362 0 0 0 0 -719.39263932059475 -47.76435323138594 0 -47.76435323138594 1124.6770528722627 0 0 0 0 -666.53281703413813 647.094407053537 0 647.094407053537 386.1082162897892 0 0 0 0 -310.76725904316845 -180.4413473880395 0 -180.4413473880395 -140.48904663185749 0 0 0 0 -442.62258674608893 503.10080385260153 0 503.10080385260153 1.0223662861171761 0 0 0 0 -362.08977473595587 460.73426928650133 0 460.73426928650133 -264.71105061458729 0 0 0 0 -324.45654368129544 390.7810694060845 0 390.7810694060845 -281.06127038690829 0 0 0 0 -54.831836954312166 1102.7012351261528 0 1102.7012351261528 -421.30901908021769 0 0 0 0 -435.66231974053153 -253.58927109311935 0 -253.58927109311935 -413.71297697772025 0 0 0 0 -490.23567297634145 759.07086609149883 0 759.07086609149883 -835.6788344505494 0 0 0 0 -973.29268712453813 695.15611703910417 0 695.15611703910417 -101.52620189051959 0 0 0 0 -11.392201768938051 7.0623266201039172 0 7.0623266201039172 -0.44643218080038594 0 0 0 0 -868.80873305770183 241.50557803761615 0 241.50557803761615 151.58280004902008 0 0 0 0 -709.51516780436577 565.71786459547229 0 565.71786459547229 -78.229079033877497 0 0 0 0 -626.06871697708266 387.06886730626502 0 387.06886730626502 161.99430135273542 0 0 0 0 -523.45239974373544 340.61013438323653 0 340.61013438323653 -7.0978650259730784 0 0 0 0 -524.447247571974 336.24447604386478 0 336.24447604386478 -20.681701471714405 0 0 0 0 -377.60614930406336 269.69791858499991 0 269.69791858499991 59.510259517179293 0 0 0 0 -384.1018031998974 242.24407011416679 0 242.24407011416679 20.341732880969175 0 0 0 0 -579.38708403140481 355.57339175447214 0 355.57339175447214 -268.07611371582607 0 0 0 0 -513.46483774876106 585.0202097747333 0 585.0202097747333 -312.81470352881524 0 0 0 0 -433.17427377142303 479.17967646210946 0 479.17967646210946 -266.18164837560107 0 0 0 0 -580.50763020179875 375.17826376235371 0 375.17826376235371 -243.54367360559422 0 0 0 0 -579.08673619021283 408.15233941679389 0 408.15233941679389 -112.24551468938989 0 0 0 0 -601.06267063872656 394.95351689699919 0 394.95351689699919 -252.35863728109871 0 0 0 0 -681.17011382163037 305.91233122190943 0 305.91233122190943 -290.14163437990283 0 0 0 0 -1304.8725212295831 491.93272295062525 0 491.93272295062525 -124.812274423708 0 0 0 0 -787.50207985757152 406.31526702046176 0 406.31526702046176 -303.08391220335398 0 0 0 0 -803.92703442233324 392.64289776356782 0 392.64289776356782 -288.32789718525601 0 0 0 0 -790.8638807549105 393.2914138262779 0 393.2914138262779 -318.53320834020633 0 0 0 0 -789.64483385704079 225.62171867466941 0 225.62171867466941 -235.90973997943729 0 0 0 0 -659.56476145987835 426.9752208389109 0 426.9752208389109 -277.32959548999611 0 0 0 0 -1040.7497808658227 550.12504606778202 0 550.12504606778202 -289.19999604209988 0 0 0 0 -1099.1631286608463 455.07730372857259 0 455.07730372857259 -226.11599423993482 0 0 0 0 -960.80552086976604 527.80806496626576 0 527.80806496626576 -324.81955628488868 0 0 0 0 -994.56239353740239 413.30046252752072 0 413.30046252752072 -226.66491696676599 0 0 0 0 -823.22212263834081 373.33840601112297 0 373.33840601112297 -306.91471947381888 0 0 0 0 -903.85631540698523 481.46287552149715 0 481.46287552149715 -403.82973895051873 0 0 0 0 56.031638386342337 88.83309351682297 0 88.83309351682297 -54.446744076747365 0 0 0 0 4.6187087825175155 44.323201177703432 0 44.323201177703432 -30.093127476369482 0 0 0 0 -1070.7971275611271 597.96811383601698 0 597.96811383601698 -409.80103718150895 0 0 0 0 -960.88402590190526 498.10153141730007 0 498.10153141730007 -321.62324175762296 0 0 0 0 121.01780203431554 50.550855490057984 0 50.550855490057984 6.5824771522202354 0 0 0 0 17.780075926446059 27.40381841757727 0 27.40381841757727 -17.604063645526384 0 0 0 0 210.88027334291837 81.526718352206444 0 81.526718352206444 -108.07860566216004 0 0 0 0 16.368853310828499 25.767600098534388 0 25.767600098534388 -38.332597449737484 0 0 0 0 117.27395954924941 38.352992408171644 0 38.352992408171644 -35.652289074719647 0 0 0 0 -8.8691680098563666 80.754542286631477 0 80.754542286631477 -48.64183191711345 0 0 0 0 -175.21468516526511 58.436938603394992 0 58.436938603394992 -27.667569793651637 0 0 0 0 -601.97594356390618 531.77061562916424 0 531.77061562916424 -659.15922499034241 0 0 0 0 -1165.1200363966636 229.3441527414052 0 229.3441527414052 -180.29319654967549 0 0 0 0 145.00800561451615 163.65791071095282 0 163.65791071095282 -1760.8898851820331 0 0 0 0 -193.39907261620101 68.387948153313118 0 68.387948153313118 -703.66233605020966 0 0 0 0 -54.207072335977813 59.256599445813116 0 59.256599445813116 -35.163331105876907 0 0 0 0 -261.36846267285728 231.5798010624726 0 231.5798010624726 -32.75841618220079 0 0 0 0 -31.766654272043525 -71.97735072700641 0 -71.97735072700641 -269.27869466727043 0 0 0 0 -548.66394081496219 677.32097638966115 0 677.32097638966115 -371.0744157207223 0 0 0 0 -45.29917037836276 190.43387884257481 0 190.43387884257481 -526.71244155711065 0 0 0 0 -233.63917352832141 120.37270710629491 0 120.37270710629491 49.687462279509418 0 0 0 0 8.3939776727220305 311.08779612561557 0 311.08779612561557 131.36225414234923 0 0 0 0 568.59597464246144 -221.6767260156721 0 -221.6767260156721 507.95355405394548 0 0 0 0 1812.9580436182318 47.580055537338922 0 47.580055537338922 -83.757928112786431 0 0 0 0 478.91263416707181 301.82063013130539 0 301.82063013130539 -60.895205612130667 0 0 0 0 110.06254989189699 164.5880079999547 0 164.5880079999547 -111.77927463679862 0 0 0 0 316.28798737502984 -130.98692859313087 0 -130.98692859313087 -64.509754007074662 0 0 0 0 -85.52203805678846 21.11076354397909 0 21.11076354397909 -78.446890258681378 0 0 0 0 226.87431643008722 42.468991459927963 0 42.468991459927963 -162.4472938847465 0 0 0 0 -67.074328252064561 -42.505073214893216 0 -42.505073214893216 -33.39786387946225 0 0 0 0 109.5788101953201 181.57105588787408 0 181.57105588787408 -14.531827354262532 0 0 0 0 -18.180048272547083 133.21724411523519 0 133.21724411523519 -32.819781918090484 0 0 0 0 -21.863601058223935 264.33329548302436 0 264.33329548302436 -11.12128683305491 0 0 0 0 -703.11003918869278 474.30886240274504 0 474.30886240274504 35.343456925700821 0 0 0 0 -16.066712003923843 -2.4730878623196113 0 -2.4730878623196113 -0.79208489746313759 0 0 0 0 -94.57037877638524 51.200689316330724 0 51.200689316330724 20.676491852040122 0 0 0 0 -60.129878006977378 1025.8450133208403 0 1025.8450133208403 147.7338753224285 0 0 0 0 -34.920472952075706 88.090390879951286 0 88.090390879951286 17.192554860604794 0 0 0 0 352.58110558096087 194.63469432338115 0 194.63469432338115 -276.90936186737963 0 0 0 0 180.00088811245223 530.96465664627249 0 530.96465664627249 -930.35955826056852 0 0 0 0 205.25470847696124 311.73546526622522 0 311.73546526622522 107.79422726403595 0 0 0 0 84.595753012530622 -52.344843376598874 0 -52.344843376598874 -588.9190819329724 0 0 0 0 311.57775876249798 68.028878338607683 0 68.028878338607683 57.224492162471506 0 0 0 0 -7.618489846775498 97.778277915834082 0 97.778277915834082 27.390219026491067 0 0 0 0 252.82441949488566 373.16932282566358 0 373.16932282566358 3.9111384053103393 0 0 0 0 146.29761431195948 -108.55951493534667 0 -108.55951493534667 113.9706631930265 0 0 0 0 38.77601926116094 35.647059891917891 0 35.647059891917891 -17.011712718174614 0 0 0 0 119.11368459504592 132.4697557185184 0 132.4697557185184 93.275296752275608 0 0 0 0 1287.3718008110991 205.03165797523275 0 205.03165797523275 -1738.5636422900866 0 0 0 0 -553.11758453517541 -56.223511362652062 0 -56.223511362652062 561.01889321635417 0 0 0 0 262.52009858080783 -129.88861737241677 0 -129.88861737241677 -1648.6915798114187 0 0 0 0 -628.6347498118123 623.51234618544913 0 623.51234618544913 -494.82655825078109 0 0 0 0 388.67487260181406 522.70984092533672 0 522.70984092533672 -1581.2442602527026 0 0 0 0 389.7485528513298 99.026766522064008 0 99.026766522064008 -1018.0841455605805 0 0 0 0 -174.1454065885282 -220.88166743787406 0 -220.88166743787406 561.74906915541033 0 0 0 0 398.92269318136823 -295.06264364660058 0 -295.06264364660058 417.37734184717192 0 0 0 0 22.853256966549836 5.4884894697535458 0 5.4884894697535458 -1.3833112114690564 0 0 0 0 -422.9938280507813 2086.3964914525041 0 2086.3964914525041 -411.71613211818112 0 0 0 0 -29.70581156233402 20.837202709492885 0 20.837202709492885 651.35315885959244 0 0 0 0 30.001462100410208 392.17335821951383 0 392.17335821951383 782.90509744303017 0 0 0 0 -90.3116737046048 792.56850696251149 0 792.56850696251149 -359.9350120249801 0 0 0 0 183.04831062632366 451.99793071298564 0 451.99793071298564 840.43353786343141 0 0 0 0 -22.912698483019994 937.05841579360776 0 937.05841579360776 -187.63500114048747 0 0 0 0 893.50092897169634 -239.75458042439573 0 -239.75458042439573 1413.2027518891991 0 0 0 0 -3.5735676985814635 5.6650418355242849 0 5.6650418355242849 -4.1752562429952853 0 0 0 0 255.99812079117146 386.96571525962463 0 386.96571525962463 1071.1700611429696 0 0 0 0 28.008203528569993 529.34275447518598 0 529.34275447518598 -596.36529065159448 0 0 0 0 -1.8996932991092237 0.38959126843826297 0 0.38959126843826297 1.0733922094396249 0 0 0 0 -655.14562061326069 -77.882253291320012 0 -77.882253291320012 -302.98998118300551 0 0 0 0 -12.102722442522591 13.706386294690056 0 13.706386294690056 -10.208255456646848 0 0 0 0 127.93044042161637 1190.7059560801608 0 1190.7059560801608 230.20032632616585 0 0 0 0 177.45668643980753 391.70496666825966 0 391.70496666825966 558.19430418498268 0 0 0 0 81.218767919210222 258.55086460489201 0 258.55086460489201 549.856884362036 0 0 0 0 -3.4796247658738366 8.662497265118887 0 8.662497265118887 -2.9226175080958323 0 0 0 0 150.51009411493044 906.92368149471349 0 906.92368149471349 590.08912544395207 0 0 0 0 -460.18871732346361 -893.96711891946734 0 -893.96711891946734 -494.60803231027421 0 0 0 0 -29.092404861066363 26.841489178367798 0 26.841489178367798 -34.744096488590941 0 0 0 0 -118.35447641265182 469.19019977901735 0 469.19019977901735 669.16776080553859 0 0 0 0 -967.62605703816189 -54.954503367116558 0 -54.954503367116558 22.558792705887754 0 0 0 0 559.73736842620019 -177.81353191612561 0 -177.81353191612561 -140.8367376201204 0 0 0 0 -370.31901752357589 361.21771599686144 0 361.21771599686144 759.3763956113371 0 0 0 0 -198.40664707691212 -522.6531052581995 0 -522.6531052581995 290.26703715954682 0 0 0 0 43.845548550858439 -127.5027297202405 0 -127.5027297202405 -674.06502063369044 0 0 0 0 -483.44775952079544 -786.20831811155404 0 -786.20831811155404 -1096.2326796688521 0 0 0 0 -10.457057918133691 9.2848674339731545 0 9.2848674339731545 -7.8778169142956935 0 0 0 0 59.986824684734529 -65.512900669540159 0 -65.512900669540159 -442.07312606959385 0 0 0 0 -937.75284931315218 -37.325236931655127 0 -37.325236931655127 -222.82028711518615 0 0 0 0 231.80899914114889 437.89419758578663 0 437.89419758578663 668.53063579392222 0 0 0 0 -299.08815125779745 225.98025704301199 0 225.98025704301199 285.16078385141827 0 0 0 0 -26.408163146645808 20.604095808541935 0 20.604095808541935 -18.279284500800571 0 0 0 0 523.36795417943858 243.05770361680356 0 243.05770361680356 205.16529957506646 0 0 0 0 450.8610766678521 -46.987390321659859 0 -46.987390321659859 -58.393430021142194 0 0 0 0 69.68574375895696 251.30712347238841 0 251.30712347238841 207.60501133019534 0 0 0 0 219.37481402023491 488.40630253878157 0 488.40630253878157 687.5928142205903 0 0 0 0 39.453832808899122 13.470587133092359 0 13.470587133092359 11.533994560827797 0 0 0 0 183.0172261596872 429.69689129938081 0 429.69689129938081 675.15057794296354 0 0 0 0 139.10708796915696 485.28848244691642 0 485.28848244691642 699.89307435057708 0 0 0 0 -15.200095311689417 130.79443606657998 0 130.79443606657998 14.190885388370457 0 0 0 0 323.637722517371 193.48874789619987 0 193.48874789619987 -118.40922090748262 0 0 0 0 31.083566690278531 142.6939668787949 0 142.6939668787949 138.43437935721244 0 0 0 0 32.049498954492265 149.10212951181731 0 149.10212951181731 -74.222877390784561 0 0 0 0 -126.98588265277067 168.02500169684913 0 168.02500169684913 250.22772715214342 0 0 0 0 -132.5040023180934 -27.30748462497829 0 -27.30748462497829 -165.70989627470544 0 0 0 0 366.86730985125905 123.2883099332571 0 123.2883099332571 -265.22588591829117 0 0 0 0 1009.5990143069102 1277.369282656306 0 1277.369282656306 -1023.28162058819 0 0 0 0 -986.16461681750661 -85.273416301286943 0 -85.273416301286943 907.66624258268439 0 0 0 0 -689.84051758078567 -788.46621094394231 0 -788.46621094394231 -503.91444457647731 0 0 0 0 -24.772112781748604 133.32640889178643 0 133.32640889178643 151.16076845549645 0 0 0 0 126.58806265264866 383.2106960413148 0 383.2106960413148 72.389468017448962 0 0 0 0 628.42671090944407 242.41582565295266 0 242.41582565295266 -315.65549986417318 0 0 0 0 124.48871243471785 169.89298640142079 0 169.89298640142079 283.24141138025698 0 0 0 0 -12.968483268201673 124.50916136632419 0 124.50916136632419 75.459618790986696 0 0 0 0 2.1438772303802125 -109.92863708586901 0 -109.92863708586901 -204.20212988861749 0 0 0 0 5.3192027251834588 504.21487748818254 0 504.21487748818254 -440.5752461005759 0 0 0 0 10.628356986615927 697.25252517920717 0 697.25252517920717 -89.605109358835762 0 0 0 0 -373.38147015469622 427.95226959299907 0 427.95226959299907 177.08596202628542 0 0 0 0 -148.13946003459387 452.46394104964565 0 452.46394104964565 108.89867801309447 0 0 0 0 -165.94456243669993 442.26272939343835 0 442.26272939343835 198.47638008659123 0 0 0 0 -424.79766402978385 653.22500847897754 0 653.22500847897754 -777.24891274399124 0 0 0 0 -44.531009581883261 58.415717633796902 0 58.415717633796902 -43.364878851214982 0 0 0 0 -4.4468187635617298 7.968568663216324 0 7.968568663216324 -14.82228922579327 0 0 0 0 -81.409415556503518 -36.225401772782789 0 -36.225401772782789 1620.7589549928307 0 0 0 0 5.6358395156001109 86.345981201148675 0 86.345981201148675 28.234504325786954 0 0 0 0 -214.33992703831245 836.66562474176499 0 836.66562474176499 -630.54291838030986 0 0 0 0 -404.5634098736432 446.57778100762516 0 446.57778100762516 -624.64554949024387 0 0 0 0 301.69285443019271 255.0802676694002 0 255.0802676694002 -573.01181832301063 0 0 0 0 148.50087905656824 131.65820604262149 0 131.65820604262149 56.168066908405308 0 0 0 0 461.61719003404642 964.14903608765053 0 964.14903608765053 -815.11736784138157 0 0 0 0 -685.19683999243716 8.7839803044371365 0 8.7839803044371365 -278.96137590486069 0 0 0 0 -617.37668690078135 130.35294822095139 0 130.35294822095139 -323.61811554885355 0 0 0 0 1472.3791316389543 2068.0296919012089 0 2068.0296919012089 169.887454427796 0 0 0 0 925.87961931036261 737.79383921967747 0 737.79383921967747 -744.05664774470642 0 0 0 0 -523.70544727123342 947.48071902770971 0 947.48071902770971 1090.1624305004398 0 0 0 0 -149.89413481130032 1408.8930708617991 0 1408.8930708617991 926.23536860664262 0 0 0 0 -6.6175003522499054 13.301610018353571 0 13.301610018353571 19.629513293345838 0 0 0 0 -631.28245137484919 1492.2741351829673 0 1492.2741351829673 2702.2425620691683 0 0 0 0 33.053258528969309 505.21363643339828 0 505.21363643339828 774.15621454522773 0 0 0 0 -1641.5197291512814 1256.0720876757568 0 1256.0720876757568 808.24031923992698 0 0 0 0 -1453.4983666248663 619.14399906714061 0 619.14399906714061 423.7026452977334 0 0 0 0 -701.81842711035279 995.30640470431172 0 995.30640470431172 1261.1710482980288 0 0 0 0 2334.9143062496478 353.07918316649466 0 353.07918316649466 -117.12215823381121 0 0 0 0 -5.8229467757598954 0.35116999353135725 0 0.35116999353135725 -15.231577228122312 0 0 0 0 -889.05704712921579 1194.0939009591357 0 1194.0939009591357 1738.9402639536347 0 0 0 0 -464.710603914893 1291.7684947645321 0 1291.7684947645321 874.68730949969904 0 0 0 0 -465.48047989082988 1276.7736139670342 0 1276.7736139670342 252.58615058015494 0 0 0 0 -808.05571283919562 431.35593470184381 0 431.35593470184381 -590.73555550184778 0 0 0 0 -921.77598913792463 561.77895456420993 0 561.77895456420993 -540.13091959174562 0 0 0 0 -688.75692480006546 239.37425200552661 0 239.37425200552661 -463.37223162147166 0 0 0 0 -52.748944709672443 54.584527298340909 0 54.584527298340909 -37.069421062482917 0 0 0 0 -901.92460919890073 483.13037753769925 0 483.13037753769925 -405.83763501393514 0 0 0 0 -739.36420334986178 377.66107730038493 0 377.66107730038493 -500.22913996652096 0 0 0 0 -753.2878735516606 337.16448134331165 0 337.16448134331165 -404.82735843895171 0 0 0 0 -697.2496961658544 263.79418831312296 0 263.79418831312296 -388.24556716927327 0 0 0 0 -720.22503226032131 315.79260348090475 0 315.79260348090475 -438.86441629902492 0 0 0 0 -698.71312755701365 272.51536525979282 0 272.51536525979282 -347.7166014921861 0 0 0 0 -623.14426070058835 175.5852733454758 0 175.5852733454758 -380.37582134748254 0 0 0 0 -659.42717579251075 288.76739252057541 0 288.76739252057541 -383.01083594842748 0 0 0 0 -702.20288186392281 278.02205904877519 0 278.02205904877519 -348.83080127546873 0 0 0 0 -611.91255105831078 249.36971479414206 0 249.36971479414206 -254.47761807772827 0 0 0 0 -661.93126805027714 263.5857456641852 0 263.5857456641852 -218.44232519135585 0 0 0 0 -575.12660458845494 299.7575088852916 0 299.7575088852916 -195.86723357957089 0 0 0 0 -520.68567316692497 225.90274503874798 0 225.90274503874798 -109.7861737071734 0 0 0 0 -606.04440680079279 175.84545845578418 0 175.84545845578418 -149.30265994245005 0 0 0 0 -504.62533229276596 170.23010540242836 0 170.23010540242836 -242.50043802642239 0 0 0 0 -606.56850375882641 186.66730162057479 0 186.66730162057479 -327.2454098104572 0 0 0 0 -629.24803522781258 160.62043418443233 0 160.62043418443233 -274.97505949235142 0 0 0 0 -373.584416309066 133.58657768788567 0 133.58657768788567 136.29969353724641 0 0 0 0 -354.61640224227449 191.32461819387026 0 191.32461819387026 -29.129360426098287 0 0 0 0 -470.83537496790814 288.36832273689834 0 288.36832273689834 -61.952304767506121 0 0 0 0 -482.60512674652273 95.432036781697889 0 95.432036781697889 -8.811512616601604 0 0 0 0 -555.62388081641257 -245.68525808896902 0 -245.68525808896902 -174.0621599240506 0 0 0 0 -323.11711065379495 110.56315211655283 0 110.56315211655283 97.980598300532392 0 0 0 0 -326.76924170424354 66.118210345954907 0 66.118210345954907 -170.78192092102228 0 0 0 0 -469.26745335548912 113.05502315772719 0 113.05502315772719 -120.76938109878301 0 0 0 0 -552.88333130803949 106.43400774069698 0 106.43400774069698 -434.65154839980914 0 0 0 0 -618.44842582657066 111.21398741604008 0 111.21398741604008 -287.80302225087553 0 0 0 0 -533.78096559121332 13.726445076599248 0 13.726445076599248 -185.88554067525797 0 0 0 0 -43.418982192846585 23.180401121559321 0 23.180401121559321 -8.5299467170695937 0 0 0 0 -506.24798526067025 -264.6185854564178 0 -264.6185854564178 -447.27455012027451 0 0 0 0 508.71156319666625 1504.3044318379229 0 1504.3044318379229 1055.5091870482947 0 0 0 0 -173.07690835751418 596.48706559874972 0 596.48706559874972 1736.7768764035754 0 0 0 0 -469.61853237774267 -2.4126099986442568 0 -2.4126099986442568 155.15468366436289 0 0 0 0 -13.121761872854847 8.5203369540986245 0 8.5203369540986245 -4.0921332667046428 0 0 0 0 508.04500600390156 714.19516967128834 0 714.19516967128834 674.49420586001088 0 0 0 0 552.66370802064921 248.25376582452623 0 248.25376582452623 106.76067571841531 0 0 0 0 752.72748595061785 219.40106671680837 0 219.40106671680837 -155.4912395584397 0 0 0 0 451.43977230765449 500.14374494382446 0 500.14374494382446 349.72974797743973 0 0 0 0 -2625.8949341948137 2120.5720821852356 0 2120.5720821852356 -1373.1273099590835 0 0 0 0 -0.64639525089981476 1.8237340464919356 0 1.8237340464919356 -29.051383051347379 0 0 0 0 -1663.3187428455858 687.31559404852669 0 687.31559404852669 -332.63069456232188 0 0 0 0 1499.2050445142668 2922.3614181593603 0 2922.3614181593603 -4811.0378194715377 0 0 0 0 -453.43283783797233 -1581.781835379652 0 -1581.781835379652 -124.99189791066237 0 0 0 0 1619.9949117327051 -2750.4845526474401 0 -2750.4845526474401 -5287.8920286323919 0 0 0 0 273.01125242935086 2397.0559073672894 0 2397.0559073672894 2710.6755219653714 0 0 0 0 -641.51957379130181 -157.79935758448846 0 -157.79935758448846 1065.642918113565 0 0 0 0 -1206.5780825629336 1204.9886074188848 0 1204.9886074188848 3927.8588812190783 0 0 0 0 46.066314811485114 5.4081544336500809 0 5.4081544336500809 3.2246098072576088 0 0 0 0 -737.6643859899923 -497.2104322262021 0 -497.2104322262021 2096.7900290287071 0 0 0 0 -1303.6874972104852 1359.4229620595224 0 1359.4229620595224 794.753794482069 0 0 0 0 -285.60168357664952 -440.54630230151633 0 -440.54630230151633 613.3306106968937 0 0 0 0 -1223.8969681796734 154.61994608145324 0 154.61994608145324 3181.0454414696542 0 0 0 0 -483.95850858156336 1241.9138841268541 0 1241.9138841268541 -1070.3648510184967 0 0 0 0 124.32227538173902 393.94422089303589 0 393.94422089303589 -469.07565056822568 0 0 0 0 553.36109092054539 533.49757548499656 0 533.49757548499656 -660.30020556837189 0 0 0 0 621.62324076141522 185.47036705320716 0 185.47036705320716 -781.11922690524807 0 0 0 0 -147.38783148647781 480.72167715246906 0 480.72167715246906 -388.3564445086231 0 0 0 0 -62.948479375168972 388.34843067787187 0 388.34843067787187 -299.01513851102573 0 0 0 0 -407.15827321041434 907.12600637874857 0 907.12600637874857 -768.81424834094832 0 0 0 0 -612.33347096345096 367.71854259032625 0 367.71854259032625 -415.22908506234671 0 0 0 0 -500.71792573035964 667.85710284122069 0 667.85710284122069 -102.06738955219043 0 0 0 0 357.62796176551819 865.62569009271374 0 865.62569009271374 -405.12411058420548 0 0 0 0 1150.2952590367713 413.1594500214087 0 413.1594500214087 -429.628682079594 0 0 0 0 -5.5737441461240529 15.519061688496762 0 15.519061688496762 3.3755593794687684 0 0 0 0 104.38878864540311 -177.14688031651167 0 -177.14688031651167 218.14130191844743 0 0 0 0 439.9352556763065 117.88927356542627 0 117.88927356542627 -224.5140400652308 0 0 0 0 18.230970927316221 107.1664858809272 0 107.1664858809272 82.876240379912559 0 0 0 0 -281.57327391450963 133.23167823480981 0 133.23167823480981 217.05922915231349 0 0 0 0 423.05754157314232 317.35207669852389 0 317.35207669852389 -364.62923556752503 0 0 0 0 -284.97525263276475 -40.54186582872353 0 -40.54186582872353 -107.81711200911377 0 0 0 0 40.727940928165687 31.139245855335517 0 31.139245855335517 -93.277686560707082 0 0 0 0 -628.88129630032927 584.21837149110434 0 584.21837149110434 -255.74056733142061 0 0 0 0 -336.78175746682973 458.63352934850991 0 458.63352934850991 -317.78260571722058 0 0 0 0 -7.6428441833446357 33.194687485409425 0 33.194687485409425 9.973899370372969 0 0 0 0 -287.60882710037549 -94.361932612366218 0 -94.361932612366218 297.66122463441388 0 0 0 0 131.79725815635203 116.20782286676254 0 116.20782286676254 11.34915612837721 0 0 0 0 252.88783190865615 228.43629342265157 0 228.43629342265157 -40.949682122593003 0 0 0 0 135.0236986251839 41.924131527965073 0 41.924131527965073 -336.09547289453076 0 0 0 0 11.206097522048367 -67.796439787693089 0 -67.796439787693089 -224.05416598070587 0 0 0 0 -123.42606602419983 124.64602561902939 0 124.64602561902939 21.686209996667458 0 0 0 0 424.61356676803371 361.27162646736906 0 361.27162646736906 -272.79100336802367 0 0 0 0 1.3933084471218322 15.811207429484327 0 15.811207429484327 17.160682783697098 0 0 0 0 147.18732376497064 360.65987038161256 0 360.65987038161256 -91.506443260936067 0 0 0 0 260.05808157980573 127.94437469482364 0 127.94437469482364 -550.96727801034285 0 0 0 0 -46.795870044097683 170.48273132446775 0 170.48273132446775 -185.71499829139793 0 0 0 0 -1.7272610314284975 245.6363485592592 0 245.6363485592592 261.95317020937182 0 0 0 0 -1.6977265113382103 -7.0673851725413783 0 -7.0673851725413783 2.2167712345515724 0 0 0 0 -22.695577931391881 66.917528531029348 0 66.917528531029348 507.36756834323751 0 0 0 0 83.458549433567896 145.19809311319841 0 145.19809311319841 64.743206632621877 0 0 0 0 1.9015018665832315 3.3706558545777625 0 3.3706558545777625 19.053935857740335 0 0 0 0 97.842863135995145 129.57104617624296 0 129.57104617624296 84.432616896163381 0 0 0 0 98.351696595134854 61.081236027763225 0 61.081236027763225 -35.362004824506585 0 0 0 0 18.102382849661808 26.607653613464208 0 26.607653613464208 8.5701154234411661 0 0 0 0 48.999420354658199 48.163704603038155 0 48.163704603038155 -43.924575593943473 0 0 0 0 32.329120309523859 28.973842701226801 0 28.973842701226801 18.052300333481952 0 0 0 0 26.531575505807183 76.835922716905827 0 76.835922716905827 124.67506206269309 0 0 0 0 -169.56060919301399 869.53439208693635 0 869.53439208693635 -644.68461804735125 0 0 0 0 -311.98414135066196 532.2233158584495 0 532.2233158584495 -117.78289443560061 0 0 0 0 -80.024614911548269 301.90442921356225 0 301.90442921356225 209.78849560816889 0 0 0 0 -355.38693223477912 459.06240420426184 0 459.06240420426184 -28.490168173462735 0 0 0 0 38.043094040603187 119.56748373921006 0 119.56748373921006 37.701086727595055 0 0 0 0 150.55240968600629 215.45481991105771 0 215.45481991105771 -124.32602146253339 0 0 0 0 52.838402688007037 128.90155836593286 0 128.90155836593286 116.82975105975254 0 0 0 0 -9.6538730952712761 37.734840301029891 0 37.734840301029891 11.39895065165814 0 0 0 0 234.82844868560642 88.916712407881278 0 88.916712407881278 10.906623293180019 0 0 0 0 34.993713276986782 104.02542939050853 0 104.02542939050853 64.870588230342975 0 0 0 0 -423.15783509071844 195.84184568667843 0 195.84184568667843 54.188485309408861 0 0 0 0 380.85883325810573 338.73271099557314 0 338.73271099557314 7.4895697870088043 0 0 0 0 120.25132761771965 460.17772201717889 0 460.17772201717889 188.65048069057229 0 0 0 0 30.012852782161872 227.37445930362901 0 227.37445930362901 267.25724961131345 0 0 0 0 -60.874882382988289 268.12124168917944 0 268.12124168917944 740.97329696533779 0 0 0 0 490.95800259946373 283.67611082641815 0 283.67611082641815 194.75264688844618 0 0 0 0 -1039.4073403275033 1071.0078515202258 0 1071.0078515202258 98.680757772694051 0 0 0 0 231.38278508985604 189.32864723413149 0 189.32864723413149 282.38687854808813 0 0 0 0 309.57086996440921 1012.2302776599099 0 1012.2302776599099 370.01017547247466 0 0 0 0 -123.03267726673948 1384.3485712883266 0 1384.3485712883266 93.552874771994539 0 0 0 0 -48.139445877265835 84.240601711204988 0 84.240601711204988 -2.2321062778350722 0 0 0 0 -794.42353873063576 376.70119067869382 0 376.70119067869382 882.56730890071776 0 0 0 0 -336.98435553287527 -175.40974177938915 0 -175.40974177938915 1305.759645822036 0 0 0 0 -468.57173554534165 509.84372099688335 0 509.84372099688335 928.25200404156931 0 0 0 0 -195.48680772582156 539.15888129414816 0 539.15888129414816 164.54052490390313 0 0 0 0 -205.38657272852743 513.06438449433699 0 513.06438449433699 306.47946092693019 0 0 0 0 -30.375111294208637 46.838655625309912 0 46.838655625309912 495.25193226171541 0 0 0 0 -670.39175711267308 754.60932542751834 0 754.60932542751834 -95.209375137244933 0 0 0 0 -947.57935990154556 1358.7168336920731 0 1358.7168336920731 -934.68804808272398 0 0 0 0 8.309456688573988 -12.376442986733579 0 -12.376442986733579 -14.834325947728928 0 0 0 0 16.25402399797068 117.62198291464082 0 117.62198291464082 7.4184973057415959 0 0 0 0 -64.523430863846443 176.82981169327468 0 176.82981169327468 159.17009926930768 0 0 0 0 -21.35787774145237 3.8594227965288894 0 3.8594227965288894 -8.3676966556251955 0 0 0 0 -1005.4536689359302 140.90806936836452 0 140.90806936836452 -18.582171381509397 0 0 0 0 -166.29301247856529 116.36970893404941 0 116.36970893404941 388.87063716716511 0 0 0 0 -82.564220146854495 322.21893540298697 0 322.21893540298697 -167.87843206273101 0 0 0 0 -167.26466568515661 266.28034847335948 0 266.28034847335948 222.93278756192012 0 0 0 0 -11.978657207132361 57.935064107771922 0 57.935064107771922 34.155327915179825 0 0 0 0 -206.34337935059011 327.49240094337438 0 327.49240094337438 433.54805721528828 0 0 0 0 46.271938849575236 233.8816356616735 0 233.8816356616735 111.37441084385682 0 0 0 0 73.493898315929755 122.3285227614392 0 122.3285227614392 34.30276587326037 0 0 0 0 -1276.7698222653999 412.25905046384105 0 412.25905046384105 741.16284223035018 0 0 0 0 182.30919379612897 186.61220734770177 0 186.61220734770177 -76.016330033002305 0 0 0 0 86.78316276489204 99.262301868904615 0 99.262301868904615 -78.109419074296284 0 0 0 0 46.351555488314716 150.63791107133738 0 150.63791107133738 -7.3434891751385294 0 0 0 0 58.311469258254647 55.263969379991281 0 55.263969379991281 7.2762703910797484 0 0 0 0 933.39129731452977 114.21759864650812 0 114.21759864650812 -653.13593071700598 0 0 0 0 29.857984565436468 53.735989789991521 0 53.735989789991521 -1.8731402770998073 0 0 0 0 6.6132659232116566 56.081192617668421 0 56.081192617668421 -19.388957100585685 0 0 0 0 -402.23479922351544 513.67218120145844 0 513.67218120145844 211.16721783434332 0 0 0 0 34.518642491768958 56.7477382088544 0 56.7477382088544 -91.982075974027566 0 0 0 0 2357.2703448948932 1425.0542430141068 0 1425.0542430141068 -1678.4732604015735 0 0 0 0 -253.65303925873945 712.87492248009949 0 712.87492248009949 -188.60093927680282 0 0 0 0 3025.1270511815487 -311.1115259323451 0 -311.1115259323451 -4027.207143125037 0 0 0 0 -3965.5206898145343 1532.3574567355099 0 1532.3574567355099 1760.1843955860677 0 0 0 0 -693.34494579633429 -493.84991155064199 0 -493.84991155064199 -2465.8923361797424 0 0 0 0 -931.07540707228873 1676.8454859534977 0 1676.8454859534977 -3177.563248809427 0 0 0 0 -12.370159164793467 -1.9077831482964882 0 -1.9077831482964882 -3.4958655865201393 0 0 0 0 -1333.0916340073327 1647.299948969252 0 1647.299948969252 -2024.7549480111047 0 0 0 0 -1372.8834865104641 1848.4339994174661 0 1848.4339994174661 -2415.6883647147915 0 0 0 0 -1280.5652602054502 -1323.4904767428961 0 -1323.4904767428961 -1585.3301909733418 0 0 0 0 2.2258286992253544 15.864470991981449 0 15.864470991981449 -25.609789526844622 0 0 0 0 12.226443146785027 51.117095311984365 0 51.117095311984365 -6.1061052198325001 0 0 0 0 -1064.0473880504487 -111.21598365604586 0 -111.21598365604586 117.31214092824666 0 0 0 0 219.43830919779543 99.141202747614443 0 99.141202747614443 -147.28947453433648 0 0 0 0 -2179.0686756340947 1156.7200825860054 0 1156.7200825860054 -58.953052856993963 0 0 0 0 -146.87640397954601 1033.1828126167093 0 1033.1828126167093 -1790.2280777050764 0 0 0 0 -1236.7784142220298 -175.92311438759498 0 -175.92311438759498 -39.339208715420682 0 0 0 0 -827.8986601125107 1391.957080507229 0 1391.957080507229 -2559.6420249171351 0 0 0 0 244.14173740947444 -334.94281855845475 0 -334.94281855845475 -1253.4438381651489 0 0 0 0 -1499.7225904760926 206.78567527381165 0 206.78567527381165 -759.8804419823573 0 0 0 0 298.38424137572474 52.834708110523934 0 52.834708110523934 -70.164184606663184 0 0 0 0 64.424820685755549 387.28398263709096 0 387.28398263709096 112.35041654284578 0 0 0 0 904.78279106981245 953.45326826849487 0 953.45326826849487 -558.33920349644904 0 0 0 0 166.22691677536386 66.840146721886413 0 66.840146721886413 46.756893340381794 0 0 0 0 141.20502882979599 -372.43275058528525 0 -372.43275058528525 34.708408920196234 0 0 0 0 476.30604053581283 -296.20579448348872 0 -296.20579448348872 -30.937318548327312 0 0 0 0 -188.4189356646491 -206.94083552611482 0 -206.94083552611482 689.57715921502677 0 0 0 0 157.17845529310944 189.11208050631103 0 189.11208050631103 611.67978050865167 0 0 0 0 903.87402911570894 1287.9986758383329 0 1287.9986758383329 1153.2871316942619 0 0 0 0 24.047730477702672 15.540992228176492 0 15.540992228176492 -74.815578643376853 0 0 0 0 674.67022765114598 660.33859709645913 0 660.33859709645913 516.8667456315452 0 0 0 0 10.756414121633693 35.223784731281626 0 35.223784731281626 -111.01332617183988 0 0 0 0 346.36779480255336 2654.0158975546947 0 2654.0158975546947 636.90073615623987 0 0 0 0 215.03072559262682 1031.0015719257644 0 1031.0015719257644 512.7955131137569 0 0 0 0 53.825973548613547 692.60588748054579 0 692.60588748054579 -190.57880576298521 0 0 0 0 -77.372372700614847 737.83890683794925 0 737.83890683794925 454.45061057363637 0 0 0 0 -35.706432118545308 505.8987512151507 0 505.8987512151507 664.02154318873727 0 0 0 0 -79.930555844015089 357.87669101340725 0 357.87669101340725 798.64753582695266 0 0 0 0 -123.89278312389115 487.91806948632438 0 487.91806948632438 414.44000540257548 0 0 0 0 -188.51171739755091 252.92367135413224 0 252.92367135413224 335.43095965200337 0 0 0 0 -443.72673185876965 286.68921594049607 0 286.68921594049607 555.49313472563517 0 0 0 0 -121.3648659393275 563.75988697503635 0 563.75988697503635 381.39132680761395 0 0 0 0 248.77468035983566 376.4958836244914 0 376.4958836244914 398.06864857758046 0 0 0 0 480.02080378871278 758.1410983819369 0 758.1410983819369 102.34357158464263 0 0 0 0 426.40628023010686 595.46214412695554 0 595.46214412695554 457.28878811388859 0 0 0 0 363.19919337372676 524.26542458945551 0 524.26542458945551 1106.2849304045376 0 0 0 0 801.93980450540766 388.38560101547046 0 388.38560101547046 501.02974444901338 0 0 0 0 70.985268412219654 -16.498186503596997 0 -16.498186503596997 -45.128595974967311 0 0 0 0 3634.5422525388349 898.68004212298547 0 898.68004212298547 -53.783183187086252 0 0 0 0 1418.71257165828 2238.1129820924252 0 2238.1129820924252 238.02709217468509 0 0 0 0 27.259099606315154 11.185263217760166 0 11.185263217760166 -16.056638380875086 0 0 0 0 237.66305727862709 40.911888916001772 0 40.911888916001772 38.224021328849631 0 0 0 0 -524.00427369047429 375.31638104098965 0 375.31638104098965 57.041964312113123 0 0 0 0 -933.37448152753313 265.00676729212864 0 265.00676729212864 226.16832041859743 0 0 0 0 134.69801926783475 3.8134966245052055 0 3.8134966245052055 -46.581642439909047 0 0 0 0 -60.171916167630116 71.470220275936299 0 71.470220275936299 22.780965455254773 0 0 0 0 -27.902148222638061 151.10634047483472 0 151.10634047483472 136.42392503109295 0 0 0 0 14.383335234214428 128.55032430944721 0 128.55032430944721 40.995507073937915 0 0 0 0 -62.176192963783251 132.80137935259336 0 132.80137935259336 -25.404719936021138 0 0 0 0 -19.200981260283349 99.529230841820421 0 99.529230841820421 -1.6879624632369428 0 0 0 0 21.367041860065132 100.4215283327902 0 100.4215283327902 95.296026454240575 0 0 0 0 -394.85936838795214 423.75943646939868 0 423.75943646939868 61.167723566264613 0 0 0 0 -354.3641463811864 689.33197503627161 0 689.33197503627161 60.173545629455475 0 0 0 0 -341.45882728665629 750.60893879067589 0 750.60893879067589 335.53318107279483 0 0 0 0 -359.1549402840883 507.25099002866773 0 507.25099002866773 304.09860330591255 0 0 0 0 -401.2507395807495 621.17170174277999 0 621.17170174277999 269.85201634469558 0 0 0 0 -577.12341948955327 500.30038160023105 0 500.30038160023105 214.99437015041622 0 0 0 0 -578.43098154863947 293.57821654005966 0 293.57821654005966 324.39524758199695 0 0 0 0 -654.86269213396827 396.47066151652689 0 396.47066151652689 201.66594798464212 0 0 0 0 -380.79466603053879 315.58164702747308 0 315.58164702747308 541.31830102108142 0 0 0 0 -444.64509780944672 442.00503949082486 0 442.00503949082486 320.3895451350254 0 0 0 0 -596.16516901714476 166.05351923507988 0 166.05351923507988 392.25858891549797 0 0 0 0 -431.00208396947983 297.69085029020789 0 297.69085029020789 356.65456750750309 0 0 0 0 -591.20389864875642 188.75179588948595 0 188.75179588948595 183.22578172801877 0 0 0 0 -734.92839870514581 120.439420397699 0 120.439420397699 211.74331998195612 0 0 0 0 -840.69524413307317 1.9778861973172752 0 1.9778861973172752 126.76427578364382 0 0 0 0 -1054.4014721200947 58.20808278482582 0 58.20808278482582 31.712111969594844 0 0 0 0 -847.83725895404496 160.95568684427417 0 160.95568684427417 -35.454105805663858 0 0 0 0 -1550.841358209942 252.09297752685961 0 252.09297752685961 94.359611538238823 0 0 0 0 55.649624142061178 8.6679761226569596 0 8.6679761226569596 0.3670590005106078 0 0 0 0 -773.85003404629924 213.6550205853855 0 213.6550205853855 -10.77792560227681 0 0 0 0 -7.3066674033600556 65.7436969089824 0 65.7436969089824 27.775358806780332 0 0 0 0 -845.26922804405194 291.56679179040657 0 291.56679179040657 1.5207564366282895 0 0 0 0 -776.13819442760359 197.89361474620819 0 197.89361474620819 123.08602250932017 0 0 0 0 -972.78757755542756 316.89543891239009 0 316.89543891239009 164.87814736095606 0 0 0 0 -1.3882012304748059 96.058796603494557 0 96.058796603494557 15.444813110632822 0 0 0 0 17.994507489911733 75.441962840969737 0 75.441962840969737 26.898481375634674 0 0 0 0 -41.448302381410031 98.25420611667505 0 98.25420611667505 51.456728811230278 0 0 0 0 3.4576639143569721 125.09631041380939 0 125.09631041380939 17.17811089624729 0 0 0 0 -18.318933376640416 195.63877293579208 0 195.63877293579208 113.45600798437954 0 0 0 0 -473.77659945135474 468.82795223702851 0 468.82795223702851 -95.872739405313041 0 0 0 0 -54.605857466842281 139.22084728290793 0 139.22084728290793 48.366205891012214 0 0 0 0 20.969667174227652 199.34883119273582 0 199.34883119273582 63.761817619670182 0 0 0 0 -50.744324457395123 282.20399188032025 0 282.20399188032025 181.55191546995775 0 0 0 0 11.580164638755377 295.6220290371275 0 295.6220290371275 145.15366163891667 0 0 0 0 -109.3998897089059 493.43705656681232 0 493.43705656681232 601.60685549592017 0 0 0 0 -39.319720598032291 209.55317082759939 0 209.55317082759939 232.01423578648246 0 0 0 0 -340.04290962994855 192.90037140381173 0 192.90037140381173 433.45071049200487 0 0 0 0 -4.8625216947636112 8.0534133798101379 0 8.0534133798101379 11.966137312871751 0 0 0 0 1578.2088351932198 621.72990264884356 0 621.72990264884356 -73.291327709506731 0 0 0 0 -490.34930978628654 -7.8983856632003153 0 -7.8983856632003153 231.24284401081968 0 0 0 0 -173.61669096185506 32.799070672117523 0 32.799070672117523 -53.675708889553789 0 0 0 0 -106.90441849517811 83.02752624815912 0 83.02752624815912 117.32490155939013 0 0 0 0 -101.50646272385347 84.934165402308281 0 84.934165402308281 68.092731280717999 0 0 0 0 -139.19769081416598 117.59549733168387 0 117.59549733168387 72.364442312102256 0 0 0 0 -44.54479453584554 124.98646022883622 0 124.98646022883622 69.423206005652901 0 0 0 0 -102.86593473898392 76.820948904991383 0 76.820948904991383 30.305847692172392 0 0 0 0 -75.08224011035054 116.89488192592762 0 116.89488192592762 -8.5506101753853727 0 0 0 0 -120.21975413946348 103.04166873217036 0 103.04166873217036 -8.0438280002272222 0 0 0 0 -197.08003347182239 102.57774734521809 0 102.57774734521809 0.35974498568975832 0 0 0 0 -124.48529569656239 84.499154610763071 0 84.499154610763071 3.1919069376599509 0 0 0 0 1225.9449133446033 -291.80804981487017 0 -291.80804981487017 7.3981669793720357 0 0 0 0 -43.155924861903991 24.169436239565343 0 24.169436239565343 33.437747631288858 0 0 0 0 -62.710891363683913 158.37985121532984 0 158.37985121532984 -170.68214684172563 0 0 0 0 -75.631952130726575 26.456923661001923 0 26.456923661001923 38.063331071826127 0 0 0 0 -122.58132259529248 199.8710178947249 0 199.8710178947249 -179.89675010487554 0 0 0 0 -29.301098808369172 91.730325998671532 0 91.730325998671532 -70.767129449887648 0 0 0 0 49.780619963905337 224.0459716499754 0 224.0459716499754 -132.59866260155104 0 0 0 0 -49.33038233181918 48.163508146537268 0 48.163508146537268 44.677261397264601 0 0 0 0 -140.56119435879009 177.19237020551373 0 177.19237020551373 -16.153993685104069 0 0 0 0 -199.06810842834966 130.2174129470659 0 130.2174129470659 10.394584143443353 0 0 0 0 -59.488393070081656 122.53637488775712 0 122.53637488775712 -81.987412583577679 0 0 0 0 681.83897478793369 72.092226893226325 0 72.092226893226325 -86.350057430245215 0 0 0 0 426.43418406843557 404.0919244354518 0 404.0919244354518 145.4139824136073 0 0 0 0 0.096593028604051057 11.655864018813929 0 11.655864018813929 -9.5023668135525554 0 0 0 0 479.79939208359428 223.5746368617547 0 223.5746368617547 201.31056596404233 0 0 0 0 -1016.5217550504385 469.1234337019996 0 469.1234337019996 1004.4643788955291 0 0 0 0 1615.6195910050192 1309.2693169293998 0 1309.2693169293998 -1766.2356646988192 0 0 0 0 339.66968881346838 435.9277633271704 0 435.9277633271704 90.684367505135015 0 0 0 0 465.15243257238035 497.22261385827733 0 497.22261385827733 22.355782085418468 0 0 0 0 385.91858388920082 684.75359511080023 0 684.75359511080023 -373.32701186201302 0 0 0 0 -60.176328847991556 145.20114690230264 0 145.20114690230264 33.39004706606903 0 0 0 0 653.23393853714515 348.62521291716257 0 348.62521291716257 34.833818736689864 0 0 0 0 847.09205595882668 276.91625608130562 0 276.91625608130562 -119.03407679637894 0 0 0 0 393.01274031497451 106.40492209213699 0 106.40492209213699 14.133943626788096 0 0 0 0 220.21460873762408 214.27413121093377 0 214.27413121093377 224.43001660780283 0 0 0 0 767.41660318829963 -71.359584610210732 0 -71.359584610210732 458.67884907888947 0 0 0 0 602.0067651149584 399.15757340865821 0 399.15757340865821 -377.80921087120078 0 0 0 0 201.69182471551903 858.50013994335313 0 858.50013994335313 786.44458727671008 0 0 0 0 -251.85096114454063 76.732517606946203 0 76.732517606946203 716.24553510046098 0 0 0 0 -41.865035435359587 151.6467466239647 0 151.6467466239647 39.15597075458345 0 0 0 0 156.75848762733781 -17.067642968373491 0 -17.067642968373491 -90.702243745551414 0 0 0 0 345.12260173741197 160.31398594489838 0 160.31398594489838 -14.550650190998567 0 0 0 0 350.77266512799542 139.75108303065645 0 139.75108303065645 -73.551088815991534 0 0 0 0 617.49529921254725 183.8066933508162 0 183.8066933508162 -51.473552323324839 0 0 0 0 0.63954863179577615 0.33884777950481748 0 0.33884777950481748 0.15129276933137703 0 0 0 0 282.50034377639531 203.22713485293207 0 203.22713485293207 91.06677612385829 0 0 0 0 219.40832202970341 300.60352018175763 0 300.60352018175763 93.921934650861658 0 0 0 0 -67.700024551872048 -36.963357247470412 0 -36.963357247470412 455.13227324857144 0 0 0 0 -124.97292746498715 117.22425774857402 0 117.22425774857402 164.55408546541003 0 0 0 0 1413.9022847008673 -209.97380608498497 0 -209.97380608498497 -436.45504049296142 0 0 0 0 78.717005006381115 103.49943184786267 0 103.49943184786267 95.658896230675055 0 0 0 0 148.83067879455484 302.71291172344354 0 302.71291172344354 99.151484980146051 0 0 0 0 293.0568497300701 -53.889873023401378 0 -53.889873023401378 -32.197102204547264 0 0 0 0 177.41040661155421 223.32403885442181 0 223.32403885442181 87.284309161834244 0 0 0 0 107.78942203503925 17.464184815122849 0 17.464184815122849 -104.68679112102029 0 0 0 0 -1101.3588331068549 708.69912142770954 0 708.69912142770954 -1191.2237408002838 0 0 0 0 -1173.6367449906538 1049.3638064040424 0 1049.3638064040424 -483.8338772754505 0 0 0 0 -692.19066520689375 -609.99196076299995 0 -609.99196076299995 -249.88889097503852 0 0 0 0 998.74716577865183 -1500.9324049663264 0 -1500.9324049663264 200.73430885846028 0 0 0 0 49.769457046313519 56.429971104212754 0 56.429971104212754 70.002838338948891 0 0 0 0 1149.3104808565768 -914.1491081930144 0 -914.1491081930144 -478.50854117958806 0 0 0 0 57.781908610602841 234.59991191096196 0 234.59991191096196 619.67175580722687 0 0 0 0 735.74801440574083 364.70487505444908 0 364.70487505444908 845.11041138056316 0 0 0 0 555.75419174788112 -283.7397493278113 0 -283.7397493278113 -1035.4213109991979 0 0 0 0 -148.76426510716556 620.0327414162457 0 620.0327414162457 -382.06386415862653 0 0 0 0 -195.90365107425896 453.58223565766821 0 453.58223565766821 -932.8071815087751 0 0 0 0 -1060.9432280806941 1016.8334689870826 0 1016.8334689870826 -1113.5740234202967 0 0 0 0 -170.36183644621633 104.44031938276021 0 104.44031938276021 57.225306068467034 0 0 0 0 -410.62801691362984 -555.79886251638527 0 -555.79886251638527 -1750.3091525447671 0 0 0 0 -3332.4765988622094 545.76632186176721 0 545.76632186176721 1519.5174798463995 0 0 0 0 -3147.5909690525878 -368.66486272412294 0 -368.66486272412294 -1197.4880633585271 0 0 0 0 -1484.3514637287881 724.26462470550905 0 724.26462470550905 -1045.5422974111716 0 0 0 0 -1140.629057053462 496.312791578428 0 496.312791578428 -3922.5584254257847 0 0 0 0 -3403.2033492729242 2320.1060626230028 0 2320.1060626230028 -450.67375199793605 0 0 0 0 -1695.3185534165241 710.69979983006488 0 710.69979983006488 275.22253922128584 0 0 0 0 -2589.0559436147742 671.80298402410699 0 671.80298402410699 1437.6473224919755 0 0 0 0 -3384.1315857248846 2449.5964312473952 0 2449.5964312473952 -1796.929439673484 0 0 0 0 -1704.9798213679605 1002.6086321366747 0 1002.6086321366747 354.66113929443236 0 0 0 0 -1257.905235054568 535.10393468143593 0 535.10393468143593 339.53341784645454 0 0 0 0 -2182.6647085612058 656.96779665572103 0 656.96779665572103 428.77034382353304 0 0 0 0 -1596.7220946416637 910.78133172193338 0 910.78133172193338 262.39224191627 0 0 0 0 -1681.5679391385638 1166.6499679851695 0 1166.6499679851695 -240.49496383638325 0 0 0 0 -861.82645551016321 1419.5091419899545 0 1419.5091419899545 -676.87528515042504 0 0 0 0 936.01254521936062 390.15621946728788 0 390.15621946728788 -611.07309989217902 0 0 0 0 -359.3793930980828 658.58124705867522 0 658.58124705867522 15.921657387778396 0 0 0 0 522.10843208260485 503.20440325967502 0 503.20440325967502 21.646331592834031 0 0 0 0 -1335.9872531216806 798.43876401925991 0 798.43876401925991 698.13438756254618 0 0 0 0 -18.362595273056257 5.5256310140865139 0 5.5256310140865139 6.5060709748099157 0 0 0 0 -1255.1950014645527 1130.0176643115065 0 1130.0176643115065 213.85243510949658 0 0 0 0 -825.26239625446033 775.41453356460261 0 775.41453356460261 -594.05814586146153 0 0 0 0 357.95621280782507 168.13788813249266 0 168.13788813249266 -86.896654191979906 0 0 0 0 35.919313772728941 14.361665567693045 0 14.361665567693045 -32.158942799402439 0 0 0 0 726.32017537593492 161.78789138369029 0 161.78789138369029 244.25810593325878 0 0 0 0 62.400818792972132 81.43762904835603 0 81.43762904835603 -140.98010759612953 0 0 0 0 533.09872195223579 640.90653853632102 0 640.90653853632102 181.03178746045342 0 0 0 0 -4.4178347713736343 33.094220429697884 0 33.094220429697884 12.470221483693194 0 0 0 0 136.07843769578176 48.376853002380813 0 48.376853002380813 -1161.1764775418851 0 0 0 0 145.15618964936584 233.71402756269526 0 233.71402756269526 -109.93470328325202 0 0 0 0 297.77792214295914 743.40044664885863 0 743.40044664885863 -86.408789435358813 0 0 0 0 354.59967327104096 158.26336512178386 0 158.26336512178386 -183.37904266246187 0 0 0 0 116.95519014012825 186.71941953946589 0 186.71941953946589 349.29554423382797 0 0 0 0 325.0333938643671 513.07950548574445 0 513.07950548574445 622.73851722966356 0 0 0 0 -25.356536342690333 27.180434621496516 0 27.180434621496516 5.3710489201604332 0 0 0 0 -839.98951484316785 90.20555407080974 0 90.20555407080974 -403.79164637755821 0 0 0 0 -613.53407240672823 445.72325045130492 0 445.72325045130492 151.69273825280834 0 0 0 0 -1289.1995659017921 182.3390741810872 0 182.3390741810872 337.51761525656912 0 0 0 0 -929.86289216451405 1066.1854311998541 0 1066.1854311998541 -369.51909006902133 0 0 0 0 -1031.8316700576179 668.43402267977945 0 668.43402267977945 1417.2166218351776 0 0 0 0 -1051.5572010931501 832.22059310716577 0 832.22059310716577 381.93352028172376 0 0 0 0 -935.88664492958924 587.43848708418227 0 587.43848708418227 637.52881549444282 0 0 0 0 -954.79625511968334 389.26417199280695 0 389.26417199280695 247.28281195479212 0 0 0 0 56.689823021487484 83.071705066780765 0 83.071705066780765 57.630876850462556 0 0 0 0 -357.52217964491138 960.37809603084315 0 960.37809603084315 -976.23423572063621 0 0 0 0 -42.087605709435593 279.27040053051314 0 279.27040053051314 -80.407925269209954 0 0 0 0 -55.009355599910123 -142.07132361579534 0 -142.07132361579534 -130.13722628637333 0 0 0 0 -1165.9178472673384 949.43991367934109 0 949.43991367934109 -396.29271065376815 0 0 0 0 -1233.9160179641349 -179.14723293429211 0 -179.14723293429211 372.74959416034108 0 0 0 0 -412.5124943539704 399.85247041926777 0 399.85247041926777 -127.47685429160629 0 0 0 0 42.320237699694005 64.853308542682484 0 64.853308542682484 5.7693039279935192 0 0 0 0 -6.0410349321646208 185.43083588288209 0 185.43083588288209 -482.09086320937786 0 0 0 0 -139.32702608159889 274.99167587423653 0 274.99167587423653 -202.88911234291299 0 0 0 0 -21.585426359348787 -3.9983757885868556 0 -3.9983757885868556 3.5118903663002357 0 0 0 0 30.234607009741012 251.5117714496082 0 251.5117714496082 -675.97315987909678 0 0 0 0 -81.458500837674364 671.37593346839276 0 671.37593346839276 -1897.4672584495129 0 0 0 0 -551.6810762527457 472.31422708369792 0 472.31422708369792 -47.978850056868396 0 0 0 0 -147.67455388425151 559.46606790697842 0 559.46606790697842 -800.22868222906254 0 0 0 0 -506.60223942586163 745.43994179297442 0 745.43994179297442 -173.94972483129914 0 0 0 0 -131.35702122664952 429.03218036495673 0 429.03218036495673 -140.03123804047118 0 0 0 0 -129.21168845814827 284.02925872724882 0 284.02925872724882 -488.7475750776357 0 0 0 0 -201.71836886572964 452.55075408193352 0 452.55075408193352 46.587303581000015 0 0 0 0 18.49065942605209 22.003891274268682 0 22.003891274268682 2.3998990232502706 0 0 0 0 195.58527387736831 31.746266507019754 0 31.746266507019754 -6.5829641037198598 0 0 0 0 -44.580116280519164 123.84442166056827 0 123.84442166056827 -37.99639529104607 0 0 0 0 15.109887930511604 90.034677230944283 0 90.034677230944283 -48.519242376394544 0 0 0 0 760.61500946502201 127.45236395220127 0 127.45236395220127 -446.11969641059841 0 0 0 0 553.11718123672006 149.63947050770753 0 149.63947050770753 -209.24956021118851 0 0 0 0 440.86516278345698 149.45557395509559 0 149.45557395509559 -44.053254957630998 0 0 0 0 287.58142480477545 422.21788690955145 0 422.21788690955145 -348.89386915058276 0 0 0 0 61.609808260382124 188.3581574692289 0 188.3581574692289 -1.9960193531715049 0 0 0 0 39.718076792403735 422.68499218978832 0 422.68499218978832 -562.43719143231647 0 0 0 0 -1295.4682839005463 417.18098518201532 0 417.18098518201532 67.189150345722737 0 0 0 0 -361.48555461932847 48.904461125886883 0 48.904461125886883 -62.145615397763322 0 0 0 0 -391.26319646921911 333.982413863072 0 333.982413863072 99.285967010138847 0 0 0 0 34.492388546441362 407.69187208171934 0 407.69187208171934 50.595699070901901 0 0 0 0 -160.10163293642108 299.29001260043879 0 299.29001260043879 70.217830003304698 0 0 0 0 26.567788720314184 250.47283724608701 0 250.47283724608701 -20.131534969666973 0 0 0 0 116.64602718865149 339.32845212915345 0 339.32845212915345 175.96446227686829 0 0 0 0 104.67818288322087 268.49089043727145 0 268.49089043727145 -16.087565479421755 0 0 0 0 -273.71336733210046 280.96778653918591 0 280.96778653918591 -37.378882776618411 0 0 0 0 -216.93634617661883 231.43518574675545 0 231.43518574675545 -98.274622325659948 0 0 0 0 -267.70049476189888 255.99888709203515 0 255.99888709203515 46.664602673714398 0 0 0 0 -191.71857888225895 186.34391417537881 0 186.34391417537881 -25.197603724314831 0 0 0 0 -119.69103474613803 246.8041060383257 0 246.8041060383257 -19.83264896539913 0 0 0 0 -131.08500855362217 274.76053407086874 0 274.76053407086874 -13.226372320394148 0 0 0 0 -249.93384011392664 206.16909668708468 0 206.16909668708468 -20.734704597736709 0 0 0 0 -215.79884612378373 143.47868907942029 0 143.47868907942029 7.7471870276003756 0 0 0 0 31.929900304254261 197.1916435122439 0 197.1916435122439 -130.74293581508391 0 0 0 0 184.66747790478621 155.44230946371681 0 155.44230946371681 -222.73223500125459 0 0 0 0 96.274694477622688 328.53310964324919 0 328.53310964324919 -39.171008681936655 0 0 0 0 29.457817560561985 35.217672311352047 0 35.217672311352047 -26.587158299639967 0 0 0 0 -97.758066426336882 293.40139603198622 0 293.40139603198622 55.163220478236326 0 0 0 0 -76.425200362187752 229.12502663252235 0 229.12502663252235 -96.167176228453172 0 0 0 0 376.70368937086459 5.3215755356795853 0 5.3215755356795853 13.261211824632483 0 0 0 0 33.694702190967689 34.954706613780388 0 34.954706613780388 -30.737993721181169 0 0 0 0 -14.895388990810758 89.884691646723184 0 89.884691646723184 -71.815680784089238 0 0 0 0 94.599093896118575 82.150795381305215 0 82.150795381305215 37.023310142685659 0 0 0 0 120.44842365440854 156.2647653761087 0 156.2647653761087 -414.05925299681257 0 0 0 0 574.126313902736 159.21770200986612 0 159.21770200986612 -45.932262087109848 0 0 0 0 543.63088190437702 502.00544205336337 0 502.00544205336337 -108.05571806194348 0 0 0 0 -35.187732506366324 152.80165961730364 0 152.80165961730364 36.310441972997069 0 0 0 0 335.3426071964368 347.23004189889616 0 347.23004189889616 -42.221495993377175 0 0 0 0 22.814315907205199 100.80260613257663 0 100.80260613257663 -37.050944848553939 0 0 0 0 -7.368189332852122 129.39280655010356 0 129.39280655010356 -10.631795461778609 0 0 0 0 271.37024638983712 86.965971041820012 0 86.965971041820012 -16.462313680327497 0 0 0 0 439.16312427840603 42.502314608587767 0 42.502314608587767 -63.725233647266577 0 0 0 0 240.65273582343383 20.183231659066166 0 20.183231659066166 -35.678817611655518 0 0 0 0 148.35054766491874 149.19756520699974 0 149.19756520699974 -109.20525581375787 0 0 0 0 
</DataArray>
<DataArray type="Float64" Name="cross_section_updated" format="ascii">
1 1 1 1 1 1 0.010860559125464353 1 1 1 1 1 0.011876649163614916 1 1 0.010759340937770229 1 1 1 0.011775430975920778 1 1 1 1 1 1 1 1 1 1 1 1 1 1 1 1 1 1 1 1 1 1 1 1 1 1 1 1 1 1 7.0550863565679856e-05 1 0.0098155242874398141 1 1 1 0.024599242000374368 1 1 1 1 1 1 1 0.021678609517951239 1 1 0.0068867470493297403 1 1 1 1 1 1 1 0.008641980200534298 1 1 1 1 0.0076233284218148456 1 1 1 1 1 0.0076812553398985673 1 1 1 0.0089759282082822467 1 1 1 1 1 1 1 1 1 1 1 1 1 1 1 1 1 0.0087287973711442784 1 1 1 1 0.010089052225419018 1 1 1 1 1 1 0.010601868038709571 1 1 1 0.0093128073005007625 1 0.0097470245682894988 1 0.0058279573262008041 1 1 0.0094423820306694939 1 1 1 1 1 1 1 0.0075066126706315531 1 1 1 1 1 1 1 1 1 1 1 1 0.0091883827124730963 1 1 1 1 1 1 1 0.0079755290947290947 1 1 1 1 1 1 1 1 0.0095120842871257091 1 1 1 1 1 1 0.0097757879331125865 1 1 1 1 1 0.0082126701142336278 1 0.0064490371531525162 1 1 1 1 1 0.0065781625385670506 1 0.010213562734099464 1 0.0099711654752576775 -6.0335450177695371e-09 1 1 0.0063066322707169623 1 1 1 1 1 1 1 1 1 1 1 1 1 1 1 1 1 1 1 1 1 1 1 1 1 1 1 1 1 1 1 1 1 1 1 1 1 0.0040864797598736333 1 0.002123492822598369 1 1 1 1 1 1 1 1 1 0.017991285142879711 1 0.02241105348420213 1 1 1 1 1 0.010023557700103436 1 1 1 1 0.029929346984387005 1 1 1 1 1 1 1 1 1 1 1 0.0095840510191002749 1 1 0.0093598389522128907 1 1 1 1 1 1 1 1 1 1 1 1 1 1 1 1 1 1 1 1 1 1 1 1 1 1 1 1 1 1 1 1 1 1 1 1 1 1 1 1 1 1 0.0039749144936988244 1 1 1 0.0077632217689668354 1 1 1 0.0156667192391629 1 1 1 1 0.014409960673430484 1 1 1 1 0.022323149058233661 1 1 1 1 1 1 1 1 1 1 1 0.025870675002493966 1 1 1 1 1 1 1 1 1 1 1 1 1 1 1 1 1 1 1 1 1 1 1 1 0.014936674887193031 0.024913924525062123 1 1 1 1 1 1 1 1 1 1 0.011567719894788345 1 1 1 1 1 1 1 1 1 1 1 1 1 1 1 1 1 1 1 1 1 1 1 0.009274717768044994 1 1 1 0.0095989887681041594 1 1 1 1 1 1 1 0.010175626010399196 1 1 1 1 1 1 1 1 1 0.0096757289999408504 1 1 1 0.0035292574184851225 1 1 1 1 1 1 1 0.00084880206902186207 1 1 1 1 1 1 1 1 1 1 1 1 1 1 1 1 1 1 0.013098974915780022 1 1 1 1 1 1 1 1 1 1 1 1 1 1 1 1 1 1 1 1 0.017912199359669423 1 1 1 0.0099471565180055746 1 1 0.00073671408023835531 1 0.019542211842811547 1 1 1 0.018565698885342284 1 1 1 1 0.013165632039221675 1 1 1 2.4404090900875808e-10 1 1 1 1 1 0.00060155148244611829 1 1 1 1 1 1 1 1 0.010228823814152847 1 1 1 1 1 1 1 1 1 1 1 1 1 1 1 1 1 1 1 1 1 1 1 1 0.0074505180293996318 1 0.014445267316798236 1 1 1 1 1 1 1 1 0.011469810019242348 1 1 1 1 1 0.024498786263310118 1 1 1 1 1 1 0.026745087429527074 1 0.011113683320725654 1 1 1 1 1 1 1 1 1 1 1 1 1 1 1 1 1 1 1 1 1 1 0.0098914268266977329 4.1275842500854143e-09 1 1 1 0.010642594700978142 1 1 1 1 0.0080724640914801374 1 1 1 1 1 1 1 1 0.010521962432947722 1 1 1 0.010574799805675328 1 1 1 1 1 1 1 1 0.0094774845186703666 0.010065137042310601 1 0.0094100287050747477 1 1 0.0092676367651660374 1 0.0085546959802486403 1 1 1 1 1 1 0.01005033958793404 1 1 1 1 1 0.010016896955259098 1 1 0.01167284029996131 1 1 0.0095394532337603997 1 1 1 0.0099721815660703903 1 1 1 1 1 1 1 1 1 1 1 1 1 1 0.0082906287178357158 1 1 1 1 1 0.011922212073802417 1 1 1 0.011626526428112842 1 1 0.009999690119179519 0.010200858971524583 1 1 1 1 1 1 1 0.0078730730428380191 1 1 1 1 0.011451441896078322 1 1 1 1 0.01051669299909995 1 1 1 1 1 1 1 1 1 0.0026250128980850624 1 1 1 1 1 1 0.0076752218571357004 1 1 0.007625636971131668 1 1 1 1 1 0.011876043432631024 1 1 0.0089275351787231963 1 1 1 1 1 1 1 1 0.0071973283645376026 0.0046645155771574409 1 1 1 1 1 1 0.007680537997758384 1 1 1 1 1 1 0.0092936108253787175 1 1 1 1 1 1 0.014942831068429661 1 1 1 1 1 1 1 1 1 1 0.021589073670428185 1 1 1 1 1 0.0099529140510615441 1 1 0.0041804268757079238 1 1 1 1 1 1 0.0014496093857702813 1 0.0098646997688540058 1 1 1 0.0075237858992161927 1 1 0.0094783663506145047 1 1 1 1 1 1 1 1 1 1 1 1 1 0.0089615791544124038 1 1 1 0.0099692004858736236 1 1 1 1 1 1 1 1 1 1 0.0078639794925286083 1 1 1 1 1 1 1 1 1 1 1 1 1 1 1 1 1 1 0.0080118060447185585 1 1 0.0090502268903061549 1 1 1 1 1 1 1 1 1 1 1 1 1 1 1 1 1 0.010272848547108422 1 1 1 1 1 1 1 1 1 1 1 1 1 0.0042938901216871481 1 1 1 1 1 1 1 1 1 1 1 1 1 1 1 1 0.0073099125422880808 1 1 1 0.011191018215487694 1 1 1 1 1 1 1 -1.6409979951281795e-08 1 1 0.013251659770719099 1 0.0097457752844555597 1 0.012006383282965605 1 0.012188894244649223 1 1 1 1 0.010216909052216588 1 1 1 1 1 1 0.010409399329147542 1 1 0.010479890690296818 1 1 1 1 1 0.0026459158531831478 0.00093274335209304025 1 1 1 1 1 1 1 1 1 1 1 1 1 1 1 1 1 1 1 1 1 1 1 1 0.010295209539445023 1 1 1 1 1 1 1 1 1 1 1 1 1 1 1 1 1 1 1 1 1 1 1 1 1 1 1 1 1 0.010638663784576376 1 1 1 1 1 1 1 1 1 1 1 0.023294545853759681 1 1 1 1 1 1 0.021936946001097569 1 1 0.0073500536408854528 1 0.0091587119001982336 1 1 1 0.010399628910188329 1 1 1 0.01086050832361541 1 1 0.0071933670359973292 1 0.0013962107451899828 1 1 -1.9139227650649682e-09 1 1 0.010600195895939496 1 0.011254791167347129 1 1 1 1 1 0.010233071004994217 1 0.010624089145451827 1 1 1 1 0.0027966526430812551 0.0027761091519435659 1 1 0.011594937911739565 1 1 0.0074762651627194587 1 0.0025560544724432081 1 1 0.0098920328067932731 1 1 1 0.0023678945056187783 1 1 0.010174279277157243 0.024153127365479622 1 1 1 -1.0117522861174955e-09 0.0090856647541366561 1 1 1 1 1 1 1 1 0.012648450610576886 1 0.0094465418800720805 1 0.0062221966022003514 1 0.011391753498946063 1 -9.0890197451676258e-10 1 0.0054376951794317552 1 1 1 0.0069411388639821006 1 1 0.012269376337512489 1 1 0.010076588053640735 1 0.0093647410647509505 0.010149530384095919 1 0.0051094588109481358 0.0099666523355498027 1 1 0.0077181098649767438 1 0.013668433262419379 1 1 1 1 1 1 1 0.0098384775199742199 1 1 1 1 0.0099518610092548671 1 1 1 1 1 1 1 1 1 0.007854634497658608 1 0.0070957783680703768 1 1 1 1 1 1 1 1 1 1 1 1 1 0.009368359876598939 1 0.009986140694566388 1 1 0.013975354601883656 1 1 1 0.0099154324039894687 1 1 1 1 1 1 1 0.0088825597435858578 1 1 1 1 1 0.0038456796749326214 0.01322941594226329 1 1 1 1 1 1 1 0.0089792892672084859 1 1 1 0.0079470117915812731 1 1 1 1 1 1 1 1 1 0.0076695861265236587 1 1 1 1 1 1 1 1 1 1 1 0.0082844030106964603 1 1 1 1 1 1 0.0092522867763803265 1 1 1 1 0.0089771200647272044 1 1 1 1 1 1 1 1 1 1 1 1 1 1 1 1 1 1 1 0.011742028967648858 1 1 1 1 0.010475484926660283 1 1 1 1 1 1 1 1 1 1 1 1 1 1 1 0.034252500994527972 1 1 0.0088681110119724141 1 0.009812550353522605 1 1 1 1 1 1 0.033926252869998161 1 1 1 1 1 0.011577264914568012 1 1 1 1 1 0.0081073528347333605 0.014487143912658939 1 1 1 1 1 1 1 1 1 1 1 1 1 1 1 1 1 1 1 1 1 0.010073533678292553 1 1 1 1 1 1 1 1 1 1 1 0.0032562745427642545 1 0.0077537029575769946 1 1 1 1 -2.5172660041497541e-09 1 1 0.014494558955248673 1 1 0.014881794221973506 1 1 0.0037199626056939779 1 1 1 1 1 1 0.0089120674355419715 1 1 1 1 1 1 1 0.010900942994732311 1 1 0.0039717349095070255 1 1 0.018091292446486554 1 1 1 1 1 0.0080723104582135757 1 1 1 1 1 1 1 1 1 1 1 1 0.011142184679855893 1 1 1 1 1 1 1 1 1 1 1 1 1 1 0.0089217145300469029 0.0072206080806246683 1 1 0.013241685703733925 1 -2.0807151106250199e-09 1 0.030994055135959778 0.010971758461614911 1 1 1 1 0.0046994662182512307 0.0099173972716927027 -2.6748319861130687e-09 1 1 -1.1779652427101883e-10 1 1 0.010058716674466645 1 1 1 1 0.0099862018764360384 1 1 1 1 1 1 1 0.0083363585087380971 1 1 0.010005509789555736 0.017063336224141527 1 1 0.0097477887186435165 1 0.017641278716571278 1 1 1 1 1 1 1 1 1 1 1 1 1 1 1 1 1 1 1 1 1 0.014462958218430758 0.0084239564925702171 1 1 1 1 1 1 1 1 1 1 0.014553707408759595 1 1 1 1 0.01375487999142189 1 1 1 1 1 1 0.0099276488746454783 1 1 1 0.0098209279658858957 1 1 1 1 1 1 0.020227797054542508 1 1 1 1 1 1 0.016568189345381189 1 1 0.0091271433469573421 1 1 1 1 1 1 1 1 1 1 1 1 1 1 1 1 1 1 1 1 1 1 1 1 0.0091238751528431583 1 1 1 1 1 1 1 1 1 1 1 1 1 0.0096650807575410121 1 0.0095291117919751606 1 1 1 1 1 1 1 1 1 1 1 1 1 1 1 1 1 0.009221417134634164 1 1 1 0.0079684813483673709 1 1 1 0.0094547773762379134 1 1 1 1 0.008710374031996454 1 1 1 1 1 1 1 1 1 1 1 1 1 1 1 1 1 1 1 1 1 1 1 1 1 1 1 1 1 1 1 1 1 1 1 1 1 0.0090354032314589536 1 1 1 1 1 1 1 0.010988515419279705 1 1 0.012878045473236434 1 0.0073912963822367062 1 1 1 1 1 0.011453618861637746 1 1 1 0.008116375229695362 1 1 1 1 1 1 1 1 1 1 1 1 1 1 1 1 1 1 1 1 0.010461305254547679 1 1 1 1 1 1 1 1 1 1 1 1 1 1 1 1 1 1 1 1 1 1 1 1 1 1 1 0.0010520319669079445 0.015731788827140582 1 1 1 1 1 1 0.0097655288372230017 1 1 1 1 1 1 1 0.013991982491779811 0.0096153126263897534 1 1 0.02115020320541016 0.0090803994103059379 1 1 1 1 0.0091123553081458308 0.0086694344115772065 1 1 1 1 1 0.0050523224288877722 1 1 1 0.0080455563714521595 1 1 1 1 1 1 1 1 1 0.010399105376104417 1 1 1 0.0021124374839458469 1 1 0.01897865383591614 1 0.0045236018854124954 1 0.011847763308086845 1 0.027397042532716645 0.006962514853387813 1 1 0.024751640413903923 0.011984881315939184 1 1 1 1 1 1 0.030513304533565051 1 0.0099412590066416326 1 1 1 1 0.010615846879572609 1 1 1 1 1 1 1 0.03277508740238895 1 0.0098682784970846107 1 1 1 1 1 1 1 1 1 1 1 1 1 0.014371881266601041 1 0.0061106186820428215 1 1 1 1 1 1 1 1 1 1 1 1 1 0.00821866509521651 1 1 1 1 1 1 1 1 1 1 0.010205416641489143 1 1 1 1 1 1 1 1 1 1 1 1 1 1 0.010461040180718809 1 0.017456093223996591 1 1 1 0.0058185241475566755 1 1 1 1 1 1 1 1 1 1 1 1 1 1 1 0.01303966494706197 0.010137332085080528 1 1 1 1 1 1 1 1 1 1 1 1 1 1 0.0044173868291794028 1 1 1 1 1 0.011024487102721543 1 1 1 1 1 1 0.023255881412982529 1 1 1 1 1 1 1 1 1 1 1 1 0.010027713990496864 1 1 1 1 1 1 0.01149754533147021 1 1 1 0.0086102469089413044 1 1 1 1 1 0.010716585849046126 1 1 1 0.0080114643637430108 1 1 1 1 1 1 1 1 1 0.0079948713857658851 1 1 1 1 1 1 1 1 1 1 0.011676382639790124 1 1 1 7.2331674347975161e-09 1 1 1 1 1 1 1 1 1 1 1 1 1 1 1 1 1 1 1 1 1 1 1 0.006464865542030504 1 1 1 1 1 1 1 1 1 1 1 1 1 1 1 1 1 1 1 1 1 1 1 1 0.0077689330294503818 1 1 1 1 1 1 1 0.0079859081826909335 1 1 1 0.0046642632712150722 1 1 1 1 1 1 1 1 0.0032528879885791754 1 0.0077379919687006679 1 1 0.009334384710559876 1 0.0014823801514919806 1 1 1 1 1 1 0.015567055324996271 1 1 1 0.0060620629324107242 0.0075193151765931797 1 0.014234901210996012 1 1 1 1 1 0.0042933242749986058 1 1 1 1 1 1 1 1 1 1 1 1 1 1 1 0.01118553026400089 1 1 0.0011927539801718234 1 1 1 0.013343171392614251 1 0.0050273303109784756 1 0.013079698621745154 1 0.0067740939579910529 1 1 0.012731834632755403 0.0048653451767835428 1 1 1 0.016087834501352174 1 0.0063275533327577307 1 1 1 1 1 1 1 1 1 0.0078773574691886165 1 1 1 0.0091352502765072938 1 1 1 1 1 1 1 1 1 1 1 -2.4477598316308136e-09 1 1 1 0.010858048631927025 1 1 1 1 1 1 1 1 1 0.010526410458880066 1 1 0.012138738025662288 1 1 1 0.0027840356586071348 1 1 0.010003168559953937 1 1 1 1 1 1 1 1 1 1 1 1 1 1 1 1 1 1 1 1 1 1 0.005315558727994843 1 1 0.0076089966095448207 1 1 1 1 1 1 1 0.0092267260692699762 1 1 1 1 1 1 1 1 1 1 1 1 0.0080963298335615316 1 1 1 0.012861434439829317 1 1 0.010057012229864958 0.007844667466041455 1 0.010091772518505326 1 1 1 1 1 0.015792500512741912 1 1 1 1 1 0.014890592169058995 1 1 1 0.015450344847269031 0.016822325769319309 1 1 1 0.015057082893222194 1 1 1 0.0050956812148516672 1 1 1 0.010167881418015265 0.011550890365197491 1 1 0.010963751984484862 1 1 1 1 1 1 0.010197209217724969 0.012267461976225039 1 1 1 1 1 1 1 1 1 1 1 0.010318218447097356 1 1 1 1 1 1 1 1 1 1 1 1 1 1 1 1 0.010583469215013984 1 1 1 0.0116795949069049 1 1 1 1 1 1 1 1 1 1 0.0019674263086778068 0.019680760275472345 1 1 1 1 0.029047801313691016 1 1 1 1 1 1 0.0010636270920794666 1 0.00040315490299347792 1 1 1 1 1 1 0.0018656738284158966 0.012002458284760209 1 1 1 1 1 1 1 1 0.010076420089525161 0.011077386444452796 1 1 1 1 1 1 0.018905687879431678 1 1 1 1 0.013101635314669041 1 0.00073857553622052631 1 1 1 1 1 0.0099940963657545387 1 0.0088717273153973777 0.012003998204224403 1 1 0.014111940396353412 0.015535162449567305 1 1 0.0086798708365695525 1 0.0053236219043177463 0.012417328840360987 1 1 1 0.0024514565930282093 0.018028457076949958 1 1 1 1 1 1 1 1 1 1 0.011004515423319886 1 1 1 0.0067682939134284786 0.0058834212920414585 1 0.0023983740792964149 0.0067975567781692961 1 1 1 1 1 0.0088780675600036094 1 2.0415644331334137e-09 1 0.013596952512088555 1 1 1 0.0079340839629891552 1 0.011286211830263911 0.00076983827407996544 1 1 0.0099762362099812089 1 1 0.010449559254656838 1 1 1 1 0.010040451669024592 1 1 1 1 1 1 1 1 1 1 1 1 0.015750561127708403 1 1 1 1 1 0.012023635695813245 1 0.0087922827723285815 1 0.011860968084997467 1 0.011399093718945067 1 0.015525347447680124 1 0.010141656710671798 1 1 1 1 1 0.018483554930945521 0.015785385640605755 1 0.011108813675719663 0.011916609894768242 0.0095545949697889154 1 1 1 1 0.0096657111922661618 1 1 1 1 1 0.010522654934434265 1 1 1 1 1 1 0.0098234946429874639 1 1 1 1 0.0093353014090723288 1 1 0.010160410251825298 1 0.011701629844220483 0.013462853161338682 1 1 1 1 1 1 0.003848792654712406 0.0099209230051860997 0.007070360554675123 0.011353825385670799 1 1 0.0080723623007901285 1 0.01145560119127742 1 0.0021324802686828372 0.0023513203851432494 1 1 1 1 1 1 1 1 1 1 1 1 0.010253837047857504 1 1 0.010790357598874568 1 1 1 1 1 1 1 1 1 1 1 0.0098787588534596776 1 1 1 1 0.0059116885230471594 1 1 0.0040526460080655274 1 1 1 0.0032132795299960534 1 0.0042268692524576254 1 1 1 1 1 1 1 1 1 0.0038130983962229512 1 1 1 1 1 0.0099216123914101714 1 1 1 1 1 1 1 1 1 1 1 1 1 1 1 0.01283935267154584 1 1 1 1 0.012094819136609546 1 1 1 1 0.01080777693041915 1 1 1 1 1 1 1 1 1 1 1 1 1 1 1 1 1 1 0.0099197881091461701 1 1 1 1 0.0098497728321556011 1 1 1 1 1 1 1 1 1 1 1 0.016892742372505137 1 1 1 0.024001341306270019 0.010007398978423329 1 1 1 0.0079218822584585027 0.0066603421886034589 0.005714017250154798 1 0.011690769924464488 1 1 0.0081937618269418144 1 1 0.0063873098426881075 1 1 0.0099399247380182881 1 0.0097681328310787446 1 1 1 1 1 1 1 1 1 1 1 1 1 1 1 1 1 1 1 1 0.017553433888769104 0.012611162225512104 1 1 1 0.002972132499667799 1 0.0082898728550162976 1 1 1 1 1 1 1 1 1 1 0.010385286141915681 1 1 1 1 1 1 1 1 1 0.0099333817669739685 1 1 1 1 1 1 0.014305717872975736 1 1 1 1 1 1 1 1 1 1 1 1 0.0112335505343149 1 0.0081637927213478578 1 1 1 1 1 1 1 1 1 1 1 1 1 1 1 1 1 1 0.011817365741151827 1 0.011240614849784841 1 0.011187391646054248 1 1 0.014463480444416213 1 0.013794106152703801 1 1 0.0065838160740822015 1 1 0.0089719223659465164 1 1 1 1 1 1 0.0099838284948847236 1 1 0.0035187407812958416 0.012362185412078827 1 1 0.013671490252579646 1 1 0.0055440260876395992 1 0.0096402684618497672 0.010415137480376369 1 1 1 1 1 1 0.010018482733581489 1 1 1 1 1 1 1 1 1 1 0.0093004712241116956 1 1 0.0083983647825665933 1 1 1 0.0010589291736685779 1 1 1 1 1 1 1 0.0080997805107227809 1 1 1 0.0049175220892741581 1 1 -9.9333832218745366e-10 1 1 1 1 1 1 1 1 1 1 1 1 1 1 1 1 1 1 1 1 1 1 1 1 1 1 1 1 1 1 1 1 1 1 1 1 1 1 1 1 1 1 1 1 1 1 0.0041956273295631116 1 1 1 1 1 1 1 1 1 1 1 1 1 1 1 1 1 1 1 1 0.0087372979815882011 1 0.010129737784142201 1 1 1 1 1 1 1 0.010574232303639479 1 1 1 1 1 1 1 0.010602354238783529 1 1 1 1 1 1 0.011629258119246972 1 0.027281451950788498 1 1 1 0.0099851292588843399 1 1 1 1 1 1 1 1 1 1 1 1 0.01498598106614589 1 1 1 1 0.0098925143646149613 1 1 1 0.011447706646901456 0.0035436044203990876 1 1 1 0.017385429188528527 0.0097143398130829853 1 1 1 1 1 1 1 1 1 1 1 1 1 1 1 1 1 1 1 1 0.00097509411321097805 1 1 1 1 -1.0582295983940782e-08 1 1 1 -4.3165063988437335e-09 1 1 1 1 1 1 1 1 1 1 0.01246133457858137 0.01079833559879731 1 1 1 1 0.01038615063743414 1 1 1 1 1 1 0.01412539207811131 1 1 0.010653710804875375 1 1 0.015271653065513908 1 1 1 1 1 1 1 1 1 1 1 1 1 1 1 1 1 1 1 1 1 1 1 1 1 1 1 1 1 1 1 1 1 1 1 1 1 1 1 1 1 1 1 1 1 1 1 1 0.0081757782492734819 1 1 1 1 1 0.020937775301990501 1 1 0.013918806379964267 1 1 0.010262457748653041 1 1 1 1 1 1 1 1 1 1 1 1 1 1 1 1 1 1 1 0.0074368567728656659 1 1 1 1 1 0.009943166399438895 1 1 1 1 1 1 1 1 1 1 1 1 0.017165385791888459 1 1 1 1 1 0.0091502317660389978 1 1 1 0.0097329693848291834 1 1 1 1 1 1 0.0028162216113782682 1 1 1 1 0.0096762113719769186 1 1 1 1 0.0079522912189646244 1 1 1 0.010071207163503203 1 1 1 0.0091796787315769485 1 1 0.01259683748201143 1 1 1 1 1 1 1 1 1 1 1 1 1 1 1 1 1 1 1 1 1 1 1 0.012019593657614042 1 1 1 0.010209106050100706 1 1 1 1 1 1 1 1 1 1 1 1 1 1 1 1 1 0.0095077402843594949 0.0097194423987808434 1 1 0.014565760268026702 1 1 0.010722978508911581 1 0.014269651049190563 1 0.0075351246583388459 1 1 1 1 0.0068248399532385567 1 1 1 1 0.0061852218228348223 1 0.010169943215990587 1 1 1 1 1 1 1 1 1 1 1 1 1 1 0.010352148479917967 1 1 1 1 1 1 1 1 1 1 0.012746045226726593 1 1 1 1 1 1 1 1 1 1 0.018006318006386607 1 1 1 1 1 0.012401683443910808 1 1 1 1 1 0.011707750393783998 1 1 1 1 2.2115809808487263e-09 1 1 1 1 1 1 1 1 1 1 1 1 0.010617831539748426 1 1 1 1 1 1.1716465159183898e-09 1 1 1 1 1 1 0.0037530338335042754 1 1 1 1 1 1 0.011160483408281456 1 1 1 1 1 1 1 1 1 1 1 1 1 1 1 1 1 1 1 1 1 1 1 1 1 0.011906578826690821 1 1 1 1 1 1 0.0058667657988078492 1 1 1 1 0.0053819150580596206 1 1 0.0079549330182946618 1 1 1 1 1 1 1 1 1 0.00074614287971056653 1 1 0.011600127538350016 1 1 1 -6.8943657588471652e-09 1 1 1 1 0.010874358723580809 1 1 1 1 1 1 1 1 1 0.0081052339409564481 1 1 1 1 1 1 1 1 1 1 1 1 1 1 1 1 1 1 1 1 1 1 1 1 0.0053539303662404822 1 1 1 1 1 1 1 1 1 1 0.0099332973393983712 1 1 1 1 1 1 1 0.0097195890045151459 1 1 1 1 0.0039940808893522486 1 1 1 1 1 1 1 1 1 1 1 1 1 1 1 1 1 1 1 1 1 1 1 1 1 1 1 1 1 1 1 1 1 1 1 1 1 1 1 1 1 1 1 1 1 1 1 0.01404233997086639 1 1 1 1 1 1 1 1 1 1 1 1 1 1 0.0076554943829609812 1 1 1 1 1 1 1 1 0.007143610341030851 1 1 1 1 0.013418354719963117 0.010196365391593944 1 1 0.010303017300531292 0.011563721889654578 1 1 1 1 1 1 1 1 1 1 1 1 1 1 1 1 0.007124307590858062 1 1 1 1 1 1 1 1 1 1 1 0.0043432540934690046 1 1 1 1 1 1 1 1 1 0.00089965946424041578 0.0097354652185557486 1 1 0.009855369799697325 1 1 1 1 1 1 0.0090649141980432956 1 1 1 1 0.0076741427564789508 1 1 1 1 1 1 1 1 1 1 1 1 0.0096107183045799852 1 1 1 1 0.0086538277798739148 1 1 1 1 1 1 1 1 1 0.0089442455442895301 0.0030795370543475996 1 1 1 1 0.0087012062427358587 1 1 1 1 1 1 0.0075762594238924143 1 1 1 1 1 1 1 1 1 1 1 1 1 1 1 0.0090331474496608069 1 1 1 1 1 1 1 1 1 1 1 1 1 1 1 1 1 1 1 1 1 1 1 1 1 1 1 0.013852324611239981 1 1 1 0.017751588915956237 1 1 1 1 1 1 1 1 1 -2.5556440713669915e-09 1 1 1 1 1 1 1 1 1 0.00053513221739685812 1 1 1 1 1 1 1 1 1 1 1 1 1 1 1 0.0066302639979796546 1 1 1 1 1 1 1 4.2424703264321018e-09 1 1 1 1 1 1 1 1 1 1 1 1 1 1 1 1 1 1 1 1 1 1 1 1 1 1 1 1 1 1 -1.4722299976344111e-08 1 1 1 1 0.010890083815663927 1 1 1 1 1 0.0083890298513686762 1 0.017085132480377359 1 1 1 1 1 1 0.013695201830031334 1 1 1 0.021354842257647291 1 1 1 1 1 1 1 1 1 1 1 1 1 1 1 1 1 1 1 1 1 1 1 1 1 1 1 1 1 0.0098491776699989736 1 1 1 1 1 0.036210541089508518 1 1 1 1 1 1 1 0.029176916087012277 1 1 1 1 1 1 1 0.010037993076725905 1 0.010108963038152237 1 1 1 1 1 0.0070030055222931181 0.0099694652086614044 1 1 0.008076899690804655 1 1 0.0061754586750479498 1 0.00050264820263955928 0.017397028802892761 0.0099061581950883396 1 0.021686924174003731 1 0.020263249075274933 0.0057947730216267729 0.008057606897682229 1 1 -1.2034950605532835e-09 0.0089978429322148737 1 1 0.014623966412139922 1 1 1 1 1 -4.5808323384521898e-09 1 1 0.021291674917898289 1 0.017809333780967218 1 1 1 1 1 2.3401193829930556e-09 1 1 0.016130721773807102 1 0.024343261120903195 1 0.0099852575907783403 -3.2152783213668101e-10 1 1 1 1 1 0.0025893096901548618 1 1 0.0053018879661722307 1 1 1 1 1 1 0.0096364973091951599 1 1 1 1 1 1 1 1 1 1 1 1 1 1 1 0.015920662084101235 1 1 1 1 1 0.010118180297874819 1 0.013318886247281907 0.0089805490242971867 1 1 1 1 1 1 1 1 1 1 1 1 1 1 1 1 1 1 1 1 1 0.00040134287953040582 1 1 1 0.017955909696521402 1 1 0.006571415975805843 1 1 1 1 1 1 1 1 1 1 0.0081092963491313681 1 0.0093739703579991951 1 1 1 1 1 0.016618544904304269 1 1 1 1 0.012325317907928755 1 1 1 1 1 1 1 1 1 1 1 1 1 1 1 1 1 1 1 1 1 1 1 1 1 1 1 1 1 1 1 1 0.010000870466693394 1 0.012205987446237217 1 0.013820034369679858 1 0.0066512897841796391 1 1 1 0.014903018613290481 0.008097273959659812 1 0.012998445042894401 0.013731508577134599 1 1 1 0.0033401362896396808 1 1 1 1 1 1 1 1 1 1 1 1 1 1 1 1 1 1 1 1 1 1 1 1 1 1 1 1 1 1 1 1 1 1 1 1 1 1 1 1 1 1 1 1 1 1 1 1 1 1 1 1 1 1 1 1 1 1 1 1 1 1 1 0.0053840760345435848 1 1 1 1 1 1 0.0099840946767551161 0.0098911998805339477 1 1 1 1 1 1 0.0073629059172474268 1 1 1 1 0.010926562464024875 1 1 1 1 1 0.0032970950195298568 1 0.016146111477636851 1 1 1 1 0.012176373658470229 1 1 1 1 1 1 1 1 1 1 1 1 1 1 1 1 1 1 1 1 1 1 1 1 1 0.0027543037376138169 1 1 1 1 1 1 1 1 1 0.011584437230619554 0.014816174328505474 1 1 1 0.022842835366770453 0.0081794451602478363 1 1 1 1 1 -2.764336023974856e-09 1 0.010147447996019111 1 1 0.0093811914990055839 1 1 1 1 1 1 1 1 1 1 1 1 0.0083255096146200164 1 1 1 1 0.006953350220972607 1 1 1 1 1 1 1 0.014122891591319253 1 1 1 1 1 1 1 1 1 1 1 1 1 1 1 1 1 1 0.0092428956296738696 1 1 1 0.0098678513863957179 1 1 1 1 1 1 1 1 1 1 1 1 1 1 0.010372998086207286 0.011957435316826859 1 1 1 1 1 1 1 1 1 1 1 0.0071979425428357821 1 1 1 1 1 1 1 0.0095835264723031291 1 1 1 1 1 1 1 1 1 1 1 1 1 1 1 1 1 1 1 0.0091107923460913842 0.0093215448212361843 1 1 1 1 1 1 0.0089058019172359448 1 1 1 1 1 1 1 1 1 1 1 1 1 1 1 1 1 1 1 1 1 1 1 1 1 1 1 1 0.01061532788247762 0.0211156595524317 1 1 1 1 1 0.0099789844503062764 1 1 0.0099097104590021648 1 1 1 1 0.011921190924752072 1 1 1 0.015341961660868443 0.017582927830958342 1 0.025001423497612509 0.015889611888326466 1 1 1 1 0.0084063641080399307 1 1 1 1 1 1 1 0.0067245307531628579 1 0.010983656377953371 1 0.016622444962607275 1 1 0.010085727483832095 0.020274407521045847 1 1 1 0.023607116265252526 1 0.0099928701498247785 1 1 1 1 1 1 1 1 1 0.0077241959038810079 1 1 1 1 1 0.0098336177648086567 1 1 1 1 1 1 1 1 1 1 1 1 0.0096766072072247758 1 1 1 1 1 1 1 1 1 0.01423318159643177 1 1 1 1 1 1 1 1 0.010135920786552092 0.011373487342240677 0.017400943695738011 1 1 1 0.02405090299320695 1 1 -9.4936711964033194e-09 1 1 1 1 1 1 0.029410909070122046 1 1 1 0.0091175955215351823 0.030449350368827073 1 0.0060063640903054716 1 1 1 1 0.023352891868077239 0.0067742579175971776 1 1 0.0093597908002447244 1 1 0.011887830462885796 1 1 1 1 1 1 1 0.010211886117730141 1 0.014982986250869697 1 0.015576367996132295 0.011319687005634176 1 1 1 1 1 1 1 1 0.009937242479969341 1 1 1 1 1 0.0099917242797778853 1 1 1 1 1 1 1 1 1 1 1 1 1 1 1 1 1 1 1 1 1 1 1 1 1 1 1 1 1 1 1 1 1 1 1 1 1 1 1 1 1 1 1 1 1 1 1 1 1 1 1 1 1 1 1 1 1 1 1 1 1 1 1 1 0.010602746793906815 1 1 1 1 1 1 1 1 1 1 1 1 1 1 1 1 1 1 1 1 1 1 1 1 1 1 1 1 1 1 0.0094998871263847554 1 1 1 0.0092586996226571988 1.8482451680235101e-10 0.0020794024957596895 1 1 1 1 1 1 1 0.017237788847904882 2.1530322524832002e-09 1 1 1 0.0087195742795315792 1 0.0095818595101620566 1 1 1 1 1 1 0.0042154115070119 1 1 0.0086256840963631204 1 1 1 1 1 1 1 1 1 1 1 1 0.011942399972812618 1 1 1 1 1 1 1 0.016235328888247632 1 0.0053554608873609862 0.0089827357445121034 1 1 1 1 0.015927278057098322 1 0.01191909931634705 0.010088098423981342 1 1 1 1 0.010722770342185314 1 1 0.016006058148440132 0.012048530905820152 1 1 1 1 0.013817800369058683 1 1 0.01008831311056289 1 1 1 1 1 1 1 1 1 1 0.0094275115666156359 1 0.01112397564646531 1 1 1 1 0.010517621734239611 1 1 1 1 1 0.020353864115369595 1 1 1 1 1 1 1 1 1 1 1 1 1 1 1 0.010134429262845494 1 1 1 0.036600781846847424 0.010001068110267068 1 1 1 1 1 1 1 1 1 1 1 1 1 0.0045718250034562438 1 0.015462563581419987 1 1 1 0.0099509552611782778 1 1 1 0.014162351804435279 1 1 1 1 0.012551117619315074 1 1 1 1 1 0.0075090964321123475 1 1 1 1 1 1 0.0029743043431133768 1 1 1 1 1 1 1 1 1 1 0.01083753170744628 0.009997080948850115 1 0.010550697033593855 1 1 1 1 0.010382596634822709 1 1 0.016712832832691062 1 1 0.022333067926351598 1 1 1 0.006932188982579069 0.0075988164409483451 1 0.01272262838498054 0.0099602712741591916 1 1 1 1 1 0.0099053064994490264 1 1 0.008554855629816116 1 1 1 0.01127724452060383 1 4.8568028071516167e-11 1 1 1 1 1 1 1 0.010133615699962666 1 1 1 1 1 1 1 1 1 1 1 1 0.008794298677698327 1 1 1 1 1 0.010172571372426446 1 1 0.0054582818366308156 1 0.014271750229701573 1 1 0.006662603884159006 1 0.0098498246071178353 1 1 0.017143236513594055 0.0075848661876370196 1 1 1 0.0154467391219405 0.0056305116842167331 1 1 0.020077390860059302 1 1 1 1 1 0.010509667286252735 0.010553582602781256 0.010013535170941484 0.010946464444216517 0.010939752169844079 0.0091950954747411408 1 1 1 0.011028727206673241 1 0.011707135338159501 0.0072338548636409414 0.0033997055084089359 1 1 1 0.0098939997940124119 1 1 0.010339280845410784 1 1 1 0.009958829445381923 1 1 0.0048439933194448954 1 1 1 1 0.010649081249162681 0.011885249520349823 1 1 1 1 1 0.010293053656951896 1 1 1 1 1 1 0.013961374724723287 0.010090713598270795 1 1 0.018186210100482911 1 0.010610263062483324 1 1 1 1 1 1 1 1 1 1 1 1 1 1 1 1 1 1 1 0.0042412051490602481 1 1 1 1 0.0035166002448553391 1 0.0029610209808875881 1 1 1 0.0073782359245214216 1 1 1 0.0089786931080642618 1 1 1 1 1 1 1 1 1 1 1 1 1 1 0.0091827906892409591 0.0097605628297611144 1 1 1 1 1 1 1 1 1 1 1 1 1 1 1 0.0093642332076683335 1 1 1 1 0.010046039938739211 1 0.01132728848616571 1 1 1 1 1 1 1 1 1 1 1 1 1 1 1 1 1 1 1 1 1 1 1 1 1 1 1 1 1 1 1 1 1 1 0.0092018329965164042 0.0067006372845128254 1 1 0.010413524151207915 1 0.012861884655461946 1 0.0072257186031628728 0.0081270509702330573 1 1 1 1 1 1 0.0090633010135484846 0.0099993569324541703 1 1 0.012326050704275334 1 1 1 0.01087395920084633 1 1 1 1 1 1 1 0.0054995529468771578 1 1 1 1 1 1 0.010476611390227597 1 1 1 1 1 1 1 1 1 1 1 0.010477229800998772 1 1 1 1 1 1 1 1 1 0.0099615610341727227 1 1 1 1 0.0078786794811770769 1 1 1 1 1 0.0089396867242096303 1 1 1 1 1 1 1 1 1 1 1 1 1 1 1 1 1 1 1 1 1 1 1 1 1 0.0087817472533085299 1 1 1 1 1 1 1 1 1 1 1 1 1 1 0.0081072855004500829 1 1 1 1 1 1 0.0078909419456362848 1 0.010995812819487289 1 1 1 1 0.010899573992259123 1 0.0099950138306883103 1 1 1 1 1 1 1 0.0074998021742760535 1 1 1 1 1 1 1 1 0.017689276223090966 1 1 1 1 1 1 1 0.011251453627606243 1 1 1 1 1 1 1 1 1 1 1 1 1 1 0.016587482875171925 1 1 1 1 0.010969575300559493 0.015964045171538932 1 1 1 1 1 1 1 0.015542631530629805 1 0.0072397342088586225 1 0.013819695774804543 1 1 0.0065485019443718359 0.016963740782625317 1 0.0074382283957178802 1 1 1 1 1 1 1 1 0.01206436180428192 1 0.0052920208669065341 1 1 1 1 0.0049675041701365899 1 1 0.012202312979670837 1 1 1 1 1 0.010572213533321478 1 1 1 1 1 1 1 1 1 1 1 1 1 0.0099472896222618824 1 1 0.01194633998389405 1 1 1 0.010099758444748363 1 1 1 1 1 0.017922531883550682 1 1 0.015747459514668154 1 0.014101860628227436 1 1 1 1 1 1 1 0.016375390688851934 1 1 0.0094712435920451393 1 1 1 0.0092096586206838887 1 1 1 1 1 1 1 1 1 1 0.0083173745593564039 1 1 1 0.010561781091427148 1 1 1 1 0.011449278516264491 1 1 1 1 1 1 1 1 1 1 1 1 1 1 1 1 1 1 1 1 0.0092349076698367057 1 1 1 0.0079166067626849392 1 1 1 1 1 1 1 1 1 0.0026837799525702213 1 1 1 1 1 0.009812691989025478 1 1 1 1 1 1 1 1 1 1 1 1 1 1 1 1 1 1 1 1 1 0.010129489267662169 1 1 1 1 1 0.010619140138851769 1.7625628803696891e-09 1 1 1 1 0.0036829992206745613 1 1 1 1 1 1 1 1 0.0052614359844431937 1 1 1 1 1 1 1 0.0091978919833284444 0.011095447778326909 1 1 1 1 1 0.010934295883135684 1 1 1 1 1 1 1 1 1 1 0.0075762891908141509 1 0.013055615580798315 1 0.0095875690410454576 1 0.011296243759436268 1 1 1 1 0.010237687054499648 1 1 1 1 1 1 1 1 1 1 1 1 1 1 1 1 1 1 1 1 0.0061736934432053206 1 1 0.0072465947268690375 1 1 1 1 1 1 1 1 1 0.010258805640972027 1 1 0.0082570866805203869 1 1 1 1 0.010015902624900229 1 1 1 1 1 1 1 1 1 1 1 1 1 1 1 1 1 1 1 1 1 1 0.010412374818006623 1 1 1 1 1 1 1 1 1 1 1 1 1 1 1 1 1 1 1 1 1 1 1 1 1 0.01131114508103615 1 1 1 1 1 1 1 1 1 1 1 1 1 1 1 0.0093338814119306845 1 1 1 1 1 1 1 1 1 1 1 1 0.012490753821411351 1 1 1 1 0.011327069636866551 0.0077253937885556866 1 1 1 0.023868664760995053 1 0.011251147647518547 1 1 1 0.0018032379516033873 1 1 1 1 0.002999679967834068 0.037282480186366942 1 1 0.016047960358577057 1 1 1 1 1 1 1 1 0.010058370630750151 1 1 1 1 1 1 1 1 1 1 1 1 1 0.028361250970451189 1 0.0095176939645638808 1 1 1 1 1 1 1 0.01064045808478753 1 1 1 1 1 0.039580696973725245 0.0054792106245339835 1 1 1 1 1 1 1 0.011556054208771484 1 1 1 1 1 0.0089263273937909837 1 1 1 1 1 0.011163684184544796 1 1 1 1 1 0.011590022669595039 1 1 1 1 1 1 1 1 1 1 1 1 1 1 1 1 1 1 1 1 1 1 1 1 1 0.011253540588344503 1 1 1 1 1 1 1 1 1 1 1 1 0.013386613694675246 1 0.0070290788163228299 0.012620201403621632 1 1 1 1 1 0.0061261837901103195 1 1 1 1 1 1 0.0076001217892995108 1 0.0084176943420326902 1 1 1 1 1 1 1 1 1 1 1 1 1 1 1 0.008954573432351589 1 0.0036772526057423892 1 1 1 1 1 0.0032228875682376833 1 1 1 1 1 1 1 1 1 1 1 1 1 1 1 1 1 1 1 1 1 0.0075928347602011378 1 1 1 1 1 1 1 1 1 0.0097163576147529882 1 1 1 1 1 0.0044147976036554345 1 1 1 1 0.0094070666795681053 1 1 1 1 1 0.013426864061913265 1 1 1 1 1 0.011099880965219923 1 1 1 1 1 1 1 1 1 1 1 0.0078055995812535712 1 1 1 0.000672012792043538 1 1 1 1 1 0.0035508869904368121 1 1 1 0.0047509128971959854 0.0062425078008627941 1 1 1 1 1 1 1 0.0080021623638895627 1 1 1 1 1 1 1 0.0071782922978805026 1 1 1 1 1 0.0087068623512371879 1 1 1 1 1 1 1 1 1 1 1 1 1 0.011401589520370023 1 1 1 1 1 1 1 1 1 1 1 0.018072574267062425 1 1 1 1 1 1 1 1 1 1 1 1 1 1 1 1 1 1 1 1 1 1 1 1 8.3064364197679708e-09 1 0.034319599874173289 1 0.0097541406354126926 1 1 1 1 0.029792162036709889 1 0.0098559972592053343 1 1 0.01002885255361383 1 1 1 1 1 1 1 1 1 1 1 1 1 1 1 1 1 1 0.0074170619396066104 1 1 1 1 1 1 1 1 1 1 1 1 1 1 0.010290312778294831 1 1 1 1 1 1 1 0.014396873586539813 0.011375342874721738 1 1 1 1 1 0.010470741978976225 1 1 1 1 1 1 1 1 1 1 1 1 1 1 1 0.009207090520271766 1 1 1 1 1 1 1 1 1 1 0.010623667356784028 1 1 1 1 0.014353223576095519 1 1 1 1 1 1 1 1 1 1 1 1 1 1 1 1 1 1 1 0.010348236941837733 1 1 1 0.0081780186717172743 1 1 1 0.0078870764471878959 1 1 1 1 1 1 1 1 1 1 1 1 1 1 1 0.0049812778140981007 1 1 1 1 1 1 1 0.007869358107360426 1 1 1 1 1 1 1 1 1 1 1 1 1 1 1 1 1 1 1 1 1 1 1 1 1 1 1 1 1 1 0.011225946750429379 1 0.010949564584807508 1 1 1 1 1 1 1 1 0.014894993659381118 1 1 1 1 1 1 1 1 1 1 1 0.01159639196459121 1 1 1 1 1 1 1 0.012038887464541898 1 1 1 1 1 1 1 0.0089681256214222838 1 1 1 1 1 0.032111662267729602 1 1 1 0.023958078329965229 1 1 1 1 1 1 1 1 1 1 1 1 1 1 1 1 1 0.02675870583160761 1 1 0.0052869341551036869 1 1 1 0.0095926946607833991 1 1 1 1 1 1 0.0178353221841141 1 1 0.016355797378713528 1 1 1 1 1 1 0.0089434787350618668 1 1 1 0.0020759997391394946 1 1 1 1 1 1 1 1 1 0.025121372420352929 1 1 0.014752668009983323 1 1 1 1 1 1 1 1 1 0.0057994642062353836 0.010988627905884478 1 1 1 1 1 1 1 0.013632889480211333 0.013253029667818229 1 1 1 1 1 1 1 1 1 1 1 1 1 1 1 1 1 1 0.0084553553964149541 1 1 1 1 1 1 1 1 1 1 1 1 1 1 1 1 1 0.014715051602171863 1 1 0.010173143468599637 1 1 1 1 1 1 1 1 1 1 1 1 4.653206538834942e-09 1 1 1 1 1 0.0059993781016619667 1 1 1 1 1 1 1 1 1 1 1 1 1 1 1 1 1 1 1 1 1 1 1 1 1 1 1 0.015560187758303765 1 1 1 1 1 0.012869567741127269 1 1 1 1 1 1 1 1 0.0068265143567023834 1 1 1 1 1 1 1 0.010163620339787578 1 1 1 1 1 1 1 1 1 0.016379102219799303 1 1 1 1 1 1 0.0069549658845668161 1 1 1 1 1 1 1 1 1 0.0077479324834408697 1 1 1 1.3259364439743848e-09 1 -9.829435689001631e-09 1 1 1 1 1 0.0041322016018203048 1 1 0.00066858235560801008 1 0.003467324622965888 1 1 1 1 1 1 0.027578855114294129 0.0011771872066346258 1 1 -3.1604215702807359e-09 1 0.0011332609188151894 1 1 1 1 1 1 1 1 1 1 1 1 1 1.9189648134410042e-09 1 0.0077030372710715223 1 1 1 0.0037345020897585485 1 1 1 1 0.022325959137867342 1 1 1 1 1 1 1 1 1 1 1 0.0074767673450297084 1 1 1 1 1 1 0.0063872307272150944 1 1 1 0.0053278731766483733 1 1 0.0027402850374379072 1 1 1 1 1 1 1 1 1 1 1 1 1 1 1 1 1 1 1 1 1 1 1 1 1 1 1 0.011546384486491951 1 1 1 1 1 0.014571837908307426 1 1 1 1 1 1 1 1 1 1 1 1 1 1 0.014324217656185724 1 1 1 1 1 1 0.013215265461785357 1 1 1 0.0086831757113832245 1 1 1 1 1 1 1 1 1 1 1 1 1 1 1 1 1 1 1 1 1 1 1 1 1 0.0056897074939289971 1 1 1 1 1 1 1 1 0.013185752498847882 -2.3782670416361285e-09 1 1 1 1 1 1 1 1 1 0.015676769609667442 1 1 0.026026511141748962 1 0.019404145616847904 1 0.0096065893499896818 1 1 1 1 1 1 0.010865498378500149 1 1 1 1 0.018446364783484624 1 1 -6.5055444364858772e-09 1 1 1 1 1 0.010257889853988705 1 1 1 1 1 1 1 1 1 1 1 1 1 1 0.01227037261074744 0.0068815862449151388 1 1 1 1 1 1 1 1 1 1 1 1 0.021796500332281865 1 1 0.0098329684350699428 1 1 0.0028925425652889108 0.018242156950995361 1 1 1 0.020435011341702891 1 1 1 1 6.5631720960745987e-09 9.0351646095387927e-09 1 1 0.022876143638230588 1 1 1 9.6797603439668922e-09 1 1 1 1 1 1 1 1 4.626439523147674e-09 1 1 1 1 1 0.003035204013026864 1 1 1 0.0087346889133802699 1 1 1 0.010078419655522058 1 1 1 1 -9.6020535966800935e-10 1 1 0.0061209938667828728 0.00069260645165103527 1 1 1 1 1 1 0.0090224228502949269 1 1 1 1 1 1 1 1 1 1 1 1 1 1 1 1 1 0.0098124014262643434 1 1 1 1 1 1 1 0.002524669242018272 1 1 1 0.025989717054126123 1 1 0.016442391760991694 1 1 1 1 1 0.011808667418473575 0.010093943641558377 1 1 1 1 1 0.016047397714550625 1 1 1 1 0.0099677305615255077 1 0.022760198885774942 1 1 1 1 1 1 1 0.0094130694796002393 1 1 0.01130976564272573 1 1 1 0.008021652202352068 1 1 0.011221947992898232 0.010036393558035123 1 1 1 1 1 1 1 0.010036262269559365 1 1 0.01270944404099042 1 1 1 0.011488837050770903 1 1 1 1 1 1 1 1 1 1 1 1 1 1 1 1 1 1 1 1 1 1 1 1 1 1 1 1 1 1 1 1 1 1 1 1 1 1 1 1 1 1 1 1 1 1 1 1 1 1 1 1 1 1 1 1 1 1 1 1 1 1 1 1 1 1 1 1 1 1 1 1 1 1 1 1 1 1 1 1 1 1 0.0091116210025864106 1 0.013288313274003705 1 1 1 0.019448745749462308 1 1 1 1 1 1 1 1 1 1 1 1 1 1 0.0059687197196924766 1 1 1 1 1 0.016658977986990738 0.012994810509006711 0.0016803893218524865 1 1 1 1 1 0.0061365049862942625 0.0070320589118718912 1 1 1 1 0.0080429453161690832 1 1 1 1 1 1 1 1 0.013949859162541441 1 0.021337152689028416 1 1 1 1 1 1 1 1 1 1 1 1 1 1 1 1 1 1 1 1 1 1 1 1 1 1 1 1 1 1 1 1 1 1 1 1 1 1 0.013732908183540136 1 1 1 1 1 1 1 0.010890796898965089 1 1 1 1 1 1 1 1 0.020585982980479582 1 1 1 0.0086015644363120342 1 1 1 1 1 1 1 1 1 1 1 1 1 1 1 1 1 1 1 1 1 1 1 1 1 0.0092586931501097425 1 1 0.0082095688601573416 1 1 1 1 1 1 1 1 1 1 1 1 0.028543740172957778 1 1 1 1 1 0.0094322025053071579 1 1 1 1 0.007234476418161738 1 0.0014466076664243072 1 1 1 0.0053721058438375591 1 1 1 0.0096553339780933167 1 0.0084342907640696588 1 1 0.0056906495482799968 0.022528834953577749 0.02829777759292107 1 1 1 0.0070669700873524019 1 1 0.0074606598049523735 0.01422648076708543 1 1 1 1 1 1 1 1 1 1 1 1 1 1 1 1 0.00084003784770384643 1 1 0.0052173832730052321 1 1 1 1 1 1 1 1 1 0.0064373030949075819 1 1 6.3817874665361707e-09 1 1 0.0099039128201009897 1 1 1 1 1 1 1 1 1 1 1 1 1 1 1 0.010335440991062476 1 1 1 0.0013599441331324791 1 1 1 0.0032409005838000896 1 0.0021460790023340864 1 1 1 1 1 1 1 1 0.0069248080378053606 1 1 1 1 1 1 1 1 1 1 1 1 1 0.0065911035010790472 1 1 1 1 1 1 1 1 0.0015619976547413331 1 1 1 1 1 0.015572789459963661 1 1 1 1 1 1 1 0.007967594079601183 1 0.010469153842524906 1 1 1 1 1 1 1 1 1 1 1 1 1 0.0089621247587352987 1 1 1 1 1 1 1 0.0087399131025414634 1 1 1 1 1 1 1 1 1 1 1 1 1 1 1 1 1 1 1 1 1 1 1 1 1 1 1 1 1 0.013533137722292921 1 1 1 0.01023104744669627 1 7.8504864414741249e-10 0.015337236416232296 1 1 0.0066839063646111641 0.0026009952022011118 1 1 1 1 1 0.0089241071568443922 1 1 1 1 1 1 1 1 1 1 -7.9975512254359948e-09 1 0.0092651520285507646 1 1 1 1 0.012037412854733719 1 1 1 1 1 1 1 1 1 1 0.015011317861898806 1 1 1 1 1 1 1 1 1 1 1 1 -8.9481899112620056e-09 1 1 1 1 0.0086311377888623197 1 1 1 1 1 1 0.0091525151513614147 1 1 1 0.014175105316961416 1 1.0009099625507556e-08 1 1 1 1 0.011248257519949324 1 1 1 1 1 1 1 1 1 1 1 1 1 1 1 1 1 1 1 1 1 1 1 1 1 1 1 1 1 1 1 1 1 1 1 1 1 1 0.0082967715953956231 1 1 1 1 0.0065299760944649357 1 1 1 1 1 1 1 1 1 1 0.0071428992523820227 1 1 1 1 1 1 1 1 1 1 1 1 0.002779541844287154 1 1 1 0.00075114867555822057 1 1 1 1 1 1 1 0.0098148129197266967 1 1 1 1 1 0.0095326738104624872 1 1 1 1 1 1 1 1 1 1 1 1 1 1 1 1 1 1 1 1 1 1 1 1 1 1 1 1 1 1 1 1 1 1 1 1 1 0.0082305347663384834 1 1 1 1 1 1 1 1 1 1 1 1 1 1 1 1 0.013370675754740581 1 1 0.012378368177473537 1 1 1 1 1 1 1 1 1 1 1 1 1 1 1 1 1 1 1 1 1 1 1 1 1 1 1 1 1 1 1 1 1 1 1 1 1 1 1 1 1 1 0.010410735339620093 1 1 1 0.0045486136302418101 1 1 1 1 -1.2577614366682255e-09 1 1 1 0.012713597014970844 1 1 1 1 1 1 1 1 1 1 1 1 1 1 0.003292137773799178 1 1 1 1 0.008125973792625571 0.01208066534137954 1 1 1 1 1 1 1 1 1 0.0066960398901703341 1 0.0060293417180804776 1 1 1 1 1 1 1 1 1 1 1 1 1 1 0.0086266638843065513 1 1 1 1 1 1 1 1 1 1 1 1 1 1 0.0075198493782765597 1 1 1 1 0.0078530250597758228 1 1 1 1 0.022766166411934019 1 1.0747708941577505e-08 1 1 1 0.010883685419535556 1 1 0.005079380788161043 1 1 1 1 0.010231726091739168 1 1 1 1 1 0.015660776964226707 1 1 0.013561250559473916 1 1 1 1 0.01134099748841156 1 1 1 1 1 1 1 0.011279094119080638 1 1 1 1 0.014270094000135562 1 1 0.010491108872162057 1 1 0.0020204734319895362 1 0.01021170195548237 1 1 1 1 0.0062434669187778138 1 1 1 0.010017270284524524 1 1 1 1 1 1 1 0.0031678382959337368 1 1 1 1 1 1 1 1 1 1 1 1 1 1 1 1 1 0.010448589798125442 1 1 1 0.0066134381875514944 1 1 1 1 1 1 1 1 1 1 1 1 1 1 1 1 1 1 1 1 1 1 1 1 1 1 1 1 1 1 1 1 1 1 1 1 1 0.002337775163907119 1 1 1 0.0076924315992736303 1 1 0.0001477086895140204 0.011753425622443005 1 1 1 1 1 1 1 1 1 1 0.0063804209847724488 1 1 1 1 1 1 1 1 1 1 1 1 1 1 1 0.011236507295862987 1 1 1 1 1 1 1 1 1 1 1 1 1 0.0091550674010750441 1 1 1 1 1 0.0088123119630129712 1 1 1 1 0.010971202445426605 1 1 1 1 1 0.013140958174840407 1 1 1 1 1 1 1 1 1 1 0.011904450878977429 1 0.0071206846353706818 1 1 1 1 0.0094515039824277485 1 0.0018386624997604878 1 1 1 1 1 1 0.015775910080973676 0.00089424298603273805 1 1 -5.39567225621429e-09 1 1 1 1 1 1 1 1 0.0061114778962495925 1 1 1 1 1 1 1 1 1 1 1 1 1 1 1 1 0.0067701952163093382 1 0.0084923625447549389 1 1 1 1 1 1 1 1 1 1 1 1 1 1 1 1 1 1 1 1 1 0.008277832671554422 1 1 1 1 1 1 1 1 1 1 1 1 1 1 1 1 1 1 1 1 1 1 1 1 1 1 1 1 1 1 1 1 1 1 0.0072219215863988384 1 1 1 1 1 1 1 1 1 1 0.0090702655376755162 1 1 1 0.011587657911846945 1 0.013466833145550583 1 1 1 1 1 1 1 1 1 1 0.010054019146197045 1 1 0.0099557970834300569 1 1 1 1 1 1 1 1 1 1 1 1 1 1 1 1 1 1 1 1 1 1 1 1 1 1 1 1 1 1 1 1 1 1 1 1 1 1 1 1 1 1 1 1 1 1 1 1 1 1 1 1 1 1 1 1 1 1 1 1 0.0072449211587864229 1 1 1 1 1 1 0.0057143098924025346 0.0076242255323364927 1 1 1 1 1 1 1 1 1 0.0028956407690305802 1 1 1 1 1 1 1 1 1 1 1 1 1 1 1 1 1 1 1 1 1 1 1 1 1 1 1 1 1 1 1 1 1 1 1 1 1 1 1 1 1 1 1 1 1 1 1 1 1 1 1 1 1 1 1 1 1 1 0.005494793908749504 1 0.0063669212934246034 1 1 1 1 1 1 1 1 0.00011506702521916351 1 1 1 1 1 1 1 1 1 0.0043800304094280436 1 1 1 1 1 1 1 0.0080131091160034664 1 1 1 1 1 1 1 1 1 1 1 1 0.0082248521664978515 1 1 0.0057016195115275267 1 1 1 1 1 1 1 1 1 1 1 1 1 1 1 1 1 1 1 1 1 1 1 1 1 1 1 1 1 1 1 1 1 1 1 1 1 1 1 1 1 1 1 1 1 1 1 0.018088719646932018 1 1 1 1 0.0072683729926010555 1 1 0.0096842539489703575 1 1 1 1 1 0.0092996968195216637 1 1 1 1 0.010735175961657413 1 1 1 1 0.01039084767509036 1 1 0.0094848566486557054 1 1 1 0.0083716510363852428 1 1 1 1 1 1 1 1 1 1 1 1 1 1 1 1 1 1 1 1 1 1 1 1 1 1 1 0.010101697832774356 3.5181389641814054e-09 1 0.015142451408137286 1 1 1 0.0099950194005470564 1 1 1 1 1 1 1 1 1 0.011809810566548042 1 0.0041914899599548375 1 1 0.015594280561483086 1 1 0.010788712101409192 1 1 1 1 1 1 1 1 1 1 1 1 1 1 1 1 1 1 1 1 1 1 1 1 1 0.0089865490833707581 1 1 1 1 1 0.0049706336560975811 1 1 1 1 1 1 1 0.017548184453680005 0.00063362806258094109 1 1 1 1.1029912955207166e-09 1 1 1 1 0.0045912214859811229 1 1 1 0.0085557755760829173 1 1 1 1 1 1 1 1 1 0.00078324816448799642 1 1 1 1 1 1 1 1 1 2.388026125801912e-09 1 1 1 0.010076209881828946 1 1 1 1 0.0040573969834322154 1 1 0.010491797418588085 1 1 1 1 1 1 1 0.0094093691728029116 1 1 1 1 1 1 0.0084447174410324718 1 1 1 1 1 1 0.0078691085205772546 1 1 1 1 1 1 1 1 0.0080454051958022479 1 1 1 0.0091614808625843439 1 1 1 1 1 1 1 1 1 1 1 1 1 1 1 1 1 1 1 1 1 1 1 1 1 1 1 1 1 1 1 1 1 1 1 1 1 1 1 1 1 1 1 1 1 1 1 1 1 1 1 1 1 0.010914805389860359 1 1 0.014380980298873018 1 0.0075546734092603596 1 1 0.015473855810046934 1 1 1 1 1 1 1 1 1 0.0089304617267208317 1 1 1 1 1 1 0.010333442198251913 1 1 1 1 1 1 0.0091603149361002834 1 0.007788129553308658 1 1 0.0066527251511391463 1 1 0.013313754025613883 1 1 0.011609708868118726 1 1 1 1 1 1 1 1 1 1 1 1 1 0.0088630567231749897 1 0.0098081925420484273 1 1 0.0095401574641790499 1 1 1 1 1 0.0097315767028032588 1 1 1 1 1 1 1 1 1 1 1 1 1 1 1 0.0085338290900323494 1 1 0.0073968858132073302 1 1 1 1 0.0099836992842266825 1 1 1 1 1 1 1 1 1 0.0092724318229011476 1 1 1 1 1 1 1 1 1 1 0.010387517609877411 1 1 1 1 1 0.010202015977987408 0.0099748280396545277 1 1 1 1 1 1 1 0.010218161308843135 0.011843096661819173 1 1 1 1 1 1 1 1 6.6524528316569409e-09 1 1 0.01693914262666478 1 -2.9229431028343633e-09 1 1 0.014957997280463063 1 1 1 1 1 1 0.0090700398217088418 1 1 1 1 1 1 1 1 1 1 0.0081430130910161505 1 1 1 1 1 1 0.008698613199697447 0.014761046687034651 1 1 1 1 0.013268318617222039 1 1 1 1 1 1 1 1 1 1 1 1 1 1 1 1 1 1 0.010647339085343523 1 1 1 1 0.010199202797384892 1 1 1 1 1 1 1 1 1 1 1 1 1 0.011883594400331175 1 1 1 1 1 1 1 1 0.010026199192874341 1 1 1 0.0099623959688532535 1 1 1 1 1 0.00014236321754976938 1 0.011394635242763962 1 1 1 1 1 1 1 1 1 1 1 1 1 1 0.0061069086790394231 1 1 1 1 1 1 1 1 1 1 0.0070715042882834936 1 1 1 1 1 1 1 0.0042447383618003098 0.010369576118926319 1 1 1 1 1 1 0.0073165518551644246 1 1 1 1 1 1 1 1 1 1 0.0072440661948151019 1 1 1 1 0.0098363713018001647 0.019620568585461254 1 0.0029906906353481255 1 1 1 1 1 1 1 0.010146402506240049 1 0.0066567146490783269 1 1 1 1 1 1 1 1 1 0.0099667519172421809 1 1 1 1 1 1 1 1 1 1 1 1 1 1 1 1 1 1 1 1 1 1 1 1 0.0084693887336160928 1 1 1 1 1 1 1 1 1 1 1 1 1 1 1 1 1 1 1 1 1 1 1 1 1 1 1 1 1 1 1 1 1 1 1 1 1 1 1 1 1 1 1 1 1 1 1 0.012048157960740019 1 1 1 1 0.015481016808553613 1 1 1 1 1 1 1 0.011722578971961477 1 1 0.010130405063667396 1 1 1 1 1 1 1 1 1 1 1 1 1 1 1 0.0097304673213850154 0.010912280898418406 1 1 1 1 1 1 1 1 0.0041639140816733325 1 1 1 1 1 1 1 1 1 1 0.014081436045582076 1 0.0083874923260819217 1 1 1 1 1 1 1 1 1 1 1 1 1 1 1 1 1 1 1 1 1 1 1 1 1 1 1 1 1 1 1 1 1 1 1 1 1 1 1 1 1 1 1 1 1 1 1 1 1 1 1 1 1 1 1 1 1 1 1 1 1 0.0094827293919317046 1 1 0.0087653900334767332 1 1 1 1 1 1 1 1 1 0.010525975558538953 1 1 1 1 1 1 1 1 1 1 1 1 0.01040629848670727 1 1 1 0.010880603859255815 1 1 1 1 1 1 1 1 1 1 1 1 1 1 1 1 1 1 1 1 1 0.0089843434703049032 1 1 1 0.009471371714258851 1 1 1 1 1 1 0.0090714814669754854 0.0078368715004522166 1 1 1 1 1 1 1 1 1 1 1 1 1 1 1 1 1 1 1 1 1 1 1 1 1 1 1 1 1 1 1 1 1 1 1 0.0093700459152273388 1 1 1 1 1 1 1 1 1 1 1 1 1 1 1 1 1 1 1 1 1 1 1 1 0.0093707449926939829 1 1 1 1 1 1 1 1 1 1 1 1 1 0.0078453875218306782 0.0091524695420998024 1 1 1 0.0099769991080847706 0.0074717125067453039 1 1 1 1 1 1 1 1 1 1 1 1 1 0.0063195851206201276 1 1 1 1 0.0067874453091354148 1 1 1 1 1 0.010315100379442261 1 1 1 1 1 1 1 1 0.010293949826179802 1 1 1 0.010249123880504057 1 1 0.010815764711408221 1 1 0.0090498479841589485 1 1 1 0.0047844014963341411 1 1 0.0090393147043275335 1 1 1 1 1 1 0.010145336476556209 1 1 1 1 0.0077466710725507468 1 1 1 1 1 1 1 1 1 1 1 0.0077709036220636463 1 1 1 1 1 1 1 1 1 1 1 1 1 1 1 1 1 1 1 1 1 1 1 1 0.0098957744087952437 1 0.0042131196277293628 0.014069058335748038 1 1 1 0.014826642826206471 1 1 1 1 0.0039853461758446868 1 1 1 1 1 1 1 1 0.01517370264458192 1 1 1 0.010689630981671402 1 1 1 1 1 1 1 1 1 1 1 1 1 1 1 1 1 1 1 1 0.010090256722628067 1 1 1 1 1 1 1 1 1 1 1 1 0.012736765964997164 1 1 1 1 1 1 0.012115211256861998 1 0.010384196296696669 1.4540458420642111e-09 1 1 1 1 1 1 1 1 1 1 0.011642892920034106 1 1 1 1 0.023143507705511754 1 1 1 0.027752577552654801 1 1 0.030906704369982888 1 1 1 1 1 1 1 1 1 1 0.010026046277928954 1 0.010045407289455403 1 1 1 0.022260549489786903 1 0.015506855084902281 1 1 1 1 0.010311262369898409 0.0099730107167925741 0.006697308716311301 1 1 1 1 1 1 0.00043835034888592417 1 1 1 1 1 1 1 0.011737105317023766 1 1 1 1 1 1 1 1 1 1 1 1 1 1 0.01015939475642549 1 0.006302847723882149 1 1 1 1 1 1 0.01982608368508898 1 1 1 1 0.010015781327482411 1 1 0.010212833368295472 1 1 1 0.02068261940071546 1 0.021623010695919563 1 1 0.0017902431847373612 1 1 1 1 1 0.028474258541612771 1 0.025200254583733775 1 1 1 1 1 1 1 1 1 1 0.0096312297524490109 1 0.01335975977756234 1 1 1 1 1 0.019097949537814712 0.014738513386401178 1 0.0014806209845516782 1 1 1 0.022251010704082287 0.0083535795656057843 0.013691594986545208 0.02386140817762893 1 1 1 0.017998017207138749 1 0.019499398064092621 1 0.0049606098968279083 0.010088884910521477 1 1 1 0.0021212571061687557 1 1 1 0.013046627514561619 -1.1760287535467207e-09 1 0.010874767683371769 1 1 0.0099487993172193145 1 1 1 1 1 1 1 1 1 1 1 1 1 1 1 1 1 1 1 1 1 0.0088722391957638189 1 1 1 1 0.0022687252430648938 1 0.0031810822858913054 1 0.0099584946513970249 1 1 1 1 1 0.009871755923818594 0.0099890702514683211 1 0.019957358974117788 1 1 0.0064620976267633148 1 1 1 1 1 0.014296694871782409 1 1 0.015860156863792652 1 1 1 0.0047764143488066221 0.019125848227168112 1 1 1 0.011531913701973387 1 0.020126968071693112 0.014714545529989369 1 1 0.012741782804867268 1 0.010471599224410995 1 1 0.010154854019597676 1 0.0098439707442568927 1 1 1 1 1 1 0.004927361140253772 1 1 1 0.01001796757871927 1 1 1 1 1 1 1 1 1 1 1 1 1 1 1 1 1 1 1 1 1 1 1 1 1 1 1 1 0.0090747415463847663 1 1 1 0.010051670185990381 1 0.0066614138846403798 1 1 0.0034283502221195243 1 1 1 1 1 1 1 1 1 1 1.3476353430755261e-08 1 1 1 1 1 1 1 1 1 1 1 1 1 1 0.009945192770596363 0.0081006321745128104 1 1 1 1 1 0.0099217404578372387 0.011778391201599618 1 1 0.008041154843665306 0.0099882909976760845 1 1 1 1 1 1 1 1 1 1 1 1 1 1 1 1 1 1 1 0.0075618330648419465 1 1 1 1 1 1 1 1 0.0073110491845564188 1 1 1 1 1 1 1 1 1 1 1 0.0087701936488368756 0.0070969025893879711 1 1 1 1 1 1 1 1 1 1 1 1 1 1 1 1 1 1 1 1 1 1 1 1 1 1 1 1 1 1 1 1 1 0.010142657119184894 1 1 0.010210298444344373 1 1 1 1 1 1 1 1 1 1 1 1 1 1 1 1 1 1 1 1 1 1 1 1 1 1 1 1 1 1 1 1 1 1 1 0.010543627238871804 1 1 1 1 1 1 1 1 1 1 0.011678812273000633 1 1 1 1 1 1 1 0.017244106858829357 1 1 1 1 1 1 1 1 1 1 1 1 1 1 1 1 1 1 1 1 1 1 1 1 1 1 1 1 1 1 1 1 1 1 1 1 1 1 1 0.010044362390310761 1 1 1 1 0.010305622277212186 1 1 1 1 1 1 1 1 1 1 1 1 1 0.0088669188683411226 1 1 1 1 1 1 0.0034901908566927764 1 1 0.0098932536831184328 0.011070158418709286 1 1 0.036846755184423846 0.024675150930468119 1 1 1 1 0.016358826831845287 0.026459260892062037 1 1 1 1 0.0076966100978420899 0.0097369451831428831 1 1 1 1 1 1 1 0.036026257778497293 1 1 1 1 1 1 1 1 1 0.006417008214440037 1 1 1 0.010318211552956816 1 0.011060586217434561 1 0.011419906370423311 1 1 0.010830382038394135 1 1 0.025014759822070184 1 1 1 1 0.023697621206165975 1 1 1 1 1 1 1 1 0.010428785582412191 1 1 1 1 1 1 0.020784873732112158 1 1 1 1 1 1 1 1 1 1 1 0.016614338526622231 1 1 1 1 1 1 1 1 1 1 1 1 1 1 0.0087427288805166578 1 1 1 1 1 1 0.013988556430741929 1 1 0.011253283142315587 1 1 1 1 1 1 1 1 1 1 1 1 1 1 1 1 1 1 0.028409782254052461 1 1 1 1 1 1 1 0.0097165918006249727 1 1 1 1 1 1 1 1 1 1 0.0097948617775723765 1 1 1 0.011652830114895265 1 1 0.0094686734094063807 1 0.010687792325739786 1 1 1 1 0.0096915710736903138 0.014952305900529608 1 1 1 1 1 0.0027681995436600465 0.020373099750382193 1 0.0098595941225557079 0.0097202195175651665 1 0.014217925202184137 0.010314344288046597 1 1 1 0.0093256025175516982 1 1 1 1 1 1 0.0094295170517745205 1 1 0.010996933666200501 0.0096397592119148532 1 1 1 1 1 1 1 1 1 1 0.025339906252227366 0.006946756242112273 1 1 1 0.022015501135848145 1 1 1 0.018454918776334074 1 1 1 1 1 1 1 1 1 1 1 1 1 1 1 1 1 1 0.0099765761634495811 1 1 0.018430405555292306 1 1 0.0059359137088235148 0.013340641005263153 1 1 1 0.010645895506045442 1 1 1 1 0.008889906109850125 1 1 1 1 1 1 1 1 1 0.031757037063757071 1 1 0.030267948483179655 1 1 1 1 1 1 1 1 1 0.028332801404830361 0.0017948600800774192 1 1 1 1 1 1 0.001666795023643787 1 1 0.0019508680950188623 1 1 1 1 1 1 1 1 1 1 1 0.0098695579603518616 1 1 1 1 1 1 0.0095861497609768462 1 1 1 1 1 1 1 1 0.0086980896661851409 1 0.010262722291711386 1 1 1 1 0.010663613978296169 0.0062185942389589507 1 1 0.014589707300106156 1 1 1 1 1 1 1 1 1 1 1 1 1 1 1 1 1 1 1 1 0.013037355922682341 1 0.01108793594581426 1 1 1 1 1 1 1 0.031929919186309955 1 1 1 1 1 1 1 1 1 1 1 1 1 1 1 1 1 1 1 1 0.0072330565987977213 0.0076374323890861656 1 1 1 1 1 1 1 0.012177846411630194 1 1 0.0071807529998668997 1 0.021374077589132415 1 1 0.0094927313922066256 0.010282846560461925 1 1 1 1 0.010107446437712726 1 1 0.010291884943772325 1 1 1 1 0.010233063777086007 1 0.0074275438416398429 1 1 1 1 1 1 1 1 1 1 1 1 1 1 1 1 1 0.0044110942934421013 1 1 1 0.010288142715066194 1 1 1 0.010756649952311348 1 0.0037333153832031854 0.0053484829118825919 1 1 1 1 0.012746317157394035 1 1 1 0.010767148840335361 1 0.010506683574724604 0.010089491359788198 0.009825570417009509 1 1 1 1 1 0.010995955056034422 1 1 1 1 1 1 1 1 1 1 1 1 5.4328553126724299e-05 1 1 1 1 -2.268104246083702e-09 1 1 1 1 1 1 1 1 1 1 1 1 1 1 1 1 1 0.031022958193572647 1 1 1 1 1 1 1 1 0.0083276983417772954 1 0.011736017062426295 1 1 1 1 1 0.010330607965454488 1 1 1 1 0.029347632287114796 1 0.021497818891391129 1 0.013532347561539461 1 0.0089412392705698618 1 1 -1.2192287526802126e-09 1 1 1 1 1 1 1 1 1 1 1 1 1 1 1 1 1 1 0.0096440528032226483 1 1 1 1 1 1 1 0.010058958231341876 1 1 1 1 1 0.0022079668688964604 0.022839161844372954 1 1 1 1 1 1 1 1 1 1 1 1 1 1 1 1 0.006150268996948989 1 1 1 1 1 1 1 1 -1.7175733994789777e-09 1 1 0.009956259363309003 1 1 1 1 1 1 1 1 0.0095349891633238707 1 1 1 0.009793897605928881 1 1 1 1 0.0084910732181456543 1 1 1 1 1 1 1 1 1 1 1 1 1 1 1 1 1 1 1 1 0.0095212322627995401 1 1 1 1 1 1 1 0.0097410915573949933 1 1 1 1 1 0.012191764095629536 1 1 1 1 1 1 1 1 1 1 1 1 1 1 1 1 1 1 1 1 1 1 1 1 1 1 0.010012271707501408 1 1 -5.5789876919620784e-09 0.016455941002115209 1 1 0.034672851695242701 1 1 1 1 0.024750073067728591 1 1 1 1 1 1 1 1 0.0030875785685958099 0.0012103269529040381 1 1 1 1 1 0.0098840572973491816 1 1 1 0.019947265797104832 1 1 0.0060552919290521616 1 1.755542884673833e-09 1 1 1 1 1 0.0039776027880539591 1 0.0088925447143914128 1 1 1 1 1 1 1 1 1 1 1 1 1 1 1 1 1 1 1 1 1 1 0.010412717048175235 1 1 1 1 1 0.009615475292715607 1 1 1 1 0.0079940925148420088 1 1 1 1 1 1 1 1 1 0.0096226828038392179 1 1 1 1 0.0069135336188933701 0.0075859957443444176 1 1 1 1 1 1 1 0.0072986734415699944 0.0054224842242271559 1 1 1 1 1 0.0098134119364488397 0.0034447607113637074 0.0075245578400577554 1 0.010860351258201921 1 1 0.012488518619900054 1 1 1 0.01004822246692196 1 1 0.0095352529895878658 1 1 1 0.0066164003366305391 1 1 1 1 0.021854608921165735 1 1 0.002725322847091826 1 1 1 1 1 1 0.010847513326110812 1 1 1 0.0095707151876783594 1 1 1 1 1 1 1 1 1 1 1 0.0088774367436625541 1 1 1 1 1 1 1 1 1 1 1 1 1 1 1 1 1 1 1 1 1 1 1 1 1 1 0.01283582821838641 0.010795694389306821 1 1 1 0.0098706621622223923 1 0.0053122019624019107 1 1 1 1 1 1 1 0.0009946043533891006 1 1 1 1 1 1 1 1 1 1 1 1 1 1 1 1 1 1 0.0099443297820170761 1.5407083560348145e-09 1 0.010679457061961719 1 1 1 1 1 0.011592583075267459 1 1 0.0068989289380673915 1 1 1 1 1 1 1 1 1 0.010817247255207297 1 1 1 1 1 1 1 0.0090874423053218072 1 1 0.0098866667146081978 1 0.0075588722519651236 1 1 1 0.0094163660933125545 1 1 0.0042140977371441235 1 1 1 1 1 1 1 0.0081464915880954808 1 1 1 1 0.0058936018165128591 1 1 1 1 0.010873258839012412 1 1 0.0098914294657954441 1 1 1 1 1 1 1 1 1 0.023509539459838663 1 1 1 0.016071295840566491 1 1 1 1 1 1 1 -7.7368793299087413e-09 0.0099848377200654152 1 0.017881231055129954 1 1 1 1 1 1 1 1 1 1 1 0.012518292133738408 1 1 1 1 1 1 0.0085298902631337718 1 1 1 1 1 1 1.528679585693915e-09 1 1 1 1 1 1 1 1 1 1 1 1 1 1 1 1 1 1 1 1 1 1 1 1 1 1 1 1 0.004924267770631572 1 1 1 1 0.0082470192313436573 1 1 1 1 1 0.007137709531735939 1 1 1 1 1 1 1 0.014667262496557846 1 1 1 1 1 1 1 1 1 1 1 1 1 1 1 0.0098165970035596316 1 1 0.019843679971283716 1 1 1 0.001209129067818501 1 1 0.0098731187197027021 1 0.025249953369348672 1 1 1 1 1 0.0096066181915510432 1 1 1 1 0.010021848669830639 1 1 0.010131849975803183 0.029754047048392837 1 1 0.016907959613037059 0.012450412338712896 0.011420799026604797 1 1 1 1 0.01554642670865552 1 0.026695200376331395 0.0098750412863743836 1 0.022288270096803606 1 1 1 1 1 1 1 1 1 1 1.183070002380715e-08 1 1 1 1 1 1 1 1 0.0094070620668795825 0.0093799548653195897 1 0.0084196964568195899 1 1 1 1 0.0099282201116569265 1 1 0.019606190421701222 1 1 1 1 0.019208456612758731 1 0.011525405970453291 1 1 -2.1327133600812509e-09 1 1 1 1 1 1 0.0088283117899604757 1 1 1 0.0072643326012700668 0.0088024216021666477 1 1 1 1 1 1 1 1 1 1 1 1 1 1 1 1 1 0.0046731755642988662 1 3.8757974885061941e-09 1 1 1 1 1 1 1 1 1 1 1 1 1 1 1 0.011372899298328333 1 1 0.010368989816541774 1 1 1 1 1 1 1 1 0.0065952892310695219 0.020980314950031137 1 1 1 1 1 1 1 1 1 1 1 1 1 1 1 1 1 1 0.00990470787145252 1 0.013734671940393468 1 1 1 1 0.010248590392582635 1 0.013568456882381487 1 1 1 1 1 1 1 1 1 0.010882108520148558 1 1 1 1 1 1 1 1 1 1 1 1 1 0.01232615998401243 1 0.0065888530814055771 1 -7.3814549611528335e-10 1 0.010684192910817115 1 1 1 1 1 0.0089766681861349271 1 1 1 1 1 1 0.0077090560905776415 1 1 1 1 1 1 1 1 0.0080934821066535254 0.015094081282186235 1 1 1 0.010079980203001659 1 1 1 1 1 0.028340679502411127 1 1 1 0.0084813460551677253 1 1 1 1 0.021482341323847465 1 1 1 1 1 1 1 1 1 1 1 1 1 1 1 1 1 1 1 1 1 1 1 1 1 1 1 0.0088461272359359883 1 1 1 0.0099368098200528776 1 1 1 0.0070875047688643486 1 1 1 1 1 1 0.0060797566747980911 1 1 1 1 1 1 1 1 0.021407182604787578 1 1 1 1 1 1 0.015482218531393749 1 1 0.0083889231348562507 1 1 1 1 1 1 1 1 0.0094915093509731277 1 0.0054127484038202639 0.0023436367274197248 1 1 1 1 1 1 1 1 1 1 1 1 1 1 1 1 1 1 1 1 1 1 1 1 1 0.010039087669127544 1 1 1 0.0067105979470189411 1.5370248476753723e-09 1 1 1 1 0.0077996570876811416 1 0.0031229140418557871 0.0081149472139147791 1 1 0.029564749411962458 0.012287421970174491 
</DataArray>
</CellData>
</Piece>
</UnstructuredGrid>
</VTKFile>
