<?xml version="1.0"?>
<VTKFile type="UnstructuredGrid" version="0.1" byte_order="LittleEndian">
<UnstructuredGrid>
<Piece NumberOfPoints="31460" NumberOfCells="11032">
<Points>
<DataArray type="Float64" NumberOfComponents="3" format="ascii">
-0.5 -0.5 0 -0.45826379443595727 -0.49240595043268048 0 -0.46642144748582659 -0.46827107884399732 0 -0.5 -0.5 0 -0.45826379443595727 -0.49240595043268048 0 -0.45848359805609501 -0.5 0 -0.5 -0.5 0 -0.46642144748582659 -0.46827107884399732 0 -0.47457910053569591 -0.44413620725531422 0 -0.5 -0.5 0 -0.47457910053569591 -0.44413620725531422 0 -0.5 -0.41751269325046653 0 -0.45826379443595727 -0.49240595043268048 0 -0.45848359805609501 -0.5 0 -0.42679110151757371 -0.48004619837947488 0 -0.45826379443595727 -0.49240595043268048 0 -0.44201261089570698 -0.4714523331548211 0 -0.42679110151757371 -0.48004619837947488 0 -0.45826379443595727 -0.49240595043268048 0 -0.46642144748582659 -0.46827107884399732 0 -0.45826379443595727 -0.49240595043268048 0 -0.44201261089570698 -0.4714523331548211 0 -0.46642144748582659 -0.46827107884399732 0 -0.44240823633296938 -0.45229162232937098 0 -0.45670593271524501 -0.43994674796861938 0 -0.44031796922511218 -0.42850724856467381 0 -0.44201261089570698 -0.4714523331548211 0 -0.44240823633296938 -0.45229162232937098 0 -0.46642144748582659 -0.46827107884399732 0 -0.44240823633296938 -0.45229162232937098 0 -0.46642144748582659 -0.46827107884399732 0 -0.45670593271524501 -0.43994674796861938 0 -0.46642144748582659 -0.46827107884399732 0 -0.45670593271524501 -0.43994674796861938 0 -0.47457910053569591 -0.44413620725531422 0 -0.46642144748582659 -0.46827107884399732 0 -0.47457910053569591 -0.44413620725531422 0 -0.47457910053569591 -0.44413620725531422 0 -0.5 -0.41751269325046653 0 -0.48273675358556511 -0.42000133566663111 0 -0.5 -0.41751269325046653 0 -0.48273675358556511 -0.42000133566663111 0 -0.49089440663543438 -0.39586646407794801 0 -0.48273675358556511 -0.42000133566663111 0 -0.49089440663543438 -0.39586646407794801 0 -0.48273675358556511 -0.42000133566663111 0 -0.47239969127523262 -0.40464396238003442 0 -0.46060228419306642 -0.42088664922356989 0 -0.48273675358556511 -0.42000133566663111 0 -0.49089440663543438 -0.39586646407794801 0 -0.47239969127523262 -0.40464396238003442 0 -0.47457910053569591 -0.44413620725531422 0 -0.48273675358556511 -0.42000133566663111 0 -0.46060228419306642 -0.42088664922356989 0 -0.47457910053569591 -0.44413620725531422 0 -0.48273675358556511 -0.42000133566663111 0 -0.5 -0.41751269325046653 0 -0.49089440663543438 -0.39586646407794801 0 -0.5 -0.35718982066189531 0 -0.49089440663543438 -0.39586646407794801 0 -0.47239969127523262 -0.40464396238003442 0 -0.47015997070342119 -0.38996932702083759 0 -0.49089440663543438 -0.39586646407794801 0 -0.47015997070342119 -0.38996932702083759 0 -0.47429781889144779 -0.36869290898349849 0 -0.47015997070342119 -0.38996932702083759 0 -0.45406055381680549 -0.3790110336362707 0 -0.47429781889144779 -0.36869290898349849 0 -0.47015997070342119 -0.38996932702083759 0 -0.45406055381680549 -0.3790110336362707 0 -0.45692306129662602 -0.39916895556881221 0 -0.47239969127523262 -0.40464396238003442 0 -0.47015997070342119 -0.38996932702083759 0 -0.45692306129662602 -0.39916895556881221 0 -0.45406055381680549 -0.3790110336362707 0 -0.45692306129662602 -0.39916895556881221 0 -0.44355292439190502 -0.39507389339917143 0 -0.45692306129662602 -0.39916895556881221 0 -0.44355292439190502 -0.39507389339917143 0 -0.44688333252642382 -0.41058587036408029 0 -0.44355292439190502 -0.39507389339917143 0 -0.44688333252642382 -0.41058587036408029 0 -0.43210225647489492 -0.40762766561943192 0 -0.45406055381680549 -0.3790110336362707 0 -0.44355292439190502 -0.39507389339917143 0 -0.44065104410712241 -0.3826525541742411 0 -0.44355292439190502 -0.39507389339917143 0 -0.44065104410712241 -0.3826525541742411 0 -0.43069729812955759 -0.39139728103219218 0 -0.45670593271524501 -0.43994674796861938 0 -0.47457910053569591 -0.44413620725531422 0 -0.46060228419306642 -0.42088664922356989 0 -0.47239969127523262 -0.40464396238003442 0 -0.45692306129662602 -0.39916895556881221 0 -0.46060228419306642 -0.42088664922356989 0 -0.45692306129662602 -0.39916895556881221 0 -0.46060228419306642 -0.42088664922356989 0 -0.44688333252642382 -0.41058587036408029 0 -0.46060228419306642 -0.42088664922356989 0 -0.44688333252642382 -0.41058587036408029 0 -0.44031796922511218 -0.42850724856467381 0 -0.44688333252642382 -0.41058587036408029 0 -0.44031796922511218 -0.42850724856467381 0 -0.43210225647489492 -0.40762766561943192 0 -0.45670593271524501 -0.43994674796861938 0 -0.46060228419306642 -0.42088664922356989 0 -0.44031796922511218 -0.42850724856467381 0 -0.44031796922511218 -0.42850724856467381 0 -0.42101849629073163 -0.4240660635467729 0 -0.42333571139453008 -0.44444857464324627 0 -0.43210225647489492 -0.40762766561943192 0 -0.42101849629073163 -0.4240660635467729 0 -0.41813940108592951 -0.4002994084223529 0 -0.44031796922511218 -0.42850724856467381 0 -0.43210225647489492 -0.40762766561943192 0 -0.42101849629073163 -0.4240660635467729 0 -0.40688855083469172 -0.41211063442899998 0 -0.42101849629073163 -0.4240660635467729 0 -0.41813940108592951 -0.4002994084223529 0 -0.40688855083469172 -0.41211063442899998 0 -0.42101849629073163 -0.4240660635467729 0 -0.4016048111967645 -0.43978488499474971 0 -0.42101849629073163 -0.4240660635467729 0 -0.4016048111967645 -0.43978488499474971 0 -0.42333571139453008 -0.44444857464324627 0 -0.43069932187709958 -0.37879002033441939 0 -0.42063656841534353 -0.38461657006784372 0 -0.42385265753588541 -0.3725179346807968 0 -0.44065104410712241 -0.3826525541742411 0 -0.43069932187709958 -0.37879002033441939 0 -0.43069729812955759 -0.39139728103219218 0 -0.43069932187709958 -0.37879002033441939 0 -0.43069729812955759 -0.39139728103219218 0 -0.42063656841534353 -0.38461657006784372 0 -0.43069729812955759 -0.39139728103219218 0 -0.41813940108592951 -0.4002994084223529 0 -0.42063656841534353 -0.38461657006784372 0 -0.43210225647489492 -0.40762766561943192 0 -0.43069729812955759 -0.39139728103219218 0 -0.41813940108592951 -0.4002994084223529 0 -0.44355292439190502 -0.39507389339917143 0 -0.43210225647489492 -0.40762766561943192 0 -0.43069729812955759 -0.39139728103219218 0 -0.40688855083469172 -0.41211063442899998 0 -0.41813940108592951 -0.4002994084223529 0 -0.41217229047262077 -0.38443638386325091 0 -0.40688855083469172 -0.41211063442899998 0 -0.41217229047262077 -0.38443638386325091 0 -0.41813940108592951 -0.4002994084223529 0 -0.42063656841534353 -0.38461657006784372 0 -0.41217229047262077 -0.38443638386325091 0 -0.42063656841534353 -0.38461657006784372 0 -0.41217229047262077 -0.38443638386325091 0 -0.42063656841534353 -0.38461657006784372 0 -0.41217229047262077 -0.38443638386325091 0 -0.42385265753588541 -0.3725179346807968 0 -0.41217229047262077 -0.38443638386325091 0 -0.39638845942390522 -0.39754947296885251 0 -0.39027020230279269 -0.38397013568871091 0 -0.41217229047262077 -0.38443638386325091 0 -0.39027020230279269 -0.38397013568871091 0 -0.39866833408116109 -0.359484049848948 0 -0.41217229047262077 -0.38443638386325091 0 -0.39027020230279269 -0.38397013568871091 0 -0.40688855083469172 -0.41211063442899998 0 -0.41217229047262077 -0.38443638386325091 0 -0.39638845942390522 -0.39754947296885251 0 -0.40688855083469172 -0.41211063442899998 0 -0.39638845942390522 -0.39754947296885251 0 -0.39207740415033382 -0.40817179700541478 0 -0.39638845942390522 -0.39754947296885251 0 -0.38053384935908718 -0.39905841385788582 0 -0.39027020230279269 -0.38397013568871091 0 -0.39638845942390522 -0.39754947296885251 0 -0.38053384935908718 -0.39905841385788582 0 -0.39207740415033382 -0.40817179700541478 0 -0.38053384935908718 -0.39905841385788582 0 -0.38076443343398969 -0.4131052076953004 0 -0.37129162846163649 -0.40646668987925128 0 -0.38053384935908718 -0.39905841385788582 0 -0.39027020230279269 -0.38397013568871091 0 -0.36836811413296489 -0.38350388751415809 0 -0.39027020230279269 -0.38397013568871091 0 -0.37276014916928413 -0.36968874551325409 0 -0.36836811413296489 -0.38350388751415809 0 -0.39027020230279269 -0.38397013568871091 0 -0.36836811413296489 -0.38350388751415809 0 -0.39119617914405191 -0.42217665770588209 0 -0.38893306401390532 -0.43437150840034638 0 -0.4016048111967645 -0.43978488499474971 0 -0.40688855083469172 -0.41211063442899998 0 -0.39119617914405191 -0.42217665770588209 0 -0.4016048111967645 -0.43978488499474971 0 -0.40688855083469172 -0.41211063442899998 0 -0.4016048111967645 -0.43978488499474971 0 -0.40688855083469172 -0.41211063442899998 0 -0.39119617914405191 -0.42217665770588209 0 -0.39207740415033382 -0.40817179700541478 0 -0.39119617914405191 -0.42217665770588209 0 -0.39207740415033382 -0.40817179700541478 0 -0.38076443343398969 -0.4131052076953004 0 -0.39119617914405191 -0.42217665770588209 0 -0.38076443343398969 -0.4131052076953004 0 -0.37754063201758509 -0.42531469454045251 0 -0.38053384935908718 -0.39905841385788582 0 -0.39207740415033382 -0.40817179700541478 0 -0.38076443343398969 -0.4131052076953004 0 -0.38076443343398969 -0.4131052076953004 0 -0.37754063201758509 -0.42531469454045251 0 -0.36883198683104568 -0.41905626867772777 0 -0.37754063201758509 -0.42531469454045251 0 -0.38893306401390532 -0.43437150840034638 0 -0.38539063369721949 -0.45020979636030162 0 -0.39119617914405191 -0.42217665770588209 0 -0.37754063201758509 -0.42531469454045251 0 -0.38893306401390532 -0.43437150840034638 0 -0.37754063201758509 -0.42531469454045251 0 -0.38539063369721949 -0.45020979636030162 0 -0.37754063201758509 -0.42531469454045251 0 -0.38539063369721949 -0.45020979636030162 0 -0.3683365684192384 -0.44086890113562249 0 -0.38893306401390532 -0.43437150840034638 0 -0.38539063369721949 -0.45020979636030162 0 -0.4016048111967645 -0.43978488499474971 0 -0.38539063369721949 -0.45020979636030162 0 -0.4016048111967645 -0.43978488499474971 0 -0.40699761504363058 -0.45864100006030317 0 -0.38539063369721949 -0.45020979636030162 0 -0.39324063537685378 -0.47510489818015061 0 -0.40699761504363058 -0.45864100006030317 0 -0.38539063369721949 -0.45020979636030162 0 -0.39324063537685378 -0.47510489818015061 0 -0.38539063369721949 -0.45020979636030162 0 -0.38336291168111958 -0.46720898787430287 0 -0.39324063537685378 -0.47510489818015061 0 -0.38539063369721949 -0.45020979636030162 0 -0.38336291168111958 -0.46720898787430287 0 -0.37637167717206421 -0.46315756360206228 0 -0.38539063369721949 -0.45020979636030162 0 -0.37637167717206421 -0.46315756360206228 0 -0.37087628372248771 -0.45312649174698061 0 -0.38336291168111958 -0.46720898787430287 0 -0.37637167717206421 -0.46315756360206228 0 -0.37844870047834112 -0.48036369335469709 0 -0.38336291168111958 -0.46720898787430287 0 -0.37844870047834112 -0.48036369335469709 0 -0.39324063537685378 -0.47510489818015061 0 -0.37844870047834112 -0.48036369335469709 0 -0.39487403845899272 -0.50000000000000244 0 -0.37844870047834112 -0.48036369335469709 0 -0.37537080740044071 -0.48717709628316791 0 -0.39487403845899272 -0.50000000000000244 0 -0.37844870047834112 -0.48036369335469709 0 -0.39487403845899272 -0.50000000000000244 0 -0.39324063537685378 -0.47510489818015061 0 -0.37537080740044071 -0.48717709628316791 0 -0.39487403845899272 -0.50000000000000244 0 -0.36812109369960322 -0.5 0 -0.40109063705648801 -0.49999999999999961 0 -0.39324063537685378 -0.47510489818015061 0 -0.40109063705648801 -0.49999999999999961 0 -0.39487403845899272 -0.50000000000000244 0 -0.39324063537685378 -0.47510489818015061 0 -0.39324063537685378 -0.47510489818015061 0 -0.42679110151757371 -0.48004619837947488 0 -0.40699761504363058 -0.45864100006030317 0 -0.45848359805609501 -0.5 0 -0.40109063705648801 -0.49999999999999961 0 -0.42679110151757371 -0.48004619837947488 0 -0.40109063705648801 -0.49999999999999961 0 -0.39324063537685378 -0.47510489818015061 0 -0.42679110151757371 -0.48004619837947488 0 -0.44201261089570698 -0.4714523331548211 0 -0.42679110151757371 -0.48004619837947488 0 -0.42744881975828442 -0.46271920682836909 0 -0.44240823633296938 -0.45229162232937098 0 -0.42744881975828442 -0.46271920682836909 0 -0.42333571139453008 -0.44444857464324627 0 -0.44201261089570698 -0.4714523331548211 0 -0.44240823633296938 -0.45229162232937098 0 -0.42744881975828442 -0.46271920682836909 0 -0.44240823633296938 -0.45229162232937098 0 -0.44031796922511218 -0.42850724856467381 0 -0.42333571139453008 -0.44444857464324627 0 -0.4016048111967645 -0.43978488499474971 0 -0.42333571139453008 -0.44444857464324627 0 -0.40699761504363058 -0.45864100006030317 0 -0.42744881975828442 -0.46271920682836909 0 -0.42333571139453008 -0.44444857464324627 0 -0.40699761504363058 -0.45864100006030317 0 -0.42679110151757371 -0.48004619837947488 0 -0.42744881975828442 -0.46271920682836909 0 -0.40699761504363058 -0.45864100006030317 0 -0.43751304390905338 -0.25171100218643983 0 -0.44771011525143523 -0.26331328177383351 0 -0.45396786575014159 -0.2499289980016984 0 -0.43751304390905338 -0.25171100218643983 0 -0.44771011525143523 -0.26331328177383351 0 -0.43282870856519212 -0.27624579741167782 0 -0.44771011525143523 -0.26331328177383351 0 -0.44809741479406079 -0.27565526137140328 0 -0.43282870856519212 -0.27624579741167782 0 -0.44809741479406079 -0.27565526137140328 0 -0.44323332439988511 -0.28453985644780522 0 -0.43282870856519212 -0.27624579741167782 0 -0.44771011525143523 -0.26331328177383351 0 -0.44809741479406079 -0.27565526137140328 0 -0.46155187019882182 -0.26328341004398592 0 -0.46155187019882182 -0.26328341004398592 0 -0.47458862007145769 -0.26578738142994912 0 -0.4651829419705773 -0.29048702479280047 0 -0.46155187019882182 -0.26328341004398592 0 -0.45286721903501681 -0.29102299125273329 0 -0.44809741479406079 -0.27565526137140328 0 -0.46155187019882182 -0.26328341004398592 0 -0.45286721903501681 -0.29102299125273329 0 -0.44771011525143523 -0.26331328177383351 0 -0.46155187019882182 -0.26328341004398592 0 -0.45396786575014159 -0.2499289980016984 0 -0.48688722546503621 -0.2588449470791625 0 -0.47458862007145769 -0.26578738142994912 0 -0.48399429817233702 -0.2410877380670973 0 -0.47244310207800461 -0.25075377537078691 0 -0.47458862007145769 -0.26578738142994912 0 -0.48399429817233702 -0.2410877380670973 0 -0.47458862007145769 -0.26578738142994912 0 -0.48399429817233702 -0.2410877380670973 0 -0.46155187019882182 -0.26328341004398592 0 -0.47244310207800461 -0.25075377537078691 0 -0.47458862007145769 -0.26578738142994912 0 -0.48688722546503621 -0.2588449470791625 0 -0.48881346330435732 -0.26982504242244298 0 -0.47458862007145769 -0.26578738142994912 0 -0.48688722546503621 -0.2588449470791625 0 -0.5 -0.25803309959502541 0 -0.48399429817233702 -0.2410877380670973 0 -0.48688722546503621 -0.2588449470791625 0 -0.5 -0.25803309959502541 0 -0.48881346330435732 -0.26982504242244298 0 -0.50000000000000266 -0.28081084774111859 0 -0.48881346330435732 -0.26982504242244298 0 -0.48259147098528982 -0.28564893626695892 0 -0.5 -0.25803309959502541 0 -0.50000000000000266 -0.28081084774111859 0 -0.48881346330435732 -0.26982504242244298 0 -0.47458862007145769 -0.26578738142994912 0 -0.4651829419705773 -0.29048702479280047 0 -0.47458862007145769 -0.26578738142994912 0 -0.48259147098528982 -0.28564893626695892 0 -0.4651829419705773 -0.29048702479280047 0 -0.48881346330435732 -0.26982504242244298 0 -0.47458862007145769 -0.26578738142994912 0 -0.48259147098528982 -0.28564893626695892 0 -0.48259147098528982 -0.28564893626695892 0 -0.4793545387805751 -0.3105517803018949 0 -0.4651829419705773 -0.29048702479280047 0 -0.48259147098528982 -0.28564893626695892 0 -0.4651829419705773 -0.29048702479280047 0 -0.50000000000000266 -0.28081084774111859 0 -0.48259147098528982 -0.28564893626695892 0 -0.4793545387805751 -0.3105517803018949 0 -0.50000000000000266 -0.28081084774111859 0 -0.48259147098528982 -0.28564893626695892 0 -0.4651829419705773 -0.29048702479280047 0 -0.44666365759595422 -0.29563380871485728 0 -0.45600830837958201 -0.3145799371008749 0 -0.4651829419705773 -0.29048702479280047 0 -0.45600830837958201 -0.3145799371008749 0 -0.4793545387805751 -0.3105517803018949 0 -0.4651829419705773 -0.29048702479280047 0 -0.45600830837958201 -0.3145799371008749 0 -0.4651829419705773 -0.29048702479280047 0 -0.45286721903501681 -0.29102299125273329 0 -0.44666365759595422 -0.29563380871485728 0 -0.4651829419705773 -0.29048702479280047 0 -0.44666365759595422 -0.29563380871485728 0 -0.46155187019882182 -0.26328341004398592 0 -0.4651829419705773 -0.29048702479280047 0 -0.45286721903501681 -0.29102299125273329 0 -0.45286721903501681 -0.29102299125273329 0 -0.44666365759595422 -0.29563380871485728 0 -0.44323332439988511 -0.28453985644780522 0 -0.44666365759595422 -0.29563380871485728 0 -0.44323332439988511 -0.28453985644780522 0 -0.42814437322133159 -0.30078059263691592 0 -0.44809741479406079 -0.27565526137140328 0 -0.45286721903501681 -0.29102299125273329 0 -0.44323332439988511 -0.28453985644780522 0 -0.44666365759595422 -0.29563380871485728 0 -0.44214438417120699 -0.30703735509006341 0 -0.42814437322133159 -0.30078059263691592 0 -0.44666365759595422 -0.29563380871485728 0 -0.44214438417120699 -0.30703735509006341 0 -0.45600830837958201 -0.3145799371008749 0 -0.50000000000000266 -0.28081084774111859 0 -0.4793545387805751 -0.3105517803018949 0 -0.5 -0.35718982066189531 0 -0.44683367478858538 -0.33867284940894898 0 -0.45600830837958201 -0.3145799371008749 0 -0.4377611974879605 -0.31715508190760489 0 -0.44683367478858538 -0.33867284940894898 0 -0.45600830837958201 -0.3145799371008749 0 -0.44214438417120699 -0.30703735509006341 0 -0.4377611974879605 -0.31715508190760489 0 -0.45600830837958201 -0.3145799371008749 0 -0.44683367478858538 -0.33867284940894898 0 -0.46865258502026791 -0.34090393315223849 0 -0.45600830837958201 -0.3145799371008749 0 -0.4793545387805751 -0.3105517803018949 0 -0.46865258502026791 -0.34090393315223849 0 -0.45600830837958201 -0.3145799371008749 0 -0.4793545387805751 -0.3105517803018949 0 -0.46865258502026791 -0.34090393315223849 0 -0.5 -0.35718982066189531 0 -0.46865258502026791 -0.34090393315223849 0 -0.5 -0.35718982066189531 0 -0.47429781889144779 -0.36869290898349849 0 -0.49089440663543438 -0.39586646407794801 0 -0.5 -0.35718982066189531 0 -0.47429781889144779 -0.36869290898349849 0 -0.45406055381680549 -0.3790110336362707 0 -0.47429781889144779 -0.36869290898349849 0 -0.45630073474293908 -0.35800929737959603 0 -0.44683367478858538 -0.33867284940894898 0 -0.46865258502026791 -0.34090393315223849 0 -0.45630073474293908 -0.35800929737959603 0 -0.46865258502026791 -0.34090393315223849 0 -0.47429781889144779 -0.36869290898349849 0 -0.45630073474293908 -0.35800929737959603 0 -0.44683367478858538 -0.33867284940894898 0 -0.45630073474293908 -0.35800929737959603 0 -0.43765904119758881 -0.36276576171702302 0 -0.44683367478858538 -0.33867284940894898 0 -0.43765904119758881 -0.36276576171702302 0 -0.43029529694363711 -0.34454390052664191 0 -0.44683367478858538 -0.33867284940894898 0 -0.43765904119758881 -0.36276576171702302 0 -0.45406055381680549 -0.3790110336362707 0 -0.44065104410712241 -0.3826525541742411 0 -0.43765904119758881 -0.36276576171702302 0 -0.45406055381680549 -0.3790110336362707 0 -0.45630073474293908 -0.35800929737959603 0 -0.43765904119758881 -0.36276576171702302 0 -0.43765904119758881 -0.36276576171702302 0 -0.42385265753588541 -0.3725179346807968 0 -0.41749631805552279 -0.35655112012113888 0 -0.43069932187709958 -0.37879002033441939 0 -0.43765904119758881 -0.36276576171702302 0 -0.42385265753588541 -0.3725179346807968 0 -0.44065104410712241 -0.3826525541742411 0 -0.43069932187709958 -0.37879002033441939 0 -0.43765904119758881 -0.36276576171702302 0 -0.43765904119758881 -0.36276576171702302 0 -0.43029529694363711 -0.34454390052664191 0 -0.41749631805552279 -0.35655112012113888 0 -0.41749631805552279 -0.35655112012113888 0 -0.39866833408116109 -0.359484049848948 0 -0.40575234889667122 -0.33309670946439213 0 -0.41217229047262077 -0.38443638386325091 0 -0.41749631805552279 -0.35655112012113888 0 -0.41217229047262077 -0.38443638386325091 0 -0.41749631805552279 -0.35655112012113888 0 -0.39866833408116109 -0.359484049848948 0 -0.41217229047262077 -0.38443638386325091 0 -0.42385265753588541 -0.3725179346807968 0 -0.41749631805552279 -0.35655112012113888 0 -0.39027020230279269 -0.38397013568871091 0 -0.39866833408116109 -0.359484049848948 0 -0.38604582775584623 -0.36519931196448491 0 -0.39027020230279269 -0.38397013568871091 0 -0.38604582775584623 -0.36519931196448491 0 -0.37276014916928413 -0.36968874551325409 0 -0.38604582775584623 -0.36519931196448491 0 -0.37709915462052129 -0.35330995135625992 0 -0.37276014916928413 -0.36968874551325409 0 -0.37709915462052129 -0.35330995135625992 0 -0.39030381240506551 -0.34996338341312261 0 -0.39170779601273831 -0.33736825966297568 0 -0.38604582775584623 -0.36519931196448491 0 -0.37709915462052129 -0.35330995135625992 0 -0.39030381240506551 -0.34996338341312261 0 -0.39866833408116109 -0.359484049848948 0 -0.39030381240506551 -0.34996338341312261 0 -0.40575234889667122 -0.33309670946439213 0 -0.39866833408116109 -0.359484049848948 0 -0.40575234889667122 -0.33309670946439213 0 -0.39866833408116109 -0.359484049848948 0 -0.38604582775584623 -0.36519931196448491 0 -0.39030381240506551 -0.34996338341312261 0 -0.39030381240506551 -0.34996338341312261 0 -0.40575234889667122 -0.33309670946439213 0 -0.39170779601273831 -0.33736825966297568 0 -0.40575234889667122 -0.33309670946439213 0 -0.39170779601273831 -0.33736825966297568 0 -0.39312537117081431 -0.32336624974939149 0 -0.37709915462052129 -0.35330995135625992 0 -0.39170779601273831 -0.33736825966297568 0 -0.370535587673608 -0.33736067751263782 0 -0.39170779601273831 -0.33736825966297568 0 -0.37282940986846419 -0.31837505917586822 0 -0.370535587673608 -0.33736067751263782 0 -0.39312537117081431 -0.32336624974939149 0 -0.39274382019399251 -0.30988711581511857 0 -0.37282940986846419 -0.31837505917586822 0 -0.39170779601273831 -0.33736825966297568 0 -0.37282940986846419 -0.31837505917586822 0 -0.39170779601273831 -0.33736825966297568 0 -0.39312537117081431 -0.32336624974939149 0 -0.37282940986846419 -0.31837505917586822 0 -0.39312537117081431 -0.32336624974939149 0 -0.40259348088220509 -0.31810410462860272 0 -0.39274382019399251 -0.30988711581511857 0 -0.40575234889667122 -0.33309670946439213 0 -0.39312537117081431 -0.32336624974939149 0 -0.40259348088220509 -0.31810410462860272 0 -0.40575234889667122 -0.33309670946439213 0 -0.40259348088220509 -0.31810410462860272 0 -0.41283636371218141 -0.30670936907983631 0 -0.4228203456384268 -0.32866585637902729 0 -0.41581728305569499 -0.30420647390677841 0 -0.41283636371218141 -0.30670936907983631 0 -0.40575234889667122 -0.33309670946439213 0 -0.41283636371218141 -0.30670936907983631 0 -0.40575234889667122 -0.33309670946439213 0 -0.4228203456384268 -0.32866585637902729 0 -0.41283636371218141 -0.30670936907983631 0 -0.41749631805552279 -0.35655112012113888 0 -0.4228203456384268 -0.32866585637902729 0 -0.41749631805552279 -0.35655112012113888 0 -0.40575234889667122 -0.33309670946439213 0 -0.4228203456384268 -0.32866585637902729 0 -0.4377611974879605 -0.31715508190760489 0 -0.44683367478858538 -0.33867284940894898 0 -0.4228203456384268 -0.32866585637902729 0 -0.43029529694363711 -0.34454390052664191 0 -0.41749631805552279 -0.35655112012113888 0 -0.4228203456384268 -0.32866585637902729 0 -0.44683367478858538 -0.33867284940894898 0 -0.43029529694363711 -0.34454390052664191 0 -0.4228203456384268 -0.32866585637902729 0 -0.4377611974879605 -0.31715508190760489 0 -0.4228203456384268 -0.32866585637902729 0 -0.42814437322133159 -0.30078059263691592 0 -0.4228203456384268 -0.32866585637902729 0 -0.42814437322133159 -0.30078059263691592 0 -0.44214438417120699 -0.30703735509006341 0 -0.4377611974879605 -0.31715508190760489 0 -0.42814437322133159 -0.30078059263691592 0 -0.44666365759595422 -0.29563380871485728 0 -0.42814437322133159 -0.30078059263691592 0 -0.4228203456384268 -0.32866585637902729 0 -0.42814437322133159 -0.30078059263691592 0 -0.41581728305569499 -0.30420647390677841 0 -0.42814437322133159 -0.30078059263691592 0 -0.41581728305569499 -0.30420647390677841 0 -0.42814437322133159 -0.30078059263691592 0 -0.43282870856519212 -0.27624579741167782 0 -0.44323332439988511 -0.28453985644780522 0 -0.42814437322133159 -0.30078059263691592 0 -0.43282870856519212 -0.27624579741167782 0 -0.42814437322133159 -0.30078059263691592 0 -0.41992037852769148 -0.28032202869528061 0 -0.43282870856519212 -0.27624579741167782 0 -0.41283636371218141 -0.30670936907983631 0 -0.41992037852769148 -0.28032202869528061 0 -0.42814437322133159 -0.30078059263691592 0 -0.41581728305569499 -0.30420647390677841 0 -0.41992037852769148 -0.28032202869528061 0 -0.41116216196691469 -0.28932445271706558 0 -0.41283636371218141 -0.30670936907983631 0 -0.41992037852769148 -0.28032202869528061 0 -0.41116216196691469 -0.28932445271706558 0 -0.40673675598462983 -0.27630539850918479 0 -0.41992037852769148 -0.28032202869528061 0 -0.41116216196691469 -0.28932445271706558 0 -0.40311365154399731 -0.28885313284472741 0 -0.40673675598462983 -0.27630539850918479 0 -0.41116216196691469 -0.28932445271706558 0 -0.40860646088234109 -0.29740321819800952 0 -0.40311365154399731 -0.28885313284472741 0 -0.40860646088234109 -0.29740321819800952 0 -0.40685570905821211 -0.3033473525829401 0 -0.41283636371218141 -0.30670936907983631 0 -0.41581728305569499 -0.30420647390677841 0 -0.41283636371218141 -0.30670936907983631 0 -0.41992037852769148 -0.28032202869528061 0 -0.41116216196691469 -0.28932445271706558 0 -0.40860646088234109 -0.29740321819800952 0 -0.41283636371218141 -0.30670936907983631 0 -0.40259348088220509 -0.31810410462860272 0 -0.41283636371218141 -0.30670936907983631 0 -0.4039976292627826 -0.30833800501204761 0 -0.40685570905821211 -0.3033473525829401 0 -0.41283636371218141 -0.30670936907983631 0 -0.4039976292627826 -0.30833800501204761 0 -0.40259348088220509 -0.31810410462860272 0 -0.4039976292627826 -0.30833800501204761 0 -0.39274382019399251 -0.30988711581511857 0 -0.4039976292627826 -0.30833800501204761 0 -0.40198238237554351 -0.30093881804186701 0 -0.39274382019399251 -0.30988711581511857 0 -0.40198238237554351 -0.30093881804186701 0 -0.39274382019399251 -0.30988711581511857 0 -0.39226643191815552 -0.29325468499759622 0 -0.40860646088234109 -0.29740321819800952 0 -0.40685570905821211 -0.3033473525829401 0 -0.40198238237554351 -0.30093881804186701 0 -0.40685570905821211 -0.3033473525829401 0 -0.4039976292627826 -0.30833800501204761 0 -0.40198238237554351 -0.30093881804186701 0 -0.39274382019399251 -0.30988711581511857 0 -0.37774655200931578 -0.29923227280577341 0 -0.39226643191815552 -0.29325468499759622 0 -0.39274382019399251 -0.30988711581511857 0 -0.37774655200931578 -0.29923227280577341 0 -0.37282940986846419 -0.31837505917586822 0 -0.38432179755873203 -0.28503455885730761 0 -0.39226643191815552 -0.29325468499759622 0 -0.39413870049435168 -0.27727024870352829 0 -0.37774655200931578 -0.29923227280577341 0 -0.38432179755873203 -0.28503455885730761 0 -0.36921045431311739 -0.28394055350104441 0 -0.37774655200931578 -0.29923227280577341 0 -0.38432179755873203 -0.28503455885730761 0 -0.39226643191815552 -0.29325468499759622 0 -0.39226643191815552 -0.29325468499759622 0 -0.40311365154399731 -0.28885313284472741 0 -0.39413870049435168 -0.27727024870352829 0 -0.40198238237554351 -0.30093881804186701 0 -0.39226643191815552 -0.29325468499759622 0 -0.40311365154399731 -0.28885313284472741 0 -0.40860646088234109 -0.29740321819800952 0 -0.40198238237554351 -0.30093881804186701 0 -0.40311365154399731 -0.28885313284472741 0 -0.40311365154399731 -0.28885313284472741 0 -0.39413870049435168 -0.27727024870352829 0 -0.40673675598462983 -0.27630539850918479 0 -0.39413870049435168 -0.27727024870352829 0 -0.38317587946208043 -0.2687088021715523 0 -0.39779996746043539 -0.26118800843741402 0 -0.39413870049435168 -0.27727024870352829 0 -0.39779996746043539 -0.26118800843741402 0 -0.40673675598462983 -0.27630539850918479 0 -0.39779996746043539 -0.26118800843741402 0 -0.41243538898952181 -0.26404799861069378 0 -0.40673675598462983 -0.27630539850918479 0 -0.38432179755873203 -0.28503455885730761 0 -0.38317587946208043 -0.2687088021715523 0 -0.36921045431311739 -0.28394055350104441 0 -0.38432179755873203 -0.28503455885730761 0 -0.39413870049435168 -0.27727024870352829 0 -0.38317587946208043 -0.2687088021715523 0 -0.38317587946208043 -0.2687088021715523 0 -0.38049762921659952 -0.25021735770044617 0 -0.39779996746043539 -0.26118800843741402 0 -0.38317587946208043 -0.2687088021715523 0 -0.38049762921659952 -0.25021735770044617 0 -0.36659002409407088 -0.26688259394482711 0 -0.39779996746043539 -0.26118800843741402 0 -0.41118069241157817 -0.2485637714763447 0 -0.39616193795957338 -0.24440313672781319 0 -0.38049762921659952 -0.25021735770044617 0 -0.39779996746043539 -0.26118800843741402 0 -0.39616193795957338 -0.24440313672781319 0 -0.41243538898952181 -0.26404799861069378 0 -0.42700439334320162 -0.25393468831072469 0 -0.41118069241157817 -0.2485637714763447 0 -0.39779996746043539 -0.26118800843741402 0 -0.41243538898952181 -0.26404799861069378 0 -0.41118069241157817 -0.2485637714763447 0 -0.41243538898952181 -0.26404799861069378 0 -0.41992037852769148 -0.28032202869528061 0 -0.42700439334320162 -0.25393468831072469 0 -0.41243538898952181 -0.26404799861069378 0 -0.40673675598462983 -0.27630539850918479 0 -0.41992037852769148 -0.28032202869528061 0 -0.41992037852769148 -0.28032202869528061 0 -0.42700439334320162 -0.25393468831072469 0 -0.41992037852769148 -0.28032202869528061 0 -0.43282870856519212 -0.27624579741167782 0 -0.42700439334320162 -0.25393468831072469 0 -0.43751304390905338 -0.25171100218643983 0 -0.43282870856519212 -0.27624579741167782 0 -0.43751304390905338 -0.25171100218643983 0 -0.43282870856519212 -0.27624579741167782 0 -0.42700439334320162 -0.25393468831072469 0 -0.31994358486826752 -0.25582512977358962 0 -0.30624559577879279 -0.2625936730919165 0 -0.31587538925458419 -0.24307026029734491 0 -0.31994358486826752 -0.25582512977358962 0 -0.32117829512586249 -0.26592786709267879 0 -0.32834961528226753 -0.25760722193007402 0 -0.31994358486826752 -0.25582512977358962 0 -0.32834961528226753 -0.25760722193007402 0 -0.32772674009125052 -0.24786565639204999 0 -0.31994358486826752 -0.25582512977358962 0 -0.32117829512586249 -0.26592786709267879 0 -0.30624559577879279 -0.2625936730919165 0 -0.31972900505808077 -0.28115947625665549 0 -0.3364749571764134 -0.2655895040687859 0 -0.31993368036550079 -0.28505212826538512 0 -0.32117829512586249 -0.26592786709267879 0 -0.31188317497855511 -0.27272818958578687 0 -0.30624559577879279 -0.2625936730919165 0 -0.31972900505808077 -0.28115947625665549 0 -0.32117829512586249 -0.26592786709267879 0 -0.31188317497855511 -0.27272818958578687 0 -0.31972900505808077 -0.28115947625665549 0 -0.32117829512586249 -0.26592786709267879 0 -0.3364749571764134 -0.2655895040687859 0 -0.31972900505808077 -0.28115947625665549 0 -0.3364749571764134 -0.2655895040687859 0 -0.31972900505808077 -0.28115947625665549 0 -0.30976789980103642 -0.27978327277812348 0 -0.31188317497855511 -0.27272818958578687 0 -0.3364749571764134 -0.2655895040687859 0 -0.31993368036550079 -0.28505212826538512 0 -0.33507263757991618 -0.28038865820165348 0 -0.3364749571764134 -0.2655895040687859 0 -0.31993368036550079 -0.28505212826538512 0 -0.33507263757991618 -0.28038865820165348 0 -0.3364749571764134 -0.2655895040687859 0 -0.34432090568230411 -0.26901966045528319 0 -0.3364749571764134 -0.2655895040687859 0 -0.3364244991495437 -0.25282795232326549 0 -0.35131987670973169 -0.2481228300382099 0 -0.34228348826618482 -0.26018887549412839 0 -0.3364749571764134 -0.2655895040687859 0 -0.35131987670973169 -0.2481228300382099 0 -0.34228348826618482 -0.26018887549412839 0 -0.3364749571764134 -0.2655895040687859 0 -0.34432090568230411 -0.26901966045528319 0 -0.34228348826618482 -0.26018887549412839 0 -0.3364749571764134 -0.2655895040687859 0 -0.3364749571764134 -0.2655895040687859 0 -0.32834961528226753 -0.25760722193007402 0 -0.3364244991495437 -0.25282795232326549 0 -0.32117829512586249 -0.26592786709267879 0 -0.3364749571764134 -0.2655895040687859 0 -0.32834961528226753 -0.25760722193007402 0 -0.32834961528226753 -0.25760722193007402 0 -0.3364244991495437 -0.25282795232326549 0 -0.32772674009125052 -0.24786565639204999 0 -0.34228348826618482 -0.26018887549412839 0 -0.35394585854621918 -0.26182763857831748 0 -0.35131987670973169 -0.2481228300382099 0 -0.3364749571764134 -0.2655895040687859 0 -0.35131987670973169 -0.2481228300382099 0 -0.34228348826618482 -0.26018887549412839 0 -0.35394585854621918 -0.26182763857831748 0 -0.34432090568230411 -0.26901966045528319 0 -0.35394585854621918 -0.26182763857831748 0 -0.3652942889692089 -0.25042186949623613 0 -0.35131987670973169 -0.2481228300382099 0 -0.38049762921659952 -0.25021735770044617 0 -0.3652942889692089 -0.25042186949623613 0 -0.36659002409407088 -0.26688259394482711 0 -0.35394585854621918 -0.26182763857831748 0 -0.3652942889692089 -0.25042186949623613 0 -0.36659002409407088 -0.26688259394482711 0 -0.36659002409407088 -0.26688259394482711 0 -0.35382758684278659 -0.27710362593353061 0 -0.36921045431311739 -0.28394055350104441 0 -0.38317587946208043 -0.2687088021715523 0 -0.36659002409407088 -0.26688259394482711 0 -0.36921045431311739 -0.28394055350104441 0 -0.33507263757991618 -0.28038865820165348 0 -0.35382758684278659 -0.27710362593353061 0 -0.34432090568230411 -0.26901966045528319 0 -0.35394585854621918 -0.26182763857831748 0 -0.36659002409407088 -0.26688259394482711 0 -0.35382758684278659 -0.27710362593353061 0 -0.35394585854621918 -0.26182763857831748 0 -0.35382758684278659 -0.27710362593353061 0 -0.34432090568230411 -0.26901966045528319 0 -0.33507263757991618 -0.28038865820165348 0 -0.35382758684278659 -0.27710362593353061 0 -0.35395102372419007 -0.29938185868876083 0 -0.35382758684278659 -0.27710362593353061 0 -0.36921045431311739 -0.28394055350104441 0 -0.35395102372419007 -0.29938185868876083 0 -0.33507263757991618 -0.28038865820165348 0 -0.35395102372419007 -0.29938185868876083 0 -0.37774655200931578 -0.29923227280577341 0 -0.36921045431311739 -0.28394055350104441 0 -0.35395102372419007 -0.29938185868876083 0 -0.37774655200931578 -0.29923227280577341 0 -0.35395102372419007 -0.29938185868876083 0 -0.37282940986846419 -0.31837505917586822 0 -0.35395102372419007 -0.29938185868876083 0 -0.37282940986846419 -0.31837505917586822 0 -0.35395102372419007 -0.29938185868876083 0 -0.32863102983257497 -0.30920452672329152 0 -0.338798839675436 -0.31984855934083162 0 -0.35395102372419007 -0.29938185868876083 0 -0.32863102983257497 -0.30920452672329152 0 -0.33114673851172932 -0.29454849419583412 0 -0.33507263757991618 -0.28038865820165348 0 -0.35395102372419007 -0.29938185868876083 0 -0.33114673851172932 -0.29454849419583412 0 -0.33507263757991618 -0.28038865820165348 0 -0.33114673851172932 -0.29454849419583412 0 -0.31993368036550079 -0.28505212826538512 0 -0.33114673851172932 -0.29454849419583412 0 -0.31993368036550079 -0.28505212826538512 0 -0.31735653310169692 -0.29962233629278578 0 -0.31972900505808077 -0.28115947625665549 0 -0.31993368036550079 -0.28505212826538512 0 -0.30298305293974798 -0.2967294484445252 0 -0.31993368036550079 -0.28505212826538512 0 -0.31735653310169692 -0.29962233629278578 0 -0.30339240355458841 -0.30451475246198439 0 -0.31735653310169692 -0.29962233629278578 0 -0.3148001931040848 -0.31362709958530338 0 -0.31055964361726879 -0.30721133115868998 0 -0.32863102983257497 -0.30920452672329152 0 -0.31735653310169692 -0.29962233629278578 0 -0.3148001931040848 -0.31362709958530338 0 -0.32863102983257497 -0.30920452672329152 0 -0.33114673851172932 -0.29454849419583412 0 -0.31735653310169692 -0.29962233629278578 0 -0.32863102983257497 -0.30920452672329152 0 -0.3243083518625457 -0.32387088032201061 0 -0.3148001931040848 -0.31362709958530338 0 -0.3243083518625457 -0.32387088032201061 0 -0.3148001931040848 -0.31362709958530338 0 -0.31013596004931693 -0.32700662302497169 0 -0.3243083518625457 -0.32387088032201061 0 -0.31923948498301052 -0.33723026398065148 0 -0.31013596004931693 -0.32700662302497169 0 -0.31923948498301052 -0.33723026398065148 0 -0.3338563011266969 -0.33739023615067681 0 -0.32324545759623508 -0.34998483735420077 0 -0.3243083518625457 -0.32387088032201061 0 -0.31923948498301052 -0.33723026398065148 0 -0.3338563011266969 -0.33739023615067681 0 -0.3338563011266969 -0.33739023615067681 0 -0.338798839675436 -0.31984855934083162 0 -0.35324749183117249 -0.32939529481941843 0 -0.3243083518625457 -0.32387088032201061 0 -0.3338563011266969 -0.33739023615067681 0 -0.338798839675436 -0.31984855934083162 0 -0.32863102983257497 -0.30920452672329152 0 -0.3243083518625457 -0.32387088032201061 0 -0.338798839675436 -0.31984855934083162 0 -0.35395102372419007 -0.29938185868876083 0 -0.338798839675436 -0.31984855934083162 0 -0.35324749183117249 -0.32939529481941843 0 -0.35395102372419007 -0.29938185868876083 0 -0.37282940986846419 -0.31837505917586822 0 -0.35324749183117249 -0.32939529481941843 0 -0.370535587673608 -0.33736067751263782 0 -0.35324749183117249 -0.32939529481941843 0 -0.35779408603514368 -0.34835482254866662 0 -0.37282940986846419 -0.31837505917586822 0 -0.370535587673608 -0.33736067751263782 0 -0.35324749183117249 -0.32939529481941843 0 -0.3338563011266969 -0.33739023615067681 0 -0.35324749183117249 -0.32939529481941843 0 -0.34462079605222712 -0.34629921852363221 0 -0.35324749183117249 -0.32939529481941843 0 -0.34462079605222712 -0.34629921852363221 0 -0.35779408603514368 -0.34835482254866662 0 -0.34462079605222712 -0.34629921852363221 0 -0.35779408603514368 -0.34835482254866662 0 -0.34508372888693323 -0.36044144745231549 0 -0.35779408603514368 -0.34835482254866662 0 -0.3589234176013768 -0.36233688211669512 0 -0.34508372888693323 -0.36044144745231549 0 -0.37709915462052129 -0.35330995135625992 0 -0.35779408603514368 -0.34835482254866662 0 -0.3589234176013768 -0.36233688211669512 0 -0.37709915462052129 -0.35330995135625992 0 -0.370535587673608 -0.33736067751263782 0 -0.35779408603514368 -0.34835482254866662 0 -0.37709915462052129 -0.35330995135625992 0 -0.37276014916928413 -0.36968874551325409 0 -0.3589234176013768 -0.36233688211669512 0 -0.37276014916928413 -0.36968874551325409 0 -0.35824806362253647 -0.37377065864708331 0 -0.3589234176013768 -0.36233688211669512 0 -0.35824806362253647 -0.37377065864708331 0 -0.3589234176013768 -0.36233688211669512 0 -0.3471662148251049 -0.37050211097984159 0 -0.3589234176013768 -0.36233688211669512 0 -0.34508372888693323 -0.36044144745231549 0 -0.3471662148251049 -0.37050211097984159 0 -0.34508372888693323 -0.36044144745231549 0 -0.33449998817839111 -0.3525430839206557 0 -0.32721685314969001 -0.36756917325225108 0 -0.34508372888693323 -0.36044144745231549 0 -0.3471662148251049 -0.37050211097984159 0 -0.32721685314969001 -0.36756917325225108 0 -0.3471662148251049 -0.37050211097984159 0 -0.32721685314969001 -0.36756917325225108 0 -0.34646602596313703 -0.38303763933960522 0 -0.33449998817839111 -0.3525430839206557 0 -0.32324545759623508 -0.34998483735420077 0 -0.32721685314969001 -0.36756917325225108 0 -0.34462079605222712 -0.34629921852363221 0 -0.34508372888693323 -0.36044144745231549 0 -0.33449998817839111 -0.3525430839206557 0 -0.3338563011266969 -0.33739023615067681 0 -0.34462079605222712 -0.34629921852363221 0 -0.33449998817839111 -0.3525430839206557 0 -0.3338563011266969 -0.33739023615067681 0 -0.33449998817839111 -0.3525430839206557 0 -0.32324545759623508 -0.34998483735420077 0 -0.32324545759623508 -0.34998483735420077 0 -0.32721685314969001 -0.36756917325225108 0 -0.30796768033624289 -0.352100707164897 0 -0.31923948498301052 -0.33723026398065148 0 -0.32324545759623508 -0.34998483735420077 0 -0.30796768033624289 -0.352100707164897 0 -0.32721685314969001 -0.36756917325225108 0 -0.30671005576036697 -0.36862048684864651 0 -0.31851369388908679 -0.3752852129175071 0 -0.32721685314969001 -0.36756917325225108 0 -0.30796768033624289 -0.352100707164897 0 -0.32721685314969001 -0.36756917325225108 0 -0.30671005576036697 -0.36862048684864651 0 -0.30796768033624289 -0.352100707164897 0 -0.30671005576036697 -0.36862048684864651 0 -0.29290715828686381 -0.35113102750339392 0 -0.29121116600131242 -0.3690137260332218 0 -0.30671005576036697 -0.36862048684864651 0 -0.29121116600131242 -0.3690137260332218 0 -0.29586870978450941 -0.38164024413612552 0 -0.30796768033624289 -0.352100707164897 0 -0.28871850752279582 -0.33663224107754303 0 -0.30671005576036697 -0.36862048684864651 0 -0.30796768033624289 -0.352100707164897 0 -0.29290715828686381 -0.35113102750339392 0 -0.30796768033624289 -0.352100707164897 0 -0.29290715828686381 -0.35113102750339392 0 -0.28871850752279582 -0.33663224107754303 0 -0.29290715828686381 -0.35113102750339392 0 -0.27701166618613632 -0.36356236044978302 0 -0.28598606680900968 -0.33771990913836059 0 -0.27701166618613632 -0.36356236044978302 0 -0.28598606680900968 -0.33771990913836059 0 -0.29290715828686381 -0.35113102750339392 0 -0.29121116600131242 -0.3690137260332218 0 -0.27701166618613632 -0.36356236044978302 0 -0.29121116600131242 -0.3690137260332218 0 -0.27701166618613632 -0.36356236044978302 0 -0.28355823998868568 -0.38011451122816031 0 -0.27701166618613632 -0.36356236044978302 0 -0.26182794616138849 -0.37371714174773318 0 -0.25376857312185103 -0.36290262505178228 0 -0.26182794616138849 -0.37371714174773318 0 -0.25376857312185103 -0.36290262505178228 0 -0.25232805927103041 -0.37692263739255988 0 -0.25376857312185103 -0.36290262505178228 0 -0.27030984993276341 -0.34344000085518289 0 -0.25376857312185103 -0.36290262505178228 0 -0.27030984993276341 -0.34344000085518289 0 -0.24989579750610849 -0.34760382400854267 0 -0.27701166618613632 -0.36356236044978302 0 -0.25376857312185103 -0.36290262505178228 0 -0.27030984993276341 -0.34344000085518289 0 -0.27701166618613632 -0.36356236044978302 0 -0.27030984993276341 -0.34344000085518289 0 -0.28598606680900968 -0.33771990913836059 0 -0.2686947572401247 -0.32973985045312593 0 -0.27030984993276341 -0.34344000085518289 0 -0.28685112674367591 -0.32397737665858373 0 -0.27030984993276341 -0.34344000085518289 0 -0.28685112674367591 -0.32397737665858373 0 -0.27030984993276341 -0.34344000085518289 0 -0.28685112674367591 -0.32397737665858373 0 -0.28598606680900968 -0.33771990913836059 0 -0.2686947572401247 -0.32973985045312593 0 -0.27030984993276341 -0.34344000085518289 0 -0.25551182357448232 -0.33586001051792308 0 -0.27030984993276341 -0.34344000085518289 0 -0.25551182357448232 -0.33586001051792308 0 -0.24989579750610849 -0.34760382400854267 0 -0.2686947572401247 -0.32973985045312593 0 -0.25551182357448232 -0.33586001051792308 0 -0.25913618948314382 -0.32724993190865531 0 -0.25551182357448232 -0.33586001051792308 0 -0.25054650546405122 -0.32395998674240822 0 -0.25913618948314382 -0.32724993190865531 0 -0.25054650546405122 -0.32395998674240822 0 -0.26179167165391731 -0.31943987992116418 0 -0.25439597630510458 -0.30858987618539663 0 -0.25054650546405122 -0.32395998674240822 0 -0.25913618948314382 -0.32724993190865531 0 -0.26179167165391731 -0.31943987992116418 0 -0.2686947572401247 -0.32973985045312593 0 -0.25913618948314382 -0.32724993190865531 0 -0.26179167165391731 -0.31943987992116418 0 -0.2686947572401247 -0.32973985045312593 0 -0.27579018465820748 -0.31567323994473379 0 -0.28685112674367591 -0.32397737665858373 0 -0.26179167165391731 -0.31943987992116418 0 -0.27579018465820748 -0.31567323994473379 0 -0.26992636504264539 -0.30461556331938322 0 -0.2686947572401247 -0.32973985045312593 0 -0.26179167165391731 -0.31943987992116418 0 -0.27579018465820748 -0.31567323994473379 0 -0.28685112674367591 -0.32397737665858373 0 -0.30339240355458841 -0.30451475246198439 0 -0.28685112674367591 -0.32397737665858373 0 -0.2983286590752301 -0.32873197233131052 0 -0.30286538491549181 -0.31759288333364999 0 -0.28685112674367591 -0.32397737665858373 0 -0.30339240355458841 -0.30451475246198439 0 -0.28623710082141518 -0.3122994206323948 0 -0.27579018465820748 -0.31567323994473379 0 -0.28685112674367591 -0.32397737665858373 0 -0.28623710082141518 -0.3122994206323948 0 -0.28685112674367591 -0.32397737665858373 0 -0.28598606680900968 -0.33771990913836059 0 -0.29103000094474601 -0.33168526971854811 0 -0.28598606680900968 -0.33771990913836059 0 -0.28871850752279582 -0.33663224107754303 0 -0.29103000094474601 -0.33168526971854811 0 -0.29290715828686381 -0.35113102750339392 0 -0.28598606680900968 -0.33771990913836059 0 -0.28871850752279582 -0.33663224107754303 0 -0.29103000094474601 -0.33168526971854811 0 -0.2983286590752301 -0.32873197233131052 0 -0.29861986730500528 -0.33761311203405042 0 -0.28871850752279582 -0.33663224107754303 0 -0.29103000094474601 -0.33168526971854811 0 -0.29861986730500528 -0.33761311203405042 0 -0.28685112674367591 -0.32397737665858373 0 -0.29103000094474601 -0.33168526971854811 0 -0.2983286590752301 -0.32873197233131052 0 -0.30796768033624289 -0.352100707164897 0 -0.28871850752279582 -0.33663224107754303 0 -0.29861986730500528 -0.33761311203405042 0 -0.2983286590752301 -0.32873197233131052 0 -0.29861986730500528 -0.33761311203405042 0 -0.30705448864601192 -0.33891536987795368 0 -0.30796768033624289 -0.352100707164897 0 -0.29861986730500528 -0.33761311203405042 0 -0.30705448864601192 -0.33891536987795368 0 -0.31923948498301052 -0.33723026398065148 0 -0.30796768033624289 -0.352100707164897 0 -0.30705448864601192 -0.33891536987795368 0 -0.31923948498301052 -0.33723026398065148 0 -0.30705448864601192 -0.33891536987795368 0 -0.31013596004931693 -0.32700662302497169 0 -0.2983286590752301 -0.32873197233131052 0 -0.30705448864601192 -0.33891536987795368 0 -0.31013596004931693 -0.32700662302497169 0 -0.28685112674367591 -0.32397737665858373 0 -0.30286538491549181 -0.31759288333364999 0 -0.30339240355458841 -0.30451475246198439 0 -0.3148001931040848 -0.31362709958530338 0 -0.30286538491549181 -0.31759288333364999 0 -0.30790440629785848 -0.31073651663490698 0 -0.3148001931040848 -0.31362709958530338 0 -0.31013596004931693 -0.32700662302497169 0 -0.30286538491549181 -0.31759288333364999 0 -0.2983286590752301 -0.32873197233131052 0 -0.31013596004931693 -0.32700662302497169 0 -0.30286538491549181 -0.31759288333364999 0 -0.30339240355458841 -0.30451475246198439 0 -0.30298305293974798 -0.2967294484445252 0 -0.28623710082141518 -0.3122994206323948 0 -0.30286538491549181 -0.31759288333364999 0 -0.30339240355458841 -0.30451475246198439 0 -0.30790440629785848 -0.31073651663490698 0 -0.30339240355458841 -0.30451475246198439 0 -0.30790440629785848 -0.31073651663490698 0 -0.31055964361726879 -0.30721133115868998 0 -0.3148001931040848 -0.31362709958530338 0 -0.30790440629785848 -0.31073651663490698 0 -0.31055964361726879 -0.30721133115868998 0 -0.31735653310169692 -0.29962233629278578 0 -0.30339240355458841 -0.30451475246198439 0 -0.31055964361726879 -0.30721133115868998 0 -0.31972900505808077 -0.28115947625665549 0 -0.30298305293974798 -0.2967294484445252 0 -0.31993368036550079 -0.28505212826538512 0 -0.30339240355458841 -0.30451475246198439 0 -0.31993368036550079 -0.28505212826538512 0 -0.30339240355458841 -0.30451475246198439 0 -0.30298305293974798 -0.2967294484445252 0 -0.31972900505808077 -0.28115947625665549 0 -0.30556481144583209 -0.28565848863471449 0 -0.30298305293974798 -0.2967294484445252 0 -0.31972900505808077 -0.28115947625665549 0 -0.30556481144583209 -0.28565848863471449 0 -0.30976789980103642 -0.27978327277812348 0 -0.30556481144583209 -0.28565848863471449 0 -0.29395704779942028 -0.28865418408503418 0 -0.30240216381248042 -0.27720781166143987 0 -0.30556481144583209 -0.28565848863471449 0 -0.30298305293974798 -0.2967294484445252 0 -0.29395704779942028 -0.28865418408503418 0 -0.29395704779942028 -0.28865418408503418 0 -0.28849828439671299 -0.29848031588524482 0 -0.27831699643906688 -0.29049539414747311 0 -0.30298305293974798 -0.2967294484445252 0 -0.29395704779942028 -0.28865418408503418 0 -0.28849828439671299 -0.29848031588524482 0 -0.29395704779942028 -0.28865418408503418 0 -0.27831699643906688 -0.29049539414747311 0 -0.28667295763997402 -0.27116291159414968 0 -0.28849828439671299 -0.29848031588524482 0 -0.28068686647194252 -0.3035528951540134 0 -0.27831699643906688 -0.29049539414747311 0 -0.30298305293974798 -0.2967294484445252 0 -0.28849828439671299 -0.29848031588524482 0 -0.28623710082141518 -0.3122994206323948 0 -0.30298305293974798 -0.2967294484445252 0 -0.28623710082141518 -0.3122994206323948 0 -0.28849828439671299 -0.29848031588524482 0 -0.28623710082141518 -0.3122994206323948 0 -0.28068686647194252 -0.3035528951540134 0 -0.27579018465820748 -0.31567323994473379 0 -0.28623710082141518 -0.3122994206323948 0 -0.28068686647194252 -0.3035528951540134 0 -0.27579018465820748 -0.31567323994473379 0 -0.28068686647194252 -0.3035528951540134 0 -0.26992636504264539 -0.30461556331938322 0 -0.28068686647194252 -0.3035528951540134 0 -0.26992636504264539 -0.30461556331938322 0 -0.27831699643906688 -0.29049539414747311 0 -0.26992636504264539 -0.30461556331938322 0 -0.25439597630510458 -0.30858987618539663 0 -0.26002489615146268 -0.29163393889111838 0 -0.26179167165391731 -0.31943987992116418 0 -0.26992636504264539 -0.30461556331938322 0 -0.25439597630510458 -0.30858987618539663 0 -0.25439597630510458 -0.30858987618539663 0 -0.26002489615146268 -0.29163393889111838 0 -0.24182284751229011 -0.29664910485701462 0 -0.26002489615146268 -0.29163393889111838 0 -0.27831699643906688 -0.29049539414747311 0 -0.26728881426284218 -0.27530428681912028 0 -0.26992636504264539 -0.30461556331938322 0 -0.26002489615146268 -0.29163393889111838 0 -0.27831699643906688 -0.29049539414747311 0 -0.27831699643906688 -0.29049539414747311 0 -0.26728881426284218 -0.27530428681912028 0 -0.28667295763997402 -0.27116291159414968 0 -0.26728881426284218 -0.27530428681912028 0 -0.27296169138972359 -0.25846177992963199 0 -0.28667295763997402 -0.27116291159414968 0 -0.26728881426284218 -0.27530428681912028 0 -0.25606843302098309 -0.25636966241633519 0 -0.24477196931982659 -0.27565775886255373 0 -0.26002489615146268 -0.29163393889111838 0 -0.26728881426284218 -0.27530428681912028 0 -0.24477196931982659 -0.27565775886255373 0 -0.26728881426284218 -0.27530428681912028 0 -0.25606843302098309 -0.25636966241633519 0 -0.27296169138972359 -0.25846177992963199 0 -0.25606843302098309 -0.25636966241633519 0 -0.27296169138972359 -0.25846177992963199 0 -0.27059194761262051 -0.23894761412310589 0 -0.27296169138972359 -0.25846177992963199 0 -0.28671425380328991 -0.25080534032568302 0 -0.28667295763997402 -0.27116291159414968 0 -0.28671425380328991 -0.25080534032568302 0 -0.28667295763997402 -0.27116291159414968 0 -0.30624559577879279 -0.2625936730919165 0 -0.29395704779942028 -0.28865418408503418 0 -0.28667295763997402 -0.27116291159414968 0 -0.30240216381248042 -0.27720781166143987 0 -0.28667295763997402 -0.27116291159414968 0 -0.30240216381248042 -0.27720781166143987 0 -0.30624559577879279 -0.2625936730919165 0 -0.30240216381248042 -0.27720781166143987 0 -0.30976789980103642 -0.27978327277812348 0 -0.31188317497855511 -0.27272818958578687 0 -0.30556481144583209 -0.28565848863471449 0 -0.30240216381248042 -0.27720781166143987 0 -0.30976789980103642 -0.27978327277812348 0 -0.30240216381248042 -0.27720781166143987 0 -0.31188317497855511 -0.27272818958578687 0 -0.30624559577879279 -0.2625936730919165 0 -0.28671425380328991 -0.25080534032568302 0 -0.30624559577879279 -0.2625936730919165 0 -0.29768485334658651 -0.24139941593041811 0 -0.33144160294728092 -0.45175302013840701 0 -0.35340620517386079 -0.46946505821078738 0 -0.33144160294728092 -0.45175302013840701 0 -0.33197119024104382 -0.47199482387736652 0 -0.35340620517386079 -0.46946505821078738 0 -0.33144160294728092 -0.45175302013840701 0 -0.34559802451704008 -0.44109108006408437 0 -0.32626946674829482 -0.4350260528264035 0 -0.33144160294728092 -0.45175302013840701 0 -0.34813953087834187 -0.45565303600744139 0 -0.34559802451704008 -0.44109108006408437 0 -0.33144160294728092 -0.45175302013840701 0 -0.30947700072070078 -0.43404098206602648 0 -0.33144160294728092 -0.45175302013840701 0 -0.32626946674829482 -0.4350260528264035 0 -0.30947700072070078 -0.43404098206602648 0 -0.33144160294728092 -0.45175302013840701 0 -0.30947700072070078 -0.43404098206602648 0 -0.30743977574945519 -0.45193128090147472 0 -0.32000430923721818 -0.46266722288404971 0 -0.30743977574945519 -0.45193128090147472 0 -0.31102748996513963 -0.4759656404507388 0 -0.33144160294728092 -0.45175302013840701 0 -0.32000430923721818 -0.46266722288404971 0 -0.33197119024104382 -0.47199482387736652 0 -0.33144160294728092 -0.45175302013840701 0 -0.32000430923721818 -0.46266722288404971 0 -0.30743977574945519 -0.45193128090147472 0 -0.32915884116375033 -0.48692928145725628 0 -0.33197119024104382 -0.47199482387736652 0 -0.31102748996513963 -0.4759656404507388 0 -0.32000430923721818 -0.46266722288404971 0 -0.33197119024104382 -0.47199482387736652 0 -0.31102748996513963 -0.4759656404507388 0 -0.31461520418082439 -0.50000000000000289 0 -0.31102748996513963 -0.4759656404507388 0 -0.31461520418082439 -0.50000000000000289 0 -0.32915884116375033 -0.48692928145725628 0 -0.31102748996513963 -0.4759656404507388 0 -0.31461520418082439 -0.50000000000000289 0 -0.34136814894021372 -0.5 0 -0.32915884116375033 -0.48692928145725628 0 -0.34136814894021372 -0.5 0 -0.32915884116375033 -0.48692928145725628 0 -0.34288615556536828 -0.4835022807465591 0 -0.33197119024104382 -0.47199482387736652 0 -0.34288615556536828 -0.4835022807465591 0 -0.35340620517386079 -0.46946505821078738 0 -0.32915884116375033 -0.48692928145725628 0 -0.33197119024104382 -0.47199482387736652 0 -0.34288615556536828 -0.4835022807465591 0 -0.34288615556536828 -0.4835022807465591 0 -0.35340620517386079 -0.46946505821078738 0 -0.356563383844892 -0.48753040908157658 0 -0.34136814894021372 -0.5 0 -0.34288615556536828 -0.4835022807465591 0 -0.356563383844892 -0.48753040908157658 0 -0.34136814894021372 -0.5 0 -0.356563383844892 -0.48753040908157658 0 -0.36812109369960322 -0.5 0 -0.37537080740044071 -0.48717709628316791 0 -0.356563383844892 -0.48753040908157658 0 -0.36812109369960322 -0.5 0 -0.37537080740044071 -0.48717709628316791 0 -0.35340620517386079 -0.46946505821078738 0 -0.37537080740044071 -0.48717709628316791 0 -0.35340620517386079 -0.46946505821078738 0 -0.356563383844892 -0.48753040908157658 0 -0.37537080740044071 -0.48717709628316791 0 -0.35340620517386079 -0.46946505821078738 0 -0.36731226888758323 -0.47443330863951072 0 -0.37844870047834112 -0.48036369335469709 0 -0.36731226888758323 -0.47443330863951072 0 -0.36202336249769052 -0.46072738670939067 0 -0.37844870047834112 -0.48036369335469709 0 -0.36202336249769052 -0.46072738670939067 0 -0.37844870047834112 -0.48036369335469709 0 -0.37537080740044071 -0.48717709628316791 0 -0.36731226888758323 -0.47443330863951072 0 -0.37637167717206421 -0.46315756360206228 0 -0.37844870047834112 -0.48036369335469709 0 -0.36202336249769052 -0.46072738670939067 0 -0.37637167717206421 -0.46315756360206228 0 -0.37087628372248771 -0.45312649174698061 0 -0.36202336249769052 -0.46072738670939067 0 -0.37087628372248771 -0.45312649174698061 0 -0.36202336249769052 -0.46072738670939067 0 -0.36439333705081672 -0.44951800972986222 0 -0.35340620517386079 -0.46946505821078738 0 -0.36731226888758323 -0.47443330863951072 0 -0.36202336249769052 -0.46072738670939067 0 -0.33144160294728092 -0.45175302013840701 0 -0.35340620517386079 -0.46946505821078738 0 -0.34813953087834187 -0.45565303600744139 0 -0.35340620517386079 -0.46946505821078738 0 -0.36202336249769052 -0.46072738670939067 0 -0.34813953087834187 -0.45565303600744139 0 -0.36202336249769052 -0.46072738670939067 0 -0.34559802451704008 -0.44109108006408437 0 -0.36202336249769052 -0.46072738670939067 0 -0.34813953087834187 -0.45565303600744139 0 -0.34559802451704008 -0.44109108006408437 0 -0.36202336249769052 -0.46072738670939067 0 -0.34559802451704008 -0.44109108006408437 0 -0.35801803286680012 -0.44431168441372493 0 -0.34559802451704008 -0.44109108006408437 0 -0.35801803286680012 -0.44431168441372493 0 -0.35780718850337512 -0.4339726848437605 0 -0.38539063369721949 -0.45020979636030162 0 -0.37087628372248771 -0.45312649174698061 0 -0.3683365684192384 -0.44086890113562249 0 -0.35801803286680012 -0.44431168441372493 0 -0.36439333705081672 -0.44951800972986222 0 -0.3683365684192384 -0.44086890113562249 0 -0.36202336249769052 -0.46072738670939067 0 -0.35801803286680012 -0.44431168441372493 0 -0.36439333705081672 -0.44951800972986222 0 -0.35801803286680012 -0.44431168441372493 0 -0.3683365684192384 -0.44086890113562249 0 -0.35780718850337512 -0.4339726848437605 0 -0.37087628372248771 -0.45312649174698061 0 -0.36439333705081672 -0.44951800972986222 0 -0.3683365684192384 -0.44086890113562249 0 -0.37754063201758509 -0.42531469454045251 0 -0.3683365684192384 -0.44086890113562249 0 -0.36657316404127249 -0.42858567279043458 0 -0.3683365684192384 -0.44086890113562249 0 -0.36657316404127249 -0.42858567279043458 0 -0.35780718850337512 -0.4339726848437605 0 -0.36657316404127249 -0.42858567279043458 0 -0.35780718850337512 -0.4339726848437605 0 -0.35660776602871519 -0.42365558188868158 0 -0.36657316404127249 -0.42858567279043458 0 -0.36883198683104568 -0.41905626867772777 0 -0.35660776602871519 -0.42365558188868158 0 -0.37754063201758509 -0.42531469454045251 0 -0.36657316404127249 -0.42858567279043458 0 -0.36883198683104568 -0.41905626867772777 0 -0.36883198683104568 -0.41905626867772777 0 -0.36065040659924452 -0.40295735910704988 0 -0.35203305306849592 -0.40513647047139772 0 -0.36883198683104568 -0.41905626867772777 0 -0.37129162846163649 -0.40646668987925128 0 -0.36065040659924452 -0.40295735910704988 0 -0.38076443343398969 -0.4131052076953004 0 -0.36883198683104568 -0.41905626867772777 0 -0.37129162846163649 -0.40646668987925128 0 -0.36883198683104568 -0.41905626867772777 0 -0.35203305306849592 -0.40513647047139772 0 -0.34078966769339381 -0.41043736772559758 0 -0.3490368230744888 -0.42622591540588761 0 -0.35660776602871519 -0.42365558188868158 0 -0.34078966769339381 -0.41043736772559758 0 -0.36883198683104568 -0.41905626867772777 0 -0.34078966769339381 -0.41043736772559758 0 -0.36883198683104568 -0.41905626867772777 0 -0.35660776602871519 -0.42365558188868158 0 -0.34078966769339381 -0.41043736772559758 0 -0.34559802451704008 -0.44109108006408437 0 -0.3490368230744888 -0.42622591540588761 0 -0.34063979022351681 -0.42191262964138548 0 -0.34559802451704008 -0.44109108006408437 0 -0.3490368230744888 -0.42622591540588761 0 -0.35780718850337512 -0.4339726848437605 0 -0.3490368230744888 -0.42622591540588761 0 -0.35780718850337512 -0.4339726848437605 0 -0.35660776602871519 -0.42365558188868158 0 -0.37276014916928413 -0.36968874551325409 0 -0.35824806362253647 -0.37377065864708331 0 -0.36836811413296489 -0.38350388751415809 0 -0.36704065833014521 -0.39772404897624991 0 -0.36065040659924452 -0.40295735910704988 0 -0.35749329078673769 -0.39285724241851011 0 -0.36836811413296489 -0.38350388751415809 0 -0.36704065833014521 -0.39772404897624991 0 -0.35749329078673769 -0.39285724241851011 0 -0.38053384935908718 -0.39905841385788582 0 -0.36836811413296489 -0.38350388751415809 0 -0.36704065833014521 -0.39772404897624991 0 -0.38053384935908718 -0.39905841385788582 0 -0.37129162846163649 -0.40646668987925128 0 -0.36704065833014521 -0.39772404897624991 0 -0.37129162846163649 -0.40646668987925128 0 -0.36704065833014521 -0.39772404897624991 0 -0.36065040659924452 -0.40295735910704988 0 -0.36065040659924452 -0.40295735910704988 0 -0.35203305306849592 -0.40513647047139772 0 -0.35031363931482867 -0.39632101151927929 0 -0.35203305306849592 -0.40513647047139772 0 -0.35031363931482867 -0.39632101151927929 0 -0.33957956490396651 -0.39691034532733382 0 -0.35203305306849592 -0.40513647047139772 0 -0.33957956490396651 -0.39691034532733382 0 -0.34078966769339381 -0.41043736772559758 0 -0.35031363931482867 -0.39632101151927929 0 -0.34356298674334762 -0.3899266350522409 0 -0.33957956490396651 -0.39691034532733382 0 -0.35031363931482867 -0.39632101151927929 0 -0.34892128555021118 -0.39102832569958651 0 -0.34356298674334762 -0.3899266350522409 0 -0.35031363931482867 -0.39632101151927929 0 -0.34892128555021118 -0.39102832569958651 0 -0.35749329078673769 -0.39285724241851011 0 -0.36065040659924452 -0.40295735910704988 0 -0.35031363931482867 -0.39632101151927929 0 -0.35749329078673769 -0.39285724241851011 0 -0.36836811413296489 -0.38350388751415809 0 -0.35749329078673769 -0.39285724241851011 0 -0.3496656407930317 -0.38560882169473698 0 -0.36836811413296489 -0.38350388751415809 0 -0.34646602596313703 -0.38303763933960522 0 -0.3496656407930317 -0.38560882169473698 0 -0.35824806362253647 -0.37377065864708331 0 -0.36836811413296489 -0.38350388751415809 0 -0.34646602596313703 -0.38303763933960522 0 -0.36836811413296489 -0.38350388751415809 0 -0.34646602596313703 -0.38303763933960522 0 -0.34892128555021118 -0.39102832569958651 0 -0.35749329078673769 -0.39285724241851011 0 -0.3496656407930317 -0.38560882169473698 0 -0.34892128555021118 -0.39102832569958651 0 -0.3496656407930317 -0.38560882169473698 0 -0.34356298674334762 -0.3899266350522409 0 -0.34646602596313703 -0.38303763933960522 0 -0.3496656407930317 -0.38560882169473698 0 -0.34356298674334762 -0.3899266350522409 0 -0.34646602596313703 -0.38303763933960522 0 -0.3496656407930317 -0.38560882169473698 0 -0.35824806362253647 -0.37377065864708331 0 -0.3471662148251049 -0.37050211097984159 0 -0.34646602596313703 -0.38303763933960522 0 -0.32721685314969001 -0.36756917325225108 0 -0.34646602596313703 -0.38303763933960522 0 -0.32886463086980922 -0.38266294363624542 0 -0.32721685314969001 -0.36756917325225108 0 -0.34646602596313703 -0.38303763933960522 0 -0.34646602596313703 -0.38303763933960522 0 -0.32886463086980922 -0.38266294363624542 0 -0.34356298674334762 -0.3899266350522409 0 -0.34646602596313703 -0.38303763933960522 0 -0.32886463086980922 -0.38266294363624542 0 -0.32886463086980922 -0.38266294363624542 0 -0.34356298674334762 -0.3899266350522409 0 -0.33957956490396651 -0.39691034532733382 0 -0.32886463086980922 -0.38266294363624542 0 -0.33957956490396651 -0.39691034532733382 0 -0.32750852860504748 -0.39672244954817593 0 -0.33957956490396651 -0.39691034532733382 0 -0.32750852860504748 -0.39672244954817593 0 -0.34078966769339381 -0.41043736772559758 0 -0.3127473485557411 -0.40181846677347022 0 -0.34078966769339381 -0.41043736772559758 0 -0.3127473485557411 -0.40181846677347022 0 -0.32750852860504748 -0.39672244954817593 0 -0.34078966769339381 -0.41043736772559758 0 -0.3127473485557411 -0.40181846677347022 0 -0.31548049069516099 -0.39106554465701932 0 -0.32750852860504748 -0.39672244954817593 0 -0.32886463086980922 -0.38266294363624542 0 -0.31548049069516099 -0.39106554465701932 0 -0.31126323577648118 -0.38228824793288552 0 -0.32886463086980922 -0.38266294363624542 0 -0.31851369388908679 -0.3752852129175071 0 -0.31126323577648118 -0.38228824793288552 0 -0.32886463086980922 -0.38266294363624542 0 -0.31126323577648118 -0.38228824793288552 0 -0.32886463086980922 -0.38266294363624542 0 -0.31548049069516099 -0.39106554465701932 0 -0.32750852860504748 -0.39672244954817593 0 -0.32721685314969001 -0.36756917325225108 0 -0.32886463086980922 -0.38266294363624542 0 -0.31851369388908679 -0.3752852129175071 0 -0.34559802451704008 -0.44109108006408437 0 -0.34063979022351681 -0.42191262964138548 0 -0.32917268653638959 -0.42145477341877802 0 -0.34559802451704008 -0.44109108006408437 0 -0.32917268653638959 -0.42145477341877802 0 -0.34559802451704008 -0.44109108006408437 0 -0.32917268653638959 -0.42145477341877802 0 -0.32626946674829482 -0.4350260528264035 0 -0.3490368230744888 -0.42622591540588761 0 -0.34063979022351681 -0.42191262964138548 0 -0.34078966769339381 -0.41043736772559758 0 -0.34063979022351681 -0.42191262964138548 0 -0.34078966769339381 -0.41043736772559758 0 -0.32917268653638959 -0.42145477341877802 0 -0.32917268653638959 -0.42145477341877802 0 -0.31565801902006219 -0.42679040844472149 0 -0.3120149782299711 -0.41585015859073132 0 -0.3127473485557411 -0.40181846677347022 0 -0.32917268653638959 -0.42145477341877802 0 -0.3120149782299711 -0.41585015859073132 0 -0.3127473485557411 -0.40181846677347022 0 -0.32917268653638959 -0.42145477341877802 0 -0.3127473485557411 -0.40181846677347022 0 -0.34078966769339381 -0.41043736772559758 0 -0.32917268653638959 -0.42145477341877802 0 -0.31565801902006219 -0.42679040844472149 0 -0.32626946674829482 -0.4350260528264035 0 -0.30947700072070078 -0.43404098206602648 0 -0.32917268653638959 -0.42145477341877802 0 -0.31565801902006219 -0.42679040844472149 0 -0.32626946674829482 -0.4350260528264035 0 -0.30385206153377092 -0.42789692135221041 0 -0.29314389587875639 -0.42744859817606978 0 -0.29570266714267363 -0.44001388943097341 0 -0.30385206153377092 -0.42789692135221041 0 -0.29711482552990298 -0.4231116033896053 0 -0.29314389587875639 -0.42744859817606978 0 -0.30385206153377092 -0.42789692135221041 0 -0.29711482552990298 -0.4231116033896053 0 -0.2978234103625807 -0.41651188785259807 0 -0.31565801902006219 -0.42679040844472149 0 -0.30385206153377092 -0.42789692135221041 0 -0.3120149782299711 -0.41585015859073132 0 -0.31565801902006219 -0.42679040844472149 0 -0.30947700072070078 -0.43404098206602648 0 -0.30385206153377092 -0.42789692135221041 0 -0.30385206153377092 -0.42789692135221041 0 -0.30026434731808649 -0.40386256180294611 0 -0.30385206153377092 -0.42789692135221041 0 -0.3120149782299711 -0.41585015859073132 0 -0.30026434731808649 -0.40386256180294611 0 -0.30385206153377092 -0.42789692135221041 0 -0.2978234103625807 -0.41651188785259807 0 -0.30026434731808649 -0.40386256180294611 0 -0.3127473485557411 -0.40181846677347022 0 -0.3120149782299711 -0.41585015859073132 0 -0.30026434731808649 -0.40386256180294611 0 -0.2978234103625807 -0.41651188785259807 0 -0.29421779896595063 -0.40925593752682232 0 -0.30026434731808649 -0.40386256180294611 0 -0.29711482552990298 -0.4231116033896053 0 -0.2978234103625807 -0.41651188785259807 0 -0.2930499124934966 -0.42025016320412861 0 -0.2978234103625807 -0.41651188785259807 0 -0.2930499124934966 -0.42025016320412861 0 -0.29005945867777277 -0.4138288934632251 0 -0.2930499124934966 -0.42025016320412861 0 -0.29005945867777277 -0.4138288934632251 0 -0.28592792831645503 -0.41967214719231549 0 -0.29421779896595063 -0.40925593752682232 0 -0.29005945867777277 -0.4138288934632251 0 -0.28708330772965662 -0.4057571101070353 0 -0.2978234103625807 -0.41651188785259807 0 -0.29421779896595063 -0.40925593752682232 0 -0.29005945867777277 -0.4138288934632251 0 -0.28170507599070099 -0.4121933768870607 0 -0.28708330772965662 -0.4057571101070353 0 -0.27953703104731392 -0.40373031421480432 0 -0.29005945867777277 -0.4138288934632251 0 -0.28170507599070099 -0.4121933768870607 0 -0.28708330772965662 -0.4057571101070353 0 -0.29005945867777277 -0.4138288934632251 0 -0.28170507599070099 -0.4121933768870607 0 -0.28592792831645503 -0.41967214719231549 0 -0.28396953656801799 -0.42713459183812108 0 -0.28651205923072792 -0.43424410040618588 0 -0.29314389587875639 -0.42744859817606978 0 -0.28592792831645503 -0.41967214719231549 0 -0.28396953656801799 -0.42713459183812108 0 -0.27567730686781511 -0.42097216042040742 0 -0.28592792831645503 -0.41967214719231549 0 -0.28396953656801799 -0.42713459183812108 0 -0.29314389587875639 -0.42744859817606978 0 -0.28396953656801799 -0.42713459183812108 0 -0.28651205923072792 -0.43424410040618588 0 -0.27616848161394092 -0.43279925915669798 0 -0.28651205923072792 -0.43424410040618588 0 -0.27616848161394092 -0.43279925915669798 0 -0.28357571495025069 -0.44382416342906772 0 -0.28651205923072792 -0.43424410040618588 0 -0.29314389587875639 -0.42744859817606978 0 -0.29570266714267363 -0.44001388943097341 0 -0.29711482552990298 -0.4231116033896053 0 -0.2930499124934966 -0.42025016320412861 0 -0.29314389587875639 -0.42744859817606978 0 -0.2930499124934966 -0.42025016320412861 0 -0.28592792831645503 -0.41967214719231549 0 -0.29314389587875639 -0.42744859817606978 0 -0.31548049069516099 -0.39106554465701932 0 -0.31126323577648118 -0.38228824793288552 0 -0.29586870978450941 -0.38164024413612552 0 -0.30671005576036697 -0.36862048684864651 0 -0.31126323577648118 -0.38228824793288552 0 -0.29586870978450941 -0.38164024413612552 0 -0.30671005576036697 -0.36862048684864651 0 -0.31851369388908679 -0.3752852129175071 0 -0.31126323577648118 -0.38228824793288552 0 -0.3127473485557411 -0.40181846677347022 0 -0.29748466081531449 -0.39712742844485049 0 -0.29586870978450941 -0.38164024413612552 0 -0.3127473485557411 -0.40181846677347022 0 -0.29586870978450941 -0.38164024413612552 0 -0.3127473485557411 -0.40181846677347022 0 -0.31548049069516099 -0.39106554465701932 0 -0.29586870978450941 -0.38164024413612552 0 -0.3127473485557411 -0.40181846677347022 0 -0.29748466081531449 -0.39712742844485049 0 -0.3127473485557411 -0.40181846677347022 0 -0.29748466081531449 -0.39712742844485049 0 -0.30026434731808649 -0.40386256180294611 0 -0.29421779896595063 -0.40925593752682232 0 -0.30026434731808649 -0.40386256180294611 0 -0.29225441758077902 -0.40168788559957752 0 -0.29748466081531449 -0.39712742844485049 0 -0.30026434731808649 -0.40386256180294611 0 -0.29225441758077902 -0.40168788559957752 0 -0.29421779896595063 -0.40925593752682232 0 -0.29225441758077902 -0.40168788559957752 0 -0.28708330772965662 -0.4057571101070353 0 -0.28708330772965662 -0.4057571101070353 0 -0.28222197307488722 -0.39243639011623338 0 -0.27953703104731392 -0.40373031421480432 0 -0.29225441758077902 -0.40168788559957752 0 -0.28708330772965662 -0.4057571101070353 0 -0.28222197307488722 -0.39243639011623338 0 -0.29748466081531449 -0.39712742844485049 0 -0.28222197307488722 -0.39243639011623338 0 -0.28978339591584917 -0.38782964348134241 0 -0.29748466081531449 -0.39712742844485049 0 -0.29225441758077902 -0.40168788559957752 0 -0.28222197307488722 -0.39243639011623338 0 -0.29748466081531449 -0.39712742844485049 0 -0.28222197307488722 -0.39243639011623338 0 -0.29748466081531449 -0.39712742844485049 0 -0.28978339591584917 -0.38782964348134241 0 -0.29586870978450941 -0.38164024413612552 0 -0.28978339591584917 -0.38782964348134241 0 -0.28355823998868568 -0.38011451122816031 0 -0.29586870978450941 -0.38164024413612552 0 -0.28222197307488722 -0.39243639011623338 0 -0.28978339591584917 -0.38782964348134241 0 -0.28355823998868568 -0.38011451122816031 0 -0.29121116600131242 -0.3690137260332218 0 -0.28355823998868568 -0.38011451122816031 0 -0.29586870978450941 -0.38164024413612552 0 -0.27701166618613632 -0.36356236044978302 0 -0.28355823998868568 -0.38011451122816031 0 -0.26803726556326279 -0.38940481176120523 0 -0.27701166618613632 -0.36356236044978302 0 -0.26803726556326279 -0.38940481176120523 0 -0.27701166618613632 -0.36356236044978302 0 -0.26182794616138849 -0.37371714174773318 0 -0.26803726556326279 -0.38940481176120523 0 -0.28222197307488722 -0.39243639011623338 0 -0.28355823998868568 -0.38011451122816031 0 -0.26803726556326279 -0.38940481176120523 0 -0.26803726556326279 -0.38940481176120523 0 -0.27218044933495078 -0.40248661340062131 0 -0.25906286494038949 -0.41524726307262738 0 -0.28222197307488722 -0.39243639011623338 0 -0.26803726556326279 -0.38940481176120523 0 -0.27218044933495078 -0.40248661340062131 0 -0.27953703104731392 -0.40373031421480432 0 -0.27218044933495078 -0.40248661340062131 0 -0.27204311204890042 -0.41161428783823589 0 -0.28222197307488722 -0.39243639011623338 0 -0.27953703104731392 -0.40373031421480432 0 -0.27218044933495078 -0.40248661340062131 0 -0.26803726556326279 -0.38940481176120523 0 -0.25906286494038949 -0.41524726307262738 0 -0.26200263898397952 -0.39388305803323098 0 -0.25906286494038949 -0.41524726307262738 0 -0.245038587939852 -0.4013003724272578 0 -0.26200263898397952 -0.39388305803323098 0 -0.245038587939852 -0.4013003724272578 0 -0.26803726556326279 -0.38940481176120523 0 -0.26200263898397952 -0.39388305803323098 0 -0.25906286494038949 -0.41524726307262738 0 -0.2500437161492321 -0.39527344023300381 0 -0.26200263898397952 -0.39388305803323098 0 -0.245038587939852 -0.4013003724272578 0 -0.2500437161492321 -0.39527344023300381 0 -0.26200263898397952 -0.39388305803323098 0 -0.25552542181851873 -0.39016302053984769 0 -0.2500437161492321 -0.39527344023300381 0 -0.25552542181851873 -0.39016302053984769 0 -0.24920722146078561 -0.38750249992417568 0 -0.26182794616138849 -0.37371714174773318 0 -0.26803726556326279 -0.38940481176120523 0 -0.25822697610122219 -0.38444156623793829 0 -0.26200263898397952 -0.39388305803323098 0 -0.25822697610122219 -0.38444156623793829 0 -0.25552542181851873 -0.39016302053984769 0 -0.26803726556326279 -0.38940481176120523 0 -0.26200263898397952 -0.39388305803323098 0 -0.25822697610122219 -0.38444156623793829 0 -0.25822697610122219 -0.38444156623793829 0 -0.25232805927103041 -0.37692263739255988 0 -0.24920722146078561 -0.38750249992417568 0 -0.25822697610122219 -0.38444156623793829 0 -0.25552542181851873 -0.39016302053984769 0 -0.24920722146078561 -0.38750249992417568 0 -0.26182794616138849 -0.37371714174773318 0 -0.25822697610122219 -0.38444156623793829 0 -0.25232805927103041 -0.37692263739255988 0 -0.26977820906870048 -0.42665292519993431 0 -0.26413632402319648 -0.42029272666543549 0 -0.26313072376984969 -0.43254755455719629 0 -0.26977820906870048 -0.42665292519993431 0 -0.27567730686781511 -0.42097216042040742 0 -0.26413632402319648 -0.42029272666543549 0 -0.27616848161394092 -0.43279925915669798 0 -0.26313072376984969 -0.43254755455719629 0 -0.26920798522769102 -0.44609290629286602 0 -0.26977820906870048 -0.42665292519993431 0 -0.27616848161394092 -0.43279925915669798 0 -0.26313072376984969 -0.43254755455719629 0 -0.28396953656801799 -0.42713459183812108 0 -0.27616848161394092 -0.43279925915669798 0 -0.27567730686781511 -0.42097216042040742 0 -0.26977820906870048 -0.42665292519993431 0 -0.27616848161394092 -0.43279925915669798 0 -0.27567730686781511 -0.42097216042040742 0 -0.28170507599070099 -0.4121933768870607 0 -0.27567730686781511 -0.42097216042040742 0 -0.27204311204890042 -0.41161428783823589 0 -0.28170507599070099 -0.4121933768870607 0 -0.28592792831645503 -0.41967214719231549 0 -0.27567730686781511 -0.42097216042040742 0 -0.28170507599070099 -0.4121933768870607 0 -0.27953703104731392 -0.40373031421480432 0 -0.27204311204890042 -0.41161428783823589 0 -0.27218044933495078 -0.40248661340062131 0 -0.27204311204890042 -0.41161428783823589 0 -0.25906286494038949 -0.41524726307262738 0 -0.27567730686781511 -0.42097216042040742 0 -0.27204311204890042 -0.41161428783823589 0 -0.26413632402319648 -0.42029272666543549 0 -0.27204311204890042 -0.41161428783823589 0 -0.26413632402319648 -0.42029272666543549 0 -0.25906286494038949 -0.41524726307262738 0 -0.26413632402319648 -0.42029272666543549 0 -0.25906286494038949 -0.41524726307262738 0 -0.25906286494038949 -0.41524726307262738 0 -0.245038587939852 -0.4013003724272578 0 -0.25906286494038949 -0.41524726307262738 0 -0.24689695374805551 -0.40876130060916949 0 -0.245038587939852 -0.4013003724272578 0 -0.25906286494038949 -0.41524726307262738 0 -0.24689695374805551 -0.40876130060916949 0 -0.24619042706411781 -0.4220704466267769 0 -0.25906286494038949 -0.41524726307262738 0 -0.26313072376984969 -0.43254755455719629 0 -0.2491232337026161 -0.44386916743256061 0 -0.25906286494038949 -0.41524726307262738 0 -0.2491232337026161 -0.44386916743256061 0 -0.25906286494038949 -0.41524726307262738 0 -0.2491232337026161 -0.44386916743256061 0 -0.24619042706411781 -0.4220704466267769 0 -0.26413632402319648 -0.42029272666543549 0 -0.25906286494038949 -0.41524726307262738 0 -0.26313072376984969 -0.43254755455719629 0 -0.26313072376984969 -0.43254755455719629 0 -0.26920798522769102 -0.44609290629286602 0 -0.2491232337026161 -0.44386916743256061 0 -0.26567378381091161 -0.46793986896464029 0 -0.26920798522769102 -0.44609290629286602 0 -0.2491232337026161 -0.44386916743256061 0 -0.26567378381091161 -0.46793986896464029 0 -0.2491232337026161 -0.44386916743256061 0 -0.26567378381091161 -0.46793986896464029 0 -0.2398236558474823 -0.47064799066957891 0 -0.2491232337026161 -0.44386916743256061 0 -0.26567378381091161 -0.46793986896464029 0 -0.27739581541782737 -0.4549153419587294 0 -0.29083752472125929 -0.46074509753505782 0 -0.26567378381091161 -0.46793986896464029 0 -0.27739581541782737 -0.4549153419587294 0 -0.26920798522769102 -0.44609290629286602 0 -0.27739581541782737 -0.4549153419587294 0 -0.26920798522769102 -0.44609290629286602 0 -0.28357571495025069 -0.44382416342906772 0 -0.27616848161394092 -0.43279925915669798 0 -0.26920798522769102 -0.44609290629286602 0 -0.28357571495025069 -0.44382416342906772 0 -0.28651205923072792 -0.43424410040618588 0 -0.28357571495025069 -0.44382416342906772 0 -0.29570266714267363 -0.44001388943097341 0 -0.28357571495025069 -0.44382416342906772 0 -0.29570266714267363 -0.44001388943097341 0 -0.29083752472125929 -0.46074509753505782 0 -0.27739581541782737 -0.4549153419587294 0 -0.28357571495025069 -0.44382416342906772 0 -0.29083752472125929 -0.46074509753505782 0 -0.30743977574945519 -0.45193128090147472 0 -0.31102748996513963 -0.4759656404507388 0 -0.29083752472125929 -0.46074509753505782 0 -0.30743977574945519 -0.45193128090147472 0 -0.31102748996513963 -0.4759656404507388 0 -0.30385206153377092 -0.42789692135221041 0 -0.29570266714267363 -0.44001388943097341 0 -0.30743977574945519 -0.45193128090147472 0 -0.30947700072070078 -0.43404098206602648 0 -0.30385206153377092 -0.42789692135221041 0 -0.30743977574945519 -0.45193128090147472 0 -0.30385206153377092 -0.42789692135221041 0 -0.30743977574945519 -0.45193128090147472 0 -0.29570266714267363 -0.44001388943097341 0 -0.29083752472125929 -0.46074509753505782 0 -0.30743977574945519 -0.45193128090147472 0 -0.31461520418082439 -0.50000000000000289 0 -0.29361594053798212 -0.48002598497874521 0 -0.29077162578326388 -0.49631692155182999 0 -0.31461520418082439 -0.50000000000000289 0 -0.29077162578326388 -0.49631692155182999 0 -0.28771771154904791 -0.50000000000000266 0 -0.31461520418082439 -0.50000000000000289 0 -0.31102748996513963 -0.4759656404507388 0 -0.29361594053798212 -0.48002598497874521 0 -0.29083752472125929 -0.46074509753505782 0 -0.31102748996513963 -0.4759656404507388 0 -0.29361594053798212 -0.48002598497874521 0 -0.26567378381091161 -0.46793986896464029 0 -0.29083752472125929 -0.46074509753505782 0 -0.29361594053798212 -0.48002598497874521 0 -0.29361594053798212 -0.48002598497874521 0 -0.28222433391920992 -0.49201057049671809 0 -0.29077162578326388 -0.49631692155182999 0 -0.28222433391920992 -0.49201057049671809 0 -0.29077162578326388 -0.49631692155182999 0 -0.28771771154904791 -0.50000000000000266 0 -0.28222433391920992 -0.49201057049671809 0 -0.29077162578326388 -0.49631692155182999 0 -0.28222433391920992 -0.49201057049671809 0 -0.28771771154904791 -0.50000000000000266 0 -0.28222433391920992 -0.49201057049671809 0 -0.28771771154904791 -0.50000000000000266 0 -0.2586740949953753 -0.5 0 -0.28222433391920992 -0.49201057049671809 0 -0.26102399488334638 -0.48132928058314789 0 -0.28222433391920992 -0.49201057049671809 0 -0.26102399488334638 -0.48132928058314789 0 -0.2586740949953753 -0.5 0 -0.26567378381091161 -0.46793986896464029 0 -0.28222433391920992 -0.49201057049671809 0 -0.26102399488334638 -0.48132928058314789 0 -0.26567378381091161 -0.46793986896464029 0 -0.28222433391920992 -0.49201057049671809 0 -0.26567378381091161 -0.46793986896464029 0 -0.29361594053798212 -0.48002598497874521 0 -0.28222433391920992 -0.49201057049671809 0 -0.26102399488334638 -0.48132928058314789 0 -0.2398236558474823 -0.47064799066957891 0 -0.26567378381091161 -0.46793986896464029 0 -0.26102399488334638 -0.48132928058314789 0 -0.2398236558474823 -0.47064799066957891 0 -0.26102399488334638 -0.48132928058314789 0 -0.2586740949953753 -0.5 0 -0.24591949142757841 -0.48797769779789751 0 -0.24591949142757841 -0.48797769779789751 0 -0.23472706714459271 -0.48532399533479048 0 -0.22963047844170259 -0.50000000000000178 0 -0.2586740949953753 -0.5 0 -0.24591949142757841 -0.48797769779789751 0 -0.22963047844170259 -0.50000000000000178 0 -0.24591949142757841 -0.48797769779789751 0 -0.23472706714459271 -0.48532399533479048 0 -0.2398236558474823 -0.47064799066957891 0 -0.26102399488334638 -0.48132928058314789 0 -0.24591949142757841 -0.48797769779789751 0 -0.2398236558474823 -0.47064799066957891 0 -0.23472706714459271 -0.48532399533479048 0 -0.2398236558474823 -0.47064799066957891 0 -0.225198485850613 -0.47774010166010122 0 -0.22980099730474959 -0.46559831097254578 0 -0.2030987714368816 -0.47899566093487772 0 -0.23472706714459271 -0.48532399533479048 0 -0.225198485850613 -0.47774010166010122 0 -0.21854193751935819 -0.48813455038871362 0 -0.23472706714459271 -0.48532399533479048 0 -0.2398236558474823 -0.47064799066957891 0 -0.225198485850613 -0.47774010166010122 0 -0.2398236558474823 -0.47064799066957891 0 -0.225198485850613 -0.47774010166010122 0 -0.22980099730474959 -0.46559831097254578 0 -0.23472706714459271 -0.48532399533479048 0 -0.22963047844170259 -0.50000000000000178 0 -0.21854193751935819 -0.48813455038871362 0 -0.23472706714459271 -0.48532399533479048 0 -0.22963047844170259 -0.50000000000000178 0 -0.2491232337026161 -0.44386916743256061 0 -0.2308432700671284 -0.44863327888326782 0 -0.2293848728057081 -0.43656272829720139 0 -0.2491232337026161 -0.44386916743256061 0 -0.23776076022114481 -0.45734261003971088 0 -0.2308432700671284 -0.44863327888326782 0 -0.2398236558474823 -0.47064799066957891 0 -0.2491232337026161 -0.44386916743256061 0 -0.2398236558474823 -0.47064799066957891 0 -0.2491232337026161 -0.44386916743256061 0 -0.23776076022114481 -0.45734261003971088 0 -0.23776076022114481 -0.45734261003971088 0 -0.2349146843043998 -0.46323815571376847 0 -0.23190019161511369 -0.45955092339593079 0 -0.2398236558474823 -0.47064799066957891 0 -0.22980099730474959 -0.46559831097254578 0 -0.2398236558474823 -0.47064799066957891 0 -0.23776076022114481 -0.45734261003971088 0 -0.2349146843043998 -0.46323815571376847 0 -0.2398236558474823 -0.47064799066957891 0 -0.2349146843043998 -0.46323815571376847 0 -0.22980099730474959 -0.46559831097254578 0 -0.2349146843043998 -0.46323815571376847 0 -0.22980099730474959 -0.46559831097254578 0 -0.23190019161511369 -0.45955092339593079 0 -0.22980099730474959 -0.46559831097254578 0 -0.21705433798547111 -0.45917620784540208 0 -0.22980099730474959 -0.46559831097254578 0 -0.22572334214998391 -0.45615972233404328 0 -0.21705433798547111 -0.45917620784540208 0 -0.22572334214998391 -0.45615972233404328 0 -0.2198791919215746 -0.44788572763697648 0 -0.21705433798547111 -0.45917620784540208 0 -0.22572334214998391 -0.45615972233404328 0 -0.23190019161511369 -0.45955092339593079 0 -0.2308432700671284 -0.44863327888326782 0 -0.23776076022114481 -0.45734261003971088 0 -0.23190019161511369 -0.45955092339593079 0 -0.2308432700671284 -0.44863327888326782 0 -0.22980099730474959 -0.46559831097254578 0 -0.22572334214998391 -0.45615972233404328 0 -0.23190019161511369 -0.45955092339593079 0 -0.22572334214998391 -0.45615972233404328 0 -0.2308432700671284 -0.44863327888326782 0 -0.2198791919215746 -0.44788572763697648 0 -0.2198791919215746 -0.44788572763697648 0 -0.21565385882902791 -0.43707619785160112 0 -0.2293848728057081 -0.43656272829720139 0 -0.2308432700671284 -0.44863327888326782 0 -0.2198791919215746 -0.44788572763697648 0 -0.2293848728057081 -0.43656272829720139 0 -0.20696617327377781 -0.44884514537024112 0 -0.21565385882902791 -0.43707619785160112 0 -0.20475046332741861 -0.43652953449414361 0 -0.2198791919215746 -0.44788572763697648 0 -0.20696617327377781 -0.44884514537024112 0 -0.21565385882902791 -0.43707619785160112 0 -0.2198791919215746 -0.44788572763697648 0 -0.20696617327377781 -0.44884514537024112 0 -0.21705433798547111 -0.45917620784540208 0 -0.22980099730474959 -0.46559831097254578 0 -0.21705433798547111 -0.45917620784540208 0 -0.2030987714368816 -0.47899566093487772 0 -0.20696617327377781 -0.44884514537024112 0 -0.21705433798547111 -0.45917620784540208 0 -0.20012728008225009 -0.46162576495763918 0 -0.21705433798547111 -0.45917620784540208 0 -0.20012728008225009 -0.46162576495763918 0 -0.2030987714368816 -0.47899566093487772 0 -0.19214397575398359 -0.44578344946163773 0 -0.18427026066149921 -0.46908823017942403 0 -0.20012728008225009 -0.46162576495763918 0 -0.19214397575398359 -0.44578344946163773 0 -0.18427026066149921 -0.46908823017942403 0 -0.20696617327377781 -0.44884514537024112 0 -0.20012728008225009 -0.46162576495763918 0 -0.19214397575398359 -0.44578344946163773 0 -0.20696617327377781 -0.44884514537024112 0 -0.19214397575398359 -0.44578344946163773 0 -0.20475046332741861 -0.43652953449414361 0 -0.22963047844170259 -0.50000000000000178 0 -0.21854193751935819 -0.48813455038871362 0 -0.2017284695577953 -0.5 0 -0.21854193751935819 -0.48813455038871362 0 -0.2030987714368816 -0.47899566093487772 0 -0.2017284695577953 -0.5 0 -0.22980099730474959 -0.46559831097254578 0 -0.2030987714368816 -0.47899566093487772 0 -0.225198485850613 -0.47774010166010122 0 -0.21854193751935819 -0.48813455038871362 0 -0.2030987714368816 -0.47899566093487772 0 -0.2030987714368816 -0.47899566093487772 0 -0.17639654556901371 -0.49239301089720988 0 -0.18427026066149921 -0.46908823017942403 0 -0.20012728008225009 -0.46162576495763918 0 -0.2030987714368816 -0.47899566093487772 0 -0.18427026066149921 -0.46908823017942403 0 -0.2030987714368816 -0.47899566093487772 0 -0.17639654556901371 -0.49239301089720988 0 -0.2030987714368816 -0.47899566093487772 0 -0.2017284695577953 -0.5 0 -0.17639654556901371 -0.49239301089720988 0 -0.2017284695577953 -0.5 0 -0.17639654556901371 -0.49239301089720988 0 -0.17382646067388799 -0.50000000000000155 0 -0.17639654556901371 -0.49239301089720988 0 -0.17382646067388799 -0.50000000000000155 0 -0.17639654556901371 -0.49239301089720988 0 -0.16221075695562909 -0.50000000000000089 0 -0.17639654556901371 -0.49239301089720988 0 -0.17382646067388799 -0.50000000000000155 0 -0.16221075695562909 -0.50000000000000089 0 -0.17639654556901371 -0.49239301089720988 0 -0.1642542407371621 -0.48572913788752919 0 -0.1700939655564252 -0.4763849154522074 0 -0.17639654556901371 -0.49239301089720988 0 -0.1642542407371621 -0.48572913788752919 0 -0.16221075695562909 -0.50000000000000089 0 -0.1642542407371621 -0.48572913788752919 0 -0.16221075695562909 -0.50000000000000089 0 -0.15470729727515309 -0.48720860935837251 0 -0.15786263832958849 -0.47314868470441562 0 -0.1700939655564252 -0.4763849154522074 0 -0.1661736799200258 -0.45839239395997111 0 -0.1642542407371621 -0.48572913788752919 0 -0.15786263832958849 -0.47314868470441562 0 -0.15470729727515309 -0.48720860935837251 0 -0.1642542407371621 -0.48572913788752919 0 -0.15786263832958849 -0.47314868470441562 0 -0.1700939655564252 -0.4763849154522074 0 -0.17639654556901371 -0.49239301089720988 0 -0.18427026066149921 -0.46908823017942403 0 -0.17639654556901371 -0.49239301089720988 0 -0.1700939655564252 -0.4763849154522074 0 -0.18427026066149921 -0.46908823017942403 0 -0.1700939655564252 -0.4763849154522074 0 -0.18427026066149921 -0.46908823017942403 0 -0.1661736799200258 -0.45839239395997111 0 -0.19214397575398359 -0.44578344946163773 0 -0.18427026066149921 -0.46908823017942403 0 -0.1661736799200258 -0.45839239395997111 0 -0.19214397575398359 -0.44578344946163773 0 -0.1661736799200258 -0.45839239395997111 0 -0.1697158845179895 -0.43423426132176668 0 -0.14464721211569409 -0.44519521776813847 0 -0.1697158845179895 -0.43423426132176668 0 -0.1661736799200258 -0.45839239395997111 0 -0.14464721211569409 -0.44519521776813847 0 -0.1697158845179895 -0.43423426132176668 0 -0.15786263832958849 -0.47314868470441562 0 -0.1661736799200258 -0.45839239395997111 0 -0.14368247182686311 -0.4629492587317241 0 -0.1661736799200258 -0.45839239395997111 0 -0.14368247182686311 -0.4629492587317241 0 -0.14464721211569409 -0.44519521776813847 0 -0.14464721211569409 -0.44519521776813847 0 -0.1195785397133988 -0.45615617421451032 0 -0.1130772085521464 -0.43766298097986289 0 -0.14464721211569409 -0.44519521776813847 0 -0.1195785397133988 -0.45615617421451032 0 -0.14368247182686311 -0.4629492587317241 0 -0.14464721211569409 -0.44519521776813847 0 -0.1195785397133988 -0.45615617421451032 0 -0.14368247182686311 -0.4629492587317241 0 -0.13603472158864199 -0.48001898059572412 0 -0.1195785397133988 -0.45615617421451032 0 -0.13603472158864199 -0.48001898059572412 0 -0.14807269224560959 -0.5 0 -0.1223189238173311 -0.5 0 -0.13603472158864199 -0.48001898059572412 0 -0.14807269224560959 -0.5 0 -0.15470729727515309 -0.48720860935837251 0 -0.16221075695562909 -0.50000000000000089 0 -0.14807269224560959 -0.5 0 -0.15470729727515309 -0.48720860935837251 0 -0.15786263832958849 -0.47314868470441562 0 -0.14368247182686311 -0.4629492587317241 0 -0.13603472158864199 -0.48001898059572412 0 -0.15786263832958849 -0.47314868470441562 0 -0.13603472158864199 -0.48001898059572412 0 -0.15470729727515309 -0.48720860935837251 0 -0.14682123538076611 -0.38879446859826788 0 -0.13953032480614219 -0.4065366508835706 0 -0.15848101257854019 -0.41038597936223198 0 -0.14682123538076611 -0.38879446859826788 0 -0.16408149570558539 -0.38390439229673601 0 -0.15715566735953521 -0.36974080373051049 0 -0.14682123538076611 -0.38879446859826788 0 -0.12245845528947689 -0.37721081897995212 0 -0.14682123538076611 -0.38879446859826788 0 -0.1217783424510834 -0.39824608269263362 0 -0.12245845528947689 -0.37721081897995212 0 -0.14682123538076611 -0.38879446859826788 0 -0.13953032480614219 -0.4065366508835706 0 -0.1217783424510834 -0.39824608269263362 0 -0.13953032480614219 -0.4065366508835706 0 -0.12426836426920559 -0.42242943770303321 0 -0.1217783424510834 -0.39824608269263362 0 -0.13953032480614219 -0.4065366508835706 0 -0.14722099617005191 -0.42199354576108511 0 -0.12426836426920559 -0.42242943770303321 0 -0.14464721211569409 -0.44519521776813847 0 -0.1130772085521464 -0.43766298097986289 0 -0.12426836426920559 -0.42242943770303321 0 -0.14464721211569409 -0.44519521776813847 0 -0.14722099617005191 -0.42199354576108511 0 -0.12426836426920559 -0.42242943770303321 0 -0.14722099617005191 -0.42199354576108511 0 -0.12426836426920559 -0.42242943770303321 0 -0.14464721211569409 -0.44519521776813847 0 -0.14722099617005191 -0.42199354576108511 0 -0.1697158845179895 -0.43423426132176668 0 -0.13953032480614219 -0.4065366508835706 0 -0.14722099617005191 -0.42199354576108511 0 -0.15848101257854019 -0.41038597936223198 0 -0.14722099617005191 -0.42199354576108511 0 -0.17017362807089831 -0.42155765381913701 0 -0.14722099617005191 -0.42199354576108511 0 -0.15848101257854019 -0.41038597936223198 0 -0.17017362807089831 -0.42155765381913701 0 -0.15848101257854019 -0.41038597936223198 0 -0.17017362807089831 -0.42155765381913701 0 -0.1704957579709673 -0.41076543060101689 0 -0.15848101257854019 -0.41038597936223198 0 -0.1704957579709673 -0.41076543060101689 0 -0.1711840154720552 -0.40037811821658381 0 -0.14722099617005191 -0.42199354576108511 0 -0.17017362807089831 -0.42155765381913701 0 -0.1697158845179895 -0.43423426132176668 0 -0.1697158845179895 -0.43423426132176668 0 -0.1947845569202849 -0.42327330487539488 0 -0.19312625997174479 -0.4211217618771888 0 -0.1697158845179895 -0.43423426132176668 0 -0.1947845569202849 -0.42327330487539488 0 -0.19214397575398359 -0.44578344946163773 0 -0.1697158845179895 -0.43423426132176668 0 -0.1947845569202849 -0.42327330487539488 0 -0.17017362807089831 -0.42155765381913701 0 -0.1697158845179895 -0.43423426132176668 0 -0.19312625997174479 -0.4211217618771888 0 -0.17017362807089831 -0.42155765381913701 0 -0.19312625997174479 -0.4211217618771888 0 -0.17017362807089831 -0.42155765381913701 0 -0.18070257142306759 -0.40992729525856819 0 -0.19312625997174479 -0.4211217618771888 0 -0.1704957579709673 -0.41076543060101689 0 -0.18070257142306759 -0.40992729525856819 0 -0.1711840154720552 -0.40037811821658381 0 -0.17017362807089831 -0.42155765381913701 0 -0.1704957579709673 -0.41076543060101689 0 -0.18070257142306759 -0.40992729525856819 0 -0.18070257142306759 -0.40992729525856819 0 -0.18661463975974671 -0.38927830867645441 0 -0.19042124460492729 -0.41251875189663523 0 -0.18070257142306759 -0.40992729525856819 0 -0.1711840154720552 -0.40037811821658381 0 -0.18661463975974671 -0.38927830867645441 0 -0.1711840154720552 -0.40037811821658381 0 -0.16408149570558539 -0.38390439229673601 0 -0.18661463975974671 -0.38927830867645441 0 -0.14682123538076611 -0.38879446859826788 0 -0.15848101257854019 -0.41038597936223198 0 -0.1711840154720552 -0.40037811821658381 0 -0.14682123538076611 -0.38879446859826788 0 -0.1711840154720552 -0.40037811821658381 0 -0.16408149570558539 -0.38390439229673601 0 -0.14682123538076611 -0.38879446859826788 0 -0.1711840154720552 -0.40037811821658381 0 -0.18661463975974671 -0.38927830867645441 0 -0.17436381335051601 -0.36920393731860379 0 -0.16408149570558539 -0.38390439229673601 0 -0.18661463975974671 -0.38927830867645441 0 -0.17436381335051601 -0.36920393731860379 0 -0.18661463975974671 -0.38927830867645441 0 -0.19498298012446841 -0.37381376166100272 0 -0.17436381335051601 -0.36920393731860379 0 -0.18661463975974671 -0.38927830867645441 0 -0.20459189378062989 -0.38827295472266149 0 -0.19498298012446841 -0.37381376166100272 0 -0.18661463975974671 -0.38927830867645441 0 -0.19042124460492729 -0.41251875189663523 0 -0.19886546616897721 -0.40935268003430503 0 -0.18661463975974671 -0.38927830867645441 0 -0.19959911876630329 -0.39677138098475678 0 -0.19886546616897721 -0.40935268003430503 0 -0.18661463975974671 -0.38927830867645441 0 -0.19959911876630329 -0.39677138098475678 0 -0.20459189378062989 -0.38827295472266149 0 -0.18661463975974671 -0.38927830867645441 0 -0.19886546616897721 -0.40935268003430503 0 -0.19959911876630329 -0.39677138098475678 0 -0.2083244753558596 -0.40018158050560643 0 -0.19886546616897721 -0.40935268003430503 0 -0.19959911876630329 -0.39677138098475678 0 -0.2083244753558596 -0.40018158050560643 0 -0.20459189378062989 -0.38827295472266149 0 -0.2083244753558596 -0.40018158050560643 0 -0.21800526320487651 -0.39275229174050041 0 -0.20459189378062989 -0.38827295472266149 0 -0.2083244753558596 -0.40018158050560643 0 -0.21800526320487651 -0.39275229174050041 0 -0.21985322932258031 -0.41231234842902309 0 -0.21800526320487651 -0.39275229174050041 0 -0.20459189378062989 -0.38827295472266149 0 -0.21271008392445939 -0.36915025800682738 0 -0.20459189378062989 -0.38827295472266149 0 -0.19498298012446841 -0.37381376166100272 0 -0.21271008392445939 -0.36915025800682738 0 -0.19214397575398359 -0.44578344946163773 0 -0.200017690846468 -0.42247866874385148 0 -0.19214397575398359 -0.44578344946163773 0 -0.200017690846468 -0.42247866874385148 0 -0.20475046332741861 -0.43652953449414361 0 -0.19214397575398359 -0.44578344946163773 0 -0.1947845569202849 -0.42327330487539488 0 -0.200017690846468 -0.42247866874385148 0 -0.1947845569202849 -0.42327330487539488 0 -0.19312625997174479 -0.4211217618771888 0 -0.19886546616897721 -0.40935268003430503 0 -0.18070257142306759 -0.40992729525856819 0 -0.19312625997174479 -0.4211217618771888 0 -0.19042124460492729 -0.41251875189663523 0 -0.19312625997174479 -0.4211217618771888 0 -0.19042124460492729 -0.41251875189663523 0 -0.19886546616897721 -0.40935268003430503 0 -0.1947845569202849 -0.42327330487539488 0 -0.200017690846468 -0.42247866874385148 0 -0.21985322932258031 -0.41231234842902309 0 -0.1947845569202849 -0.42327330487539488 0 -0.21985322932258031 -0.41231234842902309 0 -0.1947845569202849 -0.42327330487539488 0 -0.19886546616897721 -0.40935268003430503 0 -0.21985322932258031 -0.41231234842902309 0 -0.200017690846468 -0.42247866874385148 0 -0.21258346236220799 -0.42677445176461221 0 -0.21985322932258031 -0.41231234842902309 0 -0.2083244753558596 -0.40018158050560643 0 -0.19886546616897721 -0.40935268003430503 0 -0.21985322932258031 -0.41231234842902309 0 -0.200017690846468 -0.42247866874385148 0 -0.21258346236220799 -0.42677445176461221 0 -0.20475046332741861 -0.43652953449414361 0 -0.21258346236220799 -0.42677445176461221 0 -0.21565385882902791 -0.43707619785160112 0 -0.20475046332741861 -0.43652953449414361 0 -0.21258346236220799 -0.42677445176461221 0 -0.21565385882902791 -0.43707619785160112 0 -0.22555741770817511 -0.42586670472699401 0 -0.2293848728057081 -0.43656272829720139 0 -0.22555741770817511 -0.42586670472699401 0 -0.2372850357534679 -0.42665199171048668 0 -0.21565385882902791 -0.43707619785160112 0 -0.2293848728057081 -0.43656272829720139 0 -0.22555741770817511 -0.42586670472699401 0 -0.22555741770817511 -0.42586670472699401 0 -0.23858404717605869 -0.41582251030903977 0 -0.2372850357534679 -0.42665199171048668 0 -0.22555741770817511 -0.42586670472699401 0 -0.21985322932258031 -0.41231234842902309 0 -0.23858404717605869 -0.41582251030903977 0 -0.21985322932258031 -0.41231234842902309 0 -0.245038587939852 -0.4013003724272578 0 -0.21258346236220799 -0.42677445176461221 0 -0.22555741770817511 -0.42586670472699401 0 -0.21985322932258031 -0.41231234842902309 0 -0.21985322932258031 -0.41231234842902309 0 -0.23858404717605869 -0.41582251030903977 0 -0.245038587939852 -0.4013003724272578 0 -0.24689695374805551 -0.40876130060916949 0 -0.23858404717605869 -0.41582251030903977 0 -0.245038587939852 -0.4013003724272578 0 -0.24689695374805551 -0.40876130060916949 0 -0.23858404717605869 -0.41582251030903977 0 -0.24619042706411781 -0.4220704466267769 0 -0.23858404717605869 -0.41582251030903977 0 -0.2372850357534679 -0.42665199171048668 0 -0.24619042706411781 -0.4220704466267769 0 -0.2491232337026161 -0.44386916743256061 0 -0.2372850357534679 -0.42665199171048668 0 -0.2491232337026161 -0.44386916743256061 0 -0.2293848728057081 -0.43656272829720139 0 -0.2372850357534679 -0.42665199171048668 0 -0.2491232337026161 -0.44386916743256061 0 -0.2372850357534679 -0.42665199171048668 0 -0.24619042706411781 -0.4220704466267769 0 -0.22878569804192911 -0.38513716643318863 0 -0.21271008392445939 -0.36915025800682738 0 -0.22878569804192911 -0.38513716643318863 0 -0.22635213556942849 -0.37150837166600459 0 -0.21271008392445939 -0.36915025800682738 0 -0.21800526320487651 -0.39275229174050041 0 -0.22878569804192911 -0.38513716643318863 0 -0.21271008392445939 -0.36915025800682738 0 -0.22878569804192911 -0.38513716643318863 0 -0.23865808147585479 -0.37785108153337932 0 -0.22635213556942849 -0.37150837166600459 0 -0.21800526320487651 -0.39275229174050041 0 -0.22878569804192911 -0.38513716643318863 0 -0.23162728082227529 -0.39863757738584182 0 -0.21985322932258031 -0.41231234842902309 0 -0.23162728082227529 -0.39863757738584182 0 -0.245038587939852 -0.4013003724272578 0 -0.21800526320487651 -0.39275229174050041 0 -0.21985322932258031 -0.41231234842902309 0 -0.23162728082227529 -0.39863757738584182 0 -0.22878569804192911 -0.38513716643318863 0 -0.245038587939852 -0.4013003724272578 0 -0.22878569804192911 -0.38513716643318863 0 -0.23162728082227529 -0.39863757738584182 0 -0.245038587939852 -0.4013003724272578 0 -0.24689695374805551 -0.40876130060916949 0 -0.245038587939852 -0.4013003724272578 0 -0.2500437161492321 -0.39527344023300381 0 -0.245038587939852 -0.4013003724272578 0 -0.24920722146078561 -0.38750249992417568 0 -0.245038587939852 -0.4013003724272578 0 -0.24920722146078561 -0.38750249992417568 0 -0.23865808147585479 -0.37785108153337932 0 -0.22878569804192911 -0.38513716643318863 0 -0.245038587939852 -0.4013003724272578 0 -0.23865808147585479 -0.37785108153337932 0 -0.245038587939852 -0.4013003724272578 0 -0.23865808147585479 -0.37785108153337932 0 -0.25232805927103041 -0.37692263739255988 0 -0.24920722146078561 -0.38750249992417568 0 -0.23865808147585479 -0.37785108153337932 0 -0.25376857312185103 -0.36290262505178228 0 -0.25232805927103041 -0.37692263739255988 0 -0.23865808147585479 -0.37785108153337932 0 -0.23865808147585479 -0.37785108153337932 0 -0.23245485079230829 -0.35457808820721037 0 -0.25376857312185103 -0.36290262505178228 0 -0.23865808147585479 -0.37785108153337932 0 -0.23245485079230829 -0.35457808820721037 0 -0.22635213556942849 -0.37150837166600459 0 -0.23245485079230829 -0.35457808820721037 0 -0.21271008392445939 -0.36915025800682738 0 -0.23865808147585479 -0.37785108153337932 0 -0.22635213556942849 -0.37150837166600459 0 -0.23245485079230829 -0.35457808820721037 0 -0.23245485079230829 -0.35457808820721037 0 -0.21271008392445939 -0.36915025800682738 0 -0.21483482909902191 -0.34846891163725791 0 -0.23245485079230829 -0.35457808820721037 0 -0.22625162010876179 -0.33130509488104137 0 -0.21483482909902191 -0.34846891163725791 0 -0.23245485079230829 -0.35457808820721037 0 -0.24989579750610849 -0.34760382400854267 0 -0.2414109067523551 -0.33670981635275599 0 -0.25376857312185103 -0.36290262505178228 0 -0.23245485079230829 -0.35457808820721037 0 -0.24989579750610849 -0.34760382400854267 0 -0.25551182357448232 -0.33586001051792308 0 -0.24989579750610849 -0.34760382400854267 0 -0.2414109067523551 -0.33670981635275599 0 -0.25551182357448232 -0.33586001051792308 0 -0.25054650546405122 -0.32395998674240822 0 -0.2414109067523551 -0.33670981635275599 0 -0.25054650546405122 -0.32395998674240822 0 -0.2414109067523551 -0.33670981635275599 0 -0.23674499114423969 -0.3249649135530005 0 -0.2414109067523551 -0.33670981635275599 0 -0.23674499114423969 -0.3249649135530005 0 -0.22625162010876179 -0.33130509488104137 0 -0.25054650546405122 -0.32395998674240822 0 -0.23674499114423969 -0.3249649135530005 0 -0.24136106976678079 -0.31123553463711268 0 -0.25054650546405122 -0.32395998674240822 0 -0.25439597630510458 -0.30858987618539663 0 -0.24136106976678079 -0.31123553463711268 0 -0.23674499114423969 -0.3249649135530005 0 -0.22329502840821849 -0.30201379184774357 0 -0.23674499114423969 -0.3249649135530005 0 -0.22625162010876179 -0.33130509488104137 0 -0.21495827037992141 -0.31892122608807549 0 -0.23674499114423969 -0.3249649135530005 0 -0.24136106976678079 -0.31123553463711268 0 -0.22329502840821849 -0.30201379184774357 0 -0.23674499114423969 -0.3249649135530005 0 -0.21495827037992141 -0.31892122608807549 0 -0.22329502840821849 -0.30201379184774357 0 -0.23245485079230829 -0.35457808820721037 0 -0.22625162010876179 -0.33130509488104137 0 -0.23245485079230829 -0.35457808820721037 0 -0.2414109067523551 -0.33670981635275599 0 -0.22625162010876179 -0.33130509488104137 0 -0.22625162010876179 -0.33130509488104137 0 -0.20612312086259019 -0.33414776751074438 0 -0.21483482909902191 -0.34846891163725791 0 -0.22625162010876179 -0.33130509488104137 0 -0.20612312086259019 -0.33414776751074438 0 -0.21495827037992141 -0.31892122608807549 0 -0.21495827037992141 -0.31892122608807549 0 -0.19263329763138359 -0.31902793267681251 0 -0.2050548817946822 -0.30236263247287609 0 -0.20612312086259019 -0.33414776751074438 0 -0.21495827037992141 -0.31892122608807549 0 -0.19263329763138359 -0.31902793267681251 0 -0.20612312086259019 -0.33414776751074438 0 -0.18983794162216269 -0.33795265309585348 0 -0.1966344698069897 -0.35316334958046619 0 -0.20612312086259019 -0.33414776751074438 0 -0.19263329763138359 -0.31902793267681251 0 -0.18983794162216269 -0.33795265309585348 0 -0.18983794162216269 -0.33795265309585348 0 -0.1966344698069897 -0.35316334958046619 0 -0.17948495516710511 -0.34825906283460029 0 -0.1966344698069897 -0.35316334958046619 0 -0.19498298012446841 -0.37381376166100272 0 -0.17436381335051601 -0.36920393731860379 0 -0.1966344698069897 -0.35316334958046619 0 -0.19498298012446841 -0.37381376166100272 0 -0.21271008392445939 -0.36915025800682738 0 -0.1966344698069897 -0.35316334958046619 0 -0.21271008392445939 -0.36915025800682738 0 -0.1966344698069897 -0.35316334958046619 0 -0.21271008392445939 -0.36915025800682738 0 -0.21483482909902191 -0.34846891163725791 0 -0.20612312086259019 -0.33414776751074438 0 -0.1966344698069897 -0.35316334958046619 0 -0.21483482909902191 -0.34846891163725791 0 -0.2345738197544574 -0.2535776733873526 0 -0.2157262119262304 -0.2584871452865905 0 -0.2169351205791176 -0.23928729075814181 0 -0.2345738197544574 -0.2535776733873526 0 -0.22702695668690509 -0.27010447627339379 0 -0.2157262119262304 -0.2584871452865905 0 -0.25606843302098309 -0.25636966241633519 0 -0.2345738197544574 -0.2535776733873526 0 -0.24477196931982659 -0.27565775886255373 0 -0.2345738197544574 -0.2535776733873526 0 -0.24477196931982659 -0.27565775886255373 0 -0.22702695668690509 -0.27010447627339379 0 -0.24477196931982659 -0.27565775886255373 0 -0.22702695668690509 -0.27010447627339379 0 -0.2293523735198876 -0.28469756039663852 0 -0.22702695668690509 -0.27010447627339379 0 -0.2293523735198876 -0.28469756039663852 0 -0.2098450656721973 -0.27906267014248659 0 -0.2293523735198876 -0.28469756039663852 0 -0.22329502840821849 -0.30201379184774357 0 -0.2098450656721973 -0.27906267014248659 0 -0.2293523735198876 -0.28469756039663852 0 -0.24182284751229011 -0.29664910485701462 0 -0.22329502840821849 -0.30201379184774357 0 -0.24477196931982659 -0.27565775886255373 0 -0.2293523735198876 -0.28469756039663852 0 -0.24182284751229011 -0.29664910485701462 0 -0.26002489615146268 -0.29163393889111838 0 -0.24477196931982659 -0.27565775886255373 0 -0.24182284751229011 -0.29664910485701462 0 -0.24182284751229011 -0.29664910485701462 0 -0.24136106976678079 -0.31123553463711268 0 -0.22329502840821849 -0.30201379184774357 0 -0.25439597630510458 -0.30858987618539663 0 -0.24182284751229011 -0.29664910485701462 0 -0.24136106976678079 -0.31123553463711268 0 -0.21495827037992141 -0.31892122608807549 0 -0.22329502840821849 -0.30201379184774357 0 -0.2050548817946822 -0.30236263247287609 0 -0.19263329763138359 -0.31902793267681251 0 -0.2050548817946822 -0.30236263247287609 0 -0.18762367696712201 -0.29535799193729712 0 -0.18762367696712201 -0.29535799193729712 0 -0.2098450656721973 -0.27906267014248659 0 -0.18915467320104101 -0.27402808097755249 0 -0.2050548817946822 -0.30236263247287609 0 -0.18762367696712201 -0.29535799193729712 0 -0.2098450656721973 -0.27906267014248659 0 -0.22329502840821849 -0.30201379184774357 0 -0.2098450656721973 -0.27906267014248659 0 -0.22329502840821849 -0.30201379184774357 0 -0.2050548817946822 -0.30236263247287609 0 -0.2098450656721973 -0.27906267014248659 0 -0.22702695668690509 -0.27010447627339379 0 -0.2098450656721973 -0.27906267014248659 0 -0.2157262119262304 -0.2584871452865905 0 -0.2098450656721973 -0.27906267014248659 0 -0.19639510293617601 -0.25611154843722972 0 -0.2098450656721973 -0.27906267014248659 0 -0.18915467320104101 -0.27402808097755249 0 -0.19639510293617601 -0.25611154843722972 0 -0.19639510293617601 -0.25611154843722972 0 -0.17894125144676101 -0.25938846464192622 0 -0.1927269721952623 -0.23802934634911169 0 -0.18915467320104101 -0.27402808097755249 0 -0.19639510293617601 -0.25611154843722972 0 -0.17894125144676101 -0.25938846464192622 0 -0.19639510293617601 -0.25611154843722972 0 -0.2157262119262304 -0.2584871452865905 0 -0.2169351205791176 -0.23928729075814181 0 -0.2098450656721973 -0.27906267014248659 0 -0.19639510293617601 -0.25611154843722972 0 -0.2157262119262304 -0.2584871452865905 0 -0.16213576413331901 -0.25364819393533983 0 -0.17894125144676101 -0.25938846464192622 0 -0.16298892681981669 -0.26747315361741791 0 -0.16213576413331901 -0.25364819393533983 0 -0.16298892681981669 -0.26747315361741791 0 -0.14710715992940279 -0.26255648642596507 0 -0.18915467320104101 -0.27402808097755249 0 -0.17894125144676101 -0.25938846464192622 0 -0.17296826898294859 -0.28021972972882297 0 -0.17296826898294859 -0.28021972972882297 0 -0.16298892681981669 -0.26747315361741791 0 -0.15379218960665181 -0.28155289335503542 0 -0.17894125144676101 -0.25938846464192622 0 -0.17296826898294859 -0.28021972972882297 0 -0.16298892681981669 -0.26747315361741791 0 -0.17296826898294859 -0.28021972972882297 0 -0.16377922796640279 -0.30156396911812361 0 -0.15379218960665181 -0.28155289335503542 0 -0.18762367696712201 -0.29535799193729712 0 -0.18915467320104101 -0.27402808097755249 0 -0.17296826898294859 -0.28021972972882297 0 -0.18762367696712201 -0.29535799193729712 0 -0.17296826898294859 -0.28021972972882297 0 -0.16377922796640279 -0.30156396911812361 0 -0.18762367696712201 -0.29535799193729712 0 -0.16377922796640279 -0.30156396911812361 0 -0.17611766919673261 -0.31374648551224782 0 -0.19263329763138359 -0.31902793267681251 0 -0.18762367696712201 -0.29535799193729712 0 -0.17611766919673261 -0.31374648551224782 0 -0.16377922796640279 -0.30156396911812361 0 -0.17611766919673261 -0.31374648551224782 0 -0.16207657930418301 -0.32093672561168157 0 -0.16377922796640279 -0.30156396911812361 0 -0.1451900588420664 -0.29932624794601193 0 -0.14735833977434859 -0.31757976917900099 0 -0.16377922796640279 -0.30156396911812361 0 -0.14735833977434859 -0.31757976917900099 0 -0.1451900588420664 -0.29932624794601193 0 -0.12648370928348551 -0.31104944339867441 0 -0.13027567592362391 -0.29430901659598813 0 -0.1451900588420664 -0.29932624794601193 0 -0.12648370928348551 -0.31104944339867441 0 -0.14735833977434859 -0.31757976917900099 0 -0.13027567592362391 -0.29430901659598813 0 -0.13615702443232869 -0.28003214896116752 0 -0.1169346354438304 -0.2794252909740268 0 -0.1451900588420664 -0.29932624794601193 0 -0.13027567592362391 -0.29430901659598813 0 -0.13615702443232869 -0.28003214896116752 0 -0.16377922796640279 -0.30156396911812361 0 -0.1451900588420664 -0.29932624794601193 0 -0.15379218960665181 -0.28155289335503542 0 -0.1451900588420664 -0.29932624794601193 0 -0.15379218960665181 -0.28155289335503542 0 -0.13615702443232869 -0.28003214896116752 0 -0.15379218960665181 -0.28155289335503542 0 -0.13615702443232869 -0.28003214896116752 0 -0.14710715992940279 -0.26255648642596507 0 -0.16298892681981669 -0.26747315361741791 0 -0.15379218960665181 -0.28155289335503542 0 -0.14710715992940279 -0.26255648642596507 0 -0.13615702443232869 -0.28003214896116752 0 -0.1298769943854616 -0.26544404850233227 0 -0.14710715992940279 -0.26255648642596507 0 -0.13615702443232869 -0.28003214896116752 0 -0.1298769943854616 -0.26544404850233227 0 -0.1169346354438304 -0.2794252909740268 0 -0.1298769943854616 -0.26544404850233227 0 -0.14710715992940279 -0.26255648642596507 0 -0.1396029791942078 -0.24239269199167149 0 -0.1298769943854616 -0.26544404850233227 0 -0.12328477412140371 -0.25011208707580329 0 -0.1396029791942078 -0.24239269199167149 0 -0.16213576413331901 -0.25364819393533983 0 -0.14710715992940279 -0.26255648642596507 0 -0.1396029791942078 -0.24239269199167149 0 -0.16211298694128551 -0.34912956596075329 0 -0.17436381335051601 -0.36920393731860379 0 -0.16211298694128551 -0.34912956596075329 0 -0.15715566735953521 -0.36974080373051049 0 -0.17436381335051601 -0.36920393731860379 0 -0.16408149570558539 -0.38390439229673601 0 -0.15715566735953521 -0.36974080373051049 0 -0.17436381335051601 -0.36920393731860379 0 -0.16211298694128551 -0.34912956596075329 0 -0.17436381335051601 -0.36920393731860379 0 -0.17948495516710511 -0.34825906283460029 0 -0.1966344698069897 -0.35316334958046619 0 -0.17436381335051601 -0.36920393731860379 0 -0.17948495516710511 -0.34825906283460029 0 -0.18983794162216269 -0.33795265309585348 0 -0.17948495516710511 -0.34825906283460029 0 -0.17447556411457141 -0.33184580821732429 0 -0.16211298694128551 -0.34912956596075329 0 -0.17948495516710511 -0.34825906283460029 0 -0.17447556411457141 -0.33184580821732429 0 -0.19263329763138359 -0.31902793267681251 0 -0.18983794162216269 -0.33795265309585348 0 -0.17447556411457141 -0.33184580821732429 0 -0.19263329763138359 -0.31902793267681251 0 -0.17447556411457141 -0.33184580821732429 0 -0.17611766919673261 -0.31374648551224782 0 -0.16377922796640279 -0.30156396911812361 0 -0.16207657930418301 -0.32093672561168157 0 -0.14735833977434859 -0.31757976917900099 0 -0.17447556411457141 -0.33184580821732429 0 -0.17611766919673261 -0.31374648551224782 0 -0.16207657930418301 -0.32093672561168157 0 -0.16207657930418301 -0.32093672561168157 0 -0.16213182272302371 -0.33274182359816551 0 -0.14986216053205489 -0.32905519460290278 0 -0.16211298694128551 -0.34912956596075329 0 -0.16213182272302371 -0.33274182359816551 0 -0.14986216053205489 -0.32905519460290278 0 -0.16211298694128551 -0.34912956596075329 0 -0.17447556411457141 -0.33184580821732429 0 -0.16213182272302371 -0.33274182359816551 0 -0.17447556411457141 -0.33184580821732429 0 -0.16207657930418301 -0.32093672561168157 0 -0.16213182272302371 -0.33274182359816551 0 -0.14428483646896231 -0.34267011483539722 0 -0.14986216053205489 -0.32905519460290278 0 -0.1309374515822945 -0.33359556923987838 0 -0.16211298694128551 -0.34912956596075329 0 -0.14428483646896231 -0.34267011483539722 0 -0.14986216053205489 -0.32905519460290278 0 -0.16211298694128551 -0.34912956596075329 0 -0.14986216053205489 -0.32905519460290278 0 -0.14986216053205489 -0.32905519460290278 0 -0.14735833977434859 -0.31757976917900099 0 -0.1309374515822945 -0.33359556923987838 0 -0.16207657930418301 -0.32093672561168157 0 -0.14986216053205489 -0.32905519460290278 0 -0.14735833977434859 -0.31757976917900099 0 -0.12648370928348551 -0.31104944339867441 0 -0.14735833977434859 -0.31757976917900099 0 -0.1309374515822945 -0.33359556923987838 0 -0.14735833977434859 -0.31757976917900099 0 -0.1309374515822945 -0.33359556923987838 0 -0.14428483646896231 -0.34267011483539722 0 -0.1309374515822945 -0.33359556923987838 0 -0.13839880541952321 -0.35767165447819149 0 -0.1309374515822945 -0.33359556923987838 0 -0.13839880541952321 -0.35767165447819149 0 -0.1145165633902403 -0.34961136930075581 0 -0.16211298694128551 -0.34912956596075329 0 -0.14428483646896231 -0.34267011483539722 0 -0.13839880541952321 -0.35767165447819149 0 -0.16211298694128551 -0.34912956596075329 0 -0.15715566735953521 -0.36974080373051049 0 -0.13839880541952321 -0.35767165447819149 0 -0.14682123538076611 -0.38879446859826788 0 -0.15715566735953521 -0.36974080373051049 0 -0.13839880541952321 -0.35767165447819149 0 -0.14682123538076611 -0.38879446859826788 0 -0.13839880541952321 -0.35767165447819149 0 -0.12245845528947689 -0.37721081897995212 0 -0.13839880541952321 -0.35767165447819149 0 -0.1145165633902403 -0.34961136930075581 0 -0.12245845528947689 -0.37721081897995212 0 -0.098095675198188237 -0.36562716936163542 0 -0.12245845528947689 -0.37721081897995212 0 -0.098095675198188237 -0.36562716936163542 0 -0.1145165633902403 -0.34961136930075581 0 -0.12245845528947689 -0.37721081897995212 0 -0.098095675198188237 -0.36562716936163542 0 -0.096651533106284299 -0.37216028955965691 0 -0.1080548520621018 -0.38235089945247053 0 -0.098095675198188237 -0.36562716936163542 0 -0.091830235083043443 -0.37173804686131029 0 -0.098095675198188237 -0.36562716936163542 0 -0.096651533106284299 -0.37216028955965691 0 -0.091830235083043443 -0.37173804686131029 0 -0.096651533106284299 -0.37216028955965691 0 -0.091830235083043443 -0.37173804686131029 0 -0.098095675198188237 -0.36562716936163542 0 -0.1145165633902403 -0.34961136930075581 0 -0.095680790957192424 -0.34367268614484042 0 -0.098095675198188237 -0.36562716936163542 0 -0.1145165633902403 -0.34961136930075581 0 -0.1309374515822945 -0.33359556923987838 0 -0.1145165633902403 -0.34961136930075581 0 -0.11140494971023281 -0.32939009980382811 0 -0.1309374515822945 -0.33359556923987838 0 -0.1145165633902403 -0.34961136930075581 0 -0.12648370928348551 -0.31104944339867441 0 -0.11140494971023281 -0.32939009980382811 0 -0.10502264397212289 -0.3082957856036298 0 -0.12648370928348551 -0.31104944339867441 0 -0.1309374515822945 -0.33359556923987838 0 -0.11140494971023281 -0.32939009980382811 0 -0.095788539076061469 -0.33011574513518982 0 -0.086209096638847377 -0.31955890705058698 0 -0.10502264397212289 -0.3082957856036298 0 -0.11140494971023281 -0.32939009980382811 0 -0.095788539076061469 -0.33011574513518982 0 -0.10502264397212289 -0.3082957856036298 0 -0.086209096638847377 -0.31955890705058698 0 -0.10502264397212289 -0.3082957856036298 0 -0.1145165633902403 -0.34961136930075581 0 -0.11140494971023281 -0.32939009980382811 0 -0.095680790957192424 -0.34367268614484042 0 -0.11140494971023281 -0.32939009980382811 0 -0.095788539076061469 -0.33011574513518982 0 -0.095680790957192424 -0.34367268614484042 0 -0.095788539076061469 -0.33011574513518982 0 -0.095680790957192424 -0.34367268614484042 0 -0.082657280295936275 -0.33457757914776259 0 -0.082657280295936275 -0.33457757914776259 0 -0.086209096638847377 -0.31955890705058698 0 -0.067395549305571831 -0.33082202849754422 0 -0.095788539076061469 -0.33011574513518982 0 -0.082657280295936275 -0.33457757914776259 0 -0.086209096638847377 -0.31955890705058698 0 -0.086209096638847377 -0.31955890705058698 0 -0.072564032893435007 -0.31930735653441411 0 -0.076639711326359827 -0.30469445889724223 0 -0.076639711326359827 -0.30469445889724223 0 -0.060011774302961007 -0.32215403169228329 0 -0.072564032893435007 -0.31930735653441411 0 -0.076639711326359827 -0.30469445889724223 0 -0.060011774302961007 -0.32215403169228329 0 -0.086209096638847377 -0.31955890705058698 0 -0.072564032893435007 -0.31930735653441411 0 -0.067395549305571831 -0.33082202849754422 0 -0.086209096638847377 -0.31955890705058698 0 -0.067395549305571831 -0.33082202849754422 0 -0.076639711326359827 -0.30469445889724223 0 -0.058805650447460389 -0.31310066310434281 0 -0.060011774302961007 -0.32215403169228329 0 -0.072564032893435007 -0.31930735653441411 0 -0.067395549305571831 -0.33082202849754422 0 -0.060011774302961007 -0.32215403169228329 0 -0.067395549305571831 -0.33082202849754422 0 -0.073338838585242053 -0.35385615965306888 0 -0.04858200197229641 -0.34208514994450151 0 -0.082657280295936275 -0.33457757914776259 0 -0.067395549305571831 -0.33082202849754422 0 -0.073338838585242053 -0.35385615965306888 0 -0.073338838585242053 -0.35385615965306888 0 -0.062539944435297992 -0.36917284319648369 0 -0.091830235083043443 -0.37173804686131029 0 -0.062539944435297992 -0.36917284319648369 0 -0.091830235083043443 -0.37173804686131029 0 -0.098095675198188237 -0.36562716936163542 0 -0.073338838585242053 -0.35385615965306888 0 -0.098095675198188237 -0.36562716936163542 0 -0.073338838585242053 -0.35385615965306888 0 -0.091830235083043443 -0.37173804686131029 0 -0.095680790957192424 -0.34367268614484042 0 -0.082657280295936275 -0.33457757914776259 0 -0.073338838585242053 -0.35385615965306888 0 -0.098095675198188237 -0.36562716936163542 0 -0.095680790957192424 -0.34367268614484042 0 -0.073338838585242053 -0.35385615965306888 0 -0.1034683851570302 -0.25081812964332789 0 -0.11446324398657549 -0.26362513070912608 0 -0.098751430825151532 -0.27232609735014057 0 -0.1034683851570302 -0.25081812964332789 0 -0.098751430825151532 -0.27232609735014057 0 -0.084425113954690906 -0.25926020895380841 0 -0.1034683851570302 -0.25081812964332789 0 -0.12328477412140371 -0.25011208707580329 0 -0.11446324398657549 -0.26362513070912608 0 -0.1298769943854616 -0.26544404850233227 0 -0.12328477412140371 -0.25011208707580329 0 -0.11446324398657549 -0.26362513070912608 0 -0.11446324398657549 -0.26362513070912608 0 -0.1169346354438304 -0.2794252909740268 0 -0.098751430825151532 -0.27232609735014057 0 -0.1298769943854616 -0.26544404850233227 0 -0.11446324398657549 -0.26362513070912608 0 -0.1169346354438304 -0.2794252909740268 0 -0.1169346354438304 -0.2794252909740268 0 -0.098751430825151532 -0.27232609735014057 0 -0.10288837352252719 -0.28960493133553328 0 -0.098751430825151532 -0.27232609735014057 0 -0.10288837352252719 -0.28960493133553328 0 -0.089402110110639588 -0.2862348075727395 0 -0.10288837352252719 -0.28960493133553328 0 -0.093763403920078758 -0.29742631509484041 0 -0.089402110110639588 -0.2862348075727395 0 -0.1169346354438304 -0.2794252909740268 0 -0.10288837352252719 -0.28960493133553328 0 -0.1156733204456077 -0.2955084106195674 0 -0.13027567592362391 -0.29430901659598813 0 -0.1169346354438304 -0.2794252909740268 0 -0.1156733204456077 -0.2955084106195674 0 -0.12648370928348551 -0.31104944339867441 0 -0.1156733204456077 -0.2955084106195674 0 -0.10502264397212289 -0.3082957856036298 0 -0.12648370928348551 -0.31104944339867441 0 -0.13027567592362391 -0.29430901659598813 0 -0.1156733204456077 -0.2955084106195674 0 -0.10502264397212289 -0.3082957856036298 0 -0.093763403920078758 -0.29742631509484041 0 -0.08899685101814403 -0.30667703820415582 0 -0.10288837352252719 -0.28960493133553328 0 -0.1156733204456077 -0.2955084106195674 0 -0.10502264397212289 -0.3082957856036298 0 -0.10288837352252719 -0.28960493133553328 0 -0.10502264397212289 -0.3082957856036298 0 -0.093763403920078758 -0.29742631509484041 0 -0.086209096638847377 -0.31955890705058698 0 -0.10502264397212289 -0.3082957856036298 0 -0.08899685101814403 -0.30667703820415582 0 -0.093763403920078758 -0.29742631509484041 0 -0.08899685101814403 -0.30667703820415582 0 -0.082507040976960072 -0.29631901275814382 0 -0.08899685101814403 -0.30667703820415582 0 -0.076639711326359827 -0.30469445889724223 0 -0.082507040976960072 -0.29631901275814382 0 -0.086209096638847377 -0.31955890705058698 0 -0.08899685101814403 -0.30667703820415582 0 -0.076639711326359827 -0.30469445889724223 0 -0.076639711326359827 -0.30469445889724223 0 -0.062509543349592148 -0.30508319577930187 0 -0.082507040976960072 -0.29631901275814382 0 -0.062509543349592148 -0.30508319577930187 0 -0.082507040976960072 -0.29631901275814382 0 -0.076639711326359827 -0.30469445889724223 0 -0.062509543349592148 -0.30508319577930187 0 -0.058805650447460389 -0.31310066310434281 0 -0.062509543349592148 -0.30508319577930187 0 -0.068260954466078133 -0.29066967611856082 0 -0.082507040976960072 -0.29631901275814382 0 -0.068260954466078133 -0.29066967611856082 0 -0.077548826560800824 -0.28613698239687352 0 -0.082507040976960072 -0.29631901275814382 0 -0.068260954466078133 -0.29066967611856082 0 -0.064734454358871679 -0.2789252861434518 0 -0.056411168136706748 -0.28961158313365609 0 -0.068260954466078133 -0.29066967611856082 0 -0.077548826560800824 -0.28613698239687352 0 -0.064734454358871679 -0.2789252861434518 0 -0.077548826560800824 -0.28613698239687352 0 -0.089402110110639588 -0.2862348075727395 0 -0.081308562812041407 -0.27494567914737561 0 -0.077548826560800824 -0.28613698239687352 0 -0.082507040976960072 -0.29631901275814382 0 -0.089402110110639588 -0.2862348075727395 0 -0.093763403920078758 -0.29742631509484041 0 -0.082507040976960072 -0.29631901275814382 0 -0.089402110110639588 -0.2862348075727395 0 -0.098751430825151532 -0.27232609735014057 0 -0.089402110110639588 -0.2862348075727395 0 -0.081308562812041407 -0.27494567914737561 0 -0.098751430825151532 -0.27232609735014057 0 -0.081308562812041407 -0.27494567914737561 0 -0.084425113954690906 -0.25926020895380841 0 -0.081308562812041407 -0.27494567914737561 0 -0.06986583199269418 -0.26484160315896271 0 -0.084425113954690906 -0.25926020895380841 0 -0.081308562812041407 -0.27494567914737561 0 -0.064734454358871679 -0.2789252861434518 0 -0.06986583199269418 -0.26484160315896271 0 -0.064734454358871679 -0.2789252861434518 0 -0.06986583199269418 -0.26484160315896271 0 -0.054199348714107851 -0.26350367731814422 0 -0.077548826560800824 -0.28613698239687352 0 -0.081308562812041407 -0.27494567914737561 0 -0.064734454358871679 -0.2789252861434518 0 -0.06986583199269418 -0.26484160315896271 0 -0.054199348714107851 -0.26350367731814422 0 -0.065966051164906045 -0.2483348353079719 0 -0.06986583199269418 -0.26484160315896271 0 -0.084425113954690906 -0.25926020895380841 0 -0.065966051164906045 -0.2483348353079719 0 -0.084425113954690906 -0.25926020895380841 0 -0.085099214246944763 -0.24380688298698661 0 -0.065966051164906045 -0.2483348353079719 0 -0.1034683851570302 -0.25081812964332789 0 -0.084425113954690906 -0.25926020895380841 0 -0.085099214246944763 -0.24380688298698661 0 -0.035482615388175313 -0.26120638803302199 0 -0.046799964515636311 -0.24920753124184811 0 -0.032006049370809683 -0.2414171829525375 0 -0.035482615388175313 -0.26120638803302199 0 -0.054199348714107851 -0.26350367731814422 0 -0.046799964515636311 -0.24920753124184811 0 -0.054199348714107851 -0.26350367731814422 0 -0.046799964515636311 -0.24920753124184811 0 -0.065966051164906045 -0.2483348353079719 0 -0.064734454358871679 -0.2789252861434518 0 -0.054199348714107851 -0.26350367731814422 0 -0.045477665363116392 -0.280334430605861 0 -0.035482615388175313 -0.26120638803302199 0 -0.045477665363116392 -0.280334430605861 0 -0.027189033676017101 -0.27567137982072959 0 -0.035482615388175313 -0.26120638803302199 0 -0.054199348714107851 -0.26350367731814422 0 -0.045477665363116392 -0.280334430605861 0 -0.045477665363116392 -0.280334430605861 0 -0.033473631731342803 -0.29306438742481578 0 -0.027189033676017101 -0.27567137982072959 0 -0.045477665363116392 -0.280334430605861 0 -0.033473631731342803 -0.29306438742481578 0 -0.047564393491497478 -0.29817893659286621 0 -0.045477665363116392 -0.280334430605861 0 -0.056411168136706748 -0.28961158313365609 0 -0.047564393491497478 -0.29817893659286621 0 -0.064734454358871679 -0.2789252861434518 0 -0.045477665363116392 -0.280334430605861 0 -0.056411168136706748 -0.28961158313365609 0 -0.062509543349592148 -0.30508319577930187 0 -0.068260954466078133 -0.29066967611856082 0 -0.056411168136706748 -0.28961158313365609 0 -0.062509543349592148 -0.30508319577930187 0 -0.042512045722224327 -0.31384737880045999 0 -0.062509543349592148 -0.30508319577930187 0 -0.047564393491497478 -0.29817893659286621 0 -0.042512045722224327 -0.31384737880045999 0 -0.062509543349592148 -0.30508319577930187 0 -0.058805650447460389 -0.31310066310434281 0 -0.042512045722224327 -0.31384737880045999 0 -0.062509543349592148 -0.30508319577930187 0 -0.056411168136706748 -0.28961158313365609 0 -0.047564393491497478 -0.29817893659286621 0 -0.047564393491497478 -0.29817893659286621 0 -0.038360679239479917 -0.30318780279647423 0 -0.042512045722224327 -0.31384737880045999 0 -0.033473631731342803 -0.29306438742481578 0 -0.047564393491497478 -0.29817893659286621 0 -0.038360679239479917 -0.30318780279647423 0 -0.033473631731342803 -0.29306438742481578 0 -0.038360679239479917 -0.30318780279647423 0 -0.02989264601285509 -0.30766050836775499 0 -0.038360679239479917 -0.30318780279647423 0 -0.02989264601285509 -0.30766050836775499 0 -0.042512045722224327 -0.31384737880045999 0 -0.033473631731342803 -0.29306438742481578 0 -0.02989264601285509 -0.30766050836775499 0 -0.01980039886366863 -0.29916952322172952 0 -0.02989264601285509 -0.30766050836775499 0 -0.01980039886366863 -0.29916952322172952 0 -0.020062307831917401 -0.31256145553851439 0 -0.01980039886366863 -0.29916952322172952 0 -0.0077929770141077753 -0.30510536924497561 0 -0.020062307831917401 -0.31256145553851439 0 -0.0077929770141077753 -0.30510536924497561 0 -0.01101761990230157 -0.27973399739982591 0 0.0080387197440938973 -0.29217093039849179 0 -0.0077929770141077753 -0.30510536924497561 0 -0.01101761990230157 -0.27973399739982591 0 -0.01980039886366863 -0.29916952322172952 0 -0.0077929770141077753 -0.30510536924497561 0 -0.01101761990230157 -0.27973399739982591 0 -0.033473631731342803 -0.29306438742481578 0 -0.02287017104333253 -0.28690982196677522 0 -0.027189033676017101 -0.27567137982072959 0 -0.01980039886366863 -0.29916952322172952 0 -0.02287017104333253 -0.28690982196677522 0 -0.01101761990230157 -0.27973399739982591 0 -0.033473631731342803 -0.29306438742481578 0 -0.01980039886366863 -0.29916952322172952 0 -0.02287017104333253 -0.28690982196677522 0 -0.02287017104333253 -0.28690982196677522 0 -0.027189033676017101 -0.27567137982072959 0 -0.01101761990230157 -0.27973399739982591 0 -0.027189033676017101 -0.27567137982072959 0 -0.01101761990230157 -0.27973399739982591 0 -0.014242262790494181 -0.25436262555467598 0 -0.01101761990230157 -0.27973399739982591 0 -0.014242262790494181 -0.25436262555467598 0 -0.01101761990230157 -0.27973399739982591 0 -0.00053764115848484954 -0.26240285167879379 0 0.0048942055376650917 -0.2741314967382914 0 -0.01101761990230157 -0.27973399739982591 0 -0.014242262790494181 -0.25436262555467598 0 -0.00053764115848484954 -0.26240285167879379 0 -0.014242262790494181 -0.25436262555467598 0 0.0054077402359684022 -0.24803128275829681 0 -0.014242262790494181 -0.25436262555467598 0 -0.00053764115848484954 -0.26240285167879379 0 0.0054077402359684022 -0.24803128275829681 0 -0.035482615388175313 -0.26120638803302199 0 -0.014242262790494181 -0.25436262555467598 0 -0.035482615388175313 -0.26120638803302199 0 -0.014242262790494181 -0.25436262555467598 0 -0.032006049370809683 -0.2414171829525375 0 -0.035482615388175313 -0.26120638803302199 0 -0.027189033676017101 -0.27567137982072959 0 -0.014242262790494181 -0.25436262555467598 0 -0.04858200197229641 -0.34208514994450151 0 -0.043383837279561341 -0.33961360448732358 0 -0.030073297605843079 -0.35358986239878609 0 -0.04858200197229641 -0.34208514994450151 0 -0.030073297605843079 -0.35358986239878609 0 -0.045828237498255008 -0.35741781105682668 0 -0.035041026705872058 -0.35755464013567911 0 -0.030073297605843079 -0.35358986239878609 0 -0.045828237498255008 -0.35741781105682668 0 -0.04858200197229641 -0.34208514994450151 0 -0.030073297605843079 -0.35358986239878609 0 -0.043383837279561341 -0.33961360448732358 0 -0.030073297605843079 -0.35358986239878609 0 -0.028580087402761131 -0.34747018421277182 0 -0.043383837279561341 -0.33961360448732358 0 -0.030073297605843079 -0.35358986239878609 0 -0.035041026705872058 -0.35755464013567911 0 -0.033249653787552583 -0.36660763953165532 0 -0.030073297605843079 -0.35358986239878609 0 -0.045828237498255008 -0.35741781105682668 0 -0.035041026705872058 -0.35755464013567911 0 -0.033249653787552583 -0.36660763953165532 0 -0.033249653787552583 -0.36660763953165532 0 -0.030073297605843079 -0.35358986239878609 0 -0.062539944435297992 -0.36917284319648369 0 -0.045828237498255008 -0.35741781105682668 0 -0.033249653787552583 -0.36660763953165532 0 -0.062539944435297992 -0.36917284319648369 0 -0.033249653787552583 -0.36660763953165532 0 -0.062539944435297992 -0.36917284319648369 0 -0.033249653787552583 -0.36660763953165532 0 -0.055594211468101007 -0.38521276736816301 0 -0.073338838585242053 -0.35385615965306888 0 -0.062539944435297992 -0.36917284319648369 0 -0.045828237498255008 -0.35741781105682668 0 -0.073338838585242053 -0.35385615965306888 0 -0.04858200197229641 -0.34208514994450151 0 -0.073338838585242053 -0.35385615965306888 0 -0.045828237498255008 -0.35741781105682668 0 -0.04858200197229641 -0.34208514994450151 0 -0.067395549305571831 -0.33082202849754422 0 -0.04858200197229641 -0.34208514994450151 0 -0.060011774302961007 -0.32215403169228329 0 -0.067395549305571831 -0.33082202849754422 0 -0.04858200197229641 -0.34208514994450151 0 -0.04858200197229641 -0.34208514994450151 0 -0.060011774302961007 -0.32215403169228329 0 -0.043383837279561341 -0.33961360448732358 0 -0.060011774302961007 -0.32215403169228329 0 -0.043383837279561341 -0.33961360448732358 0 -0.060011774302961007 -0.32215403169228329 0 -0.05229448610879734 -0.31939789224070791 0 -0.043383837279561341 -0.33961360448732358 0 -0.058805650447460389 -0.31310066310434281 0 -0.05229448610879734 -0.31939789224070791 0 -0.042512045722224327 -0.31384737880045999 0 -0.058805650447460389 -0.31310066310434281 0 -0.060011774302961007 -0.32215403169228329 0 -0.05229448610879734 -0.31939789224070791 0 -0.02989264601285509 -0.30766050836775499 0 -0.042512045722224327 -0.31384737880045999 0 -0.022514548094856531 -0.32261156182161838 0 -0.042512045722224327 -0.31384737880045999 0 -0.030256068126939421 -0.32546624082115622 0 -0.022514548094856531 -0.32261156182161838 0 -0.05229448610879734 -0.31939789224070791 0 -0.03755728670420018 -0.33684328352659682 0 -0.05229448610879734 -0.31939789224070791 0 -0.042449252995879108 -0.32366091294407151 0 -0.03755728670420018 -0.33684328352659682 0 -0.042512045722224327 -0.31384737880045999 0 -0.022514548094856531 -0.32261156182161838 0 -0.05229448610879734 -0.31939789224070791 0 -0.042512045722224327 -0.31384737880045999 0 -0.042449252995879108 -0.32366091294407151 0 -0.042512045722224327 -0.31384737880045999 0 -0.042449252995879108 -0.32366091294407151 0 -0.037433193448294669 -0.32455509720852099 0 -0.042512045722224327 -0.31384737880045999 0 -0.037433193448294669 -0.32455509720852099 0 -0.030256068126939421 -0.32546624082115622 0 -0.05229448610879734 -0.31939789224070791 0 -0.043383837279561341 -0.33961360448732358 0 -0.03755728670420018 -0.33684328352659682 0 -0.043383837279561341 -0.33961360448732358 0 -0.03755728670420018 -0.33684328352659682 0 -0.04858200197229641 -0.34208514994450151 0 -0.043383837279561341 -0.33961360448732358 0 -0.042449252995879108 -0.32366091294407151 0 -0.037433193448294669 -0.32455509720852099 0 -0.03755728670420018 -0.33684328352659682 0 -0.037433193448294669 -0.32455509720852099 0 -0.03755728670420018 -0.33684328352659682 0 -0.030256068126939421 -0.32546624082115622 0 -0.03755728670420018 -0.33684328352659682 0 -0.028580087402761131 -0.34747018421277182 0 -0.043383837279561341 -0.33961360448732358 0 -0.03755728670420018 -0.33684328352659682 0 -0.028580087402761131 -0.34747018421277182 0 -0.024468640417192721 -0.33062009011440691 0 -0.01779369205136817 -0.33578159943859143 0 -0.028580087402761131 -0.34747018421277182 0 -0.024468640417192721 -0.33062009011440691 0 -0.028580087402761131 -0.34747018421277182 0 -0.03755728670420018 -0.33684328352659682 0 -0.024468640417192721 -0.33062009011440691 0 -0.028580087402761131 -0.34747018421277182 0 -0.03755728670420018 -0.33684328352659682 0 -0.024468640417192721 -0.33062009011440691 0 -0.03755728670420018 -0.33684328352659682 0 -0.024468640417192721 -0.33062009011440691 0 -0.030256068126939421 -0.32546624082115622 0 -0.024468640417192721 -0.33062009011440691 0 -0.01779369205136817 -0.33578159943859143 0 -0.01738804930683167 -0.3272535167510357 0 -0.024468640417192721 -0.33062009011440691 0 -0.01738804930683167 -0.3272535167510357 0 -0.01779369205136817 -0.33578159943859143 0 -0.01396334900414258 -0.34308746502461718 0 -0.028580087402761131 -0.34747018421277182 0 -0.022514548094856531 -0.32261156182161838 0 -0.020062307831917401 -0.31256145553851439 0 -0.0045683341259116954 -0.33047674109012498 0 -0.02989264601285509 -0.30766050836775499 0 -0.022514548094856531 -0.32261156182161838 0 -0.020062307831917401 -0.31256145553851439 0 -0.024468640417192721 -0.33062009011440691 0 -0.022514548094856531 -0.32261156182161838 0 -0.024468640417192721 -0.33062009011440691 0 -0.030256068126939421 -0.32546624082115622 0 -0.022514548094856531 -0.32261156182161838 0 -0.024468640417192721 -0.33062009011440691 0 -0.022514548094856531 -0.32261156182161838 0 -0.01738804930683167 -0.3272535167510357 0 -0.022514548094856531 -0.32261156182161838 0 -0.020062307831917401 -0.31256145553851439 0 -0.0077929770141077753 -0.30510536924497561 0 -0.0045683341259116954 -0.33047674109012498 0 -0.022514548094856531 -0.32261156182161838 0 -0.01738804930683167 -0.3272535167510357 0 -0.0045683341259116954 -0.33047674109012498 0 -0.0077929770141077753 -0.30510536924497561 0 -0.0045683341259116954 -0.33047674109012498 0 0.0040981006955792022 -0.31953741139356839 0 -0.0077929770141077753 -0.30510536924497561 0 -0.020062307831917401 -0.31256145553851439 0 -0.0045683341259116954 -0.33047674109012498 0 -0.022514548094856531 -0.32261156182161838 0 -0.0045683341259116954 -0.33047674109012498 0 -0.0045683341259116954 -0.33047674109012498 0 -0.001957481232011143 -0.35101883579671062 0 -0.01396334900414258 -0.34308746502461718 0 -0.0045683341259116954 -0.33047674109012498 0 -0.001957481232011143 -0.35101883579671062 0 -0.01779369205136817 -0.33578159943859143 0 -0.01396334900414258 -0.34308746502461718 0 -0.0045683341259116954 -0.33047674109012498 0 -0.01779369205136817 -0.33578159943859143 0 -0.01738804930683167 -0.3272535167510357 0 -0.0045683341259116954 -0.33047674109012498 0 -0.001957481232011143 -0.35101883579671062 0 -0.0091271166321890522 -0.35688394691910769 0 -0.0050641191069524458 -0.36413918888610602 0 -0.001957481232011143 -0.35101883579671062 0 -0.01418915969599688 -0.35185251363087328 0 -0.0091271166321890522 -0.35688394691910769 0 -0.01418915969599688 -0.35185251363087328 0 -0.0091271166321890522 -0.35688394691910769 0 -0.017317764208880409 -0.36080213620115931 0 -0.01396334900414258 -0.34308746502461718 0 -0.001957481232011143 -0.35101883579671062 0 -0.01418915969599688 -0.35185251363087328 0 -0.01396334900414258 -0.34308746502461718 0 -0.01418915969599688 -0.35185251363087328 0 -0.028580087402761131 -0.34747018421277182 0 -0.028580087402761131 -0.34747018421277182 0 -0.017317764208880409 -0.36080213620115931 0 -0.01418915969599688 -0.35185251363087328 0 -0.028580087402761131 -0.34747018421277182 0 -0.017317764208880409 -0.36080213620115931 0 -0.030073297605843079 -0.35358986239878609 0 -0.017317764208880409 -0.36080213620115931 0 -0.030073297605843079 -0.35358986239878609 0 -0.028580087402761131 -0.34747018421277182 0 -0.017317764208880409 -0.36080213620115931 0 -0.030073297605843079 -0.35358986239878609 0 -0.028580087402761131 -0.34747018421277182 0 -0.033249653787552583 -0.36660763953165532 0 -0.018874568220174939 -0.36534868916400232 0 -0.024100325307879859 -0.37725443331372321 0 -0.030073297605843079 -0.35358986239878609 0 -0.018874568220174939 -0.36534868916400232 0 -0.033249653787552583 -0.36660763953165532 0 -0.030073297605843079 -0.35358986239878609 0 -0.018874568220174939 -0.36534868916400232 0 -0.033249653787552583 -0.36660763953165532 0 -0.018874568220174939 -0.36534868916400232 0 -0.030073297605843079 -0.35358986239878609 0 -0.017317764208880409 -0.36080213620115931 0 -0.018874568220174939 -0.36534868916400232 0 -0.018874568220174939 -0.36534868916400232 0 -0.01384882975484111 -0.36490854185086158 0 -0.017317764208880409 -0.36080213620115931 0 -0.018874568220174939 -0.36534868916400232 0 -0.01384882975484111 -0.36490854185086158 0 -0.018874568220174939 -0.36534868916400232 0 -0.016133033761401711 -0.38096201390050982 0 -0.024100325307879859 -0.37725443331372321 0 -0.018874568220174939 -0.36534868916400232 0 -0.01384882975484111 -0.36490854185086158 0 -0.0080624548927780045 -0.37670156351289219 0 -0.001957481232011143 -0.35101883579671062 0 0.00065337166189073257 -0.37156093050329603 0 -0.001957481232011143 -0.35101883579671062 0 -0.0050641191069524458 -0.36413918888610602 0 0.00065337166189073257 -0.37156093050329603 0 -0.01384882975484111 -0.36490854185086158 0 -0.010891223121570931 -0.36464951869994899 0 -0.0018100324986049449 -0.37915965720735212 0 -0.018874568220174939 -0.36534868916400232 0 -0.0080624548927780045 -0.37670156351289219 0 -0.01384882975484111 -0.36490854185086158 0 -0.0018100324986049449 -0.37915965720735212 0 -0.0080624548927780045 -0.37670156351289219 0 -0.018874568220174939 -0.36534868916400232 0 -0.0080624548927780045 -0.37670156351289219 0 -0.016133033761401711 -0.38096201390050982 0 -0.01384882975484111 -0.36490854185086158 0 -0.0018100324986049449 -0.37915965720735212 0 -0.0091271166321890522 -0.35688394691910769 0 -0.017317764208880409 -0.36080213620115931 0 -0.010891223121570931 -0.36464951869994899 0 -0.017317764208880409 -0.36080213620115931 0 -0.010891223121570931 -0.36464951869994899 0 -0.017317764208880409 -0.36080213620115931 0 -0.01384882975484111 -0.36490854185086158 0 -0.017317764208880409 -0.36080213620115931 0 -0.01384882975484111 -0.36490854185086158 0 -0.010891223121570931 -0.36464951869994899 0 -0.01384882975484111 -0.36490854185086158 0 -0.010891223121570931 -0.36464951869994899 0 -0.010891223121570931 -0.36464951869994899 0 -0.0050641191069524458 -0.36413918888610602 0 -0.0091271166321890522 -0.35688394691910769 0 -0.010891223121570931 -0.36464951869994899 0 -0.0050641191069524458 -0.36413918888610602 0 -0.010891223121570931 -0.36464951869994899 0 -0.0050641191069524458 -0.36413918888610602 0 0.00065337166189073257 -0.37156093050329603 0 -0.010891223121570931 -0.36464951869994899 0 0.00065337166189073257 -0.37156093050329603 0 -0.010891223121570931 -0.36464951869994899 0 -0.0018100324986049449 -0.37915965720735212 0 0.00065337166189073257 -0.37156093050329603 0 -0.0080624548927780045 -0.37670156351289219 0 0.0027496584346183182 -0.38805443786178262 0 -0.0018100324986049449 -0.37915965720735212 0 -0.0080624548927780045 -0.37670156351289219 0 0.0027496584346183182 -0.38805443786178262 0 -0.0085943900982866119 -0.38803315365160002 0 0.0041939554806844116 -0.38957097051270262 0 0.0027496584346183182 -0.38805443786178262 0 -0.0085943900982866119 -0.38803315365160002 0 -0.0080624548927780045 -0.37670156351289219 0 0.0027496584346183182 -0.38805443786178262 0 -0.0085943900982866119 -0.38803315365160002 0 -0.01542733458980651 -0.38796367281447292 0 -0.016133033761401711 -0.38096201390050982 0 -0.0085943900982866119 -0.38803315365160002 0 -0.0080624548927780045 -0.37670156351289219 0 -0.016133033761401711 -0.38096201390050982 0 -0.0047464050549406306 -0.40351715614234662 0 -0.018925898036094891 -0.39698198780943528 0 0.0041939554806844116 -0.38957097051270262 0 -0.0085943900982866119 -0.38803315365160002 0 -0.018925898036094891 -0.39698198780943528 0 0.0041939554806844116 -0.38957097051270262 0 -0.018925898036094891 -0.39698198780943528 0 0.0041939554806844116 -0.38957097051270262 0 -0.0085943900982866119 -0.38803315365160002 0 -0.01542733458980651 -0.38796367281447292 0 -0.018925898036094891 -0.39698198780943528 0 -0.0047464050549406306 -0.40351715614234662 0 -0.018925898036094891 -0.39698198780943528 0 -0.014023989021249329 -0.40923919877766712 0 -0.019535796501351909 -0.39102873640917568 0 -0.029120256341353311 -0.4006904959385002 0 -0.023282874004915521 -0.4129842518774044 0 -0.018925898036094891 -0.39698198780943528 0 -0.019535796501351909 -0.39102873640917568 0 -0.023282874004915521 -0.4129842518774044 0 -0.019535796501351909 -0.39102873640917568 0 -0.023282874004915521 -0.4129842518774044 0 -0.01542733458980651 -0.38796367281447292 0 -0.018925898036094891 -0.39698198780943528 0 -0.019535796501351909 -0.39102873640917568 0 -0.019535796501351909 -0.39102873640917568 0 -0.029120256341353311 -0.4006904959385002 0 -0.02846205260714087 -0.38599043754806711 0 -0.033249653787552583 -0.36660763953165532 0 -0.02846205260714087 -0.38599043754806711 0 -0.024100325307879859 -0.37725443331372321 0 -0.016133033761401711 -0.38096201390050982 0 -0.02158283196860384 -0.38464517765490269 0 -0.024100325307879859 -0.37725443331372321 0 -0.019535796501351909 -0.39102873640917568 0 -0.02158283196860384 -0.38464517765490269 0 -0.02846205260714087 -0.38599043754806711 0 -0.01542733458980651 -0.38796367281447292 0 -0.016133033761401711 -0.38096201390050982 0 -0.02158283196860384 -0.38464517765490269 0 -0.01542733458980651 -0.38796367281447292 0 -0.019535796501351909 -0.39102873640917568 0 -0.02158283196860384 -0.38464517765490269 0 -0.02158283196860384 -0.38464517765490269 0 -0.02846205260714087 -0.38599043754806711 0 -0.024100325307879859 -0.37725443331372321 0 -0.033249653787552583 -0.36660763953165532 0 -0.039385832225662512 -0.39175576486305203 0 -0.055594211468101007 -0.38521276736816301 0 -0.033249653787552583 -0.36660763953165532 0 -0.039385832225662512 -0.39175576486305203 0 -0.033249653787552583 -0.36660763953165532 0 -0.02846205260714087 -0.38599043754806711 0 -0.039385832225662512 -0.39175576486305203 0 -0.039385832225662512 -0.39175576486305203 0 -0.045522010663771727 -0.41690389019444901 0 -0.029120256341353311 -0.4006904959385002 0 -0.039385832225662512 -0.39175576486305203 0 -0.045522010663771727 -0.41690389019444901 0 -0.029120256341353311 -0.4006904959385002 0 -0.02846205260714087 -0.38599043754806711 0 -0.039385832225662512 -0.39175576486305203 0 -0.039385832225662512 -0.39175576486305203 0 -0.060958085470195197 -0.40184860908340242 0 -0.055594211468101007 -0.38521276736816301 0 -0.039385832225662512 -0.39175576486305203 0 -0.060958085470195197 -0.40184860908340242 0 -0.045522010663771727 -0.41690389019444901 0 -0.048753804842821463 -0.43114983807780211 0 -0.056294322335151817 -0.43023645691177631 0 -0.046512507284843477 -0.42096327885438861 0 -0.056294322335151817 -0.43023645691177631 0 -0.055477017075298819 -0.41868133532797142 0 -0.046512507284843477 -0.42096327885438861 0 -0.048753804842821463 -0.43114983807780211 0 -0.056294322335151817 -0.43023645691177631 0 -0.051742497972966373 -0.44240327379560418 0 -0.048753804842821463 -0.43114983807780211 0 -0.041404832018121507 -0.43394094853404819 0 -0.051742497972966373 -0.44240327379560418 0 -0.056294322335151817 -0.43023645691177631 0 -0.062936766708337949 -0.43794389984316379 0 -0.068098159622532392 -0.423454441595841 0 -0.056294322335151817 -0.43023645691177631 0 -0.051742497972966373 -0.44240327379560418 0 -0.062936766708337949 -0.43794389984316379 0 -0.056294322335151817 -0.43023645691177631 0 -0.055477017075298819 -0.41868133532797142 0 -0.068098159622532392 -0.423454441595841 0 -0.060958085470195197 -0.40184860908340242 0 -0.055477017075298819 -0.41868133532797142 0 -0.045522010663771727 -0.41690389019444901 0 -0.060958085470195197 -0.40184860908340242 0 -0.055477017075298819 -0.41868133532797142 0 -0.068098159622532392 -0.423454441595841 0 -0.060958085470195197 -0.40184860908340242 0 -0.045522010663771727 -0.41690389019444901 0 -0.055477017075298819 -0.41868133532797142 0 -0.046512507284843477 -0.42096327885438861 0 -0.045522010663771727 -0.41690389019444901 0 -0.046512507284843477 -0.42096327885438861 0 -0.045522010663771727 -0.41690389019444901 0 -0.045522010663771727 -0.41690389019444901 0 -0.02702995150847342 -0.43493976734563422 0 -0.023282874004915521 -0.4129842518774044 0 -0.029120256341353311 -0.4006904959385002 0 -0.045522010663771727 -0.41690389019444901 0 -0.023282874004915521 -0.4129842518774044 0 -0.045522010663771727 -0.41690389019444901 0 -0.02702995150847342 -0.43493976734563422 0 -0.046512507284843477 -0.42096327885438861 0 -0.045522010663771727 -0.41690389019444901 0 -0.02702995150847342 -0.43493976734563422 0 -0.046512507284843477 -0.42096327885438861 0 -0.041404832018121507 -0.43394094853404819 0 -0.02702995150847342 -0.43493976734563422 0 -0.048753804842821463 -0.43114983807780211 0 -0.046512507284843477 -0.42096327885438861 0 -0.041404832018121507 -0.43394094853404819 0 -0.02702995150847342 -0.43493976734563422 0 -0.023282874004915521 -0.4129842518774044 0 -0.02702995150847342 -0.43493976734563422 0 -0.023282874004915521 -0.4129842518774044 0 -0.0091407789890462932 -0.42347339928148231 0 -0.018925898036094891 -0.39698198780943528 0 -0.023282874004915521 -0.4129842518774044 0 -0.014023989021249329 -0.40923919877766712 0 -0.0047464050549406306 -0.40351715614234662 0 -0.014023989021249329 -0.40923919877766712 0 -0.0091407789890462932 -0.42347339928148231 0 -0.0047464050549406306 -0.40351715614234662 0 -0.0091407789890462932 -0.42347339928148231 0 0.0061376548268578923 -0.41471106907891653 0 -0.023282874004915521 -0.4129842518774044 0 -0.014023989021249329 -0.40923919877766712 0 -0.0091407789890462932 -0.42347339928148231 0 -0.02702995150847342 -0.43493976734563422 0 -0.0091407789890462932 -0.42347339928148231 0 -0.0095398701285203391 -0.45199838458689112 0 -0.0091407789890462932 -0.42347339928148231 0 -0.0095398701285203391 -0.45199838458689112 0 0.0092839102205797275 -0.43946569099571309 0 -0.0095398701285203391 -0.45199838458689112 0 0.0079502112514302607 -0.46905700182815052 0 -0.0095398701285203391 -0.45199838458689112 0 -0.021070329969178341 -0.46466568201132807 0 -0.0093133594171920693 -0.46978471257073939 0 -0.0095398701285203391 -0.45199838458689112 0 -0.0093133594171920693 -0.46978471257073939 0 0.0079502112514302607 -0.46905700182815052 0 -0.0095398701285203391 -0.45199838458689112 0 -0.030203929117153399 -0.4535372781835556 0 -0.021070329969178341 -0.46466568201132807 0 -0.030203929117153399 -0.4535372781835556 0 -0.021070329969178341 -0.46466568201132807 0 -0.033377906725827668 -0.4721347890214781 0 -0.02702995150847342 -0.43493976734563422 0 -0.0095398701285203391 -0.45199838458689112 0 -0.030203929117153399 -0.4535372781835556 0 -0.02702995150847342 -0.43493976734563422 0 -0.030203929117153399 -0.4535372781835556 0 -0.02702995150847342 -0.43493976734563422 0 -0.0095398701285203391 -0.45199838458689112 0 -0.0011630843612175921 -0.5 0 -0.0033431163747408531 -0.48124960651246851 0 -0.019303850104217379 -0.49999999999999878 0 -0.0033431163747408531 -0.48124960651246851 0 -0.020563691864951161 -0.48195288791485918 0 -0.019303850104217379 -0.49999999999999878 0 -0.0093133594171920693 -0.46978471257073939 0 -0.0033431163747408531 -0.48124960651246851 0 0.0079502112514302607 -0.46905700182815052 0 -0.0093133594171920693 -0.46978471257073939 0 -0.0033431163747408531 -0.48124960651246851 0 -0.020563691864951161 -0.48195288791485918 0 -0.021070329969178341 -0.46466568201132807 0 -0.0093133594171920693 -0.46978471257073939 0 -0.020563691864951161 -0.48195288791485918 0 -0.021070329969178341 -0.46466568201132807 0 -0.020563691864951161 -0.48195288791485918 0 -0.033377906725827668 -0.4721347890214781 0 -0.020563691864951161 -0.48195288791485918 0 -0.019303850104217379 -0.49999999999999878 0 -0.044372522506512371 -0.48903904355362582 0 -0.019303850104217379 -0.49999999999999878 0 -0.044372522506512371 -0.48903904355362582 0 -0.019303850104217379 -0.49999999999999878 0 -0.044372522506512371 -0.48903904355362582 0 -0.045057618532495958 -0.5 0 -0.020563691864951161 -0.48195288791485918 0 -0.044372522506512371 -0.48903904355362582 0 -0.033377906725827668 -0.4721347890214781 0 -0.044372522506512371 -0.48903904355362582 0 -0.033377906725827668 -0.4721347890214781 0 -0.047265568078032151 -0.46186585616568721 0 -0.044372522506512371 -0.48903904355362582 0 -0.069441194908807846 -0.47807808710725402 0 -0.044372522506512371 -0.48903904355362582 0 -0.047265568078032151 -0.46186585616568721 0 -0.069441194908807846 -0.47807808710725402 0 -0.044372522506512371 -0.48903904355362582 0 -0.070811386960774436 -0.5 0 -0.069441194908807846 -0.47807808710725402 0 -0.044372522506512371 -0.48903904355362582 0 -0.045057618532495958 -0.5 0 -0.070811386960774436 -0.5 0 -0.039328455957965837 -0.4453318405698013 0 -0.047265568078032151 -0.46186585616568721 0 -0.051742497972966373 -0.44240327379560418 0 -0.02702995150847342 -0.43493976734563422 0 -0.030203929117153399 -0.4535372781835556 0 -0.039328455957965837 -0.4453318405698013 0 -0.041404832018121507 -0.43394094853404819 0 -0.039328455957965837 -0.4453318405698013 0 -0.051742497972966373 -0.44240327379560418 0 -0.041404832018121507 -0.43394094853404819 0 -0.02702995150847342 -0.43493976734563422 0 -0.039328455957965837 -0.4453318405698013 0 -0.030203929117153399 -0.4535372781835556 0 -0.039328455957965837 -0.4453318405698013 0 -0.047265568078032151 -0.46186585616568721 0 -0.030203929117153399 -0.4535372781835556 0 -0.033377906725827668 -0.4721347890214781 0 -0.047265568078032151 -0.46186585616568721 0 -0.030203929117153399 -0.4535372781835556 0 -0.033377906725827668 -0.4721347890214781 0 -0.047265568078032151 -0.46186585616568721 0 -0.063368738347596459 -0.45292698017977301 0 -0.069441194908807846 -0.47807808710725402 0 -0.047265568078032151 -0.46186585616568721 0 -0.051742497972966373 -0.44240327379560418 0 -0.063368738347596459 -0.45292698017977301 0 -0.051742497972966373 -0.44240327379560418 0 -0.062936766708337949 -0.43794389984316379 0 -0.063368738347596459 -0.45292698017977301 0 -0.075180115263442662 -0.44069834673282482 0 -0.063368738347596459 -0.45292698017977301 0 -0.079720108949242127 -0.45731333391502033 0 -0.062936766708337949 -0.43794389984316379 0 -0.075180115263442662 -0.44069834673282482 0 -0.063368738347596459 -0.45292698017977301 0 -0.063368738347596459 -0.45292698017977301 0 -0.079720108949242127 -0.45731333391502033 0 -0.069441194908807846 -0.47807808710725402 0 -0.079720108949242127 -0.45731333391502033 0 -0.069441194908807846 -0.47807808710725402 0 -0.094509867311103307 -0.46711713066088212 0 -0.079720108949242127 -0.45731333391502033 0 -0.095501744285647699 -0.44462041318345402 0 -0.094509867311103307 -0.46711713066088212 0 -0.075180115263442662 -0.44069834673282482 0 -0.079720108949242127 -0.45731333391502033 0 -0.095501744285647699 -0.44462041318345402 0 -0.070811386960774436 -0.5 0 -0.069441194908807846 -0.47807808710725402 0 -0.085267631854766102 -0.4871820663729608 0 -0.069441194908807846 -0.47807808710725402 0 -0.085267631854766102 -0.4871820663729608 0 -0.094509867311103307 -0.46711713066088212 0 -0.069441194908807846 -0.47807808710725402 0 -0.094509867311103307 -0.46711713066088212 0 -0.070811386960774436 -0.5 0 -0.085267631854766102 -0.4871820663729608 0 -0.096565155389052748 -0.5 0 -0.085267631854766102 -0.4871820663729608 0 -0.096565155389052748 -0.5 0 -0.1087825798324069 -0.48191394340166949 0 -0.096565155389052748 -0.5 0 -0.1087825798324069 -0.48191394340166949 0 -0.1223189238173311 -0.5 0 -0.085267631854766102 -0.4871820663729608 0 -0.1087825798324069 -0.48191394340166949 0 -0.094509867311103307 -0.46711713066088212 0 -0.13603472158864199 -0.48001898059572412 0 -0.1087825798324069 -0.48191394340166949 0 -0.1195785397133988 -0.45615617421451032 0 -0.13603472158864199 -0.48001898059572412 0 -0.1087825798324069 -0.48191394340166949 0 -0.1223189238173311 -0.5 0 -0.094509867311103307 -0.46711713066088212 0 -0.1195785397133988 -0.45615617421451032 0 -0.1087825798324069 -0.48191394340166949 0 -0.094509867311103307 -0.46711713066088212 0 -0.1195785397133988 -0.45615617421451032 0 -0.095501744285647699 -0.44462041318345402 0 -0.094509867311103307 -0.46711713066088212 0 -0.1195785397133988 -0.45615617421451032 0 -0.095501744285647699 -0.44462041318345402 0 -0.1195785397133988 -0.45615617421451032 0 -0.1130772085521464 -0.43766298097986289 0 -0.1130772085521464 -0.43766298097986289 0 -0.12426836426920559 -0.42242943770303321 0 -0.1013157323683592 -0.4228653296449813 0 -0.12426836426920559 -0.42242943770303321 0 -0.1013157323683592 -0.4228653296449813 0 -0.095501744285647699 -0.44462041318345402 0 -0.1013157323683592 -0.4228653296449813 0 -0.084583529196584101 -0.4262919853887831 0 -0.095501744285647699 -0.44462041318345402 0 -0.1130772085521464 -0.43766298097986289 0 -0.1013157323683592 -0.4228653296449813 0 -0.1013157323683592 -0.4228653296449813 0 -0.09399768378797202 -0.41017808643803683 0 -0.1096254377518263 -0.40951203585235202 0 -0.12426836426920559 -0.42242943770303321 0 -0.1096254377518263 -0.40951203585235202 0 -0.1217783424510834 -0.39824608269263362 0 -0.12426836426920559 -0.42242943770303321 0 -0.1013157323683592 -0.4228653296449813 0 -0.1096254377518263 -0.40951203585235202 0 -0.1217783424510834 -0.39824608269263362 0 -0.1080548520621018 -0.38235089945247053 0 -0.1010261940212885 -0.39738524797016339 0 -0.1096254377518263 -0.40951203585235202 0 -0.1217783424510834 -0.39824608269263362 0 -0.1010261940212885 -0.39738524797016339 0 -0.098095675198188237 -0.36562716936163542 0 -0.12245845528947689 -0.37721081897995212 0 -0.1080548520621018 -0.38235089945247053 0 -0.1217783424510834 -0.39824608269263362 0 -0.12245845528947689 -0.37721081897995212 0 -0.1080548520621018 -0.38235089945247053 0 -0.1080548520621018 -0.38235089945247053 0 -0.1010261940212885 -0.39738524797016339 0 -0.09355875612264053 -0.38443310192799968 0 -0.096651533106284299 -0.37216028955965691 0 -0.091830235083043443 -0.37173804686131029 0 -0.09355875612264053 -0.38443310192799968 0 -0.096651533106284299 -0.37216028955965691 0 -0.1080548520621018 -0.38235089945247053 0 -0.09355875612264053 -0.38443310192799968 0 -0.09399768378797202 -0.41017808643803683 0 -0.1096254377518263 -0.40951203585235202 0 -0.1010261940212885 -0.39738524797016339 0 -0.1010261940212885 -0.39738524797016339 0 -0.088846234828024062 -0.3973662998782615 0 -0.09355875612264053 -0.38443310192799968 0 -0.09399768378797202 -0.41017808643803683 0 -0.1010261940212885 -0.39738524797016339 0 -0.088846234828024062 -0.3973662998782615 0 -0.088846234828024062 -0.3973662998782615 0 -0.076394160276619161 -0.38679332797235622 0 -0.078588974561749902 -0.40764761989367992 0 -0.09399768378797202 -0.41017808643803683 0 -0.088846234828024062 -0.3973662998782615 0 -0.078588974561749902 -0.40764761989367992 0 -0.091830235083043443 -0.37173804686131029 0 -0.09355875612264053 -0.38443310192799968 0 -0.076394160276619161 -0.38679332797235622 0 -0.088846234828024062 -0.3973662998782615 0 -0.09355875612264053 -0.38443310192799968 0 -0.076394160276619161 -0.38679332797235622 0 -0.091830235083043443 -0.37173804686131029 0 -0.076394160276619161 -0.38679332797235622 0 -0.062539944435297992 -0.36917284319648369 0 -0.055594211468101007 -0.38521276736816301 0 -0.076394160276619161 -0.38679332797235622 0 -0.062539944435297992 -0.36917284319648369 0 -0.091830235083043443 -0.37173804686131029 0 -0.076394160276619161 -0.38679332797235622 0 -0.060958085470195197 -0.40184860908340242 0 -0.055594211468101007 -0.38521276736816301 0 -0.076394160276619161 -0.38679332797235622 0 -0.060958085470195197 -0.40184860908340242 0 -0.076394160276619161 -0.38679332797235622 0 -0.078588974561749902 -0.40764761989367992 0 -0.060958085470195197 -0.40184860908340242 0 -0.076394160276619161 -0.38679332797235622 0 -0.068098159622532392 -0.423454441595841 0 -0.084583529196584101 -0.4262919853887831 0 -0.078588974561749902 -0.40764761989367992 0 -0.060958085470195197 -0.40184860908340242 0 -0.068098159622532392 -0.423454441595841 0 -0.078588974561749902 -0.40764761989367992 0 -0.075180115263442662 -0.44069834673282482 0 -0.068098159622532392 -0.423454441595841 0 -0.084583529196584101 -0.4262919853887831 0 -0.062936766708337949 -0.43794389984316379 0 -0.075180115263442662 -0.44069834673282482 0 -0.068098159622532392 -0.423454441595841 0 -0.075180115263442662 -0.44069834673282482 0 -0.095501744285647699 -0.44462041318345402 0 -0.084583529196584101 -0.4262919853887831 0 -0.09399768378797202 -0.41017808643803683 0 -0.084583529196584101 -0.4262919853887831 0 -0.078588974561749902 -0.40764761989367992 0 -0.1013157323683592 -0.4228653296449813 0 -0.09399768378797202 -0.41017808643803683 0 -0.084583529196584101 -0.4262919853887831 0 -0.08206042415203578 -0.073953563988589238 0 -0.091001326514902836 -0.094816536935228582 0 -0.10246532456861079 -0.078815063983625783 0 -0.08206042415203578 -0.073953563988589238 0 -0.070427380369511419 -0.085977071792472493 0 -0.091001326514902836 -0.094816536935228582 0 -0.08206042415203578 -0.073953563988589238 0 -0.094238863000140727 -0.063806997867017323 0 -0.079439553434863974 -0.05419188771562259 0 -0.08206042415203578 -0.073953563988589238 0 -0.10246532456861079 -0.078815063983625783 0 -0.094238863000140727 -0.063806997867017323 0 -0.08206042415203578 -0.073953563988589238 0 -0.079439553434863974 -0.05419188771562259 0 -0.064468264554541785 -0.060725450985857791 0 -0.08206042415203578 -0.073953563988589238 0 -0.063835131589644087 -0.075717807955200472 0 -0.064468264554541785 -0.060725450985857791 0 -0.070427380369511419 -0.085977071792472493 0 -0.06310439291707394 -0.099976928504534102 0 -0.091001326514902836 -0.094816536935228582 0 -0.08206042415203578 -0.073953563988589238 0 -0.063835131589644087 -0.075717807955200472 0 -0.070427380369511419 -0.085977071792472493 0 -0.06310439291707394 -0.099976928504534102 0 -0.091001326514902836 -0.094816536935228582 0 -0.06310439291707394 -0.099976928504534102 0 -0.079824491894017538 -0.12216580181545179 0 -0.091001326514902836 -0.094816536935228582 0 -0.060007406525312119 -0.1134014505963527 0 -0.061050978852012321 -0.1290213354191441 0 -0.07830581906928559 -0.12884272475078559 0 -0.060007406525312119 -0.1134014505963527 0 -0.07830581906928559 -0.12884272475078559 0 -0.06310439291707394 -0.099976928504534102 0 -0.079824491894017538 -0.12216580181545179 0 -0.060007406525312119 -0.1134014505963527 0 -0.06310439291707394 -0.099976928504534102 0 -0.079824491894017538 -0.12216580181545179 0 -0.079824491894017538 -0.12216580181545179 0 -0.060007406525312119 -0.1134014505963527 0 -0.07830581906928559 -0.12884272475078559 0 -0.079824491894017538 -0.12216580181545179 0 -0.091001326514902836 -0.094816536935228582 0 -0.10605473682518669 -0.1166633748805592 0 -0.091001326514902836 -0.094816536935228582 0 -0.10605473682518669 -0.1166633748805592 0 -0.1188982601127322 -0.089656145365925269 0 -0.10605473682518669 -0.1166633748805592 0 -0.11875687874594019 -0.1372593560808682 0 -0.12568953908620251 -0.1116801545194875 0 -0.10605473682518669 -0.1166633748805592 0 -0.1188982601127322 -0.089656145365925269 0 -0.12568953908620251 -0.1116801545194875 0 -0.1188982601127322 -0.089656145365925269 0 -0.10246532456861079 -0.078815063983625783 0 -0.12561467901087081 -0.074302752458958371 0 -0.091001326514902836 -0.094816536935228582 0 -0.1188982601127322 -0.089656145365925269 0 -0.091001326514902836 -0.094816536935228582 0 -0.1188982601127322 -0.089656145365925269 0 -0.10246532456861079 -0.078815063983625783 0 -0.10246532456861079 -0.078815063983625783 0 -0.094238863000140727 -0.063806997867017323 0 -0.1095555638537018 -0.063501532795649351 0 -0.1095555638537018 -0.063501532795649351 0 -0.12561467901087081 -0.074302752458958371 0 -0.13349983983805969 -0.056942535263725093 0 -0.10246532456861079 -0.078815063983625783 0 -0.1095555638537018 -0.063501532795649351 0 -0.12561467901087081 -0.074302752458958371 0 -0.1095555638537018 -0.063501532795649351 0 -0.1175603761250444 -0.039084570172323183 0 -0.13349983983805969 -0.056942535263725093 0 -0.1095555638537018 -0.063501532795649351 0 -0.1175603761250444 -0.039084570172323183 0 -0.1175603761250444 -0.039084570172323183 0 -0.09767344899149133 -0.048572940851599661 0 -0.092042099592736903 -0.030342871872578871 0 -0.1095555638537018 -0.063501532795649351 0 -0.1175603761250444 -0.039084570172323183 0 -0.09767344899149133 -0.048572940851599661 0 -0.094238863000140727 -0.063806997867017323 0 -0.1095555638537018 -0.063501532795649351 0 -0.09767344899149133 -0.048572940851599661 0 -0.1065280496128804 -0.018675503684700761 0 -0.1255651883963867 -0.01466760754899687 0 -0.1015133298770437 4.9595544974906723e-05 0 -0.1255651883963867 -0.01466760754899687 0 -0.13082697262089341 0.0013823364580261221 0 -0.1015133298770437 4.9595544974906723e-05 0 -0.1255651883963867 -0.01466760754899687 0 -0.1015133298770437 4.9595544974906723e-05 0 -0.1175603761250444 -0.039084570172323183 0 -0.1255651883963867 -0.01466760754899687 0 -0.1175603761250444 -0.039084570172323183 0 -0.1065280496128804 -0.018675503684700761 0 -0.1255651883963867 -0.01466760754899687 0 -0.1175603761250444 -0.039084570172323183 0 -0.1065280496128804 -0.018675503684700761 0 -0.092042099592736903 -0.030342871872578871 0 -0.1065280496128804 -0.018675503684700761 0 -0.091709336070603401 -0.014974699825805741 0 -0.092042099592736903 -0.030342871872578871 0 -0.1065280496128804 -0.018675503684700761 0 -0.091709336070603401 -0.014974699825805741 0 -0.1015133298770437 4.9595544974906723e-05 0 -0.080113023358067775 -0.0034963713414790428 0 -0.091709336070603401 -0.014974699825805741 0 -0.1015133298770437 4.9595544974906723e-05 0 -0.080113023358067775 -0.0034963713414790428 0 -0.091709336070603401 -0.014974699825805741 0 -0.076833281919627155 -0.02059932662751825 0 -0.092042099592736903 -0.030342871872578871 0 -0.076833281919627155 -0.02059932662751825 0 -0.079254101656316966 -0.038839596863020069 0 -0.091709336070603401 -0.014974699825805741 0 -0.092042099592736903 -0.030342871872578871 0 -0.076833281919627155 -0.02059932662751825 0 -0.076833281919627155 -0.02059932662751825 0 -0.065303587705170127 -0.033542036822940068 0 -0.058724649556778627 -0.01837471923928934 0 -0.076833281919627155 -0.02059932662751825 0 -0.079254101656316966 -0.038839596863020069 0 -0.065303587705170127 -0.033542036822940068 0 -0.080113023358067775 -0.0034963713414790428 0 -0.076833281919627155 -0.02059932662751825 0 -0.066910003298949472 -0.006380589779087396 0 -0.076833281919627155 -0.02059932662751825 0 -0.066910003298949472 -0.006380589779087396 0 -0.058724649556778627 -0.01837471923928934 0 -0.080113023358067775 -0.0034963713414790428 0 -0.066910003298949472 -0.006380589779087396 0 -0.067016117272491557 0.0064617448389865436 0 -0.094238863000140727 -0.063806997867017323 0 -0.09767344899149133 -0.048572940851599661 0 -0.079439553434863974 -0.05419188771562259 0 -0.09767344899149133 -0.048572940851599661 0 -0.079439553434863974 -0.05419188771562259 0 -0.079254101656316966 -0.038839596863020069 0 -0.09767344899149133 -0.048572940851599661 0 -0.092042099592736903 -0.030342871872578871 0 -0.079254101656316966 -0.038839596863020069 0 -0.079439553434863974 -0.05419188771562259 0 -0.079254101656316966 -0.038839596863020069 0 -0.069366778188196032 -0.046636298753570581 0 -0.079254101656316966 -0.038839596863020069 0 -0.065303587705170127 -0.033542036822940068 0 -0.069366778188196032 -0.046636298753570581 0 -0.065303587705170127 -0.033542036822940068 0 -0.069366778188196032 -0.046636298753570581 0 -0.057489345825814608 -0.045197007013554891 0 -0.069366778188196032 -0.046636298753570581 0 -0.064468264554541785 -0.060725450985857791 0 -0.057489345825814608 -0.045197007013554891 0 -0.079439553434863974 -0.05419188771562259 0 -0.069366778188196032 -0.046636298753570581 0 -0.064468264554541785 -0.060725450985857791 0 -0.079439553434863974 -0.05419188771562259 0 -0.064468264554541785 -0.060725450985857791 0 -0.053165090088771703 -0.053849044817045617 0 -0.057489345825814608 -0.045197007013554891 0 -0.041205774300509833 -0.042214707012676711 0 -0.064468264554541785 -0.060725450985857791 0 -0.053165090088771703 -0.053849044817045617 0 -0.049496975674219498 -0.067259014256092736 0 -0.053165090088771703 -0.053849044817045617 0 -0.041205774300509833 -0.042214707012676711 0 -0.049496975674219498 -0.067259014256092736 0 -0.064468264554541785 -0.060725450985857791 0 -0.053165090088771703 -0.053849044817045617 0 -0.057489345825814608 -0.045197007013554891 0 -0.057489345825814608 -0.045197007013554891 0 -0.053360649487572333 -0.031508274999117868 0 -0.041205774300509833 -0.042214707012676711 0 -0.065303587705170127 -0.033542036822940068 0 -0.057489345825814608 -0.045197007013554891 0 -0.053360649487572333 -0.031508274999117868 0 -0.041205774300509833 -0.042214707012676711 0 -0.029560731383513471 -0.030698354614048039 0 -0.029071288677197649 -0.041031931165279263 0 -0.041205774300509833 -0.042214707012676711 0 -0.035545428748514768 -0.049421198906023187 0 -0.029071288677197649 -0.041031931165279263 0 -0.041205774300509833 -0.042214707012676711 0 -0.035545428748514768 -0.049421198906023187 0 -0.039277333289250087 -0.05738761008273989 0 -0.041205774300509833 -0.042214707012676711 0 -0.039277333289250087 -0.05738761008273989 0 -0.049496975674219498 -0.067259014256092736 0 -0.035545428748514768 -0.049421198906023187 0 -0.032627318727100521 -0.057050547363396847 0 -0.029071288677197649 -0.041031931165279263 0 -0.041205774300509833 -0.042214707012676711 0 -0.049496975674219498 -0.067259014256092736 0 -0.035545428748514768 -0.049421198906023187 0 -0.032627318727100521 -0.057050547363396847 0 -0.039277333289250087 -0.05738761008273989 0 -0.041205774300509833 -0.042214707012676711 0 -0.039277333289250087 -0.05738761008273989 0 -0.066910003298949472 -0.006380589779087396 0 -0.058724649556778627 -0.01837471923928934 0 -0.047480093400365117 0.0071514052909069717 0 -0.058724649556778627 -0.01837471923928934 0 -0.044342933850437971 -0.017531650860884949 0 -0.047480093400365117 0.0071514052909069717 0 -0.053360649487572333 -0.031508274999117868 0 -0.058724649556778627 -0.01837471923928934 0 -0.044342933850437971 -0.017531650860884949 0 -0.065303587705170127 -0.033542036822940068 0 -0.053360649487572333 -0.031508274999117868 0 -0.058724649556778627 -0.01837471923928934 0 -0.041205774300509833 -0.042214707012676711 0 -0.03197940571368342 -0.014345644471004631 0 -0.053360649487572333 -0.031508274999117868 0 -0.041205774300509833 -0.042214707012676711 0 -0.044342933850437971 -0.017531650860884949 0 -0.041205774300509833 -0.042214707012676711 0 -0.044342933850437971 -0.017531650860884949 0 -0.03197940571368342 -0.014345644471004631 0 -0.041205774300509833 -0.042214707012676711 0 -0.044342933850437971 -0.017531650860884949 0 -0.041205774300509833 -0.042214707012676711 0 -0.03197940571368342 -0.014345644471004631 0 -0.029560731383513471 -0.030698354614048039 0 -0.044342933850437971 -0.017531650860884949 0 -0.03197940571368342 -0.014345644471004631 0 -0.047480093400365117 0.0071514052909069717 0 -0.044342933850437971 -0.017531650860884949 0 -0.047480093400365117 0.0071514052909069717 0 -0.03197940571368342 -0.014345644471004631 0 -0.015090251476702499 -0.003079934255059254 0 -0.022753037126858049 0.013523418070667899 0 -0.03197940571368342 -0.014345644471004631 0 -0.020564857339468119 -0.020481758501274941 0 -0.015090251476702499 -0.003079934255059254 0 -0.03197940571368342 -0.014345644471004631 0 -0.022753037126858049 0.013523418070667899 0 -0.020564857339468119 -0.020481758501274941 0 -0.0032704433637422889 -0.021708726878872899 0 -0.024982330886707361 -0.035417731920004573 0 -0.03197940571368342 -0.014345644471004631 0 -0.020564857339468119 -0.020481758501274941 0 -0.029560731383513471 -0.030698354614048039 0 -0.020564857339468119 -0.020481758501274941 0 -0.029560731383513471 -0.030698354614048039 0 -0.024982330886707361 -0.035417731920004573 0 -0.0032704433637422889 -0.021708726878872899 0 -0.015090251476702499 -0.003079934255059254 0 0.0064513957917756229 0.0050175021511877811 0 -0.020564857339468119 -0.020481758501274941 0 -0.0032704433637422889 -0.021708726878872899 0 -0.015090251476702499 -0.003079934255059254 0 -0.032627318727100521 -0.057050547363396847 0 -0.02308425262101951 -0.050503215701802419 0 -0.029071288677197649 -0.041031931165279263 0 -0.032627318727100521 -0.057050547363396847 0 -0.029071288677197649 -0.041031931165279263 0 -0.02308425262101951 -0.050503215701802419 0 -0.01304657834473286 -0.048584220121573297 0 -0.015614839606073841 -0.060504105130514678 0 -0.02308425262101951 -0.050503215701802419 0 -0.02449654445976816 -0.060278242785831597 0 -0.015614839606073841 -0.060504105130514678 0 -0.032627318727100521 -0.057050547363396847 0 -0.02449654445976816 -0.060278242785831597 0 -0.02820348437291878 -0.065157883414209278 0 -0.032627318727100521 -0.057050547363396847 0 -0.02308425262101951 -0.050503215701802419 0 -0.02449654445976816 -0.060278242785831597 0 -0.02308425262101951 -0.050503215701802419 0 -0.029071288677197649 -0.041031931165279263 0 -0.024982330886707361 -0.035417731920004573 0 -0.029560731383513471 -0.030698354614048039 0 -0.029071288677197649 -0.041031931165279263 0 -0.024982330886707361 -0.035417731920004573 0 -0.02308425262101951 -0.050503215701802419 0 -0.024982330886707361 -0.035417731920004573 0 -0.01304657834473286 -0.048584220121573297 0 -0.024982330886707361 -0.035417731920004573 0 -0.01304657834473286 -0.048584220121573297 0 -0.0032704433637422889 -0.021708726878872899 0 -0.024982330886707361 -0.035417731920004573 0 -0.01304657834473286 -0.048584220121573297 0 -0.0032704433637422889 -0.021708726878872899 0 -0.01304657834473286 -0.048584220121573297 0 0.006807656598899833 -0.044556533383483428 0 -0.0032704433637422889 -0.021708726878872899 0 -0.01304657834473286 -0.048584220121573297 0 -0.01304657834473286 -0.048584220121573297 0 -0.00013189539463332069 -0.062397079718219763 0 0.006807656598899833 -0.044556533383483428 0 -0.01304657834473286 -0.048584220121573297 0 -0.015614839606073841 -0.060504105130514678 0 -0.00013189539463332069 -0.062397079718219763 0 -0.01304657834473286 -0.048584220121573297 0 -0.00013189539463332069 -0.062397079718219763 0 -0.00013189539463332069 -0.062397079718219763 0 -0.0055933606100986404 -0.075178643524817665 0 -0.013506314765874281 -0.070878490704947769 0 -0.00013189539463332069 -0.062397079718219763 0 -0.0055933606100986404 -0.075178643524817665 0 0.002185648973446259 -0.076653208650150823 0 -0.0055933606100986404 -0.075178643524817665 0 -0.0029772157873130208 -0.081715700578056397 0 0.002185648973446259 -0.076653208650150823 0 -0.0055933606100986404 -0.075178643524817665 0 -0.013506314765874281 -0.070878490704947769 0 -0.017511967211902481 -0.081217470215234178 0 -0.015614839606073841 -0.060504105130514678 0 -0.00013189539463332069 -0.062397079718219763 0 -0.013506314765874281 -0.070878490704947769 0 -0.017511967211902481 -0.081217470215234178 0 0.0011594143531981141 -0.089365776868953806 0 -0.0098729550603256448 -0.089133197733310104 0 -0.017511967211902481 -0.081217470215234178 0 0.0011594143531981141 -0.089365776868953806 0 -0.0029772157873130208 -0.081715700578056397 0 -0.017511967211902481 -0.081217470215234178 0 0.0011594143531981141 -0.089365776868953806 0 -0.0056205606469964054 -0.093134027525927129 0 -0.0032681753368222072 -0.097396105460184401 0 0.0011594143531981141 -0.089365776868953806 0 -0.0056205606469964054 -0.093134027525927129 0 -0.0098729550603256448 -0.089133197733310104 0 0.0011594143531981141 -0.089365776868953806 0 -0.0055933606100986404 -0.075178643524817665 0 -0.0029772157873130208 -0.081715700578056397 0 -0.017511967211902481 -0.081217470215234178 0 -0.0098729550603256448 -0.089133197733310104 0 -0.019083369095817659 -0.092727292442805032 0 -0.01050052654403588 -0.096641030041260192 0 -0.0098729550603256448 -0.089133197733310104 0 -0.019083369095817659 -0.092727292442805032 0 -0.017511967211902481 -0.081217470215234178 0 -0.0056205606469964054 -0.093134027525927129 0 -0.0098729550603256448 -0.089133197733310104 0 -0.01050052654403588 -0.096641030041260192 0 -0.017511967211902481 -0.081217470215234178 0 -0.028370847935228191 -0.086704666199437716 0 -0.03618334877700316 -0.073069163561514563 0 -0.019083369095817659 -0.092727292442805032 0 -0.017511967211902481 -0.081217470215234178 0 -0.028370847935228191 -0.086704666199437716 0 -0.019083369095817659 -0.092727292442805032 0 -0.028370847935228191 -0.086704666199437716 0 -0.026569496083541019 -0.099011239532018069 0 -0.028370847935228191 -0.086704666199437716 0 -0.034855687785163271 -0.092176954559414839 0 -0.026569496083541019 -0.099011239532018069 0 -0.017511967211902481 -0.081217470215234178 0 -0.03618334877700316 -0.073069163561514563 0 -0.017511967211902481 -0.081217470215234178 0 -0.023069802994205229 -0.07326005077928846 0 -0.03618334877700316 -0.073069163561514563 0 -0.02449654445976816 -0.060278242785831597 0 -0.015614839606073841 -0.060504105130514678 0 -0.02213805773234015 -0.06742643696560327 0 -0.015614839606073841 -0.060504105130514678 0 -0.013506314765874281 -0.070878490704947769 0 -0.02213805773234015 -0.06742643696560327 0 -0.013506314765874281 -0.070878490704947769 0 -0.02213805773234015 -0.06742643696560327 0 -0.023069802994205229 -0.07326005077928846 0 -0.013506314765874281 -0.070878490704947769 0 -0.017511967211902481 -0.081217470215234178 0 -0.023069802994205229 -0.07326005077928846 0 -0.023069802994205229 -0.07326005077928846 0 -0.02828687065363485 -0.069959084079077402 0 -0.03618334877700316 -0.073069163561514563 0 -0.02828687065363485 -0.069959084079077402 0 -0.02820348437291878 -0.065157883414209278 0 -0.03132525563266432 -0.066309169604549495 0 -0.032627318727100521 -0.057050547363396847 0 -0.02820348437291878 -0.065157883414209278 0 -0.03132525563266432 -0.066309169604549495 0 -0.02213805773234015 -0.06742643696560327 0 -0.023069802994205229 -0.07326005077928846 0 -0.02828687065363485 -0.069959084079077402 0 -0.02213805773234015 -0.06742643696560327 0 -0.02828687065363485 -0.069959084079077402 0 -0.02820348437291878 -0.065157883414209278 0 -0.02449654445976816 -0.060278242785831597 0 -0.02213805773234015 -0.06742643696560327 0 -0.02820348437291878 -0.065157883414209278 0 -0.02828687065363485 -0.069959084079077402 0 -0.03132525563266432 -0.066309169604549495 0 -0.03618334877700316 -0.073069163561514563 0 -0.039277333289250087 -0.05738761008273989 0 -0.041166860430729438 -0.070864114653084259 0 -0.03618334877700316 -0.073069163561514563 0 -0.032627318727100521 -0.057050547363396847 0 -0.03132525563266432 -0.066309169604549495 0 -0.03618334877700316 -0.073069163561514563 0 -0.039277333289250087 -0.05738761008273989 0 -0.03618334877700316 -0.073069163561514563 0 -0.032627318727100521 -0.057050547363396847 0 -0.03618334877700316 -0.073069163561514563 0 -0.032627318727100521 -0.057050547363396847 0 -0.039277333289250087 -0.05738761008273989 0 -0.03618334877700316 -0.073069163561514563 0 -0.039277333289250087 -0.05738761008273989 0 -0.041166860430729438 -0.070864114653084259 0 -0.049496975674219498 -0.067259014256092736 0 -0.041166860430729438 -0.070864114653084259 0 -0.049496975674219498 -0.067259014256092736 0 -0.041166860430729438 -0.070864114653084259 0 -0.036883428348406591 -0.076222766260337471 0 -0.052135626673901293 -0.085420521578809472 0 -0.036883428348406591 -0.076222766260337471 0 -0.03618334877700316 -0.073069163561514563 0 -0.041166860430729438 -0.070864114653084259 0 -0.036883428348406591 -0.076222766260337471 0 -0.03618334877700316 -0.073069163561514563 0 -0.041166860430729438 -0.070864114653084259 0 -0.03618334877700316 -0.073069163561514563 0 -0.036883428348406591 -0.076222766260337471 0 -0.034855687785163271 -0.092176954559414839 0 -0.028370847935228191 -0.086704666199437716 0 -0.036883428348406591 -0.076222766260337471 0 -0.03618334877700316 -0.073069163561514563 0 -0.036883428348406591 -0.076222766260337471 0 -0.034855687785163271 -0.092176954559414839 0 -0.041708993981339107 -0.097960176441919206 0 -0.036883428348406591 -0.076222766260337471 0 -0.052135626673901293 -0.085420521578809472 0 -0.041708993981339107 -0.097960176441919206 0 -0.028370847935228191 -0.086704666199437716 0 -0.036883428348406591 -0.076222766260337471 0 -0.034855687785163271 -0.092176954559414839 0 -0.036883428348406591 -0.076222766260337471 0 -0.041708993981339107 -0.097960176441919206 0 -0.028370847935228191 -0.086704666199437716 0 -0.034855687785163271 -0.092176954559414839 0 -0.041166860430729438 -0.070864114653084259 0 -0.052135626673901293 -0.085420521578809472 0 -0.070427380369511419 -0.085977071792472493 0 -0.06310439291707394 -0.099976928504534102 0 -0.052135626673901293 -0.085420521578809472 0 -0.063835131589644087 -0.075717807955200472 0 -0.070427380369511419 -0.085977071792472493 0 -0.052135626673901293 -0.085420521578809472 0 -0.06310439291707394 -0.099976928504534102 0 -0.052135626673901293 -0.085420521578809472 0 -0.063835131589644087 -0.075717807955200472 0 -0.052135626673901293 -0.085420521578809472 0 -0.054045562282744652 -0.075810810483851687 0 -0.063835131589644087 -0.075717807955200472 0 -0.056385553288325348 -0.069707741847559554 0 -0.054045562282744652 -0.075810810483851687 0 -0.064468264554541785 -0.060725450985857791 0 -0.049496975674219498 -0.067259014256092736 0 -0.064468264554541785 -0.060725450985857791 0 -0.056385553288325348 -0.069707741847559554 0 -0.049496975674219498 -0.067259014256092736 0 -0.063835131589644087 -0.075717807955200472 0 -0.064468264554541785 -0.060725450985857791 0 -0.056385553288325348 -0.069707741847559554 0 -0.056385553288325348 -0.069707741847559554 0 -0.050081832340476723 -0.069025625556794881 0 -0.049496975674219498 -0.067259014256092736 0 -0.041166860430729438 -0.070864114653084259 0 -0.050081832340476723 -0.069025625556794881 0 -0.049496975674219498 -0.067259014256092736 0 -0.050081832340476723 -0.069025625556794881 0 -0.049496975674219498 -0.067259014256092736 0 -0.041166860430729438 -0.070864114653084259 0 -0.050081832340476723 -0.069025625556794881 0 -0.054045562282744652 -0.075810810483851687 0 -0.041166860430729438 -0.070864114653084259 0 -0.052135626673901293 -0.085420521578809472 0 -0.054045562282744652 -0.075810810483851687 0 -0.056385553288325348 -0.069707741847559554 0 -0.050081832340476723 -0.069025625556794881 0 -0.054045562282744652 -0.075810810483851687 0 -0.060007406525312119 -0.1134014505963527 0 -0.041708993981339107 -0.097960176441919206 0 -0.046323657263432932 -0.1187475485850229 0 -0.060007406525312119 -0.1134014505963527 0 -0.046323657263432932 -0.1187475485850229 0 -0.061050978852012321 -0.1290213354191441 0 -0.060007406525312119 -0.1134014505963527 0 -0.059657178600186427 -0.10061459628389779 0 -0.041708993981339107 -0.097960176441919206 0 -0.052135626673901293 -0.085420521578809472 0 -0.059657178600186427 -0.10061459628389779 0 -0.041708993981339107 -0.097960176441919206 0 -0.060007406525312119 -0.1134014505963527 0 -0.041708993981339107 -0.097960176441919206 0 -0.06310439291707394 -0.099976928504534102 0 -0.060007406525312119 -0.1134014505963527 0 -0.059657178600186427 -0.10061459628389779 0 -0.06310439291707394 -0.099976928504534102 0 -0.052135626673901293 -0.085420521578809472 0 -0.059657178600186427 -0.10061459628389779 0 -0.06310439291707394 -0.099976928504534102 0 -0.059657178600186427 -0.10061459628389779 0 -0.034855687785163271 -0.092176954559414839 0 -0.031420116952718208 -0.1192078997252916 0 -0.034855687785163271 -0.092176954559414839 0 -0.038577113995663298 -0.1070231448279122 0 -0.031420116952718208 -0.1192078997252916 0 -0.041708993981339107 -0.097960176441919206 0 -0.038577113995663298 -0.1070231448279122 0 -0.046323657263432932 -0.1187475485850229 0 -0.041708993981339107 -0.097960176441919206 0 -0.046323657263432932 -0.1187475485850229 0 -0.034855687785163271 -0.092176954559414839 0 -0.041708993981339107 -0.097960176441919206 0 -0.038577113995663298 -0.1070231448279122 0 -0.034855687785163271 -0.092176954559414839 0 -0.041708993981339107 -0.097960176441919206 0 -0.038577113995663298 -0.1070231448279122 0 -0.046323657263432932 -0.1187475485850229 0 -0.031420116952718208 -0.1192078997252916 0 -0.046323657263432932 -0.1187475485850229 0 -0.031420116952718208 -0.1192078997252916 0 -0.039370079749631998 -0.13381785723444389 0 -0.019172126162611491 -0.1159130583413457 0 -0.006255808653915158 -0.12961134133280849 0 -0.022070915447973079 -0.12507428175509869 0 -0.031420116952718208 -0.1192078997252916 0 -0.019172126162611491 -0.1159130583413457 0 -0.022070915447973079 -0.12507428175509869 0 -0.031420116952718208 -0.1192078997252916 0 -0.019172126162611491 -0.1159130583413457 0 -0.019117458648777581 -0.1042393847331413 0 -0.034855687785163271 -0.092176954559414839 0 -0.031420116952718208 -0.1192078997252916 0 -0.026569496083541019 -0.099011239532018069 0 -0.031420116952718208 -0.1192078997252916 0 -0.026569496083541019 -0.099011239532018069 0 -0.019117458648777581 -0.1042393847331413 0 -0.019083369095817659 -0.092727292442805032 0 -0.026569496083541019 -0.099011239532018069 0 -0.019117458648777581 -0.1042393847331413 0 -0.019083369095817659 -0.092727292442805032 0 -0.019117458648777581 -0.1042393847331413 0 -0.01050052654403588 -0.096641030041260192 0 -0.019117458648777581 -0.1042393847331413 0 -0.01050052654403588 -0.096641030041260192 0 -0.0071315204405777094 -0.1046314443299273 0 -0.019117458648777581 -0.1042393847331413 0 -0.0071315204405777094 -0.1046314443299273 0 -0.0065521411640195489 -0.1138300235372187 0 -0.0071315204405777094 -0.1046314443299273 0 -0.0032681753368222072 -0.097396105460184401 0 0.0055003327058907071 -0.1083906823608586 0 -0.0071315204405777094 -0.1046314443299273 0 -0.0065521411640195489 -0.1138300235372187 0 0.0055003327058907071 -0.1083906823608586 0 -0.01050052654403588 -0.096641030041260192 0 -0.0071315204405777094 -0.1046314443299273 0 -0.0032681753368222072 -0.097396105460184401 0 -0.0056205606469964054 -0.093134027525927129 0 -0.01050052654403588 -0.096641030041260192 0 -0.0032681753368222072 -0.097396105460184401 0 -0.019172126162611491 -0.1159130583413457 0 -0.0065521411640195489 -0.1138300235372187 0 -0.006255808653915158 -0.12961134133280849 0 -0.019172126162611491 -0.1159130583413457 0 -0.019117458648777581 -0.1042393847331413 0 -0.0065521411640195489 -0.1138300235372187 0 -0.006255808653915158 -0.12961134133280849 0 -0.013648663268692931 -0.14332862135090571 0 0.0094105755256839122 -0.1480926995065347 0 -0.006255808653915158 -0.12961134133280849 0 -0.026816307780583162 -0.1348854845939888 0 -0.013648663268692931 -0.14332862135090571 0 -0.006255808653915158 -0.12961134133280849 0 -0.022070915447973079 -0.12507428175509869 0 -0.026816307780583162 -0.1348854845939888 0 -0.031420116952718208 -0.1192078997252916 0 -0.026816307780583162 -0.1348854845939888 0 -0.027984546120273662 -0.1462388448911684 0 -0.031420116952718208 -0.1192078997252916 0 -0.027984546120273662 -0.1462388448911684 0 -0.006255808653915158 -0.12961134133280849 0 -0.026816307780583162 -0.1348854845939888 0 -0.031420116952718208 -0.1192078997252916 0 -0.022070915447973079 -0.12507428175509869 0 -0.026816307780583162 -0.1348854845939888 0 -0.026816307780583162 -0.1348854845939888 0 -0.027984546120273662 -0.1462388448911684 0 -0.013648663268692931 -0.14332862135090571 0 -0.027984546120273662 -0.1462388448911684 0 -0.018827256303632151 -0.1551846305544517 0 -0.013648663268692931 -0.14332862135090571 0 -0.013648663268692931 -0.14332862135090571 0 -0.0091268405377329317 -0.15790126591868739 0 0.0094105755256839122 -0.1480926995065347 0 -0.018827256303632151 -0.1551846305544517 0 -0.013648663268692931 -0.14332862135090571 0 -0.0091268405377329317 -0.15790126591868739 0 -0.0097505840828698218 -0.1712515658163829 0 -0.0091268405377329317 -0.15790126591868739 0 0.004516460578614578 -0.17184820094144029 0 -0.0097505840828698218 -0.1712515658163829 0 -0.0091268405377329317 -0.15790126591868739 0 -0.024548975287829081 -0.1732697900570454 0 -0.0098429810845318561 -0.18198700634835871 0 -0.00037765436845475011 -0.19560370237634589 0 0.004516460578614578 -0.17184820094144029 0 -0.0097505840828698218 -0.1712515658163829 0 -0.0098429810845318561 -0.18198700634835871 0 0.004516460578614578 -0.17184820094144029 0 -0.0097505840828698218 -0.1712515658163829 0 -0.0098429810845318561 -0.18198700634835871 0 -0.024548975287829081 -0.1732697900570454 0 -0.024548975287829081 -0.1732697900570454 0 -0.02111340445538451 -0.2003007352229223 0 -0.0098429810845318561 -0.18198700634835871 0 -0.024548975287829081 -0.1732697900570454 0 -0.02111340445538451 -0.2003007352229223 0 -0.027984546120273662 -0.1462388448911684 0 -0.024548975287829081 -0.1732697900570454 0 -0.03913446414276537 -0.16027223878554281 0 -0.027984546120273662 -0.1462388448911684 0 -0.018827256303632151 -0.1551846305544517 0 -0.024548975287829081 -0.1732697900570454 0 -0.018827256303632151 -0.1551846305544517 0 -0.0091268405377329317 -0.15790126591868739 0 -0.024548975287829081 -0.1732697900570454 0 -0.027984546120273662 -0.1462388448911684 0 -0.024548975287829081 -0.1732697900570454 0 -0.024548975287829081 -0.1732697900570454 0 -0.03913446414276537 -0.16027223878554281 0 -0.045883444665165363 -0.17409197101751081 0 -0.03913446414276537 -0.16027223878554281 0 -0.045883444665165363 -0.17409197101751081 0 -0.055552983827618647 -0.16032229287123059 0 -0.024548975287829081 -0.1732697900570454 0 -0.045883444665165363 -0.17409197101751081 0 -0.044696439928931443 -0.19502612847968129 0 -0.045883444665165363 -0.17409197101751081 0 -0.055552983827618647 -0.16032229287123059 0 -0.065484360138682265 -0.1815694048940539 0 -0.045883444665165363 -0.17409197101751081 0 -0.044696439928931443 -0.19502612847968129 0 -0.065484360138682265 -0.1815694048940539 0 -0.055552983827618647 -0.16032229287123059 0 -0.050938320545525793 -0.1395349207281267 0 -0.069679690856505189 -0.14458003243543241 0 -0.055552983827618647 -0.16032229287123059 0 -0.050938320545525793 -0.1395349207281267 0 -0.055552983827618647 -0.16032229287123059 0 -0.050938320545525793 -0.1395349207281267 0 -0.042596078877163088 -0.1480372309021025 0 -0.061050978852012321 -0.1290213354191441 0 -0.050938320545525793 -0.1395349207281267 0 -0.069679690856505189 -0.14458003243543241 0 -0.046323657263432932 -0.1187475485850229 0 -0.061050978852012321 -0.1290213354191441 0 -0.050938320545525793 -0.1395349207281267 0 -0.046323657263432932 -0.1187475485850229 0 -0.050938320545525793 -0.1395349207281267 0 -0.050938320545525793 -0.1395349207281267 0 -0.039370079749631998 -0.13381785723444389 0 -0.042596078877163088 -0.1480372309021025 0 -0.031420116952718208 -0.1192078997252916 0 -0.027984546120273662 -0.1462388448911684 0 -0.039370079749631998 -0.13381785723444389 0 -0.046323657263432932 -0.1187475485850229 0 -0.050938320545525793 -0.1395349207281267 0 -0.039370079749631998 -0.13381785723444389 0 -0.027984546120273662 -0.1462388448911684 0 -0.039370079749631998 -0.13381785723444389 0 -0.042596078877163088 -0.1480372309021025 0 -0.03913446414276537 -0.16027223878554281 0 -0.055552983827618647 -0.16032229287123059 0 -0.042596078877163088 -0.1480372309021025 0 -0.027984546120273662 -0.1462388448911684 0 -0.03913446414276537 -0.16027223878554281 0 -0.042596078877163088 -0.1480372309021025 0 -0.014242262790494181 -0.25436262555467598 0 -0.01767783362293994 -0.22733168038879931 0 -0.014242262790494181 -0.25436262555467598 0 -0.01767783362293994 -0.22733168038879931 0 -0.032006049370809683 -0.2414171829525375 0 -0.014242262790494181 -0.25436262555467598 0 -0.0040268346632878179 -0.23544582594765409 0 0.0054077402359684022 -0.24803128275829681 0 -0.014242262790494181 -0.25436262555467598 0 -0.0040268346632878179 -0.23544582594765409 0 -0.01767783362293994 -0.22733168038879931 0 -0.0040268346632878179 -0.23544582594765409 0 -0.0052717693155240868 -0.21935920381125151 0 -0.01767783362293994 -0.22733168038879931 0 -0.01767783362293994 -0.22733168038879931 0 -0.035770801484537922 -0.21589745575483399 0 -0.032596190888852947 -0.2289516049813223 0 -0.01767783362293994 -0.22733168038879931 0 -0.032596190888852947 -0.2289516049813223 0 -0.032006049370809683 -0.2414171829525375 0 -0.01767783362293994 -0.22733168038879931 0 -0.02111340445538451 -0.2003007352229223 0 -0.01767783362293994 -0.22733168038879931 0 -0.02111340445538451 -0.2003007352229223 0 -0.035770801484537922 -0.21589745575483399 0 -0.0052717693155240868 -0.21935920381125151 0 -0.00037765436845475011 -0.19560370237634589 0 -0.02111340445538451 -0.2003007352229223 0 -0.0052717693155240868 -0.21935920381125151 0 -0.00037765436845475011 -0.19560370237634589 0 -0.0052717693155240868 -0.21935920381125151 0 -0.01767783362293994 -0.22733168038879931 0 -0.02111340445538451 -0.2003007352229223 0 -0.0098429810845318561 -0.18198700634835871 0 -0.00037765436845475011 -0.19560370237634589 0 -0.02111340445538451 -0.2003007352229223 0 -0.024548975287829081 -0.1732697900570454 0 -0.02111340445538451 -0.2003007352229223 0 -0.044696439928931443 -0.19502612847968129 0 -0.044696439928931443 -0.19502612847968129 0 -0.065332895683858708 -0.20357050838494101 0 -0.065484360138682265 -0.1815694048940539 0 -0.044696439928931443 -0.19502612847968129 0 -0.052852580757208903 -0.21525152499313099 0 -0.065332895683858708 -0.20357050838494101 0 -0.044696439928931443 -0.19502612847968129 0 -0.052852580757208903 -0.21525152499313099 0 -0.035770801484537922 -0.21589745575483399 0 -0.02111340445538451 -0.2003007352229223 0 -0.044696439928931443 -0.19502612847968129 0 -0.035770801484537922 -0.21589745575483399 0 -0.035770801484537922 -0.21589745575483399 0 -0.032596190888852947 -0.2289516049813223 0 -0.047650128981329629 -0.23233724367350331 0 -0.052852580757208903 -0.21525152499313099 0 -0.035770801484537922 -0.21589745575483399 0 -0.047650128981329629 -0.23233724367350331 0 -0.032596190888852947 -0.2289516049813223 0 -0.047650128981329629 -0.23233724367350331 0 -0.032006049370809683 -0.2414171829525375 0 -0.052852580757208903 -0.21525152499313099 0 -0.047650128981329629 -0.23233724367350331 0 -0.072290514366763925 -0.2264671950666523 0 -0.047650128981329629 -0.23233724367350331 0 -0.065966051164906045 -0.2483348353079719 0 -0.072290514366763925 -0.2264671950666523 0 -0.047650128981329629 -0.23233724367350331 0 -0.046799964515636311 -0.24920753124184811 0 -0.065966051164906045 -0.2483348353079719 0 -0.047650128981329629 -0.23233724367350331 0 -0.046799964515636311 -0.24920753124184811 0 -0.032006049370809683 -0.2414171829525375 0 -0.085099214246944763 -0.24380688298698661 0 -0.065966051164906045 -0.2483348353079719 0 -0.072290514366763925 -0.2264671950666523 0 -0.072290514366763925 -0.2264671950666523 0 -0.091662591387593695 -0.21377586001299681 0 -0.098320394277497072 -0.2311064460740479 0 -0.085099214246944763 -0.24380688298698661 0 -0.072290514366763925 -0.2264671950666523 0 -0.098320394277497072 -0.2311064460740479 0 -0.091662591387593695 -0.21377586001299681 0 -0.065332895683858708 -0.20357050838494101 0 -0.083785919357256156 -0.19426515169319319 0 -0.052852580757208903 -0.21525152499313099 0 -0.072290514366763925 -0.2264671950666523 0 -0.065332895683858708 -0.20357050838494101 0 -0.072290514366763925 -0.2264671950666523 0 -0.091662591387593695 -0.21377586001299681 0 -0.065332895683858708 -0.20357050838494101 0 -0.065332895683858708 -0.20357050838494101 0 -0.083785919357256156 -0.19426515169319319 0 -0.065484360138682265 -0.1815694048940539 0 -0.091662591387593695 -0.21377586001299681 0 -0.083785919357256156 -0.19426515169319319 0 -0.1015890992290011 -0.19897460394336289 0 -0.1015890992290011 -0.19897460394336289 0 -0.097969849089404981 -0.1826333832679137 0 -0.1109916552247347 -0.18613106153322251 0 -0.083785919357256156 -0.19426515169319319 0 -0.1015890992290011 -0.19897460394336289 0 -0.097969849089404981 -0.1826333832679137 0 -0.1189044176714576 -0.20095678806107439 0 -0.125053449611397 -0.1757763260007012 0 -0.1189044176714576 -0.20095678806107439 0 -0.125053449611397 -0.1757763260007012 0 -0.13077023872427199 -0.18821095084207851 0 -0.1189044176714576 -0.20095678806107439 0 -0.1109916552247347 -0.18613106153322251 0 -0.125053449611397 -0.1757763260007012 0 -0.1015890992290011 -0.19897460394336289 0 -0.1189044176714576 -0.20095678806107439 0 -0.1109916552247347 -0.18613106153322251 0 -0.1015890992290011 -0.19897460394336289 0 -0.1189044176714576 -0.20095678806107439 0 -0.11046610995513501 -0.2167686491370299 0 -0.1189044176714576 -0.20095678806107439 0 -0.11046610995513501 -0.2167686491370299 0 -0.12980363706060791 -0.2180938268571638 0 -0.091662591387593695 -0.21377586001299681 0 -0.1015890992290011 -0.19897460394336289 0 -0.11046610995513501 -0.2167686491370299 0 -0.11046610995513501 -0.2167686491370299 0 -0.098320394277497072 -0.2311064460740479 0 -0.117963685465532 -0.23429398274213581 0 -0.091662591387593695 -0.21377586001299681 0 -0.11046610995513501 -0.2167686491370299 0 -0.098320394277497072 -0.2311064460740479 0 -0.11046610995513501 -0.2167686491370299 0 -0.117963685465532 -0.23429398274213581 0 -0.12980363706060791 -0.2180938268571638 0 -0.1034683851570302 -0.25081812964332789 0 -0.12328477412140371 -0.25011208707580329 0 -0.117963685465532 -0.23429398274213581 0 -0.1034683851570302 -0.25081812964332789 0 -0.098320394277497072 -0.2311064460740479 0 -0.117963685465532 -0.23429398274213581 0 -0.1034683851570302 -0.25081812964332789 0 -0.085099214246944763 -0.24380688298698661 0 -0.098320394277497072 -0.2311064460740479 0 -0.069679690856505189 -0.14458003243543241 0 -0.079541392476400852 -0.16281179123563311 0 -0.09654459087096183 -0.14435467512636879 0 -0.079824491894017538 -0.12216580181545179 0 -0.09654459087096183 -0.14435467512636879 0 -0.07830581906928559 -0.12884272475078559 0 -0.069679690856505189 -0.14458003243543241 0 -0.09654459087096183 -0.14435467512636879 0 -0.07830581906928559 -0.12884272475078559 0 -0.09654459087096183 -0.14435467512636879 0 -0.079824491894017538 -0.12216580181545179 0 -0.07830581906928559 -0.12884272475078559 0 -0.09654459087096183 -0.14435467512636879 0 -0.061050978852012321 -0.1290213354191441 0 -0.07830581906928559 -0.12884272475078559 0 -0.069679690856505189 -0.14458003243543241 0 -0.055552983827618647 -0.16032229287123059 0 -0.069679690856505189 -0.14458003243543241 0 -0.079541392476400852 -0.16281179123563311 0 -0.055552983827618647 -0.16032229287123059 0 -0.065484360138682265 -0.1815694048940539 0 -0.079541392476400852 -0.16281179123563311 0 -0.065484360138682265 -0.1815694048940539 0 -0.081126438528339229 -0.1783929530695231 0 -0.079541392476400852 -0.16281179123563311 0 -0.083785919357256156 -0.19426515169319319 0 -0.065484360138682265 -0.1815694048940539 0 -0.081126438528339229 -0.1783929530695231 0 -0.081126438528339229 -0.1783929530695231 0 -0.096573696365181122 -0.16400276755074669 0 -0.097969849089404981 -0.1826333832679137 0 -0.083785919357256156 -0.19426515169319319 0 -0.081126438528339229 -0.1783929530695231 0 -0.097969849089404981 -0.1826333832679137 0 -0.081126438528339229 -0.1783929530695231 0 -0.079541392476400852 -0.16281179123563311 0 -0.096573696365181122 -0.16400276755074669 0 -0.079541392476400852 -0.16281179123563311 0 -0.096573696365181122 -0.16400276755074669 0 -0.09654459087096183 -0.14435467512636879 0 -0.096573696365181122 -0.16400276755074669 0 -0.1116904955327109 -0.17235428182270371 0 -0.11113698875821421 -0.1565475920860899 0 -0.096573696365181122 -0.16400276755074669 0 -0.097969849089404981 -0.1826333832679137 0 -0.1116904955327109 -0.17235428182270371 0 -0.097969849089404981 -0.1826333832679137 0 -0.1109916552247347 -0.18613106153322251 0 -0.1116904955327109 -0.17235428182270371 0 -0.1109916552247347 -0.18613106153322251 0 -0.1116904955327109 -0.17235428182270371 0 -0.125053449611397 -0.1757763260007012 0 -0.1116904955327109 -0.17235428182270371 0 -0.12566974590316929 -0.1688111852669614 0 -0.125053449611397 -0.1757763260007012 0 -0.1116904955327109 -0.17235428182270371 0 -0.11113698875821421 -0.1565475920860899 0 -0.12566974590316929 -0.1688111852669614 0 -0.11113698875821421 -0.1565475920860899 0 -0.1220625944260179 -0.1555475155763848 0 -0.12566974590316929 -0.1688111852669614 0 -0.11113698875821421 -0.1565475920860899 0 -0.12566974590316929 -0.1688111852669614 0 -0.11113698875821421 -0.1565475920860899 0 -0.1220625944260179 -0.1555475155763848 0 -0.11875687874594019 -0.1372593560808682 0 -0.1220625944260179 -0.1555475155763848 0 -0.11875687874594019 -0.1372593560808682 0 -0.1312024815513364 -0.15059586394032801 0 -0.11113698875821421 -0.1565475920860899 0 -0.09654459087096183 -0.14435467512636879 0 -0.11875687874594019 -0.1372593560808682 0 -0.11113698875821421 -0.1565475920860899 0 -0.09654459087096183 -0.14435467512636879 0 -0.096573696365181122 -0.16400276755074669 0 -0.11113698875821421 -0.1565475920860899 0 -0.09654459087096183 -0.14435467512636879 0 -0.10605473682518669 -0.1166633748805592 0 -0.09654459087096183 -0.14435467512636879 0 -0.11875687874594019 -0.1372593560808682 0 -0.079824491894017538 -0.12216580181545179 0 -0.10605473682518669 -0.1166633748805592 0 -0.09654459087096183 -0.14435467512636879 0 -0.13735151349127581 -0.1254154018799547 0 -0.1312024815513364 -0.15059586394032801 0 -0.11875687874594019 -0.1372593560808682 0 -0.13735151349127581 -0.1254154018799547 0 -0.1312024815513364 -0.15059586394032801 0 -0.13735151349127581 -0.1254154018799547 0 -0.14800652857090349 -0.14767312795056831 0 -0.1560332016605003 -0.1231680344268509 0 -0.13735151349127581 -0.1254154018799547 0 -0.14800652857090349 -0.14767312795056831 0 -0.1312024815513364 -0.15059586394032801 0 -0.14800652857090349 -0.14767312795056831 0 -0.1312024815513364 -0.15059586394032801 0 -0.13795600753902459 -0.16335276397715651 0 -0.1312024815513364 -0.15059586394032801 0 -0.125053449611397 -0.1757763260007012 0 -0.1220625944260179 -0.1555475155763848 0 -0.1312024815513364 -0.15059586394032801 0 -0.12566974590316929 -0.1688111852669614 0 -0.1312024815513364 -0.15059586394032801 0 -0.12566974590316929 -0.1688111852669614 0 -0.125053449611397 -0.1757763260007012 0 -0.1312024815513364 -0.15059586394032801 0 -0.13795600753902459 -0.16335276397715651 0 -0.125053449611397 -0.1757763260007012 0 -0.125053449611397 -0.1757763260007012 0 -0.1384970065377028 -0.17727387122575669 0 -0.13077023872427199 -0.18821095084207851 0 -0.13795600753902459 -0.16335276397715651 0 -0.125053449611397 -0.1757763260007012 0 -0.1384970065377028 -0.17727387122575669 0 -0.1384970065377028 -0.17727387122575669 0 -0.15575366125178519 -0.18173754169600539 0 -0.1477683453935186 -0.16628019816272169 0 -0.1384970065377028 -0.17727387122575669 0 -0.15575366125178519 -0.18173754169600539 0 -0.14150504352553189 -0.19702882388976439 0 -0.14800652857090349 -0.14767312795056831 0 -0.13795600753902459 -0.16335276397715651 0 -0.1477683453935186 -0.16628019816272169 0 -0.14800652857090349 -0.14767312795056831 0 -0.1477683453935186 -0.16628019816272169 0 -0.16127919286468759 -0.16065896530092011 0 -0.15575366125178519 -0.18173754169600539 0 -0.1477683453935186 -0.16628019816272169 0 -0.16127919286468759 -0.16065896530092011 0 -0.13795600753902459 -0.16335276397715651 0 -0.1384970065377028 -0.17727387122575669 0 -0.1477683453935186 -0.16628019816272169 0 -0.16127919286468759 -0.16065896530092011 0 -0.16985593855773831 -0.1733760048302084 0 -0.18284421028580339 -0.15731778523749351 0 -0.15575366125178519 -0.18173754169600539 0 -0.16127919286468759 -0.16065896530092011 0 -0.16985593855773831 -0.1733760048302084 0 -0.15575366125178519 -0.18173754169600539 0 -0.16985593855773831 -0.1733760048302084 0 -0.16855634485042281 -0.19783999562748991 0 -0.16985593855773831 -0.1733760048302084 0 -0.19170683738853611 -0.19052255557805509 0 -0.19111323774934269 -0.17391133179527671 0 -0.16985593855773831 -0.1733760048302084 0 -0.16855634485042281 -0.19783999562748991 0 -0.19170683738853611 -0.19052255557805509 0 -0.16985593855773831 -0.1733760048302084 0 -0.18284421028580339 -0.15731778523749351 0 -0.19111323774934269 -0.17391133179527671 0 -0.18284421028580339 -0.15731778523749351 0 -0.1861077769716222 -0.13910116527453781 0 -0.1689321055301852 -0.1415089014386125 0 -0.1861077769716222 -0.13910116527453781 0 -0.1689321055301852 -0.1415089014386125 0 -0.1775948614377664 -0.1182258334164261 0 -0.1689321055301852 -0.1415089014386125 0 -0.1775948614377664 -0.1182258334164261 0 -0.1560332016605003 -0.1231680344268509 0 -0.14800652857090349 -0.14767312795056831 0 -0.1689321055301852 -0.1415089014386125 0 -0.1560332016605003 -0.1231680344268509 0 -0.16127919286468759 -0.16065896530092011 0 -0.18284421028580339 -0.15731778523749351 0 -0.1689321055301852 -0.1415089014386125 0 -0.14800652857090349 -0.14767312795056831 0 -0.16127919286468759 -0.16065896530092011 0 -0.1689321055301852 -0.1415089014386125 0 -0.16213576413331901 -0.25364819393533983 0 -0.15601206104061149 -0.23801114995441899 0 -0.1396029791942078 -0.24239269199167149 0 -0.12328477412140371 -0.25011208707580329 0 -0.117963685465532 -0.23429398274213581 0 -0.1396029791942078 -0.24239269199167149 0 -0.1396029791942078 -0.24239269199167149 0 -0.1503795865517831 -0.21712202532130681 0 -0.12980363706060791 -0.2180938268571638 0 -0.117963685465532 -0.23429398274213581 0 -0.1396029791942078 -0.24239269199167149 0 -0.12980363706060791 -0.2180938268571638 0 -0.15601206104061149 -0.23801114995441899 0 -0.1396029791942078 -0.24239269199167149 0 -0.1503795865517831 -0.21712202532130681 0 -0.1503795865517831 -0.21712202532130681 0 -0.14150504352553189 -0.19702882388976439 0 -0.16855634485042281 -0.19783999562748991 0 -0.1189044176714576 -0.20095678806107439 0 -0.12980363706060791 -0.2180938268571638 0 -0.14150504352553189 -0.19702882388976439 0 -0.1503795865517831 -0.21712202532130681 0 -0.12980363706060791 -0.2180938268571638 0 -0.14150504352553189 -0.19702882388976439 0 -0.1189044176714576 -0.20095678806107439 0 -0.13077023872427199 -0.18821095084207851 0 -0.14150504352553189 -0.19702882388976439 0 -0.1384970065377028 -0.17727387122575669 0 -0.13077023872427199 -0.18821095084207851 0 -0.14150504352553189 -0.19702882388976439 0 -0.15575366125178519 -0.18173754169600539 0 -0.14150504352553189 -0.19702882388976439 0 -0.16855634485042281 -0.19783999562748991 0 -0.16855634485042281 -0.19783999562748991 0 -0.19240368303710981 -0.20693450017179579 0 -0.19170683738853611 -0.19052255557805509 0 -0.16855634485042281 -0.19783999562748991 0 -0.1783080466822676 -0.21743944121185971 0 -0.19240368303710981 -0.20693450017179579 0 -0.1503795865517831 -0.21712202532130681 0 -0.16855634485042281 -0.19783999562748991 0 -0.1783080466822676 -0.21743944121185971 0 -0.1503795865517831 -0.21712202532130681 0 -0.1783080466822676 -0.21743944121185971 0 -0.1503795865517831 -0.21712202532130681 0 -0.1783080466822676 -0.21743944121185971 0 -0.17275209235147329 -0.2366739006357628 0 -0.15601206104061149 -0.23801114995441899 0 -0.1503795865517831 -0.21712202532130681 0 -0.17275209235147329 -0.2366739006357628 0 -0.1783080466822676 -0.21743944121185971 0 -0.17275209235147329 -0.2366739006357628 0 -0.1927269721952623 -0.23802934634911169 0 -0.17894125144676101 -0.25938846464192622 0 -0.17275209235147329 -0.2366739006357628 0 -0.1927269721952623 -0.23802934634911169 0 -0.16213576413331901 -0.25364819393533983 0 -0.15601206104061149 -0.23801114995441899 0 -0.17275209235147329 -0.2366739006357628 0 -0.16213576413331901 -0.25364819393533983 0 -0.17894125144676101 -0.25938846464192622 0 -0.17275209235147329 -0.2366739006357628 0 -0.19639510293617601 -0.25611154843722972 0 -0.2169351205791176 -0.23928729075814181 0 -0.1927269721952623 -0.23802934634911169 0 -0.1927269721952623 -0.23802934634911169 0 -0.2062365068127521 -0.2177568571024138 0 -0.1783080466822676 -0.21743944121185971 0 -0.1927269721952623 -0.23802934634911169 0 -0.2062365068127521 -0.2177568571024138 0 -0.2169351205791176 -0.23928729075814181 0 -0.1927269721952623 -0.23802934634911169 0 -0.2062365068127521 -0.2177568571024138 0 -0.2062365068127521 -0.2177568571024138 0 -0.21747186570935539 -0.20089700967885579 0 -0.2062365068127521 -0.2177568571024138 0 -0.19240368303710981 -0.20693450017179579 0 -0.21747186570935539 -0.20089700967885579 0 -0.1783080466822676 -0.21743944121185971 0 -0.2062365068127521 -0.2177568571024138 0 -0.1783080466822676 -0.21743944121185971 0 -0.2062365068127521 -0.2177568571024138 0 -0.19240368303710981 -0.20693450017179579 0 -0.19240368303710981 -0.20693450017179579 0 -0.19170683738853611 -0.19052255557805509 0 -0.21747186570935539 -0.20089700967885579 0 -0.21747186570935539 -0.20089700967885579 0 -0.20953273281970819 -0.18343286114378951 0 -0.22870722460595819 -0.1840371622552974 0 -0.19170683738853611 -0.19052255557805509 0 -0.21747186570935539 -0.20089700967885579 0 -0.20953273281970819 -0.18343286114378951 0 -0.21747186570935539 -0.20089700967885579 0 -0.24233895379904119 -0.19883865737118309 0 -0.22870722460595819 -0.1840371622552974 0 -0.21747186570935539 -0.20089700967885579 0 -0.22870722460595819 -0.1840371622552974 0 -0.24233895379904119 -0.19883865737118309 0 -0.22870722460595819 -0.1840371622552974 0 -0.25213976956776912 -0.17972188853128571 0 -0.24233895379904119 -0.19883865737118309 0 -0.23597594808743019 -0.21809485537344661 0 -0.25931235666459518 -0.21515005566809051 0 -0.2062365068127521 -0.2177568571024138 0 -0.21747186570935539 -0.20089700967885579 0 -0.23597594808743019 -0.21809485537344661 0 -0.2062365068127521 -0.2177568571024138 0 -0.23597594808743019 -0.21809485537344661 0 -0.21747186570935539 -0.20089700967885579 0 -0.24233895379904119 -0.19883865737118309 0 -0.23597594808743019 -0.21809485537344661 0 -0.2169351205791176 -0.23928729075814181 0 -0.2062365068127521 -0.2177568571024138 0 -0.23597594808743019 -0.21809485537344661 0 -0.2169351205791176 -0.23928729075814181 0 -0.23597594808743019 -0.21809485537344661 0 -0.24557627095320059 -0.23690452528774539 0 -0.23597594808743019 -0.21809485537344661 0 -0.24557627095320059 -0.23690452528774539 0 -0.25931235666459518 -0.21515005566809051 0 -0.25606843302098309 -0.25636966241633519 0 -0.2345738197544574 -0.2535776733873526 0 -0.24557627095320059 -0.23690452528774539 0 -0.2345738197544574 -0.2535776733873526 0 -0.2169351205791176 -0.23928729075814181 0 -0.24557627095320059 -0.23690452528774539 0 -0.2038423063621371 -0.1494861964795999 0 -0.20170654937518009 -0.13151814125817499 0 -0.2235688581138002 -0.14624382250616141 0 -0.2038423063621371 -0.1494861964795999 0 -0.21894243019015369 -0.1659596527112088 0 -0.2235688581138002 -0.14624382250616141 0 -0.20170654937518009 -0.13151814125817499 0 -0.2235688581138002 -0.14624382250616141 0 -0.22057226728629489 -0.122069136388385 0 -0.1861077769716222 -0.13910116527453781 0 -0.20170654937518009 -0.13151814125817499 0 -0.1775948614377664 -0.1182258334164261 0 -0.1861077769716222 -0.13910116527453781 0 -0.2038423063621371 -0.1494861964795999 0 -0.20170654937518009 -0.13151814125817499 0 -0.18284421028580339 -0.15731778523749351 0 -0.1861077769716222 -0.13910116527453781 0 -0.2038423063621371 -0.1494861964795999 0 -0.18284421028580339 -0.15731778523749351 0 -0.20162646969492751 -0.16490745218683669 0 -0.19111323774934269 -0.17391133179527671 0 -0.18284421028580339 -0.15731778523749351 0 -0.2038423063621371 -0.1494861964795999 0 -0.20162646969492751 -0.16490745218683669 0 -0.19170683738853611 -0.19052255557805509 0 -0.19111323774934269 -0.17391133179527671 0 -0.20953273281970819 -0.18343286114378951 0 -0.20162646969492751 -0.16490745218683669 0 -0.19111323774934269 -0.17391133179527671 0 -0.20953273281970819 -0.18343286114378951 0 -0.20162646969492751 -0.16490745218683669 0 -0.20953273281970819 -0.18343286114378951 0 -0.21894243019015369 -0.1659596527112088 0 -0.2038423063621371 -0.1494861964795999 0 -0.20162646969492751 -0.16490745218683669 0 -0.21894243019015369 -0.1659596527112088 0 -0.21894243019015369 -0.1659596527112088 0 -0.23994258350256101 -0.167177314831739 0 -0.2235688581138002 -0.14624382250616141 0 -0.20953273281970819 -0.18343286114378951 0 -0.21894243019015369 -0.1659596527112088 0 -0.22870722460595819 -0.1840371622552974 0 -0.22870722460595819 -0.1840371622552974 0 -0.23994258350256101 -0.167177314831739 0 -0.21894243019015369 -0.1659596527112088 0 -0.22870722460595819 -0.1840371622552974 0 -0.23994258350256101 -0.167177314831739 0 -0.22870722460595819 -0.1840371622552974 0 -0.23994258350256101 -0.167177314831739 0 -0.25213976956776912 -0.17972188853128571 0 -0.23994258350256101 -0.167177314831739 0 -0.24483425335123449 -0.1489253450313042 0 -0.25910388458026251 -0.16297733371699899 0 -0.24483425335123449 -0.1489253450313042 0 -0.2235688581138002 -0.14624382250616141 0 -0.24191771928431799 -0.12823304492456691 0 -0.23994258350256101 -0.167177314831739 0 -0.24483425335123449 -0.1489253450313042 0 -0.2235688581138002 -0.14624382250616141 0 -0.2235688581138002 -0.14624382250616141 0 -0.24191771928431799 -0.12823304492456691 0 -0.22057226728629489 -0.122069136388385 0 -0.24483425335123449 -0.1489253450313042 0 -0.24191771928431799 -0.12823304492456691 0 -0.25963822127523101 -0.1399952091770548 0 -0.24191771928431799 -0.12823304492456691 0 -0.24896736677396131 -0.110470745124257 0 -0.2334216025025278 -0.10906856233594529 0 -0.24896736677396131 -0.110470745124257 0 -0.24458770130138421 -0.096198659347011356 0 -0.2334216025025278 -0.10906856233594529 0 -0.24458770130138421 -0.096198659347011356 0 -0.2334216025025278 -0.10906856233594529 0 -0.2280902733408218 -0.095855085708708473 0 -0.2334216025025278 -0.10906856233594529 0 -0.2280902733408218 -0.095855085708708473 0 -0.21467626444562421 -0.1024117207182899 0 -0.2280902733408218 -0.095855085708708473 0 -0.21400777297599591 -0.09031122451116913 0 -0.21467626444562421 -0.1024117207182899 0 -0.2334216025025278 -0.10906856233594529 0 -0.22057226728629489 -0.122069136388385 0 -0.21467626444562421 -0.1024117207182899 0 -0.24191771928431799 -0.12823304492456691 0 -0.2334216025025278 -0.10906856233594529 0 -0.22057226728629489 -0.122069136388385 0 -0.24822306745508471 -0.073546667267469987 0 -0.2395799854963786 -0.074791947309699194 0 -0.24000929069603499 -0.082805528122219613 0 -0.2386960838138551 -0.0674958718261746 0 -0.2395799854963786 -0.074791947309699194 0 -0.23236750438056281 -0.077032323614342868 0 -0.2386960838138551 -0.0674958718261746 0 -0.24822306745508471 -0.073546667267469987 0 -0.2395799854963786 -0.074791947309699194 0 -0.24822306745508471 -0.073546667267469987 0 -0.24000929069603499 -0.082805528122219613 0 -0.25609121651680272 -0.080824474624059367 0 -0.24458770130138421 -0.096198659347011356 0 -0.24000929069603499 -0.082805528122219613 0 -0.25609121651680272 -0.080824474624059367 0 -0.24458770130138421 -0.096198659347011356 0 -0.2280902733408218 -0.095855085708708473 0 -0.24000929069603499 -0.082805528122219613 0 -0.2395799854963786 -0.074791947309699194 0 -0.24000929069603499 -0.082805528122219613 0 -0.23236750438056281 -0.077032323614342868 0 -0.2280902733408218 -0.095855085708708473 0 -0.24000929069603499 -0.082805528122219613 0 -0.2252970237093406 -0.083382551044912476 0 -0.2280902733408218 -0.095855085708708473 0 -0.2252970237093406 -0.083382551044912476 0 -0.21400777297599591 -0.09031122451116913 0 -0.2252970237093406 -0.083382551044912476 0 -0.22338890353044971 -0.076350692563550537 0 -0.21018466667522101 -0.081112477132933736 0 -0.2252970237093406 -0.083382551044912476 0 -0.23236750438056281 -0.077032323614342868 0 -0.22338890353044971 -0.076350692563550537 0 -0.24000929069603499 -0.082805528122219613 0 -0.2252970237093406 -0.083382551044912476 0 -0.23236750438056281 -0.077032323614342868 0 -0.2386960838138551 -0.0674958718261746 0 -0.22338890353044971 -0.076350692563550537 0 -0.2103992390732688 -0.07273023919938898 0 -0.2386960838138551 -0.0674958718261746 0 -0.2103992390732688 -0.07273023919938898 0 -0.23285573266224729 -0.063774905205547947 0 -0.2103992390732688 -0.07273023919938898 0 -0.2386960838138551 -0.0674958718261746 0 -0.23285573266224729 -0.063774905205547947 0 -0.2103992390732688 -0.07273023919938898 0 -0.21899459544886141 -0.062983878595794143 0 -0.23285573266224729 -0.063774905205547947 0 -0.2103992390732688 -0.07273023919938898 0 -0.2386960838138551 -0.0674958718261746 0 -0.23236750438056281 -0.077032323614342868 0 -0.22338890353044971 -0.076350692563550537 0 -0.21899459544886141 -0.062983878595794143 0 -0.2103992390732688 -0.07273023919938898 0 -0.20605187494492669 -0.058831579259914099 0 -0.22338890353044971 -0.076350692563550537 0 -0.2103992390732688 -0.07273023919938898 0 -0.21018466667522101 -0.081112477132933736 0 -0.2103992390732688 -0.07273023919938898 0 -0.21018466667522101 -0.081112477132933736 0 -0.19507230964110131 -0.078842403220955218 0 -0.2252970237093406 -0.083382551044912476 0 -0.21018466667522101 -0.081112477132933736 0 -0.2252970237093406 -0.083382551044912476 0 -0.21018466667522101 -0.081112477132933736 0 -0.21400777297599591 -0.09031122451116913 0 -0.21018466667522101 -0.081112477132933736 0 -0.21400777297599591 -0.09031122451116913 0 -0.20379002232792429 -0.086880947209857756 0 -0.21400777297599591 -0.09031122451116913 0 -0.20379002232792429 -0.086880947209857756 0 -0.203860371048041 -0.09453160534911699 0 -0.19582499129926209 -0.089607025835113471 0 -0.19332026218180709 -0.10720178491687229 0 -0.18493397498843411 -0.082885428575569423 0 -0.20379002232792429 -0.086880947209857756 0 -0.19582499129926209 -0.089607025835113471 0 -0.203860371048041 -0.09453160534911699 0 -0.19507230964110131 -0.078842403220955218 0 -0.18493397498843411 -0.082885428575569423 0 -0.18529593429106381 -0.077373863628770995 0 -0.19582499129926209 -0.089607025835113471 0 -0.19507230964110131 -0.078842403220955218 0 -0.18493397498843411 -0.082885428575569423 0 -0.19507230964110131 -0.078842403220955218 0 -0.18493397498843411 -0.082885428575569423 0 -0.21018466667522101 -0.081112477132933736 0 -0.19507230964110131 -0.078842403220955218 0 -0.20379002232792429 -0.086880947209857756 0 -0.19582499129926209 -0.089607025835113471 0 -0.19507230964110131 -0.078842403220955218 0 -0.21018466667522101 -0.081112477132933736 0 -0.20379002232792429 -0.086880947209857756 0 -0.19507230964110131 -0.078842403220955218 0 -0.18205038494476641 -0.074524350374062326 0 -0.20605187494492669 -0.058831579259914099 0 -0.2103992390732688 -0.07273023919938898 0 -0.18529593429106381 -0.077373863628770995 0 -0.18529593429106381 -0.077373863628770995 0 -0.18205038494476641 -0.074524350374062326 0 -0.20605187494492669 -0.058831579259914099 0 -0.18205038494476641 -0.074524350374062326 0 -0.1892827433445983 -0.0557116065585576 0 -0.20605187494492669 -0.058831579259914099 0 -0.2103992390732688 -0.07273023919938898 0 -0.19507230964110131 -0.078842403220955218 0 -0.18529593429106381 -0.077373863628770995 0 -0.2103992390732688 -0.07273023919938898 0 -0.18529593429106381 -0.077373863628770995 0 -0.20605187494492669 -0.058831579259914099 0 -0.2103992390732688 -0.07273023919938898 0 -0.19507230964110131 -0.078842403220955218 0 -0.19507230964110131 -0.078842403220955218 0 -0.18529593429106381 -0.077373863628770995 0 -0.20170654937518009 -0.13151814125817499 0 -0.22057226728629489 -0.122069136388385 0 -0.20756883582222649 -0.1158001958204305 0 -0.22057226728629489 -0.122069136388385 0 -0.20756883582222649 -0.1158001958204305 0 -0.21467626444562421 -0.1024117207182899 0 -0.21467626444562421 -0.1024117207182899 0 -0.203860371048041 -0.09453160534911699 0 -0.19332026218180709 -0.10720178491687229 0 -0.20756883582222649 -0.1158001958204305 0 -0.21467626444562421 -0.1024117207182899 0 -0.19332026218180709 -0.10720178491687229 0 -0.21400777297599591 -0.09031122451116913 0 -0.21467626444562421 -0.1024117207182899 0 -0.203860371048041 -0.09453160534911699 0 -0.19332026218180709 -0.10720178491687229 0 -0.18493397498843411 -0.082885428575569423 0 -0.19582499129926209 -0.089607025835113471 0 -0.203860371048041 -0.09453160534911699 0 -0.19332026218180709 -0.10720178491687229 0 -0.20170654937518009 -0.13151814125817499 0 -0.20756883582222649 -0.1158001958204305 0 -0.19332026218180709 -0.10720178491687229 0 -0.20170654937518009 -0.13151814125817499 0 -0.19332026218180709 -0.10720178491687229 0 -0.1775948614377664 -0.1182258334164261 0 -0.20170654937518009 -0.13151814125817499 0 -0.19332026218180709 -0.10720178491687229 0 -0.1775948614377664 -0.1182258334164261 0 -0.16081365550165591 -0.1059500020559624 0 -0.1560332016605003 -0.1231680344268509 0 -0.1775948614377664 -0.1182258334164261 0 -0.16081365550165591 -0.1059500020559624 0 -0.17085217410117681 -0.10030438371638591 0 -0.16346843359672319 -0.095185153576860485 0 -0.16081365550165591 -0.1059500020559624 0 -0.15436067030331141 -0.094805710280579936 0 -0.16346843359672319 -0.095185153576860485 0 -0.17085217410117681 -0.10030438371638591 0 -0.16843403659680509 -0.089465372082304553 0 -0.16346843359672319 -0.095185153576860485 0 -0.16081365550165591 -0.1059500020559624 0 -0.17085217410117681 -0.10030438371638591 0 -0.19332026218180709 -0.10720178491687229 0 -0.18129737965398771 -0.097743947142782811 0 -0.18493397498843411 -0.082885428575569423 0 -0.19332026218180709 -0.10720178491687229 0 -0.1775948614377664 -0.1182258334164261 0 -0.18129737965398771 -0.097743947142782811 0 -0.17085217410117681 -0.10030438371638591 0 -0.18129737965398771 -0.097743947142782811 0 -0.16843403659680509 -0.089465372082304553 0 -0.1775948614377664 -0.1182258334164261 0 -0.17085217410117681 -0.10030438371638591 0 -0.18129737965398771 -0.097743947142782811 0 -0.18493397498843411 -0.082885428575569423 0 -0.16843403659680509 -0.089465372082304553 0 -0.18493397498843411 -0.082885428575569423 0 -0.17780724324644781 -0.082363374697287856 0 -0.16843403659680509 -0.089465372082304553 0 -0.18129737965398771 -0.097743947142782811 0 -0.18493397498843411 -0.082885428575569423 0 -0.16843403659680509 -0.089465372082304553 0 -0.18493397498843411 -0.082885428575569423 0 -0.18529593429106381 -0.077373863628770995 0 -0.1829095011046403 -0.077015390115541427 0 -0.18493397498843411 -0.082885428575569423 0 -0.1829095011046403 -0.077015390115541427 0 -0.18493397498843411 -0.082885428575569423 0 -0.17780724324644781 -0.082363374697287856 0 -0.1829095011046403 -0.077015390115541427 0 -0.17780724324644781 -0.082363374697287856 0 -0.17469212730839059 -0.079335362227318851 0 -0.1829095011046403 -0.077015390115541427 0 -0.17469212730839059 -0.079335362227318851 0 -0.1829095011046403 -0.077015390115541427 0 -0.17780724324644781 -0.082363374697287856 0 -0.17469212730839059 -0.079335362227318851 0 -0.16843403659680509 -0.089465372082304553 0 -0.18529593429106381 -0.077373863628770995 0 -0.1829095011046403 -0.077015390115541427 0 -0.18529593429106381 -0.077373863628770995 0 -0.1829095011046403 -0.077015390115541427 0 -0.18205038494476641 -0.074524350374062326 0 -0.1829095011046403 -0.077015390115541427 0 -0.18205038494476641 -0.074524350374062326 0 -0.1829095011046403 -0.077015390115541427 0 -0.18205038494476641 -0.074524350374062326 0 -0.17911272609604881 -0.076445064793212086 0 -0.18205038494476641 -0.074524350374062326 0 -0.17911272609604881 -0.076445064793212086 0 -0.1829095011046403 -0.077015390115541427 0 -0.17911272609604881 -0.076445064793212086 0 -0.18205038494476641 -0.074524350374062326 0 -0.17911272609604881 -0.076445064793212086 0 -0.17248564552130599 -0.063102324544197189 0 -0.17469212730839059 -0.079335362227318851 0 -0.1829095011046403 -0.077015390115541427 0 -0.17911272609604881 -0.076445064793212086 0 -0.17469212730839059 -0.079335362227318851 0 -0.17911272609604881 -0.076445064793212086 0 -0.17911272609604881 -0.076445064793212086 0 -0.16099188046657451 -0.073723076500214951 0 -0.17469212730839059 -0.079335362227318851 0 -0.17911272609604881 -0.076445064793212086 0 -0.16099188046657451 -0.073723076500214951 0 -0.17911272609604881 -0.076445064793212086 0 -0.17248564552130599 -0.063102324544197189 0 -0.16099188046657451 -0.073723076500214951 0 -0.17248564552130599 -0.063102324544197189 0 -0.16099188046657451 -0.073723076500214951 0 -0.15990799954844079 -0.061020456497287129 0 -0.16099188046657451 -0.073723076500214951 0 -0.14900089496689781 -0.061933387898678791 0 -0.15990799954844079 -0.061020456497287129 0 -0.17469212730839059 -0.079335362227318851 0 -0.1615553796211939 -0.087924494595272989 0 -0.14679519371056141 -0.084495753796621983 0 -0.17469212730839059 -0.079335362227318851 0 -0.16099188046657451 -0.073723076500214951 0 -0.14679519371056141 -0.084495753796621983 0 -0.17469212730839059 -0.079335362227318851 0 -0.14679519371056141 -0.084495753796621983 0 -0.16346843359672319 -0.095185153576860485 0 -0.16843403659680509 -0.089465372082304553 0 -0.1615553796211939 -0.087924494595272989 0 -0.17469212730839059 -0.079335362227318851 0 -0.1615553796211939 -0.087924494595272989 0 -0.17469212730839059 -0.079335362227318851 0 -0.16843403659680509 -0.089465372082304553 0 -0.1615553796211939 -0.087924494595272989 0 -0.16346843359672319 -0.095185153576860485 0 -0.1615553796211939 -0.087924494595272989 0 -0.15436067030331141 -0.094805710280579936 0 -0.14679519371056141 -0.084495753796621983 0 -0.14350054543121521 -0.1002349398195815 0 -0.15436067030331141 -0.094805710280579936 0 -0.1615553796211939 -0.087924494595272989 0 -0.14679519371056141 -0.084495753796621983 0 -0.15436067030331141 -0.094805710280579936 0 -0.16099188046657451 -0.073723076500214951 0 -0.1428710348371002 -0.071001088207218024 0 -0.16099188046657451 -0.073723076500214951 0 -0.1428710348371002 -0.071001088207218024 0 -0.14900089496689781 -0.061933387898678791 0 -0.16099188046657451 -0.073723076500214951 0 -0.14679519371056141 -0.084495753796621983 0 -0.1428710348371002 -0.071001088207218024 0 -0.1428710348371002 -0.071001088207218024 0 -0.13349983983805969 -0.056942535263725093 0 -0.14900089496689781 -0.061933387898678791 0 -0.14679519371056141 -0.084495753796621983 0 -0.1428710348371002 -0.071001088207218024 0 -0.12561467901087081 -0.074302752458958371 0 -0.1428710348371002 -0.071001088207218024 0 -0.12561467901087081 -0.074302752458958371 0 -0.13349983983805969 -0.056942535263725093 0 -0.1188982601127322 -0.089656145365925269 0 -0.14679519371056141 -0.084495753796621983 0 -0.14350054543121521 -0.1002349398195815 0 -0.1188982601127322 -0.089656145365925269 0 -0.14679519371056141 -0.084495753796621983 0 -0.12561467901087081 -0.074302752458958371 0 -0.1188982601127322 -0.089656145365925269 0 -0.14679519371056141 -0.084495753796621983 0 -0.1188982601127322 -0.089656145365925269 0 -0.12568953908620251 -0.1116801545194875 0 -0.14350054543121521 -0.1002349398195815 0 -0.13735151349127581 -0.1254154018799547 0 -0.14350054543121521 -0.1002349398195815 0 -0.11875687874594019 -0.1372593560808682 0 -0.13735151349127581 -0.1254154018799547 0 -0.12568953908620251 -0.1116801545194875 0 -0.13735151349127581 -0.1254154018799547 0 -0.12568953908620251 -0.1116801545194875 0 -0.14350054543121521 -0.1002349398195815 0 -0.16081365550165591 -0.1059500020559624 0 -0.1560332016605003 -0.1231680344268509 0 -0.14350054543121521 -0.1002349398195815 0 -0.13735151349127581 -0.1254154018799547 0 -0.1560332016605003 -0.1231680344268509 0 -0.14350054543121521 -0.1002349398195815 0 -0.16081365550165591 -0.1059500020559624 0 -0.14350054543121521 -0.1002349398195815 0 -0.15436067030331141 -0.094805710280579936 0 -0.15029451426785159 -0.029799349278424599 0 -0.15501973835593311 -0.02184355620342375 0 -0.15035722511985949 -0.013453666351310831 0 -0.15029451426785159 -0.029799349278424599 0 -0.15035722511985949 -0.013453666351310831 0 -0.13828073203894151 -0.0085811645313545182 0 -0.15029451426785159 -0.029799349278424599 0 -0.15501973835593311 -0.02184355620342375 0 -0.15804205896822771 -0.02700560007574962 0 -0.15029451426785159 -0.029799349278424599 0 -0.15725206947002429 -0.032634072556092429 0 -0.15804205896822771 -0.02700560007574962 0 -0.15035722511985949 -0.013453666351310831 0 -0.14682546129531099 -0.0042659812654107041 0 -0.15559051571298349 0.0021970394553601428 0 -0.14682546129531099 -0.0042659812654107041 0 -0.13828073203894151 -0.0085811645313545182 0 -0.1430733723094596 0.0027738663656623908 0 -0.15035722511985949 -0.013453666351310831 0 -0.14682546129531099 -0.0042659812654107041 0 -0.13828073203894151 -0.0085811645313545182 0 -0.1255651883963867 -0.01466760754899687 0 -0.13828073203894151 -0.0085811645313545182 0 -0.13082697262089341 0.0013823364580261221 0 -0.1255651883963867 -0.01466760754899687 0 -0.13082697262089341 0.0013823364580261221 0 -0.13828073203894151 -0.0085811645313545182 0 -0.13082697262089341 0.0013823364580261221 0 -0.1430733723094596 0.0027738663656623908 0 -0.15029451426785159 -0.029799349278424599 0 -0.1255651883963867 -0.01466760754899687 0 -0.1175603761250444 -0.039084570172323183 0 -0.1255651883963867 -0.01466760754899687 0 -0.1323031206999582 -0.030717033232092451 0 -0.15029451426785159 -0.029799349278424599 0 -0.1255651883963867 -0.01466760754899687 0 -0.13828073203894151 -0.0085811645313545182 0 -0.15029451426785159 -0.029799349278424599 0 -0.1255651883963867 -0.01466760754899687 0 -0.1323031206999582 -0.030717033232092451 0 -0.1175603761250444 -0.039084570172323183 0 -0.1323031206999582 -0.030717033232092451 0 -0.13982986977504369 -0.04115200371081635 0 -0.1175603761250444 -0.039084570172323183 0 -0.13982986977504369 -0.04115200371081635 0 -0.13349983983805969 -0.056942535263725093 0 -0.13982986977504369 -0.04115200371081635 0 -0.13349983983805969 -0.056942535263725093 0 -0.15006386466539379 -0.051387351028221673 0 -0.13349983983805969 -0.056942535263725093 0 -0.15006386466539379 -0.051387351028221673 0 -0.14900089496689781 -0.061933387898678791 0 -0.15006386466539379 -0.051387351028221673 0 -0.14900089496689781 -0.061933387898678791 0 -0.15990799954844079 -0.061020456497287129 0 -0.13982986977504369 -0.04115200371081635 0 -0.15006386466539379 -0.051387351028221673 0 -0.15778091915676329 -0.040128306903980657 0 -0.15029451426785159 -0.029799349278424599 0 -0.1323031206999582 -0.030717033232092451 0 -0.13982986977504369 -0.04115200371081635 0 -0.15029451426785159 -0.029799349278424599 0 -0.13982986977504369 -0.04115200371081635 0 -0.15778091915676329 -0.040128306903980657 0 -0.15029451426785159 -0.029799349278424599 0 -0.15725206947002429 -0.032634072556092429 0 -0.15778091915676329 -0.040128306903980657 0 -0.17297589014304229 -0.04821251008908467 0 -0.17302289992543571 -0.02688872963305363 0 -0.16390139534131981 -0.02190066980410646 0 -0.17297589014304229 -0.04821251008908467 0 -0.16390139534131981 -0.02190066980410646 0 -0.17297589014304229 -0.04821251008908467 0 -0.16390139534131981 -0.02190066980410646 0 -0.16374257740600959 -0.028850352536700829 0 -0.15778091915676329 -0.040128306903980657 0 -0.17297589014304229 -0.04821251008908467 0 -0.16374257740600959 -0.028850352536700829 0 -0.15725206947002429 -0.032634072556092429 0 -0.15778091915676329 -0.040128306903980657 0 -0.16374257740600959 -0.028850352536700829 0 -0.15778091915676329 -0.040128306903980657 0 -0.1624897470490147 -0.051364227037821418 0 -0.17297589014304229 -0.04821251008908467 0 -0.15006386466539379 -0.051387351028221673 0 -0.15778091915676329 -0.040128306903980657 0 -0.1624897470490147 -0.051364227037821418 0 -0.15006386466539379 -0.051387351028221673 0 -0.15990799954844079 -0.061020456497287129 0 -0.1624897470490147 -0.051364227037821418 0 -0.17248564552130599 -0.063102324544197189 0 -0.1624897470490147 -0.051364227037821418 0 -0.17297589014304229 -0.04821251008908467 0 -0.17248564552130599 -0.063102324544197189 0 -0.15990799954844079 -0.061020456497287129 0 -0.1624897470490147 -0.051364227037821418 0 -0.17297589014304229 -0.04821251008908467 0 -0.1892827433445983 -0.0557116065585576 0 -0.18886050274951019 -0.041277992526776247 0 -0.18205038494476641 -0.074524350374062326 0 -0.17297589014304229 -0.04821251008908467 0 -0.1892827433445983 -0.0557116065585576 0 -0.18205038494476641 -0.074524350374062326 0 -0.17297589014304229 -0.04821251008908467 0 -0.18205038494476641 -0.074524350374062326 0 -0.17248564552130599 -0.063102324544197189 0 -0.17297589014304229 -0.04821251008908467 0 -0.17297589014304229 -0.04821251008908467 0 -0.17806956434070331 -0.035031524613221197 0 -0.17302289992543571 -0.02688872963305363 0 -0.17297589014304229 -0.04821251008908467 0 -0.17806956434070331 -0.035031524613221197 0 -0.18886050274951019 -0.041277992526776247 0 -0.17806956434070331 -0.035031524613221197 0 -0.18195263098960329 -0.025910394309482929 0 -0.18886050274951019 -0.041277992526776247 0 -0.18195263098960329 -0.025910394309482929 0 -0.1871679262034279 -0.014832847094228659 0 -0.19285949357592841 -0.023111532127107561 0 -0.18195263098960329 -0.025910394309482929 0 -0.17797245913242449 -0.016720022041080519 0 -0.1871679262034279 -0.014832847094228659 0 -0.17797245913242449 -0.016720022041080519 0 -0.17302289992543571 -0.02688872963305363 0 -0.17050797407893239 -0.017349559790410429 0 -0.18195263098960329 -0.025910394309482929 0 -0.17797245913242449 -0.016720022041080519 0 -0.17302289992543571 -0.02688872963305363 0 -0.17806956434070331 -0.035031524613221197 0 -0.18195263098960329 -0.025910394309482929 0 -0.17302289992543571 -0.02688872963305363 0 -0.17050797407893239 -0.017349559790410429 0 -0.16390139534131981 -0.02190066980410646 0 -0.16787562223468 -0.0099242110759791974 0 -0.17302289992543571 -0.02688872963305363 0 -0.17050797407893239 -0.017349559790410429 0 -0.16390139534131981 -0.02190066980410646 0 -0.15501973835593311 -0.02184355620342375 0 -0.15035722511985949 -0.013453666351310831 0 -0.16390139534131981 -0.02190066980410646 0 -0.15501973835593311 -0.02184355620342375 0 -0.16390139534131981 -0.02190066980410646 0 -0.15804205896822771 -0.02700560007574962 0 -0.15725206947002429 -0.032634072556092429 0 -0.15804205896822771 -0.02700560007574962 0 -0.16374257740600959 -0.028850352536700829 0 -0.16390139534131981 -0.02190066980410646 0 -0.16374257740600959 -0.028850352536700829 0 -0.16390139534131981 -0.02190066980410646 0 -0.15804205896822771 -0.02700560007574962 0 -0.16374257740600959 -0.028850352536700829 0 -0.16390139534131981 -0.02190066980410646 0 -0.1645132280666701 0.0048723978490777626 0 -0.16390139534131981 -0.02190066980410646 0 -0.15559051571298349 0.0021970394553601428 0 -0.1645132280666701 0.0048723978490777626 0 -0.16390139534131981 -0.02190066980410646 0 -0.16787562223468 -0.0099242110759791974 0 -0.1645132280666701 0.0048723978490777626 0 -0.15035722511985949 -0.013453666351310831 0 -0.16390139534131981 -0.02190066980410646 0 -0.15559051571298349 0.0021970394553601428 0 -0.16390139534131981 -0.02190066980410646 0 -0.15559051571298349 0.0021970394553601428 0 -0.17050797407893239 -0.017349559790410429 0 -0.16787562223468 -0.0099242110759791974 0 -0.17444419184024501 -0.008619040889985892 0 -0.16787562223468 -0.0099242110759791974 0 -0.17142969566451249 -0.002320172152788679 0 -0.17444419184024501 -0.008619040889985892 0 -0.16787562223468 -0.0099242110759791974 0 -0.17142969566451249 -0.002320172152788679 0 -0.1645132280666701 0.0048723978490777626 0 -0.17142969566451249 -0.002320172152788679 0 -0.17622003680225889 -0.0018283141660710069 0 -0.17409539937870841 0.0038983075190149349 0 -0.17142969566451249 -0.002320172152788679 0 -0.17622003680225889 -0.0018283141660710069 0 -0.17444419184024501 -0.008619040889985892 0 -0.17622003680225889 -0.0018283141660710069 0 -0.17444419184024501 -0.008619040889985892 0 -0.18141533781934341 -0.0094380149470248784 0 -0.17797245913242449 -0.016720022041080519 0 -0.17050797407893239 -0.017349559790410429 0 -0.17444419184024501 -0.008619040889985892 0 -0.17797245913242449 -0.016720022041080519 0 -0.17444419184024501 -0.008619040889985892 0 -0.18141533781934341 -0.0094380149470248784 0 -0.17797245913242449 -0.016720022041080519 0 -0.1871679262034279 -0.014832847094228659 0 -0.18141533781934341 -0.0094380149470248784 0 -0.1871679262034279 -0.014832847094228659 0 -0.18141533781934341 -0.0094380149470248784 0 -0.18889388088250469 -0.0064459530119784086 0 -0.18346386537279349 -0.001647984405783556 0 -0.18889388088250469 -0.0064459530119784086 0 -0.18806779659284831 0.0049700422461890943 0 -0.17622003680225889 -0.0018283141660710069 0 -0.18346386537279349 -0.001647984405783556 0 -0.179989761597835 0.003196499848222149 0 -0.17622003680225889 -0.0018283141660710069 0 -0.18141533781934341 -0.0094380149470248784 0 -0.18346386537279349 -0.001647984405783556 0 -0.18141533781934341 -0.0094380149470248784 0 -0.18346386537279349 -0.001647984405783556 0 -0.18889388088250469 -0.0064459530119784086 0 -0.18889388088250469 -0.0064459530119784086 0 -0.19685848440234599 -0.0049450717274387504 0 -0.18806779659284831 0.0049700422461890943 0 -0.19685848440234599 -0.0049450717274387504 0 -0.19285949357592841 -0.023111532127107561 0 -0.18889388088250469 -0.0064459530119784086 0 -0.18806779659284831 0.0049700422461890943 0 -0.1871679262034279 -0.014832847094228659 0 -0.19685848440234599 -0.0049450717274387504 0 -0.19285949357592841 -0.023111532127107561 0 -0.1871679262034279 -0.014832847094228659 0 -0.18889388088250469 -0.0064459530119784086 0 -0.19685848440234599 -0.0049450717274387504 0 -0.18195263098960329 -0.025910394309482929 0 -0.19285949357592841 -0.023111532127107561 0 -0.18886050274951019 -0.041277992526776247 0 -0.19685848440234599 -0.0049450717274387504 0 -0.19285949357592841 -0.023111532127107561 0 -0.20108265312294921 -0.019843344887548419 0 -0.19285949357592841 -0.023111532127107561 0 -0.20282024108335359 -0.029527582860565858 0 -0.20108265312294921 -0.019843344887548419 0 -0.2117923934301692 -0.02178919283508125 0 -0.21245146612027019 -0.032873253149423888 0 -0.22672630245799269 -0.038633313942723513 0 -0.20282024108335359 -0.029527582860565858 0 -0.2117923934301692 -0.02178919283508125 0 -0.21245146612027019 -0.032873253149423888 0 -0.20282024108335359 -0.029527582860565858 0 -0.20108265312294921 -0.019843344887548419 0 -0.2117923934301692 -0.02178919283508125 0 -0.2117923934301692 -0.02178919283508125 0 -0.22034012263555319 -0.021271977535389921 0 -0.22265013048358939 -0.02684977739837402 0 -0.2117923934301692 -0.02178919283508125 0 -0.21951947958089429 -0.01545704244013903 0 -0.22034012263555319 -0.021271977535389921 0 -0.19685848440234599 -0.0049450717274387504 0 -0.2117923934301692 -0.02178919283508125 0 -0.2120469589708838 -0.0066311205522630702 0 -0.19685848440234599 -0.0049450717274387504 0 -0.20108265312294921 -0.019843344887548419 0 -0.2117923934301692 -0.02178919283508125 0 -0.2120469589708838 -0.0066311205522630702 0 -0.21951947958089429 -0.01545704244013903 0 -0.22381138727050781 0.002909525995360538 0 -0.2117923934301692 -0.02178919283508125 0 -0.2120469589708838 -0.0066311205522630702 0 -0.21951947958089429 -0.01545704244013903 0 -0.19685848440234599 -0.0049450717274387504 0 -0.2117923934301692 -0.02178919283508125 0 -0.19685848440234599 -0.0049450717274387504 0 -0.2120469589708838 -0.0066311205522630702 0 -0.21019557575314421 0.006394909686725795 0 -0.19708883927297011 -0.049391743639764903 0 -0.20416023605284511 -0.041745796213811651 0 -0.20605187494492669 -0.058831579259914099 0 -0.1892827433445983 -0.0557116065585576 0 -0.19708883927297011 -0.049391743639764903 0 -0.20605187494492669 -0.058831579259914099 0 -0.1892827433445983 -0.0557116065585576 0 -0.19708883927297011 -0.049391743639764903 0 -0.18886050274951019 -0.041277992526776247 0 -0.19285949357592841 -0.023111532127107561 0 -0.20282024108335359 -0.029527582860565858 0 -0.18886050274951019 -0.041277992526776247 0 -0.19285949357592841 -0.023111532127107561 0 -0.18886050274951019 -0.041277992526776247 0 -0.19708883927297011 -0.049391743639764903 0 -0.18886050274951019 -0.041277992526776247 0 -0.20416023605284511 -0.041745796213811651 0 -0.20282024108335359 -0.029527582860565858 0 -0.18886050274951019 -0.041277992526776247 0 -0.20416023605284511 -0.041745796213811651 0 -0.20282024108335359 -0.029527582860565858 0 -0.21245146612027019 -0.032873253149423888 0 -0.20416023605284511 -0.041745796213811651 0 -0.21245146612027019 -0.032873253149423888 0 -0.21631304823255479 -0.041997994647288019 0 -0.22672630245799269 -0.038633313942723513 0 -0.21245146612027019 -0.032873253149423888 0 -0.21631304823255479 -0.041997994647288019 0 -0.20416023605284511 -0.041745796213811651 0 -0.21631304823255479 -0.041997994647288019 0 -0.20416023605284511 -0.041745796213811651 0 -0.20605187494492669 -0.058831579259914099 0 -0.20605187494492669 -0.058831579259914099 0 -0.23042708620373509 -0.042807468846864101 0 -0.21631304823255479 -0.041997994647288019 0 -0.20605187494492669 -0.058831579259914099 0 -0.23042708620373509 -0.042807468846864101 0 -0.21899459544886141 -0.062983878595794143 0 -0.20605187494492669 -0.058831579259914099 0 -0.22221052199831259 -0.056016671247121091 0 -0.20605187494492669 -0.058831579259914099 0 -0.22221052199831259 -0.056016671247121091 0 -0.23042708620373509 -0.042807468846864101 0 -0.22653057280075989 -0.059644064445095561 0 -0.22221052199831259 -0.056016671247121091 0 -0.2309596839695322 -0.053524058978084481 0 -0.23285573266224729 -0.063774905205547947 0 -0.23300155022958891 -0.058105115919773437 0 -0.22653057280075989 -0.059644064445095561 0 -0.23300155022958891 -0.058105115919773437 0 -0.22653057280075989 -0.059644064445095561 0 -0.2309596839695322 -0.053524058978084481 0 -0.21899459544886141 -0.062983878595794143 0 -0.23285573266224729 -0.063774905205547947 0 -0.22653057280075989 -0.059644064445095561 0 -0.21899459544886141 -0.062983878595794143 0 -0.22653057280075989 -0.059644064445095561 0 -0.22221052199831259 -0.056016671247121091 0 -0.22221052199831259 -0.056016671247121091 0 -0.2309596839695322 -0.053524058978084481 0 -0.23042708620373509 -0.042807468846864101 0 -0.2309596839695322 -0.053524058978084481 0 -0.23042708620373509 -0.042807468846864101 0 -0.24166021148581621 -0.05547743505036578 0 -0.22672630245799269 -0.038633313942723513 0 -0.23546826616295691 -0.035738523330740943 0 -0.2394051328623602 -0.043041491953147902 0 -0.23042708620373509 -0.042807468846864101 0 -0.22672630245799269 -0.038633313942723513 0 -0.2394051328623602 -0.043041491953147902 0 -0.23042708620373509 -0.042807468846864101 0 -0.22672630245799269 -0.038633313942723513 0 -0.21631304823255479 -0.041997994647288019 0 -0.23042708620373509 -0.042807468846864101 0 -0.22672630245799269 -0.038633313942723513 0 -0.22672630245799269 -0.038633313942723513 0 -0.22265013048358939 -0.02684977739837402 0 -0.22951151604962269 -0.03010603737211329 0 -0.22672630245799269 -0.038633313942723513 0 -0.23546826616295691 -0.035738523330740943 0 -0.22951151604962269 -0.03010603737211329 0 -0.23546826616295691 -0.035738523330740943 0 -0.2450099963415123 -0.036960965385889062 0 -0.23707244309720779 -0.027570307513105189 0 -0.23546826616295691 -0.035738523330740943 0 -0.2450099963415123 -0.036960965385889062 0 -0.2394051328623602 -0.043041491953147902 0 -0.2450099963415123 -0.036960965385889062 0 -0.2394051328623602 -0.043041491953147902 0 -0.24813924731967391 -0.047304803084769531 0 -0.23285573266224729 -0.063774905205547947 0 -0.25531222625122602 -0.054819571211706872 0 -0.2386960838138551 -0.0674958718261746 0 -0.23285573266224729 -0.063774905205547947 0 -0.25531222625122602 -0.054819571211706872 0 -0.23285573266224729 -0.063774905205547947 0 -0.24166021148581621 -0.05547743505036578 0 -0.25531222625122602 -0.054819571211706872 0 -0.23042708620373509 -0.042807468846864101 0 -0.2394051328623602 -0.043041491953147902 0 -0.24166021148581621 -0.05547743505036578 0 -0.23042708620373509 -0.042807468846864101 0 -0.24166021148581621 -0.05547743505036578 0 -0.2394051328623602 -0.043041491953147902 0 -0.24813924731967391 -0.047304803084769531 0 -0.24166021148581621 -0.05547743505036578 0 -0.24813924731967391 -0.047304803084769531 0 -0.24166021148581621 -0.05547743505036578 0 -0.25531222625122602 -0.054819571211706872 0 -0.23300155022958891 -0.058105115919773437 0 -0.2309596839695322 -0.053524058978084481 0 -0.24166021148581621 -0.05547743505036578 0 -0.23285573266224729 -0.063774905205547947 0 -0.23300155022958891 -0.058105115919773437 0 -0.24166021148581621 -0.05547743505036578 0 -0.22949647805534379 -0.0092425154972004715 0 -0.22381138727050781 0.002909525995360538 0 -0.24156246817162111 3.8901865961206428e-05 0 -0.21951947958089429 -0.01545704244013903 0 -0.22381138727050781 0.002909525995360538 0 -0.22949647805534379 -0.0092425154972004715 0 -0.21951947958089429 -0.01545704244013903 0 -0.22381138727050781 0.002909525995360538 0 -0.22949647805534379 -0.0092425154972004715 0 -0.22739848704755969 -0.02099189746796537 0 -0.237569813236752 -0.015545639180020649 0 -0.22949647805534379 -0.0092425154972004715 0 -0.21951947958089429 -0.01545704244013903 0 -0.22739848704755969 -0.02099189746796537 0 -0.2117923934301692 -0.02178919283508125 0 -0.22672630245799269 -0.038633313942723513 0 -0.21951947958089429 -0.01545704244013903 0 -0.22034012263555319 -0.021271977535389921 0 -0.22739848704755969 -0.02099189746796537 0 -0.2117923934301692 -0.02178919283508125 0 -0.22672630245799269 -0.038633313942723513 0 -0.22265013048358939 -0.02684977739837402 0 -0.22034012263555319 -0.021271977535389921 0 -0.22265013048358939 -0.02684977739837402 0 -0.22739848704755969 -0.02099189746796537 0 -0.22265013048358939 -0.02684977739837402 0 -0.22951151604962269 -0.03010603737211329 0 -0.22739848704755969 -0.02099189746796537 0 -0.23546826616295691 -0.035738523330740943 0 -0.22951151604962269 -0.03010603737211329 0 -0.23707244309720779 -0.027570307513105189 0 -0.22951151604962269 -0.03010603737211329 0 -0.22739848704755969 -0.02099189746796537 0 -0.23707244309720779 -0.027570307513105189 0 -0.22739848704755969 -0.02099189746796537 0 -0.23707244309720779 -0.027570307513105189 0 -0.237569813236752 -0.015545639180020649 0 -0.23707244309720779 -0.027570307513105189 0 -0.237569813236752 -0.015545639180020649 0 -0.25502164138312289 -0.021198290698937441 0 -0.2450099963415123 -0.036960965385889062 0 -0.23707244309720779 -0.027570307513105189 0 -0.25502164138312289 -0.021198290698937441 0 -0.25502164138312289 -0.021198290698937441 0 -0.24156246817162111 3.8901865961206428e-05 0 -0.237569813236752 -0.015545639180020649 0 -0.25502164138312289 -0.021198290698937441 0 -0.24156246817162111 3.8901865961206428e-05 0 -0.22949647805534379 -0.0092425154972004715 0 -0.237569813236752 -0.015545639180020649 0 -0.24156246817162111 3.8901865961206428e-05 0 -0.25502164138312289 -0.021198290698937441 0 -0.27008529692414812 -0.0016724996365426871 0 -0.24156246817162111 3.8901865961206428e-05 0 -0.25502164138312289 -0.021198290698937441 0 -0.27159611450508853 -0.02267253520771827 0 -0.27008529692414812 -0.0016724996365426871 0 -0.25502164138312289 -0.021198290698937441 0 -0.27159611450508853 -0.02267253520771827 0 -0.25920479504697908 -0.040980940760735003 0 -0.27159611450508853 -0.02267253520771827 0 -0.27008529692414812 -0.0016724996365426871 0 -0.28805288740465229 -0.02021058844253117 0 -0.27008529692414812 -0.0016724996365426871 0 -0.29313710650179581 -0.003376988243723194 0 -0.28805288740465229 -0.02021058844253117 0 -0.29313710650179581 -0.003376988243723194 0 -0.28805288740465229 -0.02021058844253117 0 -0.30118173831813189 -0.01308205908544741 0 -0.27159611450508853 -0.02267253520771827 0 -0.28805288740465229 -0.02021058844253117 0 -0.28674859067891051 -0.036273150696857319 0 -0.28805288740465229 -0.02021058844253117 0 -0.29922404346128728 -0.034298522595486561 0 -0.28674859067891051 -0.036273150696857319 0 -0.28805288740465229 -0.02021058844253117 0 -0.31284947532081242 -0.026460771025650819 0 -0.28805288740465229 -0.02021058844253117 0 -0.30118173831813189 -0.01308205908544741 0 -0.31284947532081242 -0.026460771025650819 0 -0.28805288740465229 -0.02021058844253117 0 -0.29922404346128728 -0.034298522595486561 0 -0.31284947532081242 -0.026460771025650819 0 -0.30118173831813189 -0.01308205908544741 0 -0.31068748404526708 -0.0022798886298844401 0 -0.31284947532081242 -0.026460771025650819 0 -0.31068748404526708 -0.0022798886298844401 0 -0.31284947532081242 -0.026460771025650819 0 -0.29313710650179581 -0.003376988243723194 0 -0.30118173831813189 -0.01308205908544741 0 -0.31068748404526708 -0.0022798886298844401 0 -0.30801956562010108 -0.055547277269801618 0 -0.29437191184692402 -0.048130401942291207 0 -0.29207964257026059 -0.069938357425674391 0 -0.30801956562010108 -0.055547277269801618 0 -0.29437191184692402 -0.048130401942291207 0 -0.31409735205513722 -0.040417700870102248 0 -0.29922404346128728 -0.034298522595486561 0 -0.29437191184692402 -0.048130401942291207 0 -0.31409735205513722 -0.040417700870102248 0 -0.29922404346128728 -0.034298522595486561 0 -0.31284947532081242 -0.026460771025650819 0 -0.31409735205513722 -0.040417700870102248 0 -0.29922404346128728 -0.034298522595486561 0 -0.28674859067891051 -0.036273150696857319 0 -0.29437191184692402 -0.048130401942291207 0 -0.28674859067891051 -0.036273150696857319 0 -0.29437191184692402 -0.048130401942291207 0 -0.27978381670594432 -0.05167880305238786 0 -0.29437191184692402 -0.048130401942291207 0 -0.27978381670594432 -0.05167880305238786 0 -0.29207964257026059 -0.069938357425674391 0 -0.27978381670594432 -0.05167880305238786 0 -0.26699292855444151 -0.062261504452960192 0 -0.29207964257026059 -0.069938357425674391 0 -0.27978381670594432 -0.05167880305238786 0 -0.26695285981077171 -0.049789470679091001 0 -0.26699292855444151 -0.062261504452960192 0 -0.27978381670594432 -0.05167880305238786 0 -0.26695285981077171 -0.049789470679091001 0 -0.27347053249526732 -0.039206533917665057 0 -0.27159611450508853 -0.02267253520771827 0 -0.28674859067891051 -0.036273150696857319 0 -0.27347053249526732 -0.039206533917665057 0 -0.27159611450508853 -0.02267253520771827 0 -0.27347053249526732 -0.039206533917665057 0 -0.25920479504697908 -0.040980940760735003 0 -0.28674859067891051 -0.036273150696857319 0 -0.27978381670594432 -0.05167880305238786 0 -0.27347053249526732 -0.039206533917665057 0 -0.26695285981077171 -0.049789470679091001 0 -0.27347053249526732 -0.039206533917665057 0 -0.25920479504697908 -0.040980940760735003 0 -0.2450099963415123 -0.036960965385889062 0 -0.25502164138312289 -0.021198290698937441 0 -0.25920479504697908 -0.040980940760735003 0 -0.2450099963415123 -0.036960965385889062 0 -0.24813924731967391 -0.047304803084769531 0 -0.25920479504697908 -0.040980940760735003 0 -0.2386960838138551 -0.0674958718261746 0 -0.26699292855444151 -0.062261504452960192 0 -0.25531222625122602 -0.054819571211706872 0 -0.26695285981077171 -0.049789470679091001 0 -0.26699292855444151 -0.062261504452960192 0 -0.25531222625122602 -0.054819571211706872 0 -0.26695285981077171 -0.049789470679091001 0 -0.25920479504697908 -0.040980940760735003 0 -0.25531222625122602 -0.054819571211706872 0 -0.24813924731967391 -0.047304803084769531 0 -0.25920479504697908 -0.040980940760735003 0 -0.25531222625122602 -0.054819571211706872 0 -0.2386960838138551 -0.0674958718261746 0 -0.24822306745508471 -0.073546667267469987 0 -0.26699292855444151 -0.062261504452960192 0 -0.24822306745508471 -0.073546667267469987 0 -0.26699292855444151 -0.062261504452960192 0 -0.25609121651680272 -0.080824474624059367 0 -0.2386960838138551 -0.0674958718261746 0 -0.26699292855444151 -0.062261504452960192 0 -0.26699292855444151 -0.062261504452960192 0 -0.25609121651680272 -0.080824474624059367 0 -0.27374533554110292 -0.081640777283714258 0 -0.24458770130138421 -0.096198659347011356 0 -0.25609121651680272 -0.080824474624059367 0 -0.25901297524903949 -0.09822526069951848 0 -0.25609121651680272 -0.080824474624059367 0 -0.26564635850269208 -0.089002421068691037 0 -0.27374533554110292 -0.081640777283714258 0 -0.25609121651680272 -0.080824474624059367 0 -0.26564635850269208 -0.089002421068691037 0 -0.25901297524903949 -0.09822526069951848 0 -0.26564635850269208 -0.089002421068691037 0 -0.27374533554110292 -0.081640777283714258 0 -0.27373590670382347 -0.095319171667472086 0 -0.27374533554110292 -0.081640777283714258 0 -0.27373590670382347 -0.095319171667472086 0 -0.28911794337029417 -0.094456443093391851 0 -0.26699292855444151 -0.062261504452960192 0 -0.27374533554110292 -0.081640777283714258 0 -0.29207964257026059 -0.069938357425674391 0 -0.24191771928431799 -0.12823304492456691 0 -0.24896736677396131 -0.110470745124257 0 -0.26154251711887128 -0.12041762727127971 0 -0.24896736677396131 -0.110470745124257 0 -0.26154251711887128 -0.12041762727127971 0 -0.25901297524903949 -0.09822526069951848 0 -0.24896736677396131 -0.110470745124257 0 -0.24458770130138421 -0.096198659347011356 0 -0.25901297524903949 -0.09822526069951848 0 -0.27373590670382347 -0.095319171667472086 0 -0.27957595838395349 -0.11316471695844429 0 -0.28911794337029417 -0.094456443093391851 0 -0.25901297524903949 -0.09822526069951848 0 -0.27373590670382347 -0.095319171667472086 0 -0.27957595838395349 -0.11316471695844429 0 -0.26564635850269208 -0.089002421068691037 0 -0.25901297524903949 -0.09822526069951848 0 -0.27373590670382347 -0.095319171667472086 0 -0.26154251711887128 -0.12041762727127971 0 -0.25901297524903949 -0.09822526069951848 0 -0.27957595838395349 -0.11316471695844429 0 -0.26154251711887128 -0.12041762727127971 0 -0.27957595838395349 -0.11316471695844429 0 -0.27975854580024112 -0.13276778112819559 0 -0.27957595838395349 -0.11316471695844429 0 -0.30122205703222749 -0.1088163539998557 0 -0.30161085778989238 -0.12506041681693489 0 -0.27957595838395349 -0.11316471695844429 0 -0.27975854580024112 -0.13276778112819559 0 -0.30161085778989238 -0.12506041681693489 0 -0.27957595838395349 -0.11316471695844429 0 -0.28911794337029417 -0.094456443093391851 0 -0.30122205703222749 -0.1088163539998557 0 -0.28911794337029417 -0.094456443093391851 0 -0.30122205703222749 -0.1088163539998557 0 -0.31564990731543269 -0.086866234909481629 0 -0.30122205703222749 -0.1088163539998557 0 -0.31564990731543269 -0.086866234909481629 0 -0.31998521116966222 -0.10854474752067141 0 -0.30122205703222749 -0.1088163539998557 0 -0.31646766509827562 -0.1234392920682638 0 -0.30161085778989238 -0.12506041681693489 0 -0.30801956562010108 -0.055547277269801618 0 -0.29207964257026059 -0.069938357425674391 0 -0.31564990731543269 -0.086866234909481629 0 -0.27374533554110292 -0.081640777283714258 0 -0.28911794337029417 -0.094456443093391851 0 -0.29207964257026059 -0.069938357425674391 0 -0.28911794337029417 -0.094456443093391851 0 -0.29207964257026059 -0.069938357425674391 0 -0.31564990731543269 -0.086866234909481629 0 -0.29207964257026059 -0.069938357425674391 0 -0.31564990731543269 -0.086866234909481629 0 -0.3224666035142113 -0.063105495715333929 0 -0.31564990731543269 -0.086866234909481629 0 -0.32794987492720951 -0.081392243101033615 0 -0.30801956562010108 -0.055547277269801618 0 -0.3224666035142113 -0.063105495715333929 0 -0.31564990731543269 -0.086866234909481629 0 -0.31564990731543269 -0.086866234909481629 0 -0.32794987492720951 -0.081392243101033615 0 -0.33791527535172111 -0.090444567882483451 0 -0.31564990731543269 -0.086866234909481629 0 -0.33791527535172111 -0.090444567882483451 0 -0.33922017206060479 -0.1037941123932889 0 -0.32794987492720951 -0.081392243101033615 0 -0.33791527535172111 -0.090444567882483451 0 -0.34133837881109153 -0.079977409781877867 0 -0.33791527535172111 -0.090444567882483451 0 -0.34133837881109153 -0.079977409781877867 0 -0.34769986971088351 -0.093108061762922731 0 -0.3224666035142113 -0.063105495715333929 0 -0.32794987492720951 -0.081392243101033615 0 -0.34133837881109153 -0.079977409781877867 0 -0.3224666035142113 -0.063105495715333929 0 -0.34133837881109153 -0.079977409781877867 0 -0.3224666035142113 -0.063105495715333929 0 -0.34133837881109153 -0.079977409781877867 0 -0.34061241906260747 -0.062066906209837493 0 -0.30122205703222749 -0.1088163539998557 0 -0.31646766509827562 -0.1234392920682638 0 -0.31998521116966222 -0.10854474752067141 0 -0.31646766509827562 -0.1234392920682638 0 -0.31998521116966222 -0.10854474752067141 0 -0.33115294485301261 -0.1184356283404827 0 -0.31564990731543269 -0.086866234909481629 0 -0.33922017206060479 -0.1037941123932889 0 -0.31564990731543269 -0.086866234909481629 0 -0.31998521116966222 -0.10854474752067141 0 -0.33922017206060479 -0.1037941123932889 0 -0.33791527535172111 -0.090444567882483451 0 -0.33922017206060479 -0.1037941123932889 0 -0.35133567057274928 -0.1051609455389077 0 -0.31998521116966222 -0.10854474752067141 0 -0.33922017206060479 -0.1037941123932889 0 -0.33115294485301261 -0.1184356283404827 0 -0.33922017206060479 -0.1037941123932889 0 -0.33115294485301261 -0.1184356283404827 0 -0.34395096494824351 -0.11808314993514921 0 -0.33115294485301261 -0.1184356283404827 0 -0.34395096494824351 -0.11808314993514921 0 -0.34264030607357959 -0.12938086912973051 0 -0.33922017206060479 -0.1037941123932889 0 -0.35133567057274928 -0.1051609455389077 0 -0.36279043680577733 -0.12072198987709561 0 -0.33922017206060479 -0.1037941123932889 0 -0.34395096494824351 -0.11808314993514921 0 -0.36279043680577733 -0.12072198987709561 0 -0.34395096494824351 -0.11808314993514921 0 -0.36279043680577733 -0.12072198987709561 0 -0.34264030607357959 -0.12938086912973051 0 -0.33922017206060479 -0.1037941123932889 0 -0.36279043680577733 -0.12072198987709561 0 -0.35133567057274928 -0.1051609455389077 0 -0.36163661180814288 -0.10869756791031331 0 -0.36475606579377678 -0.11987732319533261 0 -0.35133567057274928 -0.1051609455389077 0 -0.36475606579377678 -0.11987732319533261 0 -0.35133567057274928 -0.1051609455389077 0 -0.36021015410797191 -0.096849323848421917 0 -0.36163661180814288 -0.10869756791031331 0 -0.33791527535172111 -0.090444567882483451 0 -0.35133567057274928 -0.1051609455389077 0 -0.34769986971088351 -0.093108061762922731 0 -0.33791527535172111 -0.090444567882483451 0 -0.35133567057274928 -0.1051609455389077 0 -0.35133567057274928 -0.1051609455389077 0 -0.36021015410797191 -0.096849323848421917 0 -0.34769986971088351 -0.093108061762922731 0 -0.36021015410797191 -0.096849323848421917 0 -0.37908192940485258 -0.11372123791496561 0 -0.36021015410797191 -0.096849323848421917 0 -0.36751358070136803 -0.1106767391719246 0 -0.37908192940485258 -0.11372123791496561 0 -0.36021015410797191 -0.096849323848421917 0 -0.37436088789708721 -0.1011039431900262 0 -0.37908192940485258 -0.11372123791496561 0 -0.36021015410797191 -0.096849323848421917 0 -0.37399052753485651 -0.095074413185577189 0 -0.37436088789708721 -0.1011039431900262 0 -0.36021015410797191 -0.096849323848421917 0 -0.36163661180814288 -0.10869756791031331 0 -0.36751358070136803 -0.1106767391719246 0 -0.35133567057274928 -0.1051609455389077 0 -0.36475606579377678 -0.11987732319533261 0 -0.36279043680577733 -0.12072198987709561 0 -0.36163661180814288 -0.10869756791031331 0 -0.36751358070136803 -0.1106767391719246 0 -0.36475606579377678 -0.11987732319533261 0 -0.36475606579377678 -0.11987732319533261 0 -0.37908192940485258 -0.11372123791496561 0 -0.36751358070136803 -0.1106767391719246 0 -0.36475606579377678 -0.11987732319533261 0 -0.37908192940485258 -0.11372123791496561 0 -0.37456545992351081 -0.12153932669336311 0 -0.36475606579377678 -0.11987732319533261 0 -0.37086364155792689 -0.1265431919395642 0 -0.37456545992351081 -0.12153932669336311 0 -0.36475606579377678 -0.11987732319533261 0 -0.37908192940485258 -0.11372123791496561 0 -0.36475606579377678 -0.11987732319533261 0 -0.37086364155792689 -0.1265431919395642 0 -0.36279043680577733 -0.12072198987709561 0 -0.37086364155792689 -0.1265431919395642 0 -0.36475606579377678 -0.11987732319533261 0 -0.36279043680577733 -0.12072198987709561 0 -0.37086364155792689 -0.1265431919395642 0 -0.36475606579377678 -0.11987732319533261 0 -0.36279043680577733 -0.12072198987709561 0 -0.34133837881109153 -0.079977409781877867 0 -0.35126068269024779 -0.071611008018486827 0 -0.34061241906260747 -0.062066906209837493 0 -0.35126068269024779 -0.071611008018486827 0 -0.35739137402349042 -0.060390099399817002 0 -0.34061241906260747 -0.062066906209837493 0 -0.35126068269024779 -0.071611008018486827 0 -0.35695125867425792 -0.081499143512915706 0 -0.36287294244484802 -0.072986765830338168 0 -0.35126068269024779 -0.071611008018486827 0 -0.36287294244484802 -0.072986765830338168 0 -0.35739137402349042 -0.060390099399817002 0 -0.34133837881109153 -0.079977409781877867 0 -0.35126068269024779 -0.071611008018486827 0 -0.35695125867425792 -0.081499143512915706 0 -0.34133837881109153 -0.079977409781877867 0 -0.36021015410797191 -0.096849323848421917 0 -0.34133837881109153 -0.079977409781877867 0 -0.36021015410797191 -0.096849323848421917 0 -0.35695125867425792 -0.081499143512915706 0 -0.34133837881109153 -0.079977409781877867 0 -0.36021015410797191 -0.096849323848421917 0 -0.34769986971088351 -0.093108061762922731 0 -0.35695125867425792 -0.081499143512915706 0 -0.36987620287596668 -0.084754769908034683 0 -0.36287294244484802 -0.072986765830338168 0 -0.36021015410797191 -0.096849323848421917 0 -0.35695125867425792 -0.081499143512915706 0 -0.36987620287596668 -0.084754769908034683 0 -0.36021015410797191 -0.096849323848421917 0 -0.37399052753485651 -0.095074413185577189 0 -0.36987620287596668 -0.084754769908034683 0 -0.37399052753485651 -0.095074413185577189 0 -0.36987620287596668 -0.084754769908034683 0 -0.37974365793776149 -0.090047199299109523 0 -0.36987620287596668 -0.084754769908034683 0 -0.36287294244484802 -0.072986765830338168 0 -0.37647484402476228 -0.072677937837527018 0 -0.36287294244484802 -0.072986765830338168 0 -0.36947373707469872 -0.063985249966456478 0 -0.35739137402349042 -0.060390099399817002 0 -0.36287294244484802 -0.072986765830338168 0 -0.36947373707469872 -0.063985249966456478 0 -0.37647484402476228 -0.072677937837527018 0 -0.36947373707469872 -0.063985249966456478 0 -0.37018361451259613 -0.0523005454956997 0 -0.38044591036779662 -0.061570901268900517 0 -0.37018361451259613 -0.0523005454956997 0 -0.36002646482183431 -0.050450752763553763 0 -0.36148310747996409 -0.038719275369187151 0 -0.37018361451259613 -0.0523005454956997 0 -0.36002646482183431 -0.050450752763553763 0 -0.35739137402349042 -0.060390099399817002 0 -0.36947373707469872 -0.063985249966456478 0 -0.37018361451259613 -0.0523005454956997 0 -0.35739137402349042 -0.060390099399817002 0 -0.35739137402349042 -0.060390099399817002 0 -0.35104776327128612 -0.050393090789512547 0 -0.34061241906260747 -0.062066906209837493 0 -0.36002646482183431 -0.050450752763553763 0 -0.35739137402349042 -0.060390099399817002 0 -0.35104776327128612 -0.050393090789512547 0 -0.35104776327128612 -0.050393090789512547 0 -0.34061241906260747 -0.062066906209837493 0 -0.35104776327128612 -0.050393090789512547 0 -0.34061241906260747 -0.062066906209837493 0 -0.34024514424024699 -0.051695739479787221 0 -0.35104776327128612 -0.050393090789512547 0 -0.35656307937074011 -0.037479142085498622 0 -0.34024514424024699 -0.051695739479787221 0 -0.35656307937074011 -0.037479142085498622 0 -0.33470627734577618 -0.031969956555574788 0 -0.35656307937074011 -0.037479142085498622 0 -0.3508912263580462 -0.02798995751468265 0 -0.33470627734577618 -0.031969956555574788 0 -0.36002646482183431 -0.050450752763553763 0 -0.35104776327128612 -0.050393090789512547 0 -0.36148310747996409 -0.038719275369187151 0 -0.35104776327128612 -0.050393090789512547 0 -0.35656307937074011 -0.037479142085498622 0 -0.36148310747996409 -0.038719275369187151 0 -0.35104776327128612 -0.050393090789512547 0 -0.36148310747996409 -0.038719275369187151 0 -0.35656307937074011 -0.037479142085498622 0 -0.36609613794937518 -0.033558768427457177 0 -0.3508912263580462 -0.02798995751468265 0 -0.35656307937074011 -0.037479142085498622 0 -0.36148310747996409 -0.038719275369187151 0 -0.37018361451259613 -0.0523005454956997 0 -0.36148310747996409 -0.038719275369187151 0 -0.37822729992581983 -0.042939785882461369 0 -0.35656307937074011 -0.037479142085498622 0 -0.36609613794937518 -0.033558768427457177 0 -0.35656307937074011 -0.037479142085498622 0 -0.36148310747996409 -0.038719275369187151 0 -0.36609613794937518 -0.033558768427457177 0 -0.36148310747996409 -0.038719275369187151 0 -0.37822729992581983 -0.042939785882461369 0 -0.36148310747996409 -0.038719275369187151 0 -0.36759445675048202 -0.034107528875047463 0 -0.37822729992581983 -0.042939785882461369 0 -0.36148310747996409 -0.038719275369187151 0 -0.36609613794937518 -0.033558768427457177 0 -0.36759445675048202 -0.034107528875047463 0 -0.36148310747996409 -0.038719275369187151 0 -0.36609613794937518 -0.033558768427457177 0 -0.36609613794937518 -0.033558768427457177 0 -0.36759445675048202 -0.034107528875047463 0 -0.36609613794937518 -0.033558768427457177 0 -0.36469900198698629 -0.017635878389213891 0 -0.37936430061871951 -0.018715934413416849 0 -0.36609613794937518 -0.033558768427457177 0 -0.36759445675048202 -0.034107528875047463 0 -0.37936430061871951 -0.018715934413416849 0 -0.36609613794937518 -0.033558768427457177 0 -0.36469900198698629 -0.017635878389213891 0 -0.35899371095008781 -0.024822302721243542 0 -0.36609613794937518 -0.033558768427457177 0 -0.37936430061871951 -0.018715934413416849 0 -0.36469900198698629 -0.017635878389213891 0 -0.35899371095008781 -0.024822302721243542 0 -0.35448509653769661 -0.018058793221438569 0 -0.36933859948822412 -0.0004439302888986224 0 -0.37936430061871951 -0.018715934413416849 0 -0.36469900198698629 -0.017635878389213891 0 -0.36933859948822412 -0.0004439302888986224 0 -0.3587836281522806 -0.0070627832799181082 0 -0.36469900198698629 -0.017635878389213891 0 -0.36933859948822412 -0.0004439302888986224 0 -0.37936430061871951 -0.018715934413416849 0 -0.36933859948822412 -0.0004439302888986224 0 -0.3587836281522806 -0.0070627832799181082 0 -0.35379291907987859 0.0036531515146394689 0 -0.3587836281522806 -0.0070627832799181082 0 -0.34834756147487889 -0.0080863677750986872 0 -0.35379291907987859 0.0036531515146394689 0 -0.3587836281522806 -0.0070627832799181082 0 -0.34834756147487889 -0.0080863677750986872 0 -0.35448509653769661 -0.018058793221438569 0 -0.36469900198698629 -0.017635878389213891 0 -0.3587836281522806 -0.0070627832799181082 0 -0.35448509653769661 -0.018058793221438569 0 -0.34834756147487889 -0.0080863677750986872 0 -0.35448509653769661 -0.018058793221438569 0 -0.3456673359801069 -0.017845517651237909 0 -0.34834756147487889 -0.0080863677750986872 0 -0.33824337868228571 0.0027742543799208551 0 -0.35379291907987859 0.0036531515146394689 0 -0.36609613794937518 -0.033558768427457177 0 -0.35899371095008781 -0.024822302721243542 0 -0.3508912263580462 -0.02798995751468265 0 -0.36609613794937518 -0.033558768427457177 0 -0.3508912263580462 -0.02798995751468265 0 -0.35899371095008781 -0.024822302721243542 0 -0.35448509653769661 -0.018058793221438569 0 -0.3508912263580462 -0.02798995751468265 0 -0.3456673359801069 -0.017845517651237909 0 -0.3508912263580462 -0.02798995751468265 0 -0.33568631476671729 -0.022421146601908071 0 -0.35448509653769661 -0.018058793221438569 0 -0.3456673359801069 -0.017845517651237909 0 -0.3508912263580462 -0.02798995751468265 0 -0.3508912263580462 -0.02798995751468265 0 -0.33568631476671729 -0.022421146601908071 0 -0.3508912263580462 -0.02798995751468265 0 -0.33568631476671729 -0.022421146601908071 0 -0.33470627734577618 -0.031969956555574788 0 -0.3456673359801069 -0.017845517651237909 0 -0.33568631476671729 -0.022421146601908071 0 -0.33712374340610868 -0.01192926651653531 0 -0.33568631476671729 -0.022421146601908071 0 -0.33712374340610868 -0.01192926651653531 0 -0.32488827289429512 -0.017190907767110169 0 -0.33568631476671729 -0.022421146601908071 0 -0.32488827289429512 -0.017190907767110169 0 -0.33470627734577618 -0.031969956555574788 0 -0.34834756147487889 -0.0080863677750986872 0 -0.33712374340610868 -0.01192926651653531 0 -0.33824337868228571 0.0027742543799208551 0 -0.34834756147487889 -0.0080863677750986872 0 -0.3456673359801069 -0.017845517651237909 0 -0.33712374340610868 -0.01192926651653531 0 -0.33712374340610868 -0.01192926651653531 0 -0.32876637323156849 -0.0054254128446808037 0 -0.32488827289429512 -0.017190907767110169 0 -0.33712374340610868 -0.01192926651653531 0 -0.32876637323156849 -0.0054254128446808037 0 -0.33824337868228571 0.0027742543799208551 0 -0.31068748404526708 -0.0022798886298844401 0 -0.32876637323156849 -0.0054254128446808037 0 -0.32287077353134719 0.0073081144652285199 0 -0.31068748404526708 -0.0022798886298844401 0 -0.32488827289429512 -0.017190907767110169 0 -0.31284947532081242 -0.026460771025650819 0 -0.31068748404526708 -0.0022798886298844401 0 -0.32876637323156849 -0.0054254128446808037 0 -0.32488827289429512 -0.017190907767110169 0 -0.31284947532081242 -0.026460771025650819 0 -0.33470627734577618 -0.031969956555574788 0 -0.32488827289429512 -0.017190907767110169 0 -0.31284947532081242 -0.026460771025650819 0 -0.33470627734577618 -0.031969956555574788 0 -0.31284947532081242 -0.026460771025650819 0 -0.32296389645118873 -0.038255587182241188 0 -0.33470627734577618 -0.031969956555574788 0 -0.31284947532081242 -0.026460771025650819 0 -0.32296389645118873 -0.038255587182241188 0 -0.31409735205513722 -0.040417700870102248 0 -0.31284947532081242 -0.026460771025650819 0 -0.31409735205513722 -0.040417700870102248 0 -0.32296389645118873 -0.038255587182241188 0 -0.31979006833068341 -0.051205282040358693 0 -0.33053585598238971 -0.045434062598752392 0 -0.32296389645118873 -0.038255587182241188 0 -0.31409735205513722 -0.040417700870102248 0 -0.31979006833068341 -0.051205282040358693 0 -0.3224666035142113 -0.063105495715333929 0 -0.31979006833068341 -0.051205282040358693 0 -0.33053585598238971 -0.045434062598752392 0 -0.30801956562010108 -0.055547277269801618 0 -0.31409735205513722 -0.040417700870102248 0 -0.31979006833068341 -0.051205282040358693 0 -0.30801956562010108 -0.055547277269801618 0 -0.3224666035142113 -0.063105495715333929 0 -0.31979006833068341 -0.051205282040358693 0 -0.3224666035142113 -0.063105495715333929 0 -0.34061241906260747 -0.062066906209837493 0 -0.34024514424024699 -0.051695739479787221 0 -0.3224666035142113 -0.063105495715333929 0 -0.34024514424024699 -0.051695739479787221 0 -0.33053585598238971 -0.045434062598752392 0 -0.35656307937074011 -0.037479142085498622 0 -0.34024514424024699 -0.051695739479787221 0 -0.33053585598238971 -0.045434062598752392 0 -0.35656307937074011 -0.037479142085498622 0 -0.33470627734577618 -0.031969956555574788 0 -0.33053585598238971 -0.045434062598752392 0 -0.35656307937074011 -0.037479142085498622 0 -0.33053585598238971 -0.045434062598752392 0 -0.32296389645118873 -0.038255587182241188 0 -0.33470627734577618 -0.031969956555574788 0 -0.33053585598238971 -0.045434062598752392 0 -0.30624559577879279 -0.2625936730919165 0 -0.29768485334658651 -0.24139941593041811 0 -0.30526326541306292 -0.23344356918956369 0 -0.30624559577879279 -0.2625936730919165 0 -0.30526326541306292 -0.23344356918956369 0 -0.30624559577879279 -0.2625936730919165 0 -0.30526326541306292 -0.23344356918956369 0 -0.31587538925458419 -0.24307026029734491 0 -0.29768485334658651 -0.24139941593041811 0 -0.30526326541306292 -0.23344356918956369 0 -0.30381806044319848 -0.23350971503727111 0 -0.29768485334658651 -0.24139941593041811 0 -0.30381806044319848 -0.23350971503727111 0 -0.29657988040778499 -0.23381952962755809 0 -0.30526326541306292 -0.23344356918956369 0 -0.30431311966966951 -0.2052485259449042 0 -0.30526326541306292 -0.23344356918956369 0 -0.29671804937770302 -0.22654223623457501 0 -0.30431311966966951 -0.2052485259449042 0 -0.30526326541306292 -0.23344356918956369 0 -0.30381806044319848 -0.23350971503727111 0 -0.29671804937770302 -0.22654223623457501 0 -0.30526326541306292 -0.23344356918956369 0 -0.30381806044319848 -0.23350971503727111 0 -0.30381806044319848 -0.23350971503727111 0 -0.29657988040778499 -0.23381952962755809 0 -0.29671804937770302 -0.22654223623457501 0 -0.29657988040778499 -0.23381952962755809 0 -0.29671804937770302 -0.22654223623457501 0 -0.28809855846365212 -0.23382675130796851 0 -0.29671804937770302 -0.22654223623457501 0 -0.28284590609911192 -0.21900740929763671 0 -0.28809855846365212 -0.23382675130796851 0 -0.28671425380328991 -0.25080534032568302 0 -0.29768485334658651 -0.24139941593041811 0 -0.28809855846365212 -0.23382675130796851 0 -0.28671425380328991 -0.25080534032568302 0 -0.28809855846365212 -0.23382675130796851 0 -0.27059194761262051 -0.23894761412310589 0 -0.29768485334658651 -0.24139941593041811 0 -0.29657988040778499 -0.23381952962755809 0 -0.28809855846365212 -0.23382675130796851 0 -0.27296169138972359 -0.25846177992963199 0 -0.28671425380328991 -0.25080534032568302 0 -0.27059194761262051 -0.23894761412310589 0 -0.25606843302098309 -0.25636966241633519 0 -0.24557627095320059 -0.23690452528774539 0 -0.27059194761262051 -0.23894761412310589 0 -0.24557627095320059 -0.23690452528774539 0 -0.27059194761262051 -0.23894761412310589 0 -0.25931235666459518 -0.21515005566809051 0 -0.28284590609911192 -0.21900740929763671 0 -0.27059194761262051 -0.23894761412310589 0 -0.25931235666459518 -0.21515005566809051 0 -0.28284590609911192 -0.21900740929763671 0 -0.28809855846365212 -0.23382675130796851 0 -0.27059194761262051 -0.23894761412310589 0 -0.28284590609911192 -0.21900740929763671 0 -0.25931235666459518 -0.21515005566809051 0 -0.28110525415034993 -0.19846514050950789 0 -0.24233895379904119 -0.19883865737118309 0 -0.26042655815913912 -0.195130972720123 0 -0.25213976956776912 -0.17972188853128571 0 -0.24233895379904119 -0.19883865737118309 0 -0.25931235666459518 -0.21515005566809051 0 -0.26042655815913912 -0.195130972720123 0 -0.26042655815913912 -0.195130972720123 0 -0.28110525415034993 -0.19846514050950789 0 -0.27637061038330801 -0.17920039672604851 0 -0.25931235666459518 -0.21515005566809051 0 -0.26042655815913912 -0.195130972720123 0 -0.28110525415034993 -0.19846514050950789 0 -0.28110525415034993 -0.19846514050950789 0 -0.30431311966966951 -0.2052485259449042 0 -0.30336297392627598 -0.17705348270024471 0 -0.28284590609911192 -0.21900740929763671 0 -0.28110525415034993 -0.19846514050950789 0 -0.30431311966966951 -0.2052485259449042 0 -0.29671804937770302 -0.22654223623457501 0 -0.28284590609911192 -0.21900740929763671 0 -0.30431311966966951 -0.2052485259449042 0 -0.30431311966966951 -0.2052485259449042 0 -0.31472720824821648 -0.19441619817220221 0 -0.31507765915775671 -0.21589833531192229 0 -0.30526326541306292 -0.23344356918956369 0 -0.30431311966966951 -0.2052485259449042 0 -0.31507765915775671 -0.21589833531192229 0 -0.30431311966966951 -0.2052485259449042 0 -0.30336297392627598 -0.17705348270024471 0 -0.31472720824821648 -0.19441619817220221 0 -0.30431311966966951 -0.2052485259449042 0 -0.30336297392627598 -0.17705348270024471 0 -0.30336297392627598 -0.17705348270024471 0 -0.3024128281828844 -0.14885843945558511 0 -0.32104352310124051 -0.1638604622019546 0 -0.30336297392627598 -0.17705348270024471 0 -0.29028598154063939 -0.16648703249968619 0 -0.3024128281828844 -0.14885843945558511 0 -0.30336297392627598 -0.17705348270024471 0 -0.3024128281828844 -0.14885843945558511 0 -0.29028598154063939 -0.16648703249968619 0 -0.28075835638157348 -0.1559178865862923 0 -0.3024128281828844 -0.14885843945558511 0 -0.29028598154063939 -0.16648703249968619 0 -0.27637061038330801 -0.17920039672604851 0 -0.28075835638157348 -0.1559178865862923 0 -0.30336297392627598 -0.17705348270024471 0 -0.29028598154063939 -0.16648703249968619 0 -0.27637061038330801 -0.17920039672604851 0 -0.28110525415034993 -0.19846514050950789 0 -0.30336297392627598 -0.17705348270024471 0 -0.27637061038330801 -0.17920039672604851 0 -0.26042655815913912 -0.195130972720123 0 -0.27637061038330801 -0.17920039672604851 0 -0.25213976956776912 -0.17972188853128571 0 -0.27637061038330801 -0.17920039672604851 0 -0.25213976956776912 -0.17972188853128571 0 -0.25910388458026251 -0.16297733371699899 0 -0.23994258350256101 -0.167177314831739 0 -0.25213976956776912 -0.17972188853128571 0 -0.25910388458026251 -0.16297733371699899 0 -0.25910388458026251 -0.16297733371699899 0 -0.28075835638157348 -0.1559178865862923 0 -0.27637061038330801 -0.17920039672604851 0 -0.25910388458026251 -0.16297733371699899 0 -0.28075835638157348 -0.1559178865862923 0 -0.25910388458026251 -0.16297733371699899 0 -0.28075835638157348 -0.1559178865862923 0 -0.27206894264909331 -0.14653646438362569 0 -0.28075835638157348 -0.1559178865862923 0 -0.27206894264909331 -0.14653646438362569 0 -0.28442919201894412 -0.14445497649103081 0 -0.27206894264909331 -0.14653646438362569 0 -0.27975854580024112 -0.13276778112819559 0 -0.28442919201894412 -0.14445497649103081 0 -0.24483425335123449 -0.1489253450313042 0 -0.25910388458026251 -0.16297733371699899 0 -0.25963822127523101 -0.1399952091770548 0 -0.25910388458026251 -0.16297733371699899 0 -0.27206894264909331 -0.14653646438362569 0 -0.25963822127523101 -0.1399952091770548 0 -0.24191771928431799 -0.12823304492456691 0 -0.26154251711887128 -0.12041762727127971 0 -0.25963822127523101 -0.1399952091770548 0 -0.26154251711887128 -0.12041762727127971 0 -0.25963822127523101 -0.1399952091770548 0 -0.27975854580024112 -0.13276778112819559 0 -0.27206894264909331 -0.14653646438362569 0 -0.25963822127523101 -0.1399952091770548 0 -0.27975854580024112 -0.13276778112819559 0 -0.27975854580024112 -0.13276778112819559 0 -0.29335670431666672 -0.13794145208427519 0 -0.30161085778989238 -0.12506041681693489 0 -0.27975854580024112 -0.13276778112819559 0 -0.29335670431666672 -0.13794145208427519 0 -0.28442919201894412 -0.14445497649103081 0 -0.28075835638157348 -0.1559178865862923 0 -0.2957620507808506 -0.14952531174147959 0 -0.3024128281828844 -0.14885843945558511 0 -0.28075835638157348 -0.1559178865862923 0 -0.3024128281828844 -0.14885843945558511 0 -0.28075835638157348 -0.1559178865862923 0 -0.28442919201894412 -0.14445497649103081 0 -0.2957620507808506 -0.14952531174147959 0 -0.29335670431666672 -0.13794145208427519 0 -0.28442919201894412 -0.14445497649103081 0 -0.2957620507808506 -0.14952531174147959 0 -0.30234004460918612 -0.1466986276350041 0 -0.3024128281828844 -0.14885843945558511 0 -0.32522976597456521 -0.1414200236169115 0 -0.30234004460918612 -0.1466986276350041 0 -0.32249017534138252 -0.13803974838236649 0 -0.29335670431666672 -0.13794145208427519 0 -0.2957620507808506 -0.14952531174147959 0 -0.30234004460918612 -0.1466986276350041 0 -0.2957620507808506 -0.14952531174147959 0 -0.30234004460918612 -0.1466986276350041 0 -0.3024128281828844 -0.14885843945558511 0 -0.2957620507808506 -0.14952531174147959 0 -0.30234004460918612 -0.1466986276350041 0 -0.30234004460918612 -0.1466986276350041 0 -0.3024128281828844 -0.14885843945558511 0 -0.30234004460918612 -0.1466986276350041 0 -0.31013452482286852 -0.1344438162615906 0 -0.32249017534138252 -0.13803974838236649 0 -0.30234004460918612 -0.1466986276350041 0 -0.30161085778989238 -0.12506041681693489 0 -0.29335670431666672 -0.13794145208427519 0 -0.30234004460918612 -0.1466986276350041 0 -0.30161085778989238 -0.12506041681693489 0 -0.30234004460918612 -0.1466986276350041 0 -0.31013452482286852 -0.1344438162615906 0 -0.30161085778989238 -0.12506041681693489 0 -0.31646766509827562 -0.1234392920682638 0 -0.31013452482286852 -0.1344438162615906 0 -0.30161085778989238 -0.12506041681693489 0 -0.31646766509827562 -0.1234392920682638 0 -0.33115294485301261 -0.1184356283404827 0 -0.32249017534138252 -0.13803974838236649 0 -0.31646766509827562 -0.1234392920682638 0 -0.31013452482286852 -0.1344438162615906 0 -0.32249017534138252 -0.13803974838236649 0 -0.3024128281828844 -0.14885843945558511 0 -0.32522976597456521 -0.1414200236169115 0 -0.3024128281828844 -0.14885843945558511 0 -0.32522976597456521 -0.1414200236169115 0 -0.32104352310124051 -0.1638604622019546 0 -0.30234004460918612 -0.1466986276350041 0 -0.32249017534138252 -0.13803974838236649 0 -0.32522976597456521 -0.1414200236169115 0 -0.32522976597456521 -0.1414200236169115 0 -0.35061601333595432 -0.14781811543171361 0 -0.33822294767172473 -0.1569931376524217 0 -0.32522976597456521 -0.1414200236169115 0 -0.33822294767172473 -0.1569931376524217 0 -0.32104352310124051 -0.1638604622019546 0 -0.32522976597456521 -0.1414200236169115 0 -0.34804670376624591 -0.13398160777823731 0 -0.35061601333595432 -0.14781811543171361 0 -0.32249017534138252 -0.13803974838236649 0 -0.34264030607357959 -0.12938086912973051 0 -0.32522976597456521 -0.1414200236169115 0 -0.34264030607357959 -0.12938086912973051 0 -0.34804670376624591 -0.13398160777823731 0 -0.33115294485301261 -0.1184356283404827 0 -0.32249017534138252 -0.13803974838236649 0 -0.34264030607357959 -0.12938086912973051 0 -0.32249017534138252 -0.13803974838236649 0 -0.32522976597456521 -0.1414200236169115 0 -0.34264030607357959 -0.12938086912973051 0 -0.32522976597456521 -0.1414200236169115 0 -0.34804670376624591 -0.13398160777823731 0 -0.36279043680577733 -0.12072198987709561 0 -0.34264030607357959 -0.12938086912973051 0 -0.36279043680577733 -0.12072198987709561 0 -0.34264030607357959 -0.12938086912973051 0 -0.34804670376624591 -0.13398160777823731 0 -0.34804670376624591 -0.13398160777823731 0 -0.36316708944414761 -0.13804621465368969 0 -0.35061601333595432 -0.14781811543171361 0 -0.34804670376624591 -0.13398160777823731 0 -0.36316708944414761 -0.13804621465368969 0 -0.37086364155792689 -0.1265431919395642 0 -0.34804670376624591 -0.13398160777823731 0 -0.37086364155792689 -0.1265431919395642 0 -0.36279043680577733 -0.12072198987709561 0 -0.34804670376624591 -0.13398160777823731 0 -0.37086364155792689 -0.1265431919395642 0 -0.36316708944414761 -0.13804621465368969 0 -0.36818747372735511 -0.14735459984177601 0 -0.37812161483325563 -0.13453355827715829 0 -0.36316708944414761 -0.13804621465368969 0 -0.37086364155792689 -0.1265431919395642 0 -0.37812161483325563 -0.13453355827715829 0 -0.37086364155792689 -0.1265431919395642 0 -0.37812161483325563 -0.13453355827715829 0 -0.36316708944414761 -0.13804621465368969 0 -0.36818747372735511 -0.14735459984177601 0 -0.35061601333595432 -0.14781811543171361 0 -0.37028632845225251 -0.1496561370371301 0 -0.3690111511086428 -0.15365147065227111 0 -0.38034638008608129 -0.1504485127156148 0 -0.37028632845225251 -0.1496561370371301 0 -0.36818747372735511 -0.14735459984177601 0 -0.38231932428305082 -0.13913663266786711 0 -0.36818747372735511 -0.14735459984177601 0 -0.37812161483325563 -0.13453355827715829 0 -0.37028632845225251 -0.1496561370371301 0 -0.35825333262145431 -0.1601756414063934 0 -0.37028632845225251 -0.1496561370371301 0 -0.3690111511086428 -0.15365147065227111 0 -0.35825333262145431 -0.1601756414063934 0 -0.37028632845225251 -0.1496561370371301 0 -0.36818747372735511 -0.14735459984177601 0 -0.35825333262145431 -0.1601756414063934 0 -0.36818747372735511 -0.14735459984177601 0 -0.35825333262145431 -0.1601756414063934 0 -0.35061601333595432 -0.14781811543171361 0 -0.3476137553859136 -0.1572787451787506 0 -0.35825333262145431 -0.1601756414063934 0 -0.36818747372735511 -0.14735459984177601 0 -0.35061601333595432 -0.14781811543171361 0 -0.35825333262145431 -0.1601756414063934 0 -0.35061601333595432 -0.14781811543171361 0 -0.3476137553859136 -0.1572787451787506 0 -0.33822294767172473 -0.1569931376524217 0 -0.35825333262145431 -0.1601756414063934 0 -0.3602623718222232 -0.1697290827347824 0 -0.34386144146688857 -0.1787498727082365 0 -0.3476137553859136 -0.1572787451787506 0 -0.35825333262145431 -0.1601756414063934 0 -0.34336272791452083 -0.16412808622447339 0 -0.35825333262145431 -0.1601756414063934 0 -0.33870050144152858 -0.17726914795463261 0 -0.34336272791452083 -0.16412808622447339 0 -0.35825333262145431 -0.1601756414063934 0 -0.33870050144152858 -0.17726914795463261 0 -0.35825333262145431 -0.1601756414063934 0 -0.34386144146688857 -0.1787498727082365 0 -0.3690111511086428 -0.15365147065227111 0 -0.35825333262145431 -0.1601756414063934 0 -0.36565001044296819 -0.16181661477064349 0 -0.35825333262145431 -0.1601756414063934 0 -0.36565001044296819 -0.16181661477064349 0 -0.3602623718222232 -0.1697290827347824 0 -0.3602623718222232 -0.1697290827347824 0 -0.36951353869147829 -0.16661132852984889 0 -0.35692362799304528 -0.17890280986002 0 -0.36565001044296819 -0.16181661477064349 0 -0.3602623718222232 -0.1697290827347824 0 -0.36951353869147829 -0.16661132852984889 0 -0.3690111511086428 -0.15365147065227111 0 -0.36565001044296819 -0.16181661477064349 0 -0.37046745866572162 -0.1601292671416574 0 -0.36951353869147829 -0.16661132852984889 0 -0.37046745866572162 -0.1601292671416574 0 -0.37650761553128481 -0.1603796011926433 0 -0.3690111511086428 -0.15365147065227111 0 -0.37046745866572162 -0.1601292671416574 0 -0.37650761553128481 -0.1603796011926433 0 -0.36565001044296819 -0.16181661477064349 0 -0.36951353869147829 -0.16661132852984889 0 -0.37046745866572162 -0.1601292671416574 0 -0.36951353869147829 -0.16661132852984889 0 -0.35692362799304528 -0.17890280986002 0 -0.38135966416584027 -0.17189144412859131 0 -0.35692362799304528 -0.17890280986002 0 -0.36281807040910941 -0.18936662009603261 0 -0.38135966416584027 -0.17189144412859131 0 -0.36281807040910941 -0.18936662009603261 0 -0.37571965098959831 -0.1921848407989061 0 -0.38135966416584027 -0.17189144412859131 0 -0.35692362799304528 -0.17890280986002 0 -0.38135966416584027 -0.17189144412859131 0 -0.35692362799304528 -0.17890280986002 0 -0.34832195587157733 -0.1892795917774831 0 -0.36281807040910941 -0.18936662009603261 0 -0.3602623718222232 -0.1697290827347824 0 -0.35692362799304528 -0.17890280986002 0 -0.34386144146688857 -0.1787498727082365 0 -0.35825333262145431 -0.1601756414063934 0 -0.34386144146688857 -0.1787498727082365 0 -0.33870050144152858 -0.17726914795463261 0 -0.35692362799304528 -0.17890280986002 0 -0.34386144146688857 -0.1787498727082365 0 -0.34832195587157733 -0.1892795917774831 0 -0.33870050144152858 -0.17726914795463261 0 -0.32333969254272071 -0.17953157192565439 0 -0.32946955031232261 -0.19732410401007941 0 -0.34386144146688857 -0.1787498727082365 0 -0.33870050144152858 -0.17726914795463261 0 -0.32946955031232261 -0.19732410401007941 0 -0.33870050144152858 -0.17726914795463261 0 -0.33295944249599402 -0.16811413814610879 0 -0.32333969254272071 -0.17953157192565439 0 -0.33822294767172473 -0.1569931376524217 0 -0.33295944249599402 -0.16811413814610879 0 -0.32104352310124051 -0.1638604622019546 0 -0.33870050144152858 -0.17726914795463261 0 -0.34336272791452083 -0.16412808622447339 0 -0.33295944249599402 -0.16811413814610879 0 -0.34336272791452083 -0.16412808622447339 0 -0.33822294767172473 -0.1569931376524217 0 -0.33295944249599402 -0.16811413814610879 0 -0.3476137553859136 -0.1572787451787506 0 -0.34336272791452083 -0.16412808622447339 0 -0.33822294767172473 -0.1569931376524217 0 -0.33295944249599402 -0.16811413814610879 0 -0.32104352310124051 -0.1638604622019546 0 -0.32333969254272071 -0.17953157192565439 0 -0.30336297392627598 -0.17705348270024471 0 -0.32333969254272071 -0.17953157192565439 0 -0.31472720824821648 -0.19441619817220221 0 -0.30336297392627598 -0.17705348270024471 0 -0.32104352310124051 -0.1638604622019546 0 -0.32333969254272071 -0.17953157192565439 0 -0.31472720824821648 -0.19441619817220221 0 -0.31507765915775671 -0.21589833531192229 0 -0.32946955031232261 -0.19732410401007941 0 -0.32333969254272071 -0.17953157192565439 0 -0.31472720824821648 -0.19441619817220221 0 -0.32946955031232261 -0.19732410401007941 0 -0.31507765915775671 -0.21589833531192229 0 -0.32946955031232261 -0.19732410401007941 0 -0.31507765915775671 -0.21589833531192229 0 -0.33675717973519131 -0.2158317131984189 0 -0.32946955031232261 -0.19732410401007941 0 -0.33675717973519131 -0.2158317131984189 0 -0.32946955031232261 -0.19732410401007941 0 -0.34924581982300218 -0.2016788304129559 0 -0.34386144146688857 -0.1787498727082365 0 -0.32946955031232261 -0.19732410401007941 0 -0.34832195587157733 -0.1892795917774831 0 -0.34386144146688857 -0.1787498727082365 0 -0.32946955031232261 -0.19732410401007941 0 -0.32946955031232261 -0.19732410401007941 0 -0.34832195587157733 -0.1892795917774831 0 -0.34924581982300218 -0.2016788304129559 0 -0.34924581982300218 -0.2016788304129559 0 -0.36281807040910941 -0.18936662009603261 0 -0.36533770361159351 -0.20226220359823899 0 -0.34832195587157733 -0.1892795917774831 0 -0.34924581982300218 -0.2016788304129559 0 -0.36281807040910941 -0.18936662009603261 0 -0.36533770361159351 -0.20226220359823899 0 -0.38218261793032121 -0.21180943410634581 0 -0.37571965098959831 -0.1921848407989061 0 -0.36281807040910941 -0.18936662009603261 0 -0.36533770361159351 -0.20226220359823899 0 -0.37571965098959831 -0.1921848407989061 0 -0.36533770361159351 -0.20226220359823899 0 -0.35743108955241798 -0.21589557077686339 0 -0.38218261793032121 -0.21180943410634581 0 -0.33675717973519131 -0.2158317131984189 0 -0.34924581982300218 -0.2016788304129559 0 -0.35743108955241798 -0.21589557077686339 0 -0.34924581982300218 -0.2016788304129559 0 -0.36533770361159351 -0.20226220359823899 0 -0.35743108955241798 -0.21589557077686339 0 -0.35743108955241798 -0.21589557077686339 0 -0.34586428596638641 -0.23158529373494069 0 -0.36616479624304832 -0.23065615600763231 0 -0.33675717973519131 -0.2158317131984189 0 -0.35743108955241798 -0.21589557077686339 0 -0.34586428596638641 -0.23158529373494069 0 -0.34586428596638641 -0.23158529373494069 0 -0.36616479624304832 -0.23065615600763231 0 -0.36616479624304832 -0.23065615600763231 0 -0.38218261793032121 -0.21180943410634581 0 -0.35743108955241798 -0.21589557077686339 0 -0.36616479624304832 -0.23065615600763231 0 -0.38218261793032121 -0.21180943410634581 0 -0.3652942889692089 -0.25042186949623613 0 -0.36616479624304832 -0.23065615600763231 0 -0.35131987670973169 -0.2481228300382099 0 -0.38049762921659952 -0.25021735770044617 0 -0.3652942889692089 -0.25042186949623613 0 -0.36616479624304832 -0.23065615600763231 0 -0.34586428596638641 -0.23158529373494069 0 -0.35131987670973169 -0.2481228300382099 0 -0.33790901767947568 -0.24289357912332429 0 -0.36616479624304832 -0.23065615600763231 0 -0.35131987670973169 -0.2481228300382099 0 -0.34586428596638641 -0.23158529373494069 0 -0.36616479624304832 -0.23065615600763231 0 -0.35131987670973169 -0.2481228300382099 0 -0.34586428596638641 -0.23158529373494069 0 -0.33790901767947568 -0.24289357912332429 0 -0.32556377568972461 -0.2325144314622509 0 -0.3364244991495437 -0.25282795232326549 0 -0.35131987670973169 -0.2481228300382099 0 -0.33790901767947568 -0.24289357912332429 0 -0.3364244991495437 -0.25282795232326549 0 -0.33790901767947568 -0.24289357912332429 0 -0.32772674009125052 -0.24786565639204999 0 -0.33790901767947568 -0.24289357912332429 0 -0.32556377568972461 -0.2325144314622509 0 -0.32772674009125052 -0.24786565639204999 0 -0.33675717973519131 -0.2158317131984189 0 -0.34586428596638641 -0.23158529373494069 0 -0.32556377568972461 -0.2325144314622509 0 -0.34586428596638641 -0.23158529373494069 0 -0.32556377568972461 -0.2325144314622509 0 -0.30526326541306292 -0.23344356918956369 0 -0.31507765915775671 -0.21589833531192229 0 -0.32556377568972461 -0.2325144314622509 0 -0.30526326541306292 -0.23344356918956369 0 -0.32556377568972461 -0.2325144314622509 0 -0.31507765915775671 -0.21589833531192229 0 -0.33675717973519131 -0.2158317131984189 0 -0.32556377568972461 -0.2325144314622509 0 -0.30526326541306292 -0.23344356918956369 0 -0.32556377568972461 -0.2325144314622509 0 -0.31587538925458419 -0.24307026029734491 0 -0.31994358486826752 -0.25582512977358962 0 -0.31587538925458419 -0.24307026029734491 0 -0.32772674009125052 -0.24786565639204999 0 -0.32556377568972461 -0.2325144314622509 0 -0.31587538925458419 -0.24307026029734491 0 -0.32772674009125052 -0.24786565639204999 0 -0.42700439334320162 -0.25393468831072469 0 -0.43408840815871008 -0.22754734792616829 0 -0.42093017452507808 -0.23965735624997089 0 -0.43751304390905338 -0.25171100218643983 0 -0.42700439334320162 -0.25393468831072469 0 -0.43408840815871008 -0.22754734792616829 0 -0.42700439334320162 -0.25393468831072469 0 -0.43408840815871008 -0.22754734792616829 0 -0.43408840815871008 -0.22754734792616829 0 -0.41144720418682262 -0.2285836172866518 0 -0.43408840815871008 -0.22754734792616829 0 -0.41144720418682262 -0.2285836172866518 0 -0.42093017452507808 -0.23965735624997089 0 -0.43408840815871008 -0.22754734792616829 0 -0.41144720418682262 -0.2285836172866518 0 -0.41960846420435149 -0.20880193326852001 0 -0.41144720418682262 -0.2285836172866518 0 -0.41118069241157817 -0.2485637714763447 0 -0.39616193795957338 -0.24440313672781319 0 -0.41144720418682262 -0.2285836172866518 0 -0.42093017452507808 -0.23965735624997089 0 -0.41118069241157817 -0.2485637714763447 0 -0.42700439334320162 -0.25393468831072469 0 -0.42093017452507808 -0.23965735624997089 0 -0.41118069241157817 -0.2485637714763447 0 -0.38049762921659952 -0.25021735770044617 0 -0.36616479624304832 -0.23065615600763231 0 -0.38880600021493539 -0.2296198866471412 0 -0.38049762921659952 -0.25021735770044617 0 -0.39616193795957338 -0.24440313672781319 0 -0.38880600021493539 -0.2296198866471412 0 -0.36616479624304832 -0.23065615600763231 0 -0.38880600021493539 -0.2296198866471412 0 -0.38218261793032121 -0.21180943410634581 0 -0.36616479624304832 -0.23065615600763231 0 -0.38880600021493539 -0.2296198866471412 0 -0.41144720418682262 -0.2285836172866518 0 -0.38880600021493539 -0.2296198866471412 0 -0.41144720418682262 -0.2285836172866518 0 -0.39616193795957338 -0.24440313672781319 0 -0.38880600021493539 -0.2296198866471412 0 -0.41144720418682262 -0.2285836172866518 0 -0.38880600021493539 -0.2296198866471412 0 -0.40061820107719548 -0.2134597752659384 0 -0.40061820107719548 -0.2134597752659384 0 -0.39820043961759222 -0.1929627122050577 0 -0.41960846420435149 -0.20880193326852001 0 -0.40061820107719548 -0.2134597752659384 0 -0.38218261793032121 -0.21180943410634581 0 -0.39820043961759222 -0.1929627122050577 0 -0.38880600021493539 -0.2296198866471412 0 -0.40061820107719548 -0.2134597752659384 0 -0.38218261793032121 -0.21180943410634581 0 -0.37571965098959831 -0.1921848407989061 0 -0.39820043961759222 -0.1929627122050577 0 -0.38758481984173881 -0.18368885608706961 0 -0.38218261793032121 -0.21180943410634581 0 -0.39820043961759222 -0.1929627122050577 0 -0.38218261793032121 -0.21180943410634581 0 -0.37571965098959831 -0.1921848407989061 0 -0.39820043961759222 -0.1929627122050577 0 -0.39820043961759222 -0.1929627122050577 0 -0.41960846420435149 -0.20880193326852001 0 -0.42743473163706069 -0.18860875042672051 0 -0.41144720418682262 -0.2285836172866518 0 -0.40061820107719548 -0.2134597752659384 0 -0.41960846420435149 -0.20880193326852001 0 -0.43408840815871008 -0.22754734792616829 0 -0.41960846420435149 -0.20880193326852001 0 -0.44065120196926161 -0.2031015105496714 0 -0.43408840815871008 -0.22754734792616829 0 -0.44065120196926161 -0.2031015105496714 0 -0.42743473163706069 -0.18860875042672051 0 -0.43336024338209372 -0.17839712387414869 0 -0.44065120196926161 -0.2031015105496714 0 -0.42743473163706069 -0.18860875042672051 0 -0.44065120196926161 -0.2031015105496714 0 -0.41960846420435149 -0.20880193326852001 0 -0.42743473163706069 -0.18860875042672051 0 -0.44065120196926161 -0.2031015105496714 0 -0.42637562209842711 -0.1762261023025401 0 -0.4371201132985455 -0.17239518874738191 0 -0.41974476086957407 -0.1676134581606821 0 -0.42743473163706069 -0.18860875042672051 0 -0.42637562209842711 -0.1762261023025401 0 -0.41421826130486139 -0.1741159903037682 0 -0.42743473163706069 -0.18860875042672051 0 -0.42637562209842711 -0.1762261023025401 0 -0.43336024338209372 -0.17839712387414869 0 -0.42637562209842711 -0.1762261023025401 0 -0.43336024338209372 -0.17839712387414869 0 -0.4371201132985455 -0.17239518874738191 0 -0.43336024338209372 -0.17839712387414869 0 -0.4371201132985455 -0.17239518874738191 0 -0.4371201132985455 -0.17239518874738191 0 -0.42731571773431493 -0.15870539804226019 0 -0.41974476086957407 -0.1676134581606821 0 -0.4371201132985455 -0.17239518874738191 0 -0.41974476086957407 -0.1676134581606821 0 -0.42731571773431493 -0.15870539804226019 0 -0.41974476086957407 -0.1676134581606821 0 -0.42731571773431493 -0.15870539804226019 0 -0.41974476086957407 -0.1676134581606821 0 -0.40776220308106309 -0.16431583508693531 0 -0.42731571773431493 -0.15870539804226019 0 -0.40776220308106309 -0.16431583508693531 0 -0.41899126830346761 -0.1504527797196214 0 -0.42731571773431493 -0.15870539804226019 0 -0.40776220308106309 -0.16431583508693531 0 -0.41974476086957407 -0.1676134581606821 0 -0.41421826130486139 -0.1741159903037682 0 -0.40776220308106309 -0.16431583508693531 0 -0.40444985889061419 -0.16340427156073589 0 -0.40856248037929488 -0.15238598682744689 0 -0.41974476086957407 -0.1676134581606821 0 -0.40776220308106309 -0.16431583508693531 0 -0.41421826130486139 -0.1741159903037682 0 -0.41974476086957407 -0.1676134581606821 0 -0.40776220308106309 -0.16431583508693531 0 -0.40776220308106309 -0.16431583508693531 0 -0.41421826130486139 -0.1741159903037682 0 -0.40579570033863538 -0.1648800783971627 0 -0.41421826130486139 -0.1741159903037682 0 -0.40579570033863538 -0.1648800783971627 0 -0.40776220308106309 -0.16431583508693531 0 -0.40579570033863538 -0.1648800783971627 0 -0.41421826130486139 -0.1741159903037682 0 -0.4033184814637531 -0.17741880203042809 0 -0.40579570033863538 -0.1648800783971627 0 -0.39820043961759222 -0.1929627122050577 0 -0.42743473163706069 -0.18860875042672051 0 -0.41421826130486139 -0.1741159903037682 0 -0.42637562209842711 -0.1762261023025401 0 -0.41974476086957407 -0.1676134581606821 0 -0.41421826130486139 -0.1741159903037682 0 -0.42743473163706069 -0.18860875042672051 0 -0.41421826130486139 -0.1741159903037682 0 -0.39820043961759222 -0.1929627122050577 0 -0.41421826130486139 -0.1741159903037682 0 -0.39820043961759222 -0.1929627122050577 0 -0.4033184814637531 -0.17741880203042809 0 -0.39505952459392418 -0.1777164272157232 0 -0.39820043961759222 -0.1929627122050577 0 -0.41421826130486139 -0.1741159903037682 0 -0.4033184814637531 -0.17741880203042809 0 -0.4033184814637531 -0.17741880203042809 0 -0.39505952459392418 -0.1777164272157232 0 -0.40579570033863538 -0.1648800783971627 0 -0.39820043961759222 -0.1929627122050577 0 -0.39505952459392418 -0.1777164272157232 0 -0.38758481984173881 -0.18368885608706961 0 -0.37571965098959831 -0.1921848407989061 0 -0.38758481984173881 -0.18368885608706961 0 -0.38135966416584027 -0.17189144412859131 0 -0.39505952459392418 -0.1777164272157232 0 -0.38758481984173881 -0.18368885608706961 0 -0.38135966416584027 -0.17189144412859131 0 -0.3690111511086428 -0.15365147065227111 0 -0.37650761553128481 -0.1603796011926433 0 -0.38673050499962852 -0.1585278711065034 0 -0.38135966416584027 -0.17189144412859131 0 -0.37650761553128481 -0.1603796011926433 0 -0.38673050499962852 -0.1585278711065034 0 -0.36951353869147829 -0.16661132852984889 0 -0.38135966416584027 -0.17189144412859131 0 -0.37650761553128481 -0.1603796011926433 0 -0.38673050499962852 -0.1585278711065034 0 -0.40444985889061419 -0.16340427156073589 0 -0.39338459158683181 -0.1512704521143021 0 -0.38135966416584027 -0.17189144412859131 0 -0.40579570033863538 -0.1648800783971627 0 -0.39505952459392418 -0.1777164272157232 0 -0.38135966416584027 -0.17189144412859131 0 -0.40579570033863538 -0.1648800783971627 0 -0.38135966416584027 -0.17189144412859131 0 -0.38673050499962852 -0.1585278711065034 0 -0.40444985889061419 -0.16340427156073589 0 -0.38135966416584027 -0.17189144412859131 0 -0.40579570033863538 -0.1648800783971627 0 -0.40444985889061419 -0.16340427156073589 0 -0.38673050499962852 -0.1585278711065034 0 -0.40444985889061419 -0.16340427156073589 0 -0.40579570033863538 -0.1648800783971627 0 -0.40444985889061419 -0.16340427156073589 0 -0.40776220308106309 -0.16431583508693531 0 -0.40579570033863538 -0.1648800783971627 0 -0.40444985889061419 -0.16340427156073589 0 -0.40444985889061419 -0.16340427156073589 0 -0.39338459158683181 -0.1512704521143021 0 -0.40776220308106309 -0.16431583508693531 0 -0.40444985889061419 -0.16340427156073589 0 -0.40444985889061419 -0.16340427156073589 0 -0.39338459158683181 -0.1512704521143021 0 -0.40856248037929488 -0.15238598682744689 0 -0.403811443379887 -0.14412693733252921 0 -0.39338459158683181 -0.1512704521143021 0 -0.40856248037929488 -0.15238598682744689 0 -0.39338459158683181 -0.1512704521143021 0 -0.38231932428305082 -0.13913663266786711 0 -0.39736006081100261 -0.13923549274155819 0 -0.403811443379887 -0.14412693733252921 0 -0.39338459158683181 -0.1512704521143021 0 -0.39736006081100261 -0.13923549274155819 0 -0.3690111511086428 -0.15365147065227111 0 -0.38673050499962852 -0.1585278711065034 0 -0.38034638008608129 -0.1504485127156148 0 -0.3690111511086428 -0.15365147065227111 0 -0.38673050499962852 -0.1585278711065034 0 -0.38673050499962852 -0.1585278711065034 0 -0.39338459158683181 -0.1512704521143021 0 -0.38034638008608129 -0.1504485127156148 0 -0.39338459158683181 -0.1512704521143021 0 -0.38231932428305082 -0.13913663266786711 0 -0.39338459158683181 -0.1512704521143021 0 -0.38034638008608129 -0.1504485127156148 0 -0.38231932428305082 -0.13913663266786711 0 -0.37028632845225251 -0.1496561370371301 0 -0.38231932428305082 -0.13913663266786711 0 -0.37028632845225251 -0.1496561370371301 0 -0.38034638008608129 -0.1504485127156148 0 -0.38231932428305082 -0.13913663266786711 0 -0.37086364155792689 -0.1265431919395642 0 -0.37951593695145991 -0.1327340406700106 0 -0.38739544009950189 -0.1211537574222683 0 -0.37086364155792689 -0.1265431919395642 0 -0.37951593695145991 -0.1327340406700106 0 -0.37812161483325563 -0.13453355827715829 0 -0.37086364155792689 -0.1265431919395642 0 -0.37951593695145991 -0.1327340406700106 0 -0.36818747372735511 -0.14735459984177601 0 -0.37812161483325563 -0.13453355827715829 0 -0.38231932428305082 -0.13913663266786711 0 -0.37951593695145991 -0.1327340406700106 0 -0.37812161483325563 -0.13453355827715829 0 -0.37812161483325563 -0.13453355827715829 0 -0.38231932428305082 -0.13913663266786711 0 -0.37812161483325563 -0.13453355827715829 0 -0.38231932428305082 -0.13913663266786711 0 -0.38260547737258283 -0.1349529110261794 0 -0.37951593695145991 -0.1327340406700106 0 -0.37812161483325563 -0.13453355827715829 0 -0.38260547737258283 -0.1349529110261794 0 -0.37951593695145991 -0.1327340406700106 0 -0.38260547737258283 -0.1349529110261794 0 -0.38231932428305082 -0.13913663266786711 0 -0.38260547737258283 -0.1349529110261794 0 -0.39086993047885182 -0.12689081738553831 0 -0.37951593695145991 -0.1327340406700106 0 -0.38260547737258283 -0.1349529110261794 0 -0.38885818713676112 -0.12067689585437411 0 -0.37951593695145991 -0.1327340406700106 0 -0.38885818713676112 -0.12067689585437411 0 -0.38260547737258283 -0.1349529110261794 0 -0.39086993047885182 -0.12689081738553831 0 -0.38885818713676112 -0.12067689585437411 0 -0.38231932428305082 -0.13913663266786711 0 -0.39736006081100261 -0.13923549274155819 0 -0.39957252425331041 -0.1316566402584616 0 -0.38231932428305082 -0.13913663266786711 0 -0.39957252425331041 -0.1316566402584616 0 -0.40155420383366469 -0.1223210862885489 0 -0.38231932428305082 -0.13913663266786711 0 -0.39086993047885182 -0.12689081738553831 0 -0.40155420383366469 -0.1223210862885489 0 -0.38231932428305082 -0.13913663266786711 0 -0.40155420383366469 -0.1223210862885489 0 -0.39736006081100261 -0.13923549274155819 0 -0.39957252425331041 -0.1316566402584616 0 -0.40729374523523398 -0.13339493871188929 0 -0.403811443379887 -0.14412693733252921 0 -0.39736006081100261 -0.13923549274155819 0 -0.40729374523523398 -0.13339493871188929 0 -0.39957252425331041 -0.1316566402584616 0 -0.40155420383366469 -0.1223210862885489 0 -0.40933528710360068 -0.1241950508824432 0 -0.39957252425331041 -0.1316566402584616 0 -0.40729374523523398 -0.13339493871188929 0 -0.40933528710360068 -0.1241950508824432 0 -0.41858497058187871 -0.1265104183566792 0 -0.40729374523523398 -0.13339493871188929 0 -0.40933528710360068 -0.1241950508824432 0 -0.41858497058187871 -0.1265104183566792 0 -0.41473337947229189 -0.14011310018649251 0 -0.42641355146893489 -0.13952204595193141 0 -0.41858497058187871 -0.1265104183566792 0 -0.41473337947229189 -0.14011310018649251 0 -0.40729374523523398 -0.13339493871188929 0 -0.403811443379887 -0.14412693733252921 0 -0.41473337947229189 -0.14011310018649251 0 -0.40729374523523398 -0.13339493871188929 0 -0.403811443379887 -0.14412693733252921 0 -0.41473337947229189 -0.14011310018649251 0 -0.40856248037929488 -0.15238598682744689 0 -0.40776220308106309 -0.16431583508693531 0 -0.40856248037929488 -0.15238598682744689 0 -0.41899126830346761 -0.1504527797196214 0 -0.41473337947229189 -0.14011310018649251 0 -0.40856248037929488 -0.15238598682744689 0 -0.41899126830346761 -0.1504527797196214 0 -0.41473337947229189 -0.14011310018649251 0 -0.41899126830346761 -0.1504527797196214 0 -0.42641355146893489 -0.13952204595193141 0 -0.42731571773431493 -0.15870539804226019 0 -0.44534265680647211 -0.13749472944714031 0 -0.42731571773431493 -0.15870539804226019 0 -0.41899126830346761 -0.1504527797196214 0 -0.42641355146893489 -0.13952204595193141 0 -0.42731571773431493 -0.15870539804226019 0 -0.42641355146893489 -0.13952204595193141 0 -0.44534265680647211 -0.13749472944714031 0 -0.43127301825398939 -0.12551177574996891 0 -0.42641355146893489 -0.13952204595193141 0 -0.44534265680647211 -0.13749472944714031 0 -0.41858497058187871 -0.1265104183566792 0 -0.43127301825398939 -0.12551177574996891 0 -0.42641355146893489 -0.13952204595193141 0 -0.43127301825398939 -0.12551177574996891 0 -0.44534265680647211 -0.13749472944714031 0 -0.44198817408939339 -0.11308865940685089 0 -0.42731571773431493 -0.15870539804226019 0 -0.44972367200118862 -0.15227594436379771 0 -0.42731571773431493 -0.15870539804226019 0 -0.44534265680647211 -0.13749472944714031 0 -0.44972367200118862 -0.15227594436379771 0 -0.44972367200118862 -0.15227594436379771 0 -0.45467756160269518 -0.15085453822641329 0 -0.44534265680647211 -0.13749472944714031 0 -0.44972367200118862 -0.15227594436379771 0 -0.45772489982664122 -0.13950346781275921 0 -0.45467756160269518 -0.15085453822641329 0 -0.45772489982664122 -0.13950346781275921 0 -0.44972367200118862 -0.15227594436379771 0 -0.45467756160269518 -0.15085453822641329 0 -0.45772489982664122 -0.13950346781275921 0 -0.45689040995097269 -0.15021961163815181 0 -0.45946751339527359 -0.13672170838427619 0 -0.45689040995097269 -0.15021961163815181 0 -0.45772489982664122 -0.13950346781275921 0 -0.45946751339527359 -0.13672170838427619 0 -0.44972367200118862 -0.15227594436379771 0 -0.45772489982664122 -0.13950346781275921 0 -0.45467756160269518 -0.15085453822641329 0 -0.45689040995097269 -0.15021961163815181 0 -0.45772489982664122 -0.13950346781275921 0 -0.45467756160269518 -0.15085453822641329 0 -0.45689040995097269 -0.15021961163815181 0 -0.45689040995097269 -0.15021961163815181 0 -0.45946751339527359 -0.13672170838427619 0 -0.47307343807950991 -0.13292895081547429 0 -0.44534265680647211 -0.13749472944714031 0 -0.45772489982664122 -0.13950346781275921 0 -0.46191961509160318 -0.12387851749920301 0 -0.44534265680647211 -0.13749472944714031 0 -0.46423032691481653 -0.1152713164984131 0 -0.46191961509160318 -0.12387851749920301 0 -0.45946751339527359 -0.13672170838427619 0 -0.47307343807950991 -0.13292895081547429 0 -0.47054932777894559 -0.1190316466279922 0 -0.45946751339527359 -0.13672170838427619 0 -0.46191961509160318 -0.12387851749920301 0 -0.47054932777894559 -0.1190316466279922 0 -0.44534265680647211 -0.13749472944714031 0 -0.46423032691481653 -0.1152713164984131 0 -0.45946751339527359 -0.13672170838427619 0 -0.47054932777894559 -0.1190316466279922 0 -0.45772489982664122 -0.13950346781275921 0 -0.45946751339527359 -0.13672170838427619 0 -0.46191961509160318 -0.12387851749920301 0 -0.45772489982664122 -0.13950346781275921 0 -0.45946751339527359 -0.13672170838427619 0 -0.45772489982664122 -0.13950346781275921 0 -0.46191961509160318 -0.12387851749920301 0 -0.45946751339527359 -0.13672170838427619 0 -0.46191961509160318 -0.12387851749920301 0 -0.47307343807950991 -0.13292895081547429 0 -0.48282769070819631 -0.131746624010248 0 -0.47054932777894559 -0.1190316466279922 0 -0.47307343807950991 -0.13292895081547429 0 -0.48282769070819631 -0.131746624010248 0 -0.48333891750384778 -0.14263081293969029 0 -0.5 -0.1314421164252422 0 -0.4975741327315783 -0.14231394482148621 0 -0.48960263744709948 -0.12182776484659701 0 -0.48282769070819631 -0.131746624010248 0 -0.4975741327315783 -0.14231394482148621 0 -0.48960263744709948 -0.12182776484659701 0 -0.4975741327315783 -0.14231394482148621 0 -0.48960263744709948 -0.12182776484659701 0 -0.48282769070819631 -0.131746624010248 0 -0.4975741327315783 -0.14231394482148621 0 -0.48333891750384778 -0.14263081293969029 0 -0.5 -0.1314421164252422 0 -0.4975741327315783 -0.14231394482148621 0 -0.5 -0.1605709857909938 0 -0.4975741327315783 -0.14231394482148621 0 -0.48866244411988607 -0.1558248045200292 0 -0.5 -0.1605709857909938 0 -0.4975741327315783 -0.14231394482148621 0 -0.48866244411988607 -0.1558248045200292 0 -0.48333891750384778 -0.14263081293969029 0 -0.45689040995097269 -0.15021961163815181 0 -0.47307343807950991 -0.13292895081547429 0 -0.48333891750384778 -0.14263081293969029 0 -0.45689040995097269 -0.15021961163815181 0 -0.48333891750384778 -0.14263081293969029 0 -0.45689040995097269 -0.15021961163815181 0 -0.48333891750384778 -0.14263081293969029 0 -0.47456225926209872 -0.16192598767714991 0 -0.48866244411988607 -0.1558248045200292 0 -0.48333891750384778 -0.14263081293969029 0 -0.47456225926209872 -0.16192598767714991 0 -0.48866244411988607 -0.1558248045200292 0 -0.47456225926209872 -0.16192598767714991 0 -0.48783691110190608 -0.17168229137082591 0 -0.48866244411988607 -0.1558248045200292 0 -0.5 -0.1605709857909938 0 -0.48783691110190608 -0.17168229137082591 0 -0.48783691110190608 -0.17168229137082591 0 -0.47594046487034042 -0.1830786245657979 0 -0.49999999999999289 -0.18969985515674551 0 -0.5 -0.1605709857909938 0 -0.48783691110190608 -0.17168229137082591 0 -0.49999999999999289 -0.18969985515674551 0 -0.47594046487034042 -0.1830786245657979 0 -0.49999999999999289 -0.18969985515674551 0 -0.47456225926209872 -0.16192598767714991 0 -0.48783691110190608 -0.17168229137082591 0 -0.47594046487034042 -0.1830786245657979 0 -0.4608303048420791 -0.18735785681731701 0 -0.45188092974068828 -0.17645739397484889 0 -0.44880569403300719 -0.19256432757772571 0 -0.47456225926209872 -0.16192598767714991 0 -0.47594046487034042 -0.1830786245657979 0 -0.45188092974068828 -0.17645739397484889 0 -0.47594046487034042 -0.1830786245657979 0 -0.4608303048420791 -0.18735785681731701 0 -0.45188092974068828 -0.17645739397484889 0 -0.47594046487034042 -0.1830786245657979 0 -0.45188092974068828 -0.17645739397484889 0 -0.45467756160269518 -0.15085453822641329 0 -0.45689040995097269 -0.15021961163815181 0 -0.45188092974068828 -0.17645739397484889 0 -0.45689040995097269 -0.15021961163815181 0 -0.47456225926209872 -0.16192598767714991 0 -0.45188092974068828 -0.17645739397484889 0 -0.45689040995097269 -0.15021961163815181 0 -0.45188092974068828 -0.17645739397484889 0 -0.44972367200118862 -0.15227594436379771 0 -0.45467756160269518 -0.15085453822641329 0 -0.44808462782947428 -0.17541264434807791 0 -0.45467756160269518 -0.15085453822641329 0 -0.44808462782947428 -0.17541264434807791 0 -0.4371201132985455 -0.17239518874738191 0 -0.44972367200118862 -0.15227594436379771 0 -0.4371201132985455 -0.17239518874738191 0 -0.44972367200118862 -0.15227594436379771 0 -0.44808462782947428 -0.17541264434807791 0 -0.4371201132985455 -0.17239518874738191 0 -0.42731571773431493 -0.15870539804226019 0 -0.44972367200118862 -0.15227594436379771 0 -0.45467756160269518 -0.15085453822641329 0 -0.45188092974068828 -0.17645739397484889 0 -0.44808462782947428 -0.17541264434807791 0 -0.45188092974068828 -0.17645739397484889 0 -0.44808462782947428 -0.17541264434807791 0 -0.44880569403300719 -0.19256432757772571 0 -0.43336024338209372 -0.17839712387414869 0 -0.4371201132985455 -0.17239518874738191 0 -0.44808462782947428 -0.17541264434807791 0 -0.43336024338209372 -0.17839712387414869 0 -0.44808462782947428 -0.17541264434807791 0 -0.44065120196926161 -0.2031015105496714 0 -0.4371201132985455 -0.17239518874738191 0 -0.44808462782947428 -0.17541264434807791 0 -0.45188092974068828 -0.17645739397484889 0 -0.44880569403300719 -0.19256432757772571 0 -0.45188092974068828 -0.17645739397484889 0 -0.44808462782947428 -0.17541264434807791 0 -0.44808462782947428 -0.17541264434807791 0 -0.44065120196926161 -0.2031015105496714 0 -0.44808462782947428 -0.17541264434807791 0 -0.44880569403300719 -0.19256432757772571 0 -0.44065120196926161 -0.2031015105496714 0 -0.44880569403300719 -0.19256432757772571 0 -0.44065120196926161 -0.2031015105496714 0 -0.44573045832532798 -0.20867126118060281 0 -0.44880569403300719 -0.19256432757772571 0 -0.44573045832532798 -0.20867126118060281 0 -0.44880569403300719 -0.19256432757772571 0 -0.44573045832532798 -0.20867126118060281 0 -0.45893605170269941 -0.2083296529180686 0 -0.44573045832532798 -0.20867126118060281 0 -0.44219737925291308 -0.2271762069612013 0 -0.43408840815871008 -0.22754734792616829 0 -0.44065120196926161 -0.2031015105496714 0 -0.44573045832532798 -0.20867126118060281 0 -0.44065120196926161 -0.2031015105496714 0 -0.44573045832532798 -0.20867126118060281 0 -0.44573045832532798 -0.20867126118060281 0 -0.45798348984397608 -0.22210754500792149 0 -0.45893605170269941 -0.2083296529180686 0 -0.46669413072428029 -0.19733108115089601 0 -0.47683904782743819 -0.21445474700580819 0 -0.45893605170269941 -0.2083296529180686 0 -0.47683904782743819 -0.21445474700580819 0 -0.45798348984397608 -0.22210754500792149 0 -0.44573045832532798 -0.20867126118060281 0 -0.45893605170269941 -0.2083296529180686 0 -0.45798348984397608 -0.22210754500792149 0 -0.44880569403300719 -0.19256432757772571 0 -0.45893605170269941 -0.2083296529180686 0 -0.46669413072428029 -0.19733108115089601 0 -0.4608303048420791 -0.18735785681731701 0 -0.44880569403300719 -0.19256432757772571 0 -0.46669413072428029 -0.19733108115089601 0 -0.47594046487034042 -0.1830786245657979 0 -0.4608303048420791 -0.18735785681731701 0 -0.46669413072428029 -0.19733108115089601 0 -0.47594046487034042 -0.1830786245657979 0 -0.46669413072428029 -0.19733108115089601 0 -0.48344157429224971 -0.19336566517637779 0 -0.46669413072428029 -0.19733108115089601 0 -0.48344157429224971 -0.19336566517637779 0 -0.47683904782743819 -0.21445474700580819 0 -0.48344157429224971 -0.19336566517637779 0 -0.49999999999999289 -0.18969985515674551 0 -0.48780872097702471 -0.20631101613254979 0 -0.49999999999999289 -0.18969985515674551 0 -0.48780872097702471 -0.20631101613254979 0 -0.5 -0.2124776033028388 0 -0.47594046487034042 -0.1830786245657979 0 -0.48344157429224971 -0.19336566517637779 0 -0.49999999999999289 -0.18969985515674551 0 -0.48780872097702471 -0.20631101613254979 0 -0.5 -0.2124776033028388 0 -0.48277299782599448 -0.2250840614151054 0 -0.48344157429224971 -0.19336566517637779 0 -0.47683904782743819 -0.21445474700580819 0 -0.48780872097702471 -0.20631101613254979 0 -0.47683904782743819 -0.21445474700580819 0 -0.48277299782599448 -0.2250840614151054 0 -0.48344157429224971 -0.19336566517637779 0 -0.48780872097702471 -0.20631101613254979 0 -0.47683904782743819 -0.21445474700580819 0 -0.47683904782743819 -0.21445474700580819 0 -0.47023652136262623 -0.23554382883523831 0 -0.47683904782743819 -0.21445474700580819 0 -0.48277299782599448 -0.2250840614151054 0 -0.47023652136262623 -0.23554382883523831 0 -0.48277299782599448 -0.2250840614151054 0 -0.4806985303723581 -0.2353897470646418 0 -0.47023652136262623 -0.23554382883523831 0 -0.5 -0.2124776033028388 0 -0.48277299782599448 -0.2250840614151054 0 -0.48993198513493791 -0.23212904946361371 0 -0.5 -0.2124776033028388 0 -0.48993198513493791 -0.23212904946361371 0 -0.5 -0.23525535144893209 0 -0.48277299782599448 -0.2250840614151054 0 -0.48993198513493791 -0.23212904946361371 0 -0.4806985303723581 -0.2353897470646418 0 -0.5 -0.25803309959502541 0 -0.5 -0.23525535144893209 0 -0.48399429817233702 -0.2410877380670973 0 -0.48993198513493791 -0.23212904946361371 0 -0.5 -0.23525535144893209 0 -0.48399429817233702 -0.2410877380670973 0 -0.48993198513493791 -0.23212904946361371 0 -0.4806985303723581 -0.2353897470646418 0 -0.48399429817233702 -0.2410877380670973 0 -0.47244310207800461 -0.25075377537078691 0 -0.48399429817233702 -0.2410877380670973 0 -0.47640242233154778 -0.24230515931443361 0 -0.4806985303723581 -0.2353897470646418 0 -0.48399429817233702 -0.2410877380670973 0 -0.47640242233154778 -0.24230515931443361 0 -0.4806985303723581 -0.2353897470646418 0 -0.47023652136262623 -0.23554382883523831 0 -0.47640242233154778 -0.24230515931443361 0 -0.47023652136262623 -0.23554382883523831 0 -0.47640242233154778 -0.24230515931443361 0 -0.47244310207800461 -0.25075377537078691 0 -0.47023652136262623 -0.23554382883523831 0 -0.47640242233154778 -0.24230515931443361 0 -0.46155187019882182 -0.26328341004398592 0 -0.47244310207800461 -0.25075377537078691 0 -0.47023652136262623 -0.23554382883523831 0 -0.46155187019882182 -0.26328341004398592 0 -0.47023652136262623 -0.23554382883523831 0 -0.45396786575014159 -0.2499289980016984 0 -0.47023652136262623 -0.23554382883523831 0 -0.45396786575014159 -0.2499289980016984 0 -0.45053194150881848 -0.23592249724201311 0 -0.46155187019882182 -0.26328341004398592 0 -0.47023652136262623 -0.23554382883523831 0 -0.47023652136262623 -0.23554382883523831 0 -0.45798348984397608 -0.22210754500792149 0 -0.45053194150881848 -0.23592249724201311 0 -0.47683904782743819 -0.21445474700580819 0 -0.47023652136262623 -0.23554382883523831 0 -0.45798348984397608 -0.22210754500792149 0 -0.47023652136262623 -0.23554382883523831 0 -0.45798348984397608 -0.22210754500792149 0 -0.45798348984397608 -0.22210754500792149 0 -0.44219737925291308 -0.2271762069612013 0 -0.45053194150881848 -0.23592249724201311 0 -0.44573045832532798 -0.20867126118060281 0 -0.45798348984397608 -0.22210754500792149 0 -0.44219737925291308 -0.2271762069612013 0 -0.43408840815871008 -0.22754734792616829 0 -0.44573045832532798 -0.20867126118060281 0 -0.44219737925291308 -0.2271762069612013 0 -0.43408840815871008 -0.22754734792616829 0 -0.44219737925291308 -0.2271762069612013 0 -0.43751304390905338 -0.25171100218643983 0 -0.43408840815871008 -0.22754734792616829 0 -0.44219737925291308 -0.2271762069612013 0 -0.43751304390905338 -0.25171100218643983 0 -0.44219737925291308 -0.2271762069612013 0 -0.43751304390905338 -0.25171100218643983 0 -0.44219737925291308 -0.2271762069612013 0 -0.45053194150881848 -0.23592249724201311 0 -0.43751304390905338 -0.25171100218643983 0 -0.45396786575014159 -0.2499289980016984 0 -0.45053194150881848 -0.23592249724201311 0 -0.41491107973841168 -0.040703382945583171 0 -0.42396102105416622 -0.054467343957152178 0 -0.42520625017771019 -0.033834392471626423 0 -0.41491107973841168 -0.040703382945583171 0 -0.42520625017771019 -0.033834392471626423 0 -0.41306579633036361 -0.030506527531161291 0 -0.41491107973841168 -0.040703382945583171 0 -0.41306579633036361 -0.030506527531161291 0 -0.40415805205703331 -0.036635682720548103 0 -0.41491107973841168 -0.040703382945583171 0 -0.40769729738567939 -0.048795226019560663 0 -0.40415805205703331 -0.036635682720548103 0 -0.41479838493410082 -0.062110557627146679 0 -0.42396102105416622 -0.054467343957152178 0 -0.4229753066787364 -0.07080023924709257 0 -0.41479838493410082 -0.062110557627146679 0 -0.42396102105416622 -0.054467343957152178 0 -0.39497149237167523 -0.047160296395736753 0 -0.41491107973841168 -0.040703382945583171 0 -0.40769729738567939 -0.048795226019560663 0 -0.42396102105416622 -0.054467343957152178 0 -0.42396102105416622 -0.054467343957152178 0 -0.39497149237167523 -0.047160296395736753 0 -0.40769729738567939 -0.048795226019560663 0 -0.42396102105416622 -0.054467343957152178 0 -0.39497149237167523 -0.047160296395736753 0 -0.42396102105416622 -0.054467343957152178 0 -0.43008001049542671 -0.051508902097207182 0 -0.42978638747360481 -0.045501640212227051 0 -0.42396102105416622 -0.054467343957152178 0 -0.42693298363229643 -0.05521645140719026 0 -0.4229753066787364 -0.07080023924709257 0 -0.42396102105416622 -0.054467343957152178 0 -0.42693298363229643 -0.05521645140719026 0 -0.43008001049542671 -0.051508902097207182 0 -0.42693298363229643 -0.05521645140719026 0 -0.43089528669446958 -0.054463848780161833 0 -0.43008001049542671 -0.051508902097207182 0 -0.42396102105416622 -0.054467343957152178 0 -0.42693298363229643 -0.05521645140719026 0 -0.42693298363229643 -0.05521645140719026 0 -0.43289842097968062 -0.057913264098210959 0 -0.43096380618348051 -0.065269765600305354 0 -0.42693298363229643 -0.05521645140719026 0 -0.43289842097968062 -0.057913264098210959 0 -0.43089528669446958 -0.054463848780161833 0 -0.43289842097968062 -0.057913264098210959 0 -0.43089528669446958 -0.054463848780161833 0 -0.43509207210421069 -0.05295781863431772 0 -0.43652325505264228 -0.057032510808195103 0 -0.43509207210421069 -0.05295781863431772 0 -0.44039031255556171 -0.0558008911761185 0 -0.43289842097968062 -0.057913264098210959 0 -0.43652325505264228 -0.057032510808195103 0 -0.43509207210421069 -0.05295781863431772 0 -0.43289842097968062 -0.057913264098210959 0 -0.43096380618348051 -0.065269765600305354 0 -0.43771221457111631 -0.061458069324133217 0 -0.43289842097968062 -0.057913264098210959 0 -0.43652325505264228 -0.057032510808195103 0 -0.43771221457111631 -0.061458069324133217 0 -0.43008001049542671 -0.051508902097207182 0 -0.4341979212819328 -0.048214665209403623 0 -0.42978638747360481 -0.045501640212227051 0 -0.43089528669446958 -0.054463848780161833 0 -0.43008001049542671 -0.051508902097207182 0 -0.43509207210421069 -0.05295781863431772 0 -0.43008001049542671 -0.051508902097207182 0 -0.43509207210421069 -0.05295781863431772 0 -0.4341979212819328 -0.048214665209403623 0 -0.43509207210421069 -0.05295781863431772 0 -0.4341979212819328 -0.048214665209403623 0 -0.43950090740363379 -0.051322486629672461 0 -0.4341979212819328 -0.048214665209403623 0 -0.43872500735636488 -0.046391146798755223 0 -0.43950090740363379 -0.051322486629672461 0 -0.43568854239011451 -0.040186616888877293 0 -0.42978638747360481 -0.045501640212227051 0 -0.42520625017771019 -0.033834392471626423 0 -0.4341979212819328 -0.048214665209403623 0 -0.43568854239011451 -0.040186616888877293 0 -0.42978638747360481 -0.045501640212227051 0 -0.4341979212819328 -0.048214665209403623 0 -0.43568854239011451 -0.040186616888877293 0 -0.43872500735636488 -0.046391146798755223 0 -0.42396102105416622 -0.054467343957152178 0 -0.42520625017771019 -0.033834392471626423 0 -0.42396102105416622 -0.054467343957152178 0 -0.42978638747360481 -0.045501640212227051 0 -0.42520625017771019 -0.033834392471626423 0 -0.43568854239011451 -0.040186616888877293 0 -0.42520625017771019 -0.033834392471626423 0 -0.43941487492107612 -0.028408305423005639 0 -0.42520625017771019 -0.033834392471626423 0 -0.43307933665379761 -0.021152824348590959 0 -0.43941487492107612 -0.028408305423005639 0 -0.42520625017771019 -0.033834392471626423 0 -0.43307933665379761 -0.021152824348590959 0 -0.42645147930125421 -0.013201440986100731 0 -0.42520625017771019 -0.033834392471626423 0 -0.42645147930125421 -0.013201440986100731 0 -0.42520625017771019 -0.033834392471626423 0 -0.42645147930125421 -0.013201440986100731 0 -0.41799104492781758 -0.018704393200219761 0 -0.43307933665379761 -0.021152824348590959 0 -0.43449459786842631 -0.0127581595954342 0 -0.42645147930125421 -0.013201440986100731 0 -0.43307933665379761 -0.021152824348590959 0 -0.43449459786842631 -0.0127581595954342 0 -0.44001583351499057 -0.018069667058806201 0 -0.43347961392146023 -0.0028595802463400339 0 -0.43944672595062889 -0.0085072853373330815 0 -0.43921605888514031 0.0076621840151965513 0 -0.42645147930125421 -0.013201440986100731 0 -0.42769670842479812 0.0074315104994249342 0 -0.42645147930125421 -0.013201440986100731 0 -0.42066580394347891 -0.0030686677817414981 0 -0.42769670842479812 0.0074315104994249342 0 -0.43347961392146023 -0.0028595802463400339 0 -0.42645147930125421 -0.013201440986100731 0 -0.42769670842479812 0.0074315104994249342 0 -0.43347961392146023 -0.0028595802463400339 0 -0.43449459786842631 -0.0127581595954342 0 -0.43944672595062889 -0.0085072853373330815 0 -0.43347961392146023 -0.0028595802463400339 0 -0.43449459786842631 -0.0127581595954342 0 -0.42645147930125421 -0.013201440986100731 0 -0.42066580394347891 -0.0030686677817414981 0 -0.41324663300947129 -0.0039260215443408762 0 -0.41807960538904709 0.0045558752302702768 0 -0.42066580394347891 -0.0030686677817414981 0 -0.41785459359282379 -0.010203262107961091 0 -0.41324663300947129 -0.0039260215443408762 0 -0.42645147930125421 -0.013201440986100731 0 -0.42066580394347891 -0.0030686677817414981 0 -0.41785459359282379 -0.010203262107961091 0 -0.41785459359282379 -0.010203262107961091 0 -0.41086143681905168 -0.01128531700114295 0 -0.41799104492781758 -0.018704393200219761 0 -0.42645147930125421 -0.013201440986100731 0 -0.41785459359282379 -0.010203262107961091 0 -0.41799104492781758 -0.018704393200219761 0 -0.41086143681905168 -0.01128531700114295 0 -0.41799104492781758 -0.018704393200219761 0 -0.40611238101271752 -0.016164889810707132 0 -0.41086143681905168 -0.01128531700114295 0 -0.40611238101271752 -0.016164889810707132 0 -0.40325952327647557 -0.011057425641355881 0 -0.41086143681905168 -0.01128531700114295 0 -0.40809322875059961 -0.007452665224025639 0 -0.40325952327647557 -0.011057425641355881 0 -0.41785459359282379 -0.010203262107961091 0 -0.41086143681905168 -0.01128531700114295 0 -0.41324663300947129 -0.0039260215443408762 0 -0.41324663300947129 -0.0039260215443408762 0 -0.40809322875059961 -0.007452665224025639 0 -0.40500532189739991 -0.0035418967092628521 0 -0.41324663300947129 -0.0039260215443408762 0 -0.40500532189739991 -0.0035418967092628521 0 -0.41088443635769267 0.0024351128412023102 0 -0.41086143681905168 -0.01128531700114295 0 -0.41324663300947129 -0.0039260215443408762 0 -0.40809322875059961 -0.007452665224025639 0 -0.41799104492781758 -0.018704393200219761 0 -0.4014486830129117 -0.023760375245290039 0 -0.40611238101271752 -0.016164889810707132 0 -0.41799104492781758 -0.018704393200219761 0 -0.41306579633036361 -0.030506527531161291 0 -0.4014486830129117 -0.023760375245290039 0 -0.41799104492781758 -0.018704393200219761 0 -0.4014486830129117 -0.023760375245290039 0 -0.42520625017771019 -0.033834392471626423 0 -0.41799104492781758 -0.018704393200219761 0 -0.41306579633036361 -0.030506527531161291 0 -0.4014486830129117 -0.023760375245290039 0 -0.38490632109800571 -0.028816357290359921 0 -0.39535830444393172 -0.033169749486068968 0 -0.4014486830129117 -0.023760375245290039 0 -0.39535830444393172 -0.033169749486068968 0 -0.40415805205703331 -0.036635682720548103 0 -0.4014486830129117 -0.023760375245290039 0 -0.38490632109800571 -0.028816357290359921 0 -0.38921936398251872 -0.02074844418085612 0 -0.4014486830129117 -0.023760375245290039 0 -0.38490632109800571 -0.028816357290359921 0 -0.41306579633036361 -0.030506527531161291 0 -0.4014486830129117 -0.023760375245290039 0 -0.40415805205703331 -0.036635682720548103 0 -0.4014486830129117 -0.023760375245290039 0 -0.40611238101271752 -0.016164889810707132 0 -0.39700121702733049 -0.016016937965527021 0 -0.4014486830129117 -0.023760375245290039 0 -0.39700121702733049 -0.016016937965527021 0 -0.38921936398251872 -0.02074844418085612 0 -0.39700121702733049 -0.016016937965527021 0 -0.38940517544862402 -0.01486314185727154 0 -0.38921936398251872 -0.02074844418085612 0 -0.40500532189739991 -0.0035418967092628521 0 -0.39736802626032253 -0.008296188452792664 0 -0.40202812620624517 0.00663764390047911 0 -0.40809322875059961 -0.007452665224025639 0 -0.40500532189739991 -0.0035418967092628521 0 -0.40325952327647557 -0.011057425641355881 0 -0.40500532189739991 -0.0035418967092628521 0 -0.40325952327647557 -0.011057425641355881 0 -0.39736802626032253 -0.008296188452792664 0 -0.40611238101271752 -0.016164889810707132 0 -0.39700121702733049 -0.016016937965527021 0 -0.40325952327647557 -0.011057425641355881 0 -0.39700121702733049 -0.016016937965527021 0 -0.40325952327647557 -0.011057425641355881 0 -0.39736802626032253 -0.008296188452792664 0 -0.39736802626032253 -0.008296188452792664 0 -0.38821830950628222 -0.0088111278812710685 0 -0.38940517544862402 -0.01486314185727154 0 -0.39700121702733049 -0.016016937965527021 0 -0.39736802626032253 -0.008296188452792664 0 -0.38940517544862402 -0.01486314185727154 0 -0.38821830950628222 -0.0088111278812710685 0 -0.40202812620624517 0.00663764390047911 0 -0.39736802626032253 -0.008296188452792664 0 -0.38821830950628222 -0.0088111278812710685 0 -0.40202812620624517 0.00663764390047911 0 -0.36933859948822412 -0.0004439302888986224 0 -0.38821830950628222 -0.0088111278812710685 0 -0.37936430061871951 -0.018715934413416849 0 -0.38821830950628222 -0.0088111278812710685 0 -0.38940517544862402 -0.01486314185727154 0 -0.37936430061871951 -0.018715934413416849 0 -0.38821830950628222 -0.0088111278812710685 0 -0.37936430061871951 -0.018715934413416849 0 -0.38821830950628222 -0.0088111278812710685 0 -0.38940517544862402 -0.01486314185727154 0 -0.36759445675048202 -0.034107528875047463 0 -0.38490632109800571 -0.028816357290359921 0 -0.37936430061871951 -0.018715934413416849 0 -0.38940517544862402 -0.01486314185727154 0 -0.38921936398251872 -0.02074844418085612 0 -0.37936430061871951 -0.018715934413416849 0 -0.38490632109800571 -0.028816357290359921 0 -0.38921936398251872 -0.02074844418085612 0 -0.37936430061871951 -0.018715934413416849 0 -0.38490632109800571 -0.028816357290359921 0 -0.37936430061871951 -0.018715934413416849 0 -0.36759445675048202 -0.034107528875047463 0 -0.39289363881887129 -0.043373374344814628 0 -0.37822729992581983 -0.042939785882461369 0 -0.39497149237167523 -0.047160296395736753 0 -0.36759445675048202 -0.034107528875047463 0 -0.37822729992581983 -0.042939785882461369 0 -0.39289363881887129 -0.043373374344814628 0 -0.36759445675048202 -0.034107528875047463 0 -0.38490632109800571 -0.028816357290359921 0 -0.36759445675048202 -0.034107528875047463 0 -0.38490632109800571 -0.028816357290359921 0 -0.39289363881887129 -0.043373374344814628 0 -0.37822729992581983 -0.042939785882461369 0 -0.39289363881887129 -0.043373374344814628 0 -0.39497149237167523 -0.047160296395736753 0 -0.38490632109800571 -0.028816357290359921 0 -0.39289363881887129 -0.043373374344814628 0 -0.38490632109800571 -0.028816357290359921 0 -0.39535830444393172 -0.033169749486068968 0 -0.39289363881887129 -0.043373374344814628 0 -0.39535830444393172 -0.033169749486068968 0 -0.39289363881887129 -0.043373374344814628 0 -0.40415805205703331 -0.036635682720548103 0 -0.39289363881887129 -0.043373374344814628 0 -0.39497149237167523 -0.047160296395736753 0 -0.40769729738567939 -0.048795226019560663 0 -0.39289363881887129 -0.043373374344814628 0 -0.39497149237167523 -0.047160296395736753 0 -0.40769729738567939 -0.048795226019560663 0 -0.39289363881887129 -0.043373374344814628 0 -0.40415805205703331 -0.036635682720548103 0 -0.40769729738567939 -0.048795226019560663 0 -0.39289363881887129 -0.043373374344814628 0 -0.41479838493410082 -0.062110557627146679 0 -0.40287858604889759 -0.061571103819843813 0 -0.39497149237167523 -0.047160296395736753 0 -0.40287858604889759 -0.061571103819843813 0 -0.39497149237167523 -0.047160296395736753 0 -0.40287858604889759 -0.061571103819843813 0 -0.39497149237167523 -0.047160296395736753 0 -0.39104779187559091 -0.05848678819876249 0 -0.37822729992581983 -0.042939785882461369 0 -0.39497149237167523 -0.047160296395736753 0 -0.38297522181069582 -0.052491663448312159 0 -0.39104779187559091 -0.05848678819876249 0 -0.38297522181069582 -0.052491663448312159 0 -0.38044591036779662 -0.061570901268900517 0 -0.39497149237167523 -0.047160296395736753 0 -0.39104779187559091 -0.05848678819876249 0 -0.38297522181069582 -0.052491663448312159 0 -0.37018361451259613 -0.0523005454956997 0 -0.37822729992581983 -0.042939785882461369 0 -0.38297522181069582 -0.052491663448312159 0 -0.37018361451259613 -0.0523005454956997 0 -0.38297522181069582 -0.052491663448312159 0 -0.38044591036779662 -0.061570901268900517 0 -0.36947373707469872 -0.063985249966456478 0 -0.38044591036779662 -0.061570901268900517 0 -0.37647484402476228 -0.072677937837527018 0 -0.39104779187559091 -0.05848678819876249 0 -0.38044591036779662 -0.061570901268900517 0 -0.39173087979180032 -0.071577688901310721 0 -0.38044591036779662 -0.061570901268900517 0 -0.37647484402476228 -0.072677937837527018 0 -0.39173087979180032 -0.071577688901310721 0 -0.37647484402476228 -0.072677937837527018 0 -0.38363999066006932 -0.081744832760173664 0 -0.39173087979180032 -0.071577688901310721 0 -0.36987620287596668 -0.084754769908034683 0 -0.37647484402476228 -0.072677937837527018 0 -0.38363999066006932 -0.081744832760173664 0 -0.38363999066006932 -0.081744832760173664 0 -0.39646488843759442 -0.089320107305594754 0 -0.39173087979180032 -0.071577688901310721 0 -0.36987620287596668 -0.084754769908034683 0 -0.37974365793776149 -0.090047199299109523 0 -0.38363999066006932 -0.081744832760173664 0 -0.37974365793776149 -0.090047199299109523 0 -0.38705062807724733 -0.089891182830622141 0 -0.38363999066006932 -0.081744832760173664 0 -0.37974365793776149 -0.090047199299109523 0 -0.38705062807724733 -0.089891182830622141 0 -0.38416094054066802 -0.098770797811139927 0 -0.38705062807724733 -0.089891182830622141 0 -0.38363999066006932 -0.081744832760173664 0 -0.39646488843759442 -0.089320107305594754 0 -0.38705062807724733 -0.089891182830622141 0 -0.39646488843759442 -0.089320107305594754 0 -0.38416094054066802 -0.098770797811139927 0 -0.39646488843759442 -0.089320107305594754 0 -0.39173087979180032 -0.071577688901310721 0 -0.40781369414880903 -0.07731993238432934 0 -0.40287858604889759 -0.061571103819843813 0 -0.39173087979180032 -0.071577688901310721 0 -0.40781369414880903 -0.07731993238432934 0 -0.40287858604889759 -0.061571103819843813 0 -0.39104779187559091 -0.05848678819876249 0 -0.39173087979180032 -0.071577688901310721 0 -0.37908192940485258 -0.11372123791496561 0 -0.39825962679784982 -0.10548023103136039 0 -0.37086364155792689 -0.1265431919395642 0 -0.38739544009950189 -0.1211537574222683 0 -0.37908192940485258 -0.11372123791496561 0 -0.3870618917417426 -0.1143326311701983 0 -0.39825962679784982 -0.10548023103136039 0 -0.37456545992351081 -0.12153932669336311 0 -0.37086364155792689 -0.1265431919395642 0 -0.38739544009950189 -0.1211537574222683 0 -0.37951593695145991 -0.1327340406700106 0 -0.38739544009950189 -0.1211537574222683 0 -0.38885818713676112 -0.12067689585437411 0 -0.38739544009950189 -0.1211537574222683 0 -0.37908192940485258 -0.11372123791496561 0 -0.38739544009950189 -0.1211537574222683 0 -0.38885818713676112 -0.12067689585437411 0 -0.3870618917417426 -0.1143326311701983 0 -0.38739544009950189 -0.1211537574222683 0 -0.38885818713676112 -0.12067689585437411 0 -0.37456545992351081 -0.12153932669336311 0 -0.38739544009950189 -0.1211537574222683 0 -0.37908192940485258 -0.11372123791496561 0 -0.38739544009950189 -0.1211537574222683 0 -0.37908192940485258 -0.11372123791496561 0 -0.3870618917417426 -0.1143326311701983 0 -0.37908192940485258 -0.11372123791496561 0 -0.38416094054066802 -0.098770797811139927 0 -0.39825962679784982 -0.10548023103136039 0 -0.37436088789708721 -0.1011039431900262 0 -0.37908192940485258 -0.11372123791496561 0 -0.38416094054066802 -0.098770797811139927 0 -0.37399052753485651 -0.095074413185577189 0 -0.37974365793776149 -0.090047199299109523 0 -0.38416094054066802 -0.098770797811139927 0 -0.37399052753485651 -0.095074413185577189 0 -0.37436088789708721 -0.1011039431900262 0 -0.38416094054066802 -0.098770797811139927 0 -0.39646488843759442 -0.089320107305594754 0 -0.38416094054066802 -0.098770797811139927 0 -0.39825962679784982 -0.10548023103136039 0 -0.39646488843759442 -0.089320107305594754 0 -0.39825962679784982 -0.10548023103136039 0 -0.41743732419084739 -0.097239224147756279 0 -0.39825962679784982 -0.10548023103136039 0 -0.40214040049602318 -0.11245840106869399 0 -0.4101525699399689 -0.1100367409634788 0 -0.38885818713676112 -0.12067689585437411 0 -0.3870618917417426 -0.1143326311701983 0 -0.39694609915862272 -0.11023860480355931 0 -0.38885818713676112 -0.12067689585437411 0 -0.39694609915862272 -0.11023860480355931 0 -0.3870618917417426 -0.1143326311701983 0 -0.39825962679784982 -0.10548023103136039 0 -0.39694609915862272 -0.11023860480355931 0 -0.38885818713676112 -0.12067689585437411 0 -0.39694609915862272 -0.11023860480355931 0 -0.39901245976820032 -0.1173665610907207 0 -0.40214040049602318 -0.11245840106869399 0 -0.40611615914915211 -0.11727304098301521 0 -0.4101525699399689 -0.1100367409634788 0 -0.39825962679784982 -0.10548023103136039 0 -0.39694609915862272 -0.11023860480355931 0 -0.40214040049602318 -0.11245840106869399 0 -0.40214040049602318 -0.11245840106869399 0 -0.39901245976820032 -0.1173665610907207 0 -0.40611615914915211 -0.11727304098301521 0 -0.39694609915862272 -0.11023860480355931 0 -0.40214040049602318 -0.11245840106869399 0 -0.39901245976820032 -0.1173665610907207 0 -0.39901245976820032 -0.1173665610907207 0 -0.40611615914915211 -0.11727304098301521 0 -0.40155420383366469 -0.1223210862885489 0 -0.40611615914915211 -0.11727304098301521 0 -0.40155420383366469 -0.1223210862885489 0 -0.40933528710360068 -0.1241950508824432 0 -0.39086993047885182 -0.12689081738553831 0 -0.38885818713676112 -0.12067689585437411 0 -0.39901245976820032 -0.1173665610907207 0 -0.38885818713676112 -0.12067689585437411 0 -0.39901245976820032 -0.1173665610907207 0 -0.39086993047885182 -0.12689081738553831 0 -0.39901245976820032 -0.1173665610907207 0 -0.40155420383366469 -0.1223210862885489 0 -0.41858497058187871 -0.1265104183566792 0 -0.41364494501957372 -0.1177916553545718 0 -0.42403573832326807 -0.1109430255872428 0 -0.41858497058187871 -0.1265104183566792 0 -0.40933528710360068 -0.1241950508824432 0 -0.41364494501957372 -0.1177916553545718 0 -0.40611615914915211 -0.11727304098301521 0 -0.40933528710360068 -0.1241950508824432 0 -0.41364494501957372 -0.1177916553545718 0 -0.40611615914915211 -0.11727304098301521 0 -0.41364494501957372 -0.1177916553545718 0 -0.4101525699399689 -0.1100367409634788 0 -0.41364494501957372 -0.1177916553545718 0 -0.4101525699399689 -0.1100367409634788 0 -0.42403573832326807 -0.1109430255872428 0 -0.39825962679784982 -0.10548023103136039 0 -0.41743732419084739 -0.097239224147756279 0 -0.39825962679784982 -0.10548023103136039 0 -0.4101525699399689 -0.1100367409634788 0 -0.41743732419084739 -0.097239224147756279 0 -0.4101525699399689 -0.1100367409634788 0 -0.41743732419084739 -0.097239224147756279 0 -0.42403573832326807 -0.1109430255872428 0 -0.42403573832326807 -0.1109430255872428 0 -0.43661502158384502 -0.088998217264152191 0 -0.44198817408939339 -0.11308865940685089 0 -0.41743732419084739 -0.097239224147756279 0 -0.42403573832326807 -0.1109430255872428 0 -0.43661502158384502 -0.088998217264152191 0 -0.43127301825398939 -0.12551177574996891 0 -0.42403573832326807 -0.1109430255872428 0 -0.44198817408939339 -0.11308865940685089 0 -0.41858497058187871 -0.1265104183566792 0 -0.43127301825398939 -0.12551177574996891 0 -0.42403573832326807 -0.1109430255872428 0 -0.41479838493410082 -0.062110557627146679 0 -0.40287858604889759 -0.061571103819843813 0 -0.40781369414880903 -0.07731993238432934 0 -0.40781369414880903 -0.07731993238432934 0 -0.42192027867989029 -0.082828261205239298 0 -0.4229753066787364 -0.07080023924709257 0 -0.41479838493410082 -0.062110557627146679 0 -0.40781369414880903 -0.07731993238432934 0 -0.4229753066787364 -0.07080023924709257 0 -0.41743732419084739 -0.097239224147756279 0 -0.40781369414880903 -0.07731993238432934 0 -0.42192027867989029 -0.082828261205239298 0 -0.39646488843759442 -0.089320107305594754 0 -0.41743732419084739 -0.097239224147756279 0 -0.40781369414880903 -0.07731993238432934 0 -0.41743732419084739 -0.097239224147756279 0 -0.42192027867989029 -0.082828261205239298 0 -0.43661502158384502 -0.088998217264152191 0 -0.41743732419084739 -0.097239224147756279 0 -0.43661502158384502 -0.088998217264152191 0 -0.42192027867989029 -0.082828261205239298 0 -0.43661502158384502 -0.088998217264152191 0 -0.43577781035403751 -0.074649190691552375 0 -0.42396102105416622 -0.054467343957152178 0 -0.4229753066787364 -0.07080023924709257 0 -0.42192027867989029 -0.082828261205239298 0 -0.43577781035403751 -0.074649190691552375 0 -0.4229753066787364 -0.07080023924709257 0 -0.42693298363229643 -0.05521645140719026 0 -0.4229753066787364 -0.07080023924709257 0 -0.43096380618348051 -0.065269765600305354 0 -0.43577781035403751 -0.074649190691552375 0 -0.43096380618348051 -0.065269765600305354 0 -0.43771221457111631 -0.061458069324133217 0 -0.43577781035403751 -0.074649190691552375 0 -0.4229753066787364 -0.07080023924709257 0 -0.43096380618348051 -0.065269765600305354 0 -0.43577781035403751 -0.074649190691552375 0 -0.44774958503984669 -0.067414492045691693 0 -0.43771221457111631 -0.061458069324133217 0 -0.43577781035403751 -0.074649190691552375 0 -0.44774958503984669 -0.067414492045691693 0 -0.45293563009701793 -0.081484057809695296 0 -0.44774958503984669 -0.067414492045691693 0 -0.43771221457111631 -0.061458069324133217 0 -0.44546101795533788 -0.058791564158321603 0 -0.44774958503984669 -0.067414492045691693 0 -0.45293563009701793 -0.081484057809695296 0 -0.45780331253909212 -0.065089095927913551 0 -0.44774958503984669 -0.067414492045691693 0 -0.45780331253909212 -0.065089095927913551 0 -0.4525534630820921 -0.058361535651268677 0 -0.43661502158384502 -0.088998217264152191 0 -0.45293563009701793 -0.081484057809695296 0 -0.45244808411754078 -0.099077094409647237 0 -0.43661502158384502 -0.088998217264152191 0 -0.43577781035403751 -0.074649190691552375 0 -0.45293563009701793 -0.081484057809695296 0 -0.45293563009701793 -0.081484057809695296 0 -0.45244808411754078 -0.099077094409647237 0 -0.46733199893883393 -0.095530476715524698 0 -0.45293563009701793 -0.081484057809695296 0 -0.46733199893883393 -0.095530476715524698 0 -0.47129440199905009 -0.074776892579035664 0 -0.45293563009701793 -0.081484057809695296 0 -0.45780331253909212 -0.065089095927913551 0 -0.47129440199905009 -0.074776892579035664 0 -0.44534265680647211 -0.13749472944714031 0 -0.44198817408939339 -0.11308865940685089 0 -0.46423032691481653 -0.1152713164984131 0 -0.44198817408939339 -0.11308865940685089 0 -0.45244808411754078 -0.099077094409647237 0 -0.46423032691481653 -0.1152713164984131 0 -0.43661502158384502 -0.088998217264152191 0 -0.44198817408939339 -0.11308865940685089 0 -0.45244808411754078 -0.099077094409647237 0 -0.46733199893883393 -0.095530476715524698 0 -0.46423032691481653 -0.1152713164984131 0 -0.46888879113743698 -0.097918941565136114 0 -0.46733199893883393 -0.095530476715524698 0 -0.46423032691481653 -0.1152713164984131 0 -0.45244808411754078 -0.099077094409647237 0 -0.46733199893883393 -0.095530476715524698 0 -0.46423032691481653 -0.1152713164984131 0 -0.46423032691481653 -0.1152713164984131 0 -0.46888879113743698 -0.097918941565136114 0 -0.46423032691481653 -0.1152713164984131 0 -0.46191961509160318 -0.12387851749920301 0 -0.47054932777894559 -0.1190316466279922 0 -0.46423032691481653 -0.1152713164984131 0 -0.46191961509160318 -0.12387851749920301 0 -0.46423032691481653 -0.1152713164984131 0 -0.47054932777894559 -0.1190316466279922 0 -0.48163114216261838 -0.1013415848717087 0 -0.48282769070819631 -0.131746624010248 0 -0.47054932777894559 -0.1190316466279922 0 -0.48960263744709948 -0.12182776484659701 0 -0.47054932777894559 -0.1190316466279922 0 -0.48163114216261838 -0.1013415848717087 0 -0.47054932777894559 -0.1190316466279922 0 -0.48163114216261838 -0.1013415848717087 0 -0.48960263744709948 -0.12182776484659701 0 -0.46423032691481653 -0.1152713164984131 0 -0.47988440101823893 -0.096852583476567361 0 -0.46423032691481653 -0.1152713164984131 0 -0.46888879113743698 -0.097918941565136114 0 -0.47988440101823893 -0.096852583476567361 0 -0.46423032691481653 -0.1152713164984131 0 -0.47988440101823893 -0.096852583476567361 0 -0.48163114216261838 -0.1013415848717087 0 -0.47988440101823893 -0.096852583476567361 0 -0.48163114216261838 -0.1013415848717087 0 -0.48163114216261838 -0.1013415848717087 0 -0.5 -0.10231324705949039 0 -0.48960263744709948 -0.12182776484659701 0 -0.5 -0.1314421164252422 0 -0.5 -0.10231324705949039 0 -0.48960263744709948 -0.12182776484659701 0 -0.48163114216261838 -0.1013415848717087 0 -0.48960263744709948 -0.12182776484659701 0 -0.47837845588033912 -0.066351382798094674 0 -0.47129440199905009 -0.074776892579035664 0 -0.47607866833254531 -0.049718696233414447 0 -0.47905802494758187 -0.076208881445555571 0 -0.48227636370817201 -0.071860041171849937 0 -0.47563663577889831 -0.072783805903577498 0 -0.48227636370817201 -0.071860041171849937 0 -0.47837845588033912 -0.066351382798094674 0 -0.47563663577889831 -0.072783805903577498 0 -0.47905802494758187 -0.076208881445555571 0 -0.48227636370817201 -0.071860041171849937 0 -0.48477184494319853 -0.079625112074935139 0 -0.48227636370817201 -0.071860041171849937 0 -0.47837845588033912 -0.066351382798094674 0 -0.48660620958302619 -0.062617478102595187 0 -0.47837845588033912 -0.066351382798094674 0 -0.47563663577889831 -0.072783805903577498 0 -0.47129440199905009 -0.074776892579035664 0 -0.47563663577889831 -0.072783805903577498 0 -0.47354725536005932 -0.080566566631859571 0 -0.47905802494758187 -0.076208881445555571 0 -0.47563663577889831 -0.072783805903577498 0 -0.47354725536005932 -0.080566566631859571 0 -0.47563663577889831 -0.072783805903577498 0 -0.47129440199905009 -0.074776892579035664 0 -0.47354725536005932 -0.080566566631859571 0 -0.47129440199905009 -0.074776892579035664 0 -0.47354725536005932 -0.080566566631859571 0 -0.46888879113743698 -0.097918941565136114 0 -0.47354725536005932 -0.080566566631859571 0 -0.46888879113743698 -0.097918941565136114 0 -0.47988440101823893 -0.096852583476567361 0 -0.47354725536005932 -0.080566566631859571 0 -0.47988440101823893 -0.096852583476567361 0 -0.47354725536005932 -0.080566566631859571 0 -0.48477184494319853 -0.079625112074935139 0 -0.46733199893883393 -0.095530476715524698 0 -0.47129440199905009 -0.074776892579035664 0 -0.46733199893883393 -0.095530476715524698 0 -0.47129440199905009 -0.074776892579035664 0 -0.47354725536005932 -0.080566566631859571 0 -0.46733199893883393 -0.095530476715524698 0 -0.46888879113743698 -0.097918941565136114 0 -0.47354725536005932 -0.080566566631859571 0 -0.47988440101823893 -0.096852583476567361 0 -0.47354725536005932 -0.080566566631859571 0 -0.47905802494758187 -0.076208881445555571 0 -0.47354725536005932 -0.080566566631859571 0 -0.48477184494319853 -0.079625112074935139 0 -0.47988440101823893 -0.096852583476567361 0 -0.49722360194399889 -0.076451114149563029 0 -0.48163114216261838 -0.1013415848717087 0 -0.49722360194399889 -0.076451114149563029 0 -0.47988440101823893 -0.096852583476567361 0 -0.48163114216261838 -0.1013415848717087 0 -0.49722360194399889 -0.076451114149563029 0 -0.5 -0.10231324705949039 0 -0.49722360194399889 -0.076451114149563029 0 -0.49999999999999928 -0.07318437769373877 0 -0.48163114216261838 -0.1013415848717087 0 -0.5 -0.10231324705949039 0 -0.49722360194399889 -0.076451114149563029 0 -0.47988440101823893 -0.096852583476567361 0 -0.48477184494319853 -0.079625112074935139 0 -0.49722360194399889 -0.076451114149563029 0 -0.49722360194399889 -0.076451114149563029 0 -0.48903889571405362 -0.071240052483750524 0 -0.49431645839187238 -0.065646516919809272 0 -0.49722360194399889 -0.076451114149563029 0 -0.49999999999999928 -0.07318437769373877 0 -0.49431645839187238 -0.065646516919809272 0 -0.49722360194399889 -0.076451114149563029 0 -0.49999999999999928 -0.07318437769373877 0 -0.48477184494319853 -0.079625112074935139 0 -0.49722360194399889 -0.076451114149563029 0 -0.48903889571405362 -0.071240052483750524 0 -0.48227636370817201 -0.071860041171849937 0 -0.48477184494319853 -0.079625112074935139 0 -0.48903889571405362 -0.071240052483750524 0 -0.48227636370817201 -0.071860041171849937 0 -0.48903889571405362 -0.071240052483750524 0 -0.48660620958302619 -0.062617478102595187 0 -0.48903889571405362 -0.071240052483750524 0 -0.48660620958302619 -0.062617478102595187 0 -0.49431645839187238 -0.065646516919809272 0 -0.49999999999999928 -0.07318437769373877 0 -0.49431645839187238 -0.065646516919809272 0 -0.5 -0.043433045056052062 0 -0.48660620958302619 -0.062617478102595187 0 -0.49431645839187238 -0.065646516919809272 0 -0.5 -0.043433045056052062 0 -0.48660620958302619 -0.062617478102595187 0 -0.5 -0.043433045056052062 0 -0.47607866833254531 -0.049718696233414447 0 -0.5 -0.043433045056052062 0 -0.47607866833254531 -0.049718696233414447 0 -0.48086293466603669 -0.024660499887792561 0 -0.47607866833254531 -0.049718696233414447 0 -0.46870748437107013 -0.041074989663931818 0 -0.48086293466603669 -0.024660499887792561 0 -0.46870748437107013 -0.041074989663931818 0 -0.46812195261041212 -0.029269558455512251 0 -0.48086293466603669 -0.024660499887792561 0 -0.47607866833254531 -0.049718696233414447 0 -0.48086293466603669 -0.024660499887792561 0 -0.47129440199905009 -0.074776892579035664 0 -0.47607866833254531 -0.049718696233414447 0 -0.4691705439159366 -0.053216944714335482 0 -0.47837845588033912 -0.066351382798094674 0 -0.48660620958302619 -0.062617478102595187 0 -0.47607866833254531 -0.049718696233414447 0 -0.47129440199905009 -0.074776892579035664 0 -0.47607866833254531 -0.049718696233414447 0 -0.47607866833254531 -0.049718696233414447 0 -0.4691705439159366 -0.053216944714335482 0 -0.46870748437107013 -0.041074989663931818 0 -0.45780331253909212 -0.065089095927913551 0 -0.47129440199905009 -0.074776892579035664 0 -0.46060162096107748 -0.047297200380959359 0 -0.47129440199905009 -0.074776892579035664 0 -0.4691705439159366 -0.053216944714335482 0 -0.46060162096107748 -0.047297200380959359 0 -0.47129440199905009 -0.074776892579035664 0 -0.46060162096107748 -0.047297200380959359 0 -0.45780331253909212 -0.065089095927913551 0 -0.45554668633737322 -0.053789703236714302 0 -0.46060162096107748 -0.047297200380959359 0 -0.45780331253909212 -0.065089095927913551 0 -0.45554668633737322 -0.053789703236714302 0 -0.4525534630820921 -0.058361535651268677 0 -0.45554668633737322 -0.053789703236714302 0 -0.4525534630820921 -0.058361535651268677 0 -0.45220615914202039 -0.053855530378238058 0 -0.45554668633737322 -0.053789703236714302 0 -0.45511778892428573 -0.046792051096874732 0 -0.45173134154106848 -0.049242703946497698 0 -0.45554668633737322 -0.053789703236714302 0 -0.45220615914202039 -0.053855530378238058 0 -0.45173134154106848 -0.049242703946497698 0 -0.45554668633737322 -0.053789703236714302 0 -0.46060162096107748 -0.047297200380959359 0 -0.45511778892428573 -0.046792051096874732 0 -0.4691705439159366 -0.053216944714335482 0 -0.46060162096107748 -0.047297200380959359 0 -0.46870748437107013 -0.041074989663931818 0 -0.45904500350922589 -0.043296803450063009 0 -0.45546830435127839 -0.019632508941909939 0 -0.45904500350922589 -0.043296803450063009 0 -0.45520763503149059 -0.041380965711721507 0 -0.44990883992310893 -0.019817508182881371 0 -0.46060162096107748 -0.047297200380959359 0 -0.46870748437107013 -0.041074989663931818 0 -0.45904500350922589 -0.043296803450063009 0 -0.46275031027664282 -0.031342310798615672 0 -0.45904500350922589 -0.043296803450063009 0 -0.45546830435127839 -0.019632508941909939 0 -0.45904500350922589 -0.043296803450063009 0 -0.44990883992310893 -0.019817508182881371 0 -0.46870748437107013 -0.041074989663931818 0 -0.46275031027664282 -0.031342310798615672 0 -0.46812195261041212 -0.029269558455512251 0 -0.46870748437107013 -0.041074989663931818 0 -0.46275031027664282 -0.031342310798615672 0 -0.45904500350922589 -0.043296803450063009 0 -0.46060162096107748 -0.047297200380959359 0 -0.45904500350922589 -0.043296803450063009 0 -0.46060162096107748 -0.047297200380959359 0 -0.45904500350922589 -0.043296803450063009 0 -0.45520763503149059 -0.041380965711721507 0 -0.46060162096107748 -0.047297200380959359 0 -0.45520763503149059 -0.041380965711721507 0 -0.45511778892428573 -0.046792051096874732 0 -0.45520763503149059 -0.041380965711721507 0 -0.45511778892428573 -0.046792051096874732 0 -0.45108627778213001 -0.04432386800332147 0 -0.45520763503149059 -0.041380965711721507 0 -0.44971284848492121 -0.033128378974699273 0 -0.44990883992310893 -0.019817508182881371 0 -0.45108627778213001 -0.04432386800332147 0 -0.44806394296249108 -0.046825479193565667 0 -0.45173134154106848 -0.049242703946497698 0 -0.45511778892428573 -0.046792051096874732 0 -0.45108627778213001 -0.04432386800332147 0 -0.45173134154106848 -0.049242703946497698 0 -0.45520763503149059 -0.041380965711721507 0 -0.45108627778213001 -0.04432386800332147 0 -0.44929454089594661 -0.039869529518004918 0 -0.45108627778213001 -0.04432386800332147 0 -0.44929454089594661 -0.039869529518004918 0 -0.44611131737774667 -0.042900129458570288 0 -0.44929454089594661 -0.039869529518004918 0 -0.44611131737774667 -0.042900129458570288 0 -0.44290015651447701 -0.037373668158733261 0 -0.45108627778213001 -0.04432386800332147 0 -0.44611131737774667 -0.042900129458570288 0 -0.44806394296249108 -0.046825479193565667 0 -0.44611131737774667 -0.042900129458570288 0 -0.44806394296249108 -0.046825479193565667 0 -0.44370027315684663 -0.046878109954266667 0 -0.45520763503149059 -0.041380965711721507 0 -0.44929454089594661 -0.039869529518004918 0 -0.44971284848492121 -0.033128378974699273 0 -0.44929454089594661 -0.039869529518004918 0 -0.44763590753137322 -0.035153093427814433 0 -0.44290015651447701 -0.037373668158733261 0 -0.44929454089594661 -0.039869529518004918 0 -0.44971284848492121 -0.033128378974699273 0 -0.44763590753137322 -0.035153093427814433 0 -0.44763590753137322 -0.035153093427814433 0 -0.4446417573113548 -0.032515955546767783 0 -0.44651731904268621 -0.029420798033074059 0 -0.44971284848492121 -0.033128378974699273 0 -0.44763590753137322 -0.035153093427814433 0 -0.44651731904268621 -0.029420798033074059 0 -0.43568854239011451 -0.040186616888877293 0 -0.44290015651447701 -0.037373668158733261 0 -0.43941487492107612 -0.028408305423005639 0 -0.4446417573113548 -0.032515955546767783 0 -0.44290015651447701 -0.037373668158733261 0 -0.43941487492107612 -0.028408305423005639 0 -0.44763590753137322 -0.035153093427814433 0 -0.4446417573113548 -0.032515955546767783 0 -0.44290015651447701 -0.037373668158733261 0 -0.44611131737774667 -0.042900129458570288 0 -0.44127695376749132 -0.04239011168598994 0 -0.44370027315684663 -0.046878109954266667 0 -0.44611131737774667 -0.042900129458570288 0 -0.44290015651447701 -0.037373668158733261 0 -0.44127695376749132 -0.04239011168598994 0 -0.43568854239011451 -0.040186616888877293 0 -0.44290015651447701 -0.037373668158733261 0 -0.44127695376749132 -0.04239011168598994 0 -0.43568854239011451 -0.040186616888877293 0 -0.44127695376749132 -0.04239011168598994 0 -0.43872500735636488 -0.046391146798755223 0 -0.44127695376749132 -0.04239011168598994 0 -0.43872500735636488 -0.046391146798755223 0 -0.44370027315684663 -0.046878109954266667 0 -0.43872500735636488 -0.046391146798755223 0 -0.4410899662589125 -0.048616130873553959 0 -0.44370027315684663 -0.046878109954266667 0 -0.4410899662589125 -0.048616130873553959 0 -0.44353460261337629 -0.050650439179039858 0 -0.43950090740363379 -0.051322486629672461 0 -0.43872500735636488 -0.046391146798755223 0 -0.4410899662589125 -0.048616130873553959 0 -0.43950090740363379 -0.051322486629672461 0 -0.4410899662589125 -0.048616130873553959 0 -0.44353460261337629 -0.050650439179039858 0 -0.44370027315684663 -0.046878109954266667 0 -0.44353460261337629 -0.050650439179039858 0 -0.44370027315684663 -0.046878109954266667 0 -0.44711909448592518 -0.050526330040812778 0 -0.44353460261337629 -0.050650439179039858 0 -0.44439448879102428 -0.054496530657860691 0 -0.43950090740363379 -0.051322486629672461 0 -0.44439448879102428 -0.054496530657860691 0 -0.43950090740363379 -0.051322486629672461 0 -0.44039031255556171 -0.0558008911761185 0 -0.44353460261337629 -0.050650439179039858 0 -0.44439448879102428 -0.054496530657860691 0 -0.44711909448592518 -0.050526330040812778 0 -0.43509207210421069 -0.05295781863431772 0 -0.43950090740363379 -0.051322486629672461 0 -0.44039031255556171 -0.0558008911761185 0 -0.43652325505264228 -0.057032510808195103 0 -0.44039031255556171 -0.0558008911761185 0 -0.43771221457111631 -0.061458069324133217 0 -0.44039031255556171 -0.0558008911761185 0 -0.43771221457111631 -0.061458069324133217 0 -0.44546101795533788 -0.058791564158321603 0 -0.44439448879102428 -0.054496530657860691 0 -0.44039031255556171 -0.0558008911761185 0 -0.44546101795533788 -0.058791564158321603 0 -0.44439448879102428 -0.054496530657860691 0 -0.44546101795533788 -0.058791564158321603 0 -0.44899314560754799 -0.054028178678471622 0 -0.44774958503984669 -0.067414492045691693 0 -0.44546101795533788 -0.058791564158321603 0 -0.4525534630820921 -0.058361535651268677 0 -0.44546101795533788 -0.058791564158321603 0 -0.4525534630820921 -0.058361535651268677 0 -0.44899314560754799 -0.054028178678471622 0 -0.4525534630820921 -0.058361535651268677 0 -0.45220615914202039 -0.053855530378238058 0 -0.44899314560754799 -0.054028178678471622 0 -0.45220615914202039 -0.053855530378238058 0 -0.45173134154106848 -0.049242703946497698 0 -0.44899314560754799 -0.054028178678471622 0 -0.45173134154106848 -0.049242703946497698 0 -0.44711909448592518 -0.050526330040812778 0 -0.44899314560754799 -0.054028178678471622 0 -0.44806394296249108 -0.046825479193565667 0 -0.45173134154106848 -0.049242703946497698 0 -0.44711909448592518 -0.050526330040812778 0 -0.44806394296249108 -0.046825479193565667 0 -0.44370027315684663 -0.046878109954266667 0 -0.44711909448592518 -0.050526330040812778 0 -0.44439448879102428 -0.054496530657860691 0 -0.44711909448592518 -0.050526330040812778 0 -0.44899314560754799 -0.054028178678471622 0 -0.44990883992310893 -0.019817508182881371 0 -0.45546830435127839 -0.019632508941909939 0 -0.45172434592421962 0.0039667023503073863 0 -0.44990883992310893 -0.019817508182881371 0 -0.43921605888514031 0.0076621840151965513 0 -0.44990883992310893 -0.019817508182881371 0 -0.45172434592421962 0.0039667023503073863 0 -0.43921605888514031 0.0076621840151965513 0 -0.43944672595062889 -0.0085072853373330815 0 -0.44990883992310893 -0.019817508182881371 0 -0.43921605888514031 0.0076621840151965513 0 -0.43944672595062889 -0.0085072853373330815 0 -0.44001583351499057 -0.018069667058806201 0 -0.44990883992310893 -0.019817508182881371 0 -0.43449459786842631 -0.0127581595954342 0 -0.43944672595062889 -0.0085072853373330815 0 -0.44001583351499057 -0.018069667058806201 0 -0.43307933665379761 -0.021152824348590959 0 -0.44001583351499057 -0.018069667058806201 0 -0.43941487492107612 -0.028408305423005639 0 -0.44001583351499057 -0.018069667058806201 0 -0.44404543068113622 -0.02328815037124142 0 -0.44990883992310893 -0.019817508182881371 0 -0.44001583351499057 -0.018069667058806201 0 -0.44404543068113622 -0.02328815037124142 0 -0.43941487492107612 -0.028408305423005639 0 -0.44404543068113622 -0.02328815037124142 0 -0.43941487492107612 -0.028408305423005639 0 -0.44651731904268621 -0.029420798033074059 0 -0.4446417573113548 -0.032515955546767783 0 -0.43941487492107612 -0.028408305423005639 0 -0.44651731904268621 -0.029420798033074059 0 -0.44971284848492121 -0.033128378974699273 0 -0.44651731904268621 -0.029420798033074059 0 -0.44990883992310893 -0.019817508182881371 0 -0.44404543068113622 -0.02328815037124142 0 -0.44651731904268621 -0.029420798033074059 0 -0.44990883992310893 -0.019817508182881371 0 -0.45904500350922589 -0.043296803450063009 0 -0.44990883992310893 -0.019817508182881371 0 -0.45546830435127839 -0.019632508941909939 0 -0.45546830435127839 -0.019632508941909939 0 -0.46285864521464942 -0.022768606714111749 0 -0.4622596377357327 -0.01039186637922356 0 -0.46275031027664282 -0.031342310798615672 0 -0.45546830435127839 -0.019632508941909939 0 -0.46285864521464942 -0.022768606714111749 0 -0.46812195261041212 -0.029269558455512251 0 -0.46865509122334031 -0.01968277307456787 0 -0.46285864521464942 -0.022768606714111749 0 -0.46275031027664282 -0.031342310798615672 0 -0.46812195261041212 -0.029269558455512251 0 -0.46285864521464942 -0.022768606714111749 0 -0.46865509122334031 -0.01968277307456787 0 -0.46285864521464942 -0.022768606714111749 0 -0.4622596377357327 -0.01039186637922356 0 -0.45546830435127839 -0.019632508941909939 0 -0.4622596377357327 -0.01039186637922356 0 -0.45172434592421962 0.0039667023503073863 0 -0.4622596377357327 -0.01039186637922356 0 -0.46513498956741689 0.0054319295304713858 0 -0.45172434592421962 0.0039667023503073863 0 -0.46865509122334031 -0.01968277307456787 0 -0.4622596377357327 -0.01039186637922356 0 -0.47165288971761832 -0.0095033177399844945 0 -0.45546830435127839 -0.019632508941909939 0 -0.45172434592421962 0.0039667023503073863 0 -0.4622596377357327 -0.01039186637922356 0 -0.47165288971761832 -0.0095033177399844945 0 -0.46513498956741689 0.0054319295304713858 0 -0.48086293466603669 -0.024660499887792561 0 -0.48564720099952818 0.00039769645782924973 0 -0.47165288971761832 -0.0095033177399844945 0 -0.48086293466603669 -0.024660499887792561 0 -0.48564720099952818 0.00039769645782924973 0 -0.47165288971761832 -0.0095033177399844945 0 -0.48564720099952818 0.00039769645782924973 0 -0.46513498956741689 0.0054319295304713858 0 -0.46812195261041212 -0.029269558455512251 0 -0.46865509122334031 -0.01968277307456787 0 -0.48086293466603669 -0.024660499887792561 0 -0.46865509122334031 -0.01968277307456787 0 -0.47165288971761832 -0.0095033177399844945 0 -0.48086293466603669 -0.024660499887792561 0 -0.5 -0.043433045056052062 0 -0.48086293466603669 -0.024660499887792561 0 -0.5 -0.01368171241836535 0 -0.48086293466603669 -0.024660499887792561 0 -0.5 -0.01368171241836535 0 -0.48564720099952818 0.00039769645782924973 0 -0.48564720099952818 0.00039769645782924973 0 -0.49043146733301968 0.02545589280345107 0 -0.5 0.016069620219321349 0 -0.48564720099952818 0.00039769645782924973 0 -0.49043146733301968 0.02545589280345107 0 -0.5 -0.01368171241836535 0 -0.48564720099952818 0.00039769645782924973 0 -0.5 0.016069620219321349 0 -0.49043146733301968 0.02545589280345107 0 -0.5 0.016069620219321349 0 -0.5 0.045820952857008053 0 -0.49043146733301968 0.02545589280345107 0 -0.47154547553024168 0.02055644885137501 0 -0.46985267389567631 0.043359265524659421 0 -0.48564720099952818 0.00039769645782924973 0 -0.47154547553024168 0.02055644885137501 0 -0.46513498956741689 0.0054319295304713858 0 -0.48564720099952818 0.00039769645782924973 0 -0.49043146733301968 0.02545589280345107 0 -0.47154547553024168 0.02055644885137501 0 -0.49521573366651123 0.050514089149072842 0 -0.5 0.045820952857008053 0 -0.50000000000000133 0.075572285494694733 0 -0.49043146733301968 0.02545589280345107 0 -0.49521573366651123 0.050514089149072842 0 -0.46985267389567631 0.043359265524659421 0 -0.49043146733301968 0.02545589280345107 0 -0.49521573366651123 0.050514089149072842 0 -0.49043146733301968 0.02545589280345107 0 -0.49521573366651123 0.050514089149072842 0 -0.5 0.045820952857008053 0 -0.46985267389567631 0.043359265524659421 0 -0.46053043879344002 0.067780695342168462 0 -0.48223773754410337 0.06806861768027081 0 -0.49521573366651123 0.050514089149072842 0 -0.46985267389567631 0.043359265524659421 0 -0.48223773754410337 0.06806861768027081 0 -0.46985267389567631 0.043359265524659421 0 -0.44423642907010019 0.051165124934741728 0 -0.46053043879344002 0.067780695342168462 0 -0.46985267389567631 0.043359265524659421 0 -0.44423642907010019 0.051165124934741728 0 -0.44798038749716101 0.027565913642524718 0 -0.44423642907010019 0.051165124934741728 0 -0.44798038749716101 0.027565913642524718 0 -0.4285232778471707 0.035141876213274137 0 -0.44423642907010019 0.051165124934741728 0 -0.44798038749716101 0.027565913642524718 0 -0.44423642907010019 0.051165124934741728 0 -0.42988104689921819 0.059721479963476563 0 -0.44045095793754441 0.075026002355863583 0 -0.44423642907010019 0.051165124934741728 0 -0.46053043879344002 0.067780695342168462 0 -0.46513498956741689 0.0054319295304713858 0 -0.44798038749716101 0.027565913642524718 0 -0.45172434592421962 0.0039667023503073863 0 -0.47154547553024168 0.02055644885137501 0 -0.46985267389567631 0.043359265524659421 0 -0.44798038749716101 0.027565913642524718 0 -0.47154547553024168 0.02055644885137501 0 -0.46513498956741689 0.0054319295304713858 0 -0.44798038749716101 0.027565913642524718 0 -0.44798038749716101 0.027565913642524718 0 -0.45172434592421962 0.0039667023503073863 0 -0.44798038749716101 0.027565913642524718 0 -0.43921605888514031 0.0076621840151965513 0 -0.4285232778471707 0.035141876213274137 0 -0.44798038749716101 0.027565913642524718 0 -0.45172434592421962 0.0039667023503073863 0 -0.43921605888514031 0.0076621840151965513 0 -0.43347961392146023 -0.0028595802463400339 0 -0.43921605888514031 0.0076621840151965513 0 -0.42769670842479812 0.0074315104994249342 0 -0.43921605888514031 0.0076621840151965513 0 -0.42769670842479812 0.0074315104994249342 0 -0.42631583724651989 0.017231800576312881 0 -0.42769670842479812 0.0074315104994249342 0 -0.42030519816928252 0.01383701647143927 0 -0.42631583724651989 0.017231800576312881 0 -0.42769670842479812 0.0074315104994249342 0 -0.41807960538904709 0.0045558752302702768 0 -0.42030519816928252 0.01383701647143927 0 -0.42066580394347891 -0.0030686677817414981 0 -0.42769670842479812 0.0074315104994249342 0 -0.41807960538904709 0.0045558752302702768 0 -0.41324663300947129 -0.0039260215443408762 0 -0.41807960538904709 0.0045558752302702768 0 -0.41088443635769267 0.0024351128412023102 0 -0.41807960538904709 0.0045558752302702768 0 -0.41384122967312309 0.010276749598516001 0 -0.41088443635769267 0.0024351128412023102 0 -0.42030519816928252 0.01383701647143927 0 -0.41384122967312309 0.010276749598516001 0 -0.4158379429062079 0.0220864156822295 0 -0.41807960538904709 0.0045558752302702768 0 -0.42030519816928252 0.01383701647143927 0 -0.41384122967312309 0.010276749598516001 0 -0.41384122967312309 0.010276749598516001 0 -0.4158379429062079 0.0220864156822295 0 -0.40202812620624517 0.00663764390047911 0 -0.4158379429062079 0.0220864156822295 0 -0.40202812620624517 0.00663764390047911 0 -0.4158379429062079 0.0220864156822295 0 -0.40202812620624517 0.00663764390047911 0 -0.40563828413620878 0.011805249395549529 0 -0.41384122967312309 0.010276749598516001 0 -0.41088443635769267 0.0024351128412023102 0 -0.40202812620624517 0.00663764390047911 0 -0.40990192290887839 0.028450715102047549 0 -0.4158379429062079 0.0220864156822295 0 -0.4061243330763914 0.020807500736806841 0 -0.40990192290887839 0.028450715102047549 0 -0.4158379429062079 0.0220864156822295 0 -0.41594848676733898 0.035260759025987007 0 -0.4158379429062079 0.0220864156822295 0 -0.40563828413620878 0.011805249395549529 0 -0.4158379429062079 0.0220864156822295 0 -0.40563828413620878 0.011805249395549529 0 -0.4061243330763914 0.020807500736806841 0 -0.42030519816928252 0.01383701647143927 0 -0.4158379429062079 0.0220864156822295 0 -0.42631583724651989 0.017231800576312881 0 -0.4158379429062079 0.0220864156822295 0 -0.4285232778471707 0.035141876213274137 0 -0.41594848676733898 0.035260759025987007 0 -0.4158379429062079 0.0220864156822295 0 -0.4285232778471707 0.035141876213274137 0 -0.43921605888514031 0.0076621840151965513 0 -0.4285232778471707 0.035141876213274137 0 -0.4158379429062079 0.0220864156822295 0 -0.42631583724651989 0.017231800576312881 0 -0.4285232778471707 0.035141876213274137 0 -0.43921605888514031 0.0076621840151965513 0 -0.42631583724651989 0.017231800576312881 0 -0.4285232778471707 0.035141876213274137 0 -0.44423642907010019 0.051165124934741728 0 -0.42520172428921771 0.043678034306094217 0 -0.4285232778471707 0.035141876213274137 0 -0.44423642907010019 0.051165124934741728 0 -0.4285232778471707 0.035141876213274137 0 -0.42520172428921771 0.043678034306094217 0 -0.4285232778471707 0.035141876213274137 0 -0.42520172428921771 0.043678034306094217 0 -0.4285232778471707 0.035141876213274137 0 -0.41594848676733898 0.035260759025987007 0 -0.42520172428921771 0.043678034306094217 0 -0.42988104689921819 0.059721479963476563 0 -0.41956848002898089 0.053255167948343472 0 -0.44423642907010019 0.051165124934741728 0 -0.42520172428921771 0.043678034306094217 0 -0.42988104689921819 0.059721479963476563 0 -0.42988104689921819 0.059721479963476563 0 -0.41956848002898089 0.053255167948343472 0 -0.4152957655729394 0.067879774962012085 0 -0.41956848002898089 0.053255167948343472 0 -0.40943258713107472 0.053894841354227223 0 -0.4152957655729394 0.067879774962012085 0 -0.41956848002898089 0.053255167948343472 0 -0.40943258713107472 0.053894841354227223 0 -0.41511497582208001 0.044941194741276308 0 -0.42520172428921771 0.043678034306094217 0 -0.41956848002898089 0.053255167948343472 0 -0.41511497582208001 0.044941194741276308 0 -0.40943258713107472 0.053894841354227223 0 -0.4024433618565933 0.063578594603827573 0 -0.4152957655729394 0.067879774962012085 0 -0.42520172428921771 0.043678034306094217 0 -0.41594848676733898 0.035260759025987007 0 -0.41511497582208001 0.044941194741276308 0 -0.40943258713107472 0.053894841354227223 0 -0.41511497582208001 0.044941194741276308 0 -0.40396545067860018 0.040536913864414187 0 -0.41594848676733898 0.035260759025987007 0 -0.41511497582208001 0.044941194741276308 0 -0.40396545067860018 0.040536913864414187 0 -0.40990192290887839 0.028450715102047549 0 -0.41594848676733898 0.035260759025987007 0 -0.40396545067860018 0.040536913864414187 0 -0.40396545067860018 0.040536913864414187 0 -0.39147601000786142 0.031366159184906428 0 -0.38950979462312679 0.048532684559943279 0 -0.40396545067860018 0.040536913864414187 0 -0.39147601000786142 0.031366159184906428 0 -0.4014490664325493 0.027678683795938741 0 -0.40990192290887839 0.028450715102047549 0 -0.40396545067860018 0.040536913864414187 0 -0.4014490664325493 0.027678683795938741 0 -0.40943258713107472 0.053894841354227223 0 -0.39910835117081678 0.053907579673227297 0 -0.4024433618565933 0.063578594603827573 0 -0.40943258713107472 0.053894841354227223 0 -0.40396545067860018 0.040536913864414187 0 -0.39910835117081678 0.053907579673227297 0 -0.40396545067860018 0.040536913864414187 0 -0.39910835117081678 0.053907579673227297 0 -0.38950979462312679 0.048532684559943279 0 -0.39910835117081678 0.053907579673227297 0 -0.38956013603508438 0.063239770527187239 0 -0.4024433618565933 0.063578594603827573 0 -0.39910835117081678 0.053907579673227297 0 -0.38950979462312679 0.048532684559943279 0 -0.38956013603508438 0.063239770527187239 0 -0.378823189839815 0.03909604806771539 0 -0.37412563000658372 0.063049636042209145 0 -0.38950979462312679 0.048532684559943279 0 -0.378823189839815 0.03909604806771539 0 -0.37412563000658372 0.063049636042209145 0 -0.38950979462312679 0.048532684559943279 0 -0.38956013603508438 0.063239770527187239 0 -0.37412563000658372 0.063049636042209145 0 -0.39147601000786142 0.031366159184906428 0 -0.38950979462312679 0.048532684559943279 0 -0.378823189839815 0.03909604806771539 0 -0.39147601000786142 0.031366159184906428 0 -0.378823189839815 0.03909604806771539 0 -0.38352074967304828 0.015142460093222071 0 -0.378823189839815 0.03909604806771539 0 -0.38352074967304828 0.015142460093222071 0 -0.378823189839815 0.03909604806771539 0 -0.38352074967304828 0.015142460093222071 0 -0.37240583582309161 0.025400119615024142 0 -0.39147601000786142 0.031366159184906428 0 -0.38352074967304828 0.015142460093222071 0 -0.39488149505859088 0.01547523039383081 0 -0.36933859948822412 -0.0004439302888986224 0 -0.38821830950628222 -0.0088111278812710685 0 -0.38352074967304828 0.015142460093222071 0 -0.38821830950628222 -0.0088111278812710685 0 -0.38352074967304828 0.015142460093222071 0 -0.38821830950628222 -0.0088111278812710685 0 -0.38352074967304828 0.015142460093222071 0 -0.39488149505859088 0.01547523039383081 0 -0.38821830950628222 -0.0088111278812710685 0 -0.39488149505859088 0.01547523039383081 0 -0.40202812620624517 0.00663764390047911 0 -0.40500532189739991 -0.0035418967092628521 0 -0.41088443635769267 0.0024351128412023102 0 -0.40202812620624517 0.00663764390047911 0 -0.39488149505859088 0.01547523039383081 0 -0.40202812620624517 0.00663764390047911 0 -0.40563828413620878 0.011805249395549529 0 -0.39488149505859088 0.01547523039383081 0 -0.4061243330763914 0.020807500736806841 0 -0.4014490664325493 0.027678683795938741 0 -0.39488149505859088 0.01547523039383081 0 -0.40563828413620878 0.011805249395549529 0 -0.4061243330763914 0.020807500736806841 0 -0.39147601000786142 0.031366159184906428 0 -0.39488149505859088 0.01547523039383081 0 -0.4014490664325493 0.027678683795938741 0 -0.40990192290887839 0.028450715102047549 0 -0.4061243330763914 0.020807500736806841 0 -0.4014490664325493 0.027678683795938741 0 -0.39974501216309732 0.10634675778754921 0 -0.39126987539350838 0.092023655603444943 0 -0.40857924578105392 0.099391750598595591 0 -0.39974501216309732 0.10634675778754921 0 -0.39275843411867328 0.1170839100002684 0 -0.39126987539350838 0.092023655603444943 0 -0.39275843411867328 0.1170839100002684 0 -0.39126987539350838 0.092023655603444943 0 -0.39974501216309732 0.10634675778754921 0 -0.39126987539350838 0.092023655603444943 0 -0.39974501216309732 0.10634675778754921 0 -0.40857924578105392 0.099391750598595591 0 -0.40933818870613081 0.1097356457976169 0 -0.39974501216309732 0.10634675778754921 0 -0.40822014893268682 0.120669859971653 0 -0.40933818870613081 0.1097356457976169 0 -0.39974501216309732 0.10634675778754921 0 -0.39275843411867328 0.1170839100002684 0 -0.40822014893268682 0.120669859971653 0 -0.39275843411867328 0.1170839100002684 0 -0.40822014893268682 0.120669859971653 0 -0.41033554470758682 0.12820438943905521 0 -0.39974501216309732 0.10634675778754921 0 -0.40822014893268682 0.120669859971653 0 -0.39275843411867328 0.1170839100002684 0 -0.37853037782034571 0.11479208822673689 0 -0.37437258627236542 0.12890371469479259 0 -0.39275843411867328 0.1170839100002684 0 -0.37853037782034571 0.11479208822673689 0 -0.37761936588316741 0.1004094566761367 0 -0.39275843411867328 0.1170839100002684 0 -0.37761936588316741 0.1004094566761367 0 -0.39126987539350838 0.092023655603444943 0 -0.37761936588316741 0.1004094566761367 0 -0.38027383380681551 0.089140916853956212 0 -0.39126987539350838 0.092023655603444943 0 -0.37761936588316741 0.1004094566761367 0 -0.38027383380681551 0.089140916853956212 0 -0.3695083412505395 0.086593909313416401 0 -0.38027383380681551 0.089140916853956212 0 -0.38269775270004641 0.077536645822826877 0 -0.3695083412505395 0.086593909313416401 0 -0.38269775270004641 0.077536645822826877 0 -0.39126987539350838 0.092023655603444943 0 -0.38027383380681551 0.089140916853956212 0 -0.38269775270004641 0.077536645822826877 0 -0.39126987539350838 0.092023655603444943 0 -0.38269775270004641 0.077536645822826877 0 -0.37412563000658372 0.063049636042209145 0 -0.3695083412505395 0.086593909313416401 0 -0.38956013603508438 0.063239770527187239 0 -0.39126987539350838 0.092023655603444943 0 -0.38269775270004641 0.077536645822826877 0 -0.38956013603508438 0.063239770527187239 0 -0.39126987539350838 0.092023655603444943 0 -0.38269775270004641 0.077536645822826877 0 -0.38956013603508438 0.063239770527187239 0 -0.37412563000658372 0.063049636042209145 0 -0.38269775270004641 0.077536645822826877 0 -0.37412563000658372 0.063049636042209145 0 -0.38956013603508438 0.063239770527187239 0 -0.40141988574119392 0.075047284515241813 0 -0.39126987539350838 0.092023655603444943 0 -0.38956013603508438 0.063239770527187239 0 -0.40141988574119392 0.075047284515241813 0 -0.4024433618565933 0.063578594603827573 0 -0.39126987539350838 0.092023655603444943 0 -0.40983024803191548 0.086552765886116073 0 -0.40857924578105392 0.099391750598595591 0 -0.40141988574119392 0.075047284515241813 0 -0.39126987539350838 0.092023655603444943 0 -0.40983024803191548 0.086552765886116073 0 -0.40983024803191548 0.086552765886116073 0 -0.4152957655729394 0.067879774962012085 0 -0.42657684505021348 0.083357347047406605 0 -0.40983024803191548 0.086552765886116073 0 -0.42657684505021348 0.083357347047406605 0 -0.4189129809442293 0.098190971370056446 0 -0.40141988574119392 0.075047284515241813 0 -0.40983024803191548 0.086552765886116073 0 -0.4152957655729394 0.067879774962012085 0 -0.40141988574119392 0.075047284515241813 0 -0.4024433618565933 0.063578594603827573 0 -0.4152957655729394 0.067879774962012085 0 -0.42988104689921819 0.059721479963476563 0 -0.4152957655729394 0.067879774962012085 0 -0.42657684505021348 0.083357347047406605 0 -0.42988104689921819 0.059721479963476563 0 -0.42657684505021348 0.083357347047406605 0 -0.44045095793754441 0.075026002355863583 0 -0.42657684505021348 0.083357347047406605 0 -0.43126845361929728 0.10010452027074281 0 -0.4413655972566517 0.089987031503718784 0 -0.42657684505021348 0.083357347047406605 0 -0.44045095793754441 0.075026002355863583 0 -0.4413655972566517 0.089987031503718784 0 -0.42657684505021348 0.083357347047406605 0 -0.43126845361929728 0.10010452027074281 0 -0.4189129809442293 0.098190971370056446 0 -0.43126845361929728 0.10010452027074281 0 -0.42417955623431008 0.110633902559287 0 -0.43664339076383379 0.1119759113111297 0 -0.43126845361929728 0.10010452027074281 0 -0.4189129809442293 0.098190971370056446 0 -0.42417955623431008 0.110633902559287 0 -0.4189129809442293 0.098190971370056446 0 -0.41487903430584738 0.1072465081225729 0 -0.42417955623431008 0.110633902559287 0 -0.4189129809442293 0.098190971370056446 0 -0.41487903430584738 0.1072465081225729 0 -0.40857924578105392 0.099391750598595591 0 -0.41487903430584738 0.1072465081225729 0 -0.40857924578105392 0.099391750598595591 0 -0.40933818870613081 0.1097356457976169 0 -0.40983024803191548 0.086552765886116073 0 -0.4189129809442293 0.098190971370056446 0 -0.40857924578105392 0.099391750598595591 0 -0.41382272674787102 0.12121241662844449 0 -0.40822014893268682 0.120669859971653 0 -0.41526750234796872 0.1150233525077137 0 -0.41382272674787102 0.12121241662844449 0 -0.40822014893268682 0.120669859971653 0 -0.41033554470758682 0.12820438943905521 0 -0.40822014893268682 0.120669859971653 0 -0.40933818870613081 0.1097356457976169 0 -0.41526750234796872 0.1150233525077137 0 -0.41487903430584738 0.1072465081225729 0 -0.40933818870613081 0.1097356457976169 0 -0.41526750234796872 0.1150233525077137 0 -0.41526750234796872 0.1150233525077137 0 -0.42314147291976012 0.12054477068340499 0 -0.42417955623431008 0.110633902559287 0 -0.41487903430584738 0.1072465081225729 0 -0.41526750234796872 0.1150233525077137 0 -0.42417955623431008 0.110633902559287 0 -0.41382272674787102 0.12121241662844449 0 -0.41526750234796872 0.1150233525077137 0 -0.42314147291976012 0.12054477068340499 0 -0.41382272674787102 0.12121241662844449 0 -0.42314147291976012 0.12054477068340499 0 -0.41033554470758682 0.12820438943905521 0 -0.42314147291976012 0.12054477068340499 0 -0.427578916598015 0.12738546973202461 0 -0.43661566594034812 0.12695629774809031 0 -0.42314147291976012 0.12054477068340499 0 -0.42417955623431008 0.110633902559287 0 -0.43206522228774952 0.11789721821460659 0 -0.42417955623431008 0.110633902559287 0 -0.43664339076383379 0.1119759113111297 0 -0.43206522228774952 0.11789721821460659 0 -0.43664339076383379 0.1119759113111297 0 -0.43206522228774952 0.11789721821460659 0 -0.43920023284636373 0.1190903202846807 0 -0.42314147291976012 0.12054477068340499 0 -0.43206522228774952 0.11789721821460659 0 -0.43661566594034812 0.12695629774809031 0 -0.43206522228774952 0.11789721821460659 0 -0.43920023284636373 0.1190903202846807 0 -0.43661566594034812 0.12695629774809031 0 -0.4493808082944602 0.11843788207696571 0 -0.46289578717310931 0.12570820605712549 0 -0.43661566594034812 0.12695629774809031 0 -0.43920023284636373 0.1190903202846807 0 -0.4493808082944602 0.11843788207696571 0 -0.43661566594034812 0.12695629774809031 0 -0.4493808082944602 0.11843788207696571 0 -0.44496915391188169 0.1042578449849189 0 -0.45810496010314 0.1085597584265106 0 -0.43664339076383379 0.1119759113111297 0 -0.43920023284636373 0.1190903202846807 0 -0.4493808082944602 0.11843788207696571 0 -0.43664339076383379 0.1119759113111297 0 -0.4493808082944602 0.11843788207696571 0 -0.44496915391188169 0.1042578449849189 0 -0.43126845361929728 0.10010452027074281 0 -0.43664339076383379 0.1119759113111297 0 -0.44496915391188169 0.1042578449849189 0 -0.43126845361929728 0.10010452027074281 0 -0.44496915391188169 0.1042578449849189 0 -0.4413655972566517 0.089987031503718784 0 -0.44496915391188169 0.1042578449849189 0 -0.45305171343390732 0.096481966320445922 0 -0.4413655972566517 0.089987031503718784 0 -0.44496915391188169 0.1042578449849189 0 -0.45305171343390732 0.096481966320445922 0 -0.45810496010314 0.1085597584265106 0 -0.45305171343390732 0.096481966320445922 0 -0.45810496010314 0.1085597584265106 0 -0.46725129378938141 0.097364381519026572 0 -0.45810496010314 0.1085597584265106 0 -0.46725129378938141 0.097364381519026572 0 -0.47271179145628278 0.1112154712472103 0 -0.4493808082944602 0.11843788207696571 0 -0.45810496010314 0.1085597584265106 0 -0.46289578717310931 0.12570820605712549 0 -0.45810496010314 0.1085597584265106 0 -0.47271179145628278 0.1112154712472103 0 -0.46289578717310931 0.12570820605712549 0 -0.44423642907010019 0.051165124934741728 0 -0.44045095793754441 0.075026002355863583 0 -0.46053043879344002 0.067780695342168462 0 -0.44045095793754441 0.075026002355863583 0 -0.45670781539259531 0.085023117861200675 0 -0.46053043879344002 0.067780695342168462 0 -0.44423642907010019 0.051165124934741728 0 -0.44045095793754441 0.075026002355863583 0 -0.44045095793754441 0.075026002355863583 0 -0.4413655972566517 0.089987031503718784 0 -0.45670781539259531 0.085023117861200675 0 -0.45305171343390732 0.096481966320445922 0 -0.4413655972566517 0.089987031503718784 0 -0.45670781539259531 0.085023117861200675 0 -0.46725129378938141 0.097364381519026572 0 -0.45670781539259531 0.085023117861200675 0 -0.47682444851678052 0.084396265749594301 0 -0.45670781539259531 0.085023117861200675 0 -0.46053043879344002 0.067780695342168462 0 -0.47682444851678052 0.084396265749594301 0 -0.45305171343390732 0.096481966320445922 0 -0.46725129378938141 0.097364381519026572 0 -0.45670781539259531 0.085023117861200675 0 -0.46053043879344002 0.067780695342168462 0 -0.47682444851678052 0.084396265749594301 0 -0.46053043879344002 0.067780695342168462 0 -0.48223773754410337 0.06806861768027081 0 -0.47682444851678052 0.084396265749594301 0 -0.48223773754410337 0.06806861768027081 0 -0.47682444851678052 0.084396265749594301 0 -0.49100313039221011 0.086789104821435412 0 -0.47682444851678052 0.084396265749594301 0 -0.49311845824012102 0.1010118361570201 0 -0.49100313039221011 0.086789104821435412 0 -0.50000000000000133 0.075572285494694733 0 -0.5 0.099871286315795504 0 -0.47682444851678052 0.084396265749594301 0 -0.49100313039221011 0.086789104821435412 0 -0.49311845824012102 0.1010118361570201 0 -0.49521573366651123 0.050514089149072842 0 -0.50000000000000133 0.075572285494694733 0 -0.49521573366651123 0.050514089149072842 0 -0.48223773754410337 0.06806861768027081 0 -0.50000000000000133 0.075572285494694733 0 -0.48223773754410337 0.06806861768027081 0 -0.49100313039221011 0.086789104821435412 0 -0.50000000000000133 0.075572285494694733 0 -0.4817247595326275 0.115780353691101 0 -0.47271179145628278 0.1112154712472103 0 -0.46289578717310931 0.12570820605712549 0 -0.4817247595326275 0.115780353691101 0 -0.48917590840587039 0.1244601143661606 0 -0.46289578717310931 0.12570820605712549 0 -0.4817247595326275 0.115780353691101 0 -0.47271179145628278 0.1112154712472103 0 -0.48165776429706858 0.10368009070121149 0 -0.46725129378938141 0.097364381519026572 0 -0.47271179145628278 0.1112154712472103 0 -0.48165776429706858 0.10368009070121149 0 -0.47682444851678052 0.084396265749594301 0 -0.48165776429706858 0.10368009070121149 0 -0.49311845824012102 0.1010118361570201 0 -0.46725129378938141 0.097364381519026572 0 -0.47682444851678052 0.084396265749594301 0 -0.48165776429706858 0.10368009070121149 0 -0.48165776429706858 0.10368009070121149 0 -0.49311845824012102 0.1010118361570201 0 -0.49290423690789659 0.1125818568500636 0 -0.49100313039221011 0.086789104821435412 0 -0.49311845824012102 0.1010118361570201 0 -0.5 0.099871286315795504 0 -0.49311845824012102 0.1010118361570201 0 -0.5 0.099871286315795504 0 -0.49290423690789659 0.1125818568500636 0 -0.5 0.099871286315795504 0 -0.49290423690789659 0.1125818568500636 0 -0.5 0.1241702871368963 0 -0.4817247595326275 0.115780353691101 0 -0.48165776429706858 0.10368009070121149 0 -0.49290423690789659 0.1125818568500636 0 -0.4817247595326275 0.115780353691101 0 -0.49290423690789659 0.1125818568500636 0 -0.48917590840587039 0.1244601143661606 0 -0.49290423690789659 0.1125818568500636 0 -0.48917590840587039 0.1244601143661606 0 -0.5 0.1241702871368963 0 -0.5 0.1241702871368963 0 -0.48876393788881017 0.13627598938008259 0 -0.49999999999999889 0.1484692879579971 0 -0.48917590840587039 0.1244601143661606 0 -0.5 0.1241702871368963 0 -0.48876393788881017 0.13627598938008259 0 -0.48917590840587039 0.1244601143661606 0 -0.48876393788881017 0.13627598938008259 0 -0.47565453053980361 0.13505565514675269 0 -0.48917590840587039 0.1244601143661606 0 -0.47565453053980361 0.13505565514675269 0 -0.46289578717310931 0.12570820605712549 0 -0.48917590840587039 0.1244601143661606 0 -0.46289578717310931 0.12570820605712549 0 -0.48876393788881017 0.13627598938008259 0 -0.47565453053980361 0.13505565514675269 0 -0.47898925049837687 0.1492246022926064 0 -0.47565453053980361 0.13505565514675269 0 -0.47898925049837687 0.1492246022926064 0 -0.45971588570656319 0.13823391472163121 0 -0.47898925049837687 0.1492246022926064 0 -0.47064342762859818 0.16123738568058019 0 -0.45797850099675502 0.1499799166272158 0 -0.48876393788881017 0.13627598938008259 0 -0.47898925049837687 0.1492246022926064 0 -0.49999999999999889 0.1484692879579971 0 -0.47898925049837687 0.1492246022926064 0 -0.49999999999999889 0.1484692879579971 0 -0.48479590795340138 0.1666199720225478 0 -0.47898925049837687 0.1492246022926064 0 -0.49999999999999889 0.1484692879579971 0 -0.49999999999999889 0.1484692879579971 0 -0.48479590795340138 0.1666199720225478 0 -0.5 0.1780109851791519 0 -0.48479590795340138 0.1666199720225478 0 -0.5 0.1780109851791519 0 -0.4846580174193772 0.18657565287103331 0 -0.48479590795340138 0.1666199720225478 0 -0.4846580174193772 0.18657565287103331 0 -0.47232378645303491 0.175673182389746 0 -0.4846580174193772 0.18657565287103331 0 -0.47232378645303491 0.175673182389746 0 -0.47209416157927198 0.19118928130106549 0 -0.47898925049837687 0.1492246022926064 0 -0.48479590795340138 0.1666199720225478 0 -0.47064342762859818 0.16123738568058019 0 -0.48479590795340138 0.1666199720225478 0 -0.47232378645303491 0.175673182389746 0 -0.47064342762859818 0.16123738568058019 0 -0.47064342762859818 0.16123738568058019 0 -0.45912969224142319 0.1646892550707848 0 -0.45797850099675502 0.1499799166272158 0 -0.47232378645303491 0.175673182389746 0 -0.47064342762859818 0.16123738568058019 0 -0.45912969224142319 0.1646892550707848 0 -0.45912969224142319 0.1646892550707848 0 -0.44593796407678449 0.16106457269121341 0 -0.45797850099675502 0.1499799166272158 0 -0.45912969224142319 0.1646892550707848 0 -0.45916214133762062 0.18472443469785321 0 -0.44795994817827178 0.17948381793247231 0 -0.47232378645303491 0.175673182389746 0 -0.45912969224142319 0.1646892550707848 0 -0.45916214133762062 0.18472443469785321 0 -0.47232378645303491 0.175673182389746 0 -0.45916214133762062 0.18472443469785321 0 -0.47209416157927198 0.19118928130106549 0 -0.44065200127261023 0.1895907383390022 0 -0.43675118487313519 0.17120178642013789 0 -0.44795994817827178 0.17948381793247231 0 -0.44065200127261023 0.1895907383390022 0 -0.43675118487313519 0.17120178642013789 0 -0.45916214133762062 0.18472443469785321 0 -0.44795994817827178 0.17948381793247231 0 -0.45004238882164982 0.18753143321897511 0 -0.44795994817827178 0.17948381793247231 0 -0.45004238882164982 0.18753143321897511 0 -0.44065200127261023 0.1895907383390022 0 -0.45912969224142319 0.1646892550707848 0 -0.44795994817827178 0.17948381793247231 0 -0.43675118487313519 0.17120178642013789 0 -0.45912969224142319 0.1646892550707848 0 -0.44593796407678449 0.16106457269121341 0 -0.43675118487313519 0.17120178642013789 0 -0.45912969224142319 0.1646892550707848 0 -0.43675118487313519 0.17120178642013789 0 -0.44593796407678449 0.16106457269121341 0 -0.43696775149513312 0.15073523096182531 0 -0.43675118487313519 0.17120178642013789 0 -0.44593796407678449 0.16106457269121341 0 -0.45797850099675502 0.1499799166272158 0 -0.43696775149513312 0.15073523096182531 0 -0.44413150755175868 0.1448158388456077 0 -0.45797850099675502 0.1499799166272158 0 -0.43696775149513312 0.15073523096182531 0 -0.45797850099675502 0.1499799166272158 0 -0.43696775149513312 0.15073523096182531 0 -0.44881471318470839 0.1412513929177418 0 -0.44413150755175868 0.1448158388456077 0 -0.45797850099675502 0.1499799166272158 0 -0.44881471318470839 0.1412513929177418 0 -0.44413150755175868 0.1448158388456077 0 -0.44016466233856749 0.13839256695714949 0 -0.44413150755175868 0.1448158388456077 0 -0.43673190974362919 0.14372008676410589 0 -0.43696775149513312 0.15073523096182531 0 -0.44413150755175868 0.1448158388456077 0 -0.44016466233856749 0.13839256695714949 0 -0.43673190974362919 0.14372008676410589 0 -0.44964134286865942 0.1341084756803477 0 -0.46289578717310931 0.12570820605712549 0 -0.43661566594034812 0.12695629774809031 0 -0.44016466233856749 0.13839256695714949 0 -0.44964134286865942 0.1341084756803477 0 -0.43661566594034812 0.12695629774809031 0 -0.46289578717310931 0.12570820605712549 0 -0.43661566594034812 0.12695629774809031 0 -0.44881471318470839 0.1412513929177418 0 -0.44964134286865942 0.1341084756803477 0 -0.45971588570656319 0.13823391472163121 0 -0.44881471318470839 0.1412513929177418 0 -0.44016466233856749 0.13839256695714949 0 -0.44964134286865942 0.1341084756803477 0 -0.47565453053980361 0.13505565514675269 0 -0.45971588570656319 0.13823391472163121 0 -0.46289578717310931 0.12570820605712549 0 -0.44964134286865942 0.1341084756803477 0 -0.45971588570656319 0.13823391472163121 0 -0.46289578717310931 0.12570820605712549 0 -0.47898925049837687 0.1492246022926064 0 -0.45797850099675502 0.1499799166272158 0 -0.47898925049837687 0.1492246022926064 0 -0.45971588570656319 0.13823391472163121 0 -0.45797850099675502 0.1499799166272158 0 -0.44881471318470839 0.1412513929177418 0 -0.45971588570656319 0.13823391472163121 0 -0.45797850099675502 0.1499799166272158 0 -0.47535244210990601 0.24950426809701751 0 -0.48913205550528949 0.23449748088061281 0 -0.45981304281472068 0.2444485708445272 0 -0.48913205550528949 0.23449748088061281 0 -0.46247166188482508 0.2281269714749749 0 -0.45981304281472068 0.2444485708445272 0 -0.47535244210990601 0.24950426809701751 0 -0.48913205550528949 0.23449748088061281 0 -0.48916327443797081 0.247883965171216 0 -0.50000000000000133 0.2370943796214616 0 -0.5 0.25574299280684493 0 -0.47535244210990601 0.24950426809701751 0 -0.48916327443797081 0.247883965171216 0 -0.48913205550528949 0.23449748088061281 0 -0.48916327443797081 0.247883965171216 0 -0.50000000000000133 0.2370943796214616 0 -0.48913205550528949 0.23449748088061281 0 -0.50000000000000133 0.2370943796214616 0 -0.48913205550528949 0.23449748088061281 0 -0.48913205550528949 0.23449748088061281 0 -0.49823006080766091 0.22458923267735481 0 -0.48712395297058081 0.22356961644454229 0 -0.50000000000000133 0.2370943796214616 0 -0.49823006080766091 0.22458923267735481 0 -0.5 0.2075526824003068 0 -0.50000000000000133 0.2370943796214616 0 -0.48913205550528949 0.23449748088061281 0 -0.49823006080766091 0.22458923267735481 0 -0.48913205550528949 0.23449748088061281 0 -0.49823006080766091 0.22458923267735481 0 -0.48712395297058081 0.22356961644454229 0 -0.48129471542447028 0.21816990210354251 0 -0.48832705446352948 0.21463773068666239 0 -0.49823006080766091 0.22458923267735481 0 -0.48712395297058081 0.22356961644454229 0 -0.48832705446352948 0.21463773068666239 0 -0.48913205550528949 0.23449748088061281 0 -0.46247166188482508 0.2281269714749749 0 -0.48712395297058081 0.22356961644454229 0 -0.47592652655421658 0.2235602604955757 0 -0.48129471542447028 0.21816990210354251 0 -0.48913205550528949 0.23449748088061281 0 -0.47592652655421658 0.2235602604955757 0 -0.46247166188482508 0.2281269714749749 0 -0.48913205550528949 0.23449748088061281 0 -0.48712395297058081 0.22356961644454229 0 -0.47592652655421658 0.2235602604955757 0 -0.47592652655421658 0.2235602604955757 0 -0.47065795684773332 0.2141351833743638 0 -0.46352414064353292 0.22166567100593651 0 -0.47592652655421658 0.2235602604955757 0 -0.47065795684773332 0.2141351833743638 0 -0.48129471542447028 0.21816990210354251 0 -0.47065795684773332 0.2141351833743638 0 -0.47177572500571918 0.20383043836760331 0 -0.47895022051893038 0.21054959099960829 0 -0.47065795684773332 0.2141351833743638 0 -0.47177572500571918 0.20383043836760331 0 -0.46381914049172751 0.20715883129709819 0 -0.47895022051893038 0.21054959099960829 0 -0.48832705446352948 0.21463773068666239 0 -0.48332175116813242 0.2024225431444068 0 -0.47177572500571918 0.20383043836760331 0 -0.47895022051893038 0.21054959099960829 0 -0.48332175116813242 0.2024225431444068 0 -0.47895022051893038 0.21054959099960829 0 -0.48129471542447028 0.21816990210354251 0 -0.48832705446352948 0.21463773068666239 0 -0.47065795684773332 0.2141351833743638 0 -0.47895022051893038 0.21054959099960829 0 -0.48129471542447028 0.21816990210354251 0 -0.49823006080766091 0.22458923267735481 0 -0.48832705446352948 0.21463773068666239 0 -0.5 0.2075526824003068 0 -0.48832705446352948 0.21463773068666239 0 -0.5 0.2075526824003068 0 -0.48332175116813242 0.2024225431444068 0 -0.5 0.1780109851791519 0 -0.4846580174193772 0.18657565287103331 0 -0.5 0.2075526824003068 0 -0.4846580174193772 0.18657565287103331 0 -0.5 0.2075526824003068 0 -0.48332175116813242 0.2024225431444068 0 -0.4846580174193772 0.18657565287103331 0 -0.48332175116813242 0.2024225431444068 0 -0.47209416157927198 0.19118928130106549 0 -0.47177572500571918 0.20383043836760331 0 -0.48332175116813242 0.2024225431444068 0 -0.47209416157927198 0.19118928130106549 0 -0.45916214133762062 0.18472443469785321 0 -0.47209416157927198 0.19118928130106549 0 -0.46212416958598629 0.1977511214283465 0 -0.47177572500571918 0.20383043836760331 0 -0.47209416157927198 0.19118928130106549 0 -0.46212416958598629 0.1977511214283465 0 -0.47177572500571918 0.20383043836760331 0 -0.46212416958598629 0.1977511214283465 0 -0.46381914049172751 0.20715883129709819 0 -0.46212416958598629 0.1977511214283465 0 -0.45239546449809681 0.1963267419065727 0 -0.45377957441429118 0.20835911934547041 0 -0.45916214133762062 0.18472443469785321 0 -0.45004238882164982 0.18753143321897511 0 -0.45239546449809681 0.1963267419065727 0 -0.45916214133762062 0.18472443469785321 0 -0.46212416958598629 0.1977511214283465 0 -0.45239546449809681 0.1963267419065727 0 -0.44065200127261023 0.1895907383390022 0 -0.4445528176720851 0.2079796902578665 0 -0.44065200127261023 0.1895907383390022 0 -0.45239546449809681 0.1963267419065727 0 -0.4445528176720851 0.2079796902578665 0 -0.45004238882164982 0.18753143321897511 0 -0.44065200127261023 0.1895907383390022 0 -0.45239546449809681 0.1963267419065727 0 -0.44065200127261023 0.1895907383390022 0 -0.4445528176720851 0.2079796902578665 0 -0.43533406178714218 0.2010584620775146 0 -0.44191055461502771 0.2192074648305965 0 -0.43533406178714218 0.2010584620775146 0 -0.4445528176720851 0.2079796902578665 0 -0.44191055461502771 0.2192074648305965 0 -0.43533406178714218 0.2010584620775146 0 -0.45239546449809681 0.1963267419065727 0 -0.4445528176720851 0.2079796902578665 0 -0.45377957441429118 0.20835911934547041 0 -0.4445528176720851 0.2079796902578665 0 -0.44708305801073939 0.214753503808046 0 -0.45377957441429118 0.20835911934547041 0 -0.4445528176720851 0.2079796902578665 0 -0.44708305801073939 0.214753503808046 0 -0.44191055461502771 0.2192074648305965 0 -0.44191055461502771 0.2192074648305965 0 -0.4346325954034036 0.21182820830243321 0 -0.43662175963524952 0.21751620842581371 0 -0.44708305801073939 0.214753503808046 0 -0.45254288085315358 0.21604929707436649 0 -0.44357568469493142 0.22361177180723479 0 -0.44708305801073939 0.214753503808046 0 -0.45254288085315358 0.21604929707436649 0 -0.45377957441429118 0.20835911934547041 0 -0.45254288085315358 0.21604929707436649 0 -0.4604336476160048 0.21417488075949989 0 -0.4570371858773008 0.22035120544260639 0 -0.45254288085315358 0.21604929707436649 0 -0.4604336476160048 0.21417488075949989 0 -0.45377957441429118 0.20835911934547041 0 -0.4604336476160048 0.21417488075949989 0 -0.46352414064353292 0.22166567100593651 0 -0.4570371858773008 0.22035120544260639 0 -0.4604336476160048 0.21417488075949989 0 -0.45377957441429118 0.20835911934547041 0 -0.46381914049172751 0.20715883129709819 0 -0.46212416958598629 0.1977511214283465 0 -0.45377957441429118 0.20835911934547041 0 -0.46381914049172751 0.20715883129709819 0 -0.47065795684773332 0.2141351833743638 0 -0.4604336476160048 0.21417488075949989 0 -0.46381914049172751 0.20715883129709819 0 -0.47065795684773332 0.2141351833743638 0 -0.4604336476160048 0.21417488075949989 0 -0.46352414064353292 0.22166567100593651 0 -0.46247166188482508 0.2281269714749749 0 -0.4570371858773008 0.22035120544260639 0 -0.44357568469493142 0.22361177180723479 0 -0.47592652655421658 0.2235602604955757 0 -0.46352414064353292 0.22166567100593651 0 -0.46247166188482508 0.2281269714749749 0 -0.46352414064353292 0.22166567100593651 0 -0.46247166188482508 0.2281269714749749 0 -0.4570371858773008 0.22035120544260639 0 -0.46352414064353292 0.22166567100593651 0 -0.46247166188482508 0.2281269714749749 0 -0.44357568469493142 0.22361177180723479 0 -0.45036505421977402 0.24219097101065759 0 -0.46247166188482508 0.2281269714749749 0 -0.44357568469493142 0.22361177180723479 0 -0.45036505421977402 0.24219097101065759 0 -0.44357568469493142 0.22361177180723479 0 -0.440724559039954 0.22293049443900601 0 -0.43379821853527623 0.24467338397315699 0 -0.46247166188482508 0.2281269714749749 0 -0.44357568469493142 0.22361177180723479 0 -0.45254288085315358 0.21604929707436649 0 -0.4570371858773008 0.22035120544260639 0 -0.44357568469493142 0.22361177180723479 0 -0.44191055461502771 0.2192074648305965 0 -0.44357568469493142 0.22361177180723479 0 -0.440724559039954 0.22293049443900601 0 -0.44191055461502771 0.2192074648305965 0 -0.44357568469493142 0.22361177180723479 0 -0.44708305801073939 0.214753503808046 0 -0.44191055461502771 0.2192074648305965 0 -0.44357568469493142 0.22361177180723479 0 -0.44357568469493142 0.22361177180723479 0 -0.440724559039954 0.22293049443900601 0 -0.44191055461502771 0.2192074648305965 0 -0.440724559039954 0.22293049443900601 0 -0.43662175963524952 0.21751620842581371 0 -0.44191055461502771 0.2192074648305965 0 -0.440724559039954 0.22293049443900601 0 -0.44357568469493142 0.22361177180723479 0 -0.45036505421977402 0.24219097101065759 0 -0.43379821853527623 0.24467338397315699 0 -0.45036505421977402 0.24219097101065759 0 -0.43379821853527623 0.24467338397315699 0 -0.44462105563271109 0.25670510479446867 0 -0.46247166188482508 0.2281269714749749 0 -0.45036505421977402 0.24219097101065759 0 -0.45981304281472068 0.2444485708445272 0 -0.45036505421977402 0.24219097101065759 0 -0.45981304281472068 0.2444485708445272 0 -0.45715442374461801 0.26077017021407978 0 -0.46247166188482508 0.2281269714749749 0 -0.45981304281472068 0.2444485708445272 0 -0.41605306156336558 0.24779447805732691 0 -0.41294193147069319 0.2267772894132272 0 -0.3961318641724631 0.23358944961267999 0 -0.41605306156336558 0.24779447805732691 0 -0.4262491595760578 0.23079924826144221 0 -0.41294193147069319 0.2267772894132272 0 -0.41605306156336558 0.24779447805732691 0 -0.43379821853527623 0.24467338397315699 0 -0.4262491595760578 0.23079924826144221 0 -0.440724559039954 0.22293049443900601 0 -0.43379821853527623 0.24467338397315699 0 -0.4262491595760578 0.23079924826144221 0 -0.440724559039954 0.22293049443900601 0 -0.43379821853527623 0.24467338397315699 0 -0.440724559039954 0.22293049443900601 0 -0.4262491595760578 0.23079924826144221 0 -0.43179034560845841 0.220795661341357 0 -0.440724559039954 0.22293049443900601 0 -0.43179034560845841 0.220795661341357 0 -0.440724559039954 0.22293049443900601 0 -0.43179034560845841 0.220795661341357 0 -0.43662175963524952 0.21751620842581371 0 -0.4262491595760578 0.23079924826144221 0 -0.43179034560845841 0.220795661341357 0 -0.42220967221947281 0.2213187177956826 0 -0.4262491595760578 0.23079924826144221 0 -0.42220967221947281 0.2213187177956826 0 -0.41294193147069319 0.2267772894132272 0 -0.42220967221947281 0.2213187177956826 0 -0.41294193147069319 0.2267772894132272 0 -0.41400885315821973 0.20741635465681371 0 -0.41294193147069319 0.2267772894132272 0 -0.41400885315821973 0.20741635465681371 0 -0.40372495515928231 0.21921191496369891 0 -0.42220967221947281 0.2213187177956826 0 -0.41400885315821973 0.20741635465681371 0 -0.42638245386016771 0.21362339499484939 0 -0.43179034560845841 0.220795661341357 0 -0.42220967221947281 0.2213187177956826 0 -0.42638245386016771 0.21362339499484939 0 -0.44191055461502771 0.2192074648305965 0 -0.4346325954034036 0.21182820830243321 0 -0.43533406178714218 0.2010584620775146 0 -0.43179034560845841 0.220795661341357 0 -0.4346325954034036 0.21182820830243321 0 -0.43662175963524952 0.21751620842581371 0 -0.43179034560845841 0.220795661341357 0 -0.42638245386016771 0.21362339499484939 0 -0.4346325954034036 0.21182820830243321 0 -0.4346325954034036 0.21182820830243321 0 -0.42649191782211121 0.20590885433536921 0 -0.43533406178714218 0.2010584620775146 0 -0.42638245386016771 0.21362339499484939 0 -0.4346325954034036 0.21182820830243321 0 -0.42649191782211121 0.20590885433536921 0 -0.41400885315821973 0.20741635465681371 0 -0.42638245386016771 0.21362339499484939 0 -0.42649191782211121 0.20590885433536921 0 -0.42649191782211121 0.20590885433536921 0 -0.4221016249016229 0.19561785164523501 0 -0.43533406178714218 0.2010584620775146 0 -0.43533406178714218 0.2010584620775146 0 -0.42870845667701257 0.1829274063537267 0 -0.4221016249016229 0.19561785164523501 0 -0.43533406178714218 0.2010584620775146 0 -0.42870845667701257 0.1829274063537267 0 -0.44065200127261023 0.1895907383390022 0 -0.43533406178714218 0.2010584620775146 0 -0.42870845667701257 0.1829274063537267 0 -0.4221016249016229 0.19561785164523501 0 -0.40460562730583838 0.19546372891946071 0 -0.41061722383557708 0.17880721951443909 0 -0.41400885315821973 0.20741635465681371 0 -0.4221016249016229 0.19561785164523501 0 -0.40460562730583838 0.19546372891946071 0 -0.41400885315821973 0.20741635465681371 0 -0.42649191782211121 0.20590885433536921 0 -0.4221016249016229 0.19561785164523501 0 -0.40460562730583838 0.19546372891946071 0 -0.39181717183575288 0.20906456617207461 0 -0.3844832627980192 0.18641265260874079 0 -0.37511823529975852 0.20315917371936049 0 -0.39181717183575288 0.20906456617207461 0 -0.3844832627980192 0.18641265260874079 0 -0.37511823529975852 0.20315917371936049 0 -0.39181717183575288 0.20906456617207461 0 -0.38010721481574627 0.2214306265789831 0 -0.41400885315821973 0.20741635465681371 0 -0.40460562730583838 0.19546372891946071 0 -0.39181717183575288 0.20906456617207461 0 -0.41400885315821973 0.20741635465681371 0 -0.39181717183575288 0.20906456617207461 0 -0.40372495515928231 0.21921191496369891 0 -0.39181717183575288 0.20906456617207461 0 -0.3961318641724631 0.23358944961267999 0 -0.41294193147069319 0.2267772894132272 0 -0.40372495515928231 0.21921191496369891 0 -0.3961318641724631 0.23358944961267999 0 -0.39181717183575288 0.20906456617207461 0 -0.40372495515928231 0.21921191496369891 0 -0.3961318641724631 0.23358944961267999 0 -0.39181717183575288 0.20906456617207461 0 -0.3961318641724631 0.23358944961267999 0 -0.38010721481574627 0.2214306265789831 0 -0.3961318641724631 0.23358944961267999 0 -0.38010721481574627 0.2214306265789831 0 -0.38310929377983571 0.2368749301038639 0 -0.38010721481574627 0.2214306265789831 0 -0.38310929377983571 0.2368749301038639 0 -0.37064371362837262 0.23132679369821199 0 -0.3961318641724631 0.23358944961267999 0 -0.38310929377983571 0.2368749301038639 0 -0.38932782258989462 0.24452898672213899 0 -0.38310929377983571 0.2368749301038639 0 -0.37762357589810641 0.24953723411872661 0 -0.37064371362837262 0.23132679369821199 0 -0.38310929377983571 0.2368749301038639 0 -0.37762357589810641 0.24953723411872661 0 -0.38932782258989462 0.24452898672213899 0 -0.41605306156336558 0.24779447805732691 0 -0.3961318641724631 0.23358944961267999 0 -0.40044655650917238 0.25811433305328563 0 -0.3961318641724631 0.23358944961267999 0 -0.38932782258989462 0.24452898672213899 0 -0.40044655650917238 0.25811433305328563 0 -0.3961318641724631 0.23358944961267999 0 -0.40044655650917238 0.25811433305328563 0 -0.41845610516243692 0.1420321326122326 0 -0.42098279092789043 0.15052849100161689 0 -0.42492558058631569 0.1456786098448446 0 -0.41845610516243692 0.1420321326122326 0 -0.42098279092789043 0.15052849100161689 0 -0.40911667806008473 0.1488664674034324 0 -0.42098279092789043 0.15052849100161689 0 -0.42631487585071598 0.15460757127004329 0 -0.41587863874702202 0.16021150046382121 0 -0.42098279092789043 0.15052849100161689 0 -0.40911667806008473 0.1488664674034324 0 -0.41587863874702202 0.16021150046382121 0 -0.41845610516243692 0.1420321326122326 0 -0.40911667806008473 0.1488664674034324 0 -0.41006058297246217 0.13927886751481389 0 -0.41033554470758682 0.12820438943905521 0 -0.427578916598015 0.12738546973202461 0 -0.41006058297246217 0.13927886751481389 0 -0.41033554470758682 0.12820438943905521 0 -0.41814759408836538 0.13514718372225731 0 -0.41033554470758682 0.12820438943905521 0 -0.41814759408836538 0.13514718372225731 0 -0.427578916598015 0.12738546973202461 0 -0.42314147291976012 0.12054477068340499 0 -0.41033554470758682 0.12820438943905521 0 -0.427578916598015 0.12738546973202461 0 -0.41845610516243692 0.1420321326122326 0 -0.41006058297246217 0.13927886751481389 0 -0.41814759408836538 0.13514718372225731 0 -0.41845610516243692 0.1420321326122326 0 -0.41814759408836538 0.13514718372225731 0 -0.42424517056402511 0.1395916182187126 0 -0.427578916598015 0.12738546973202461 0 -0.43218270635689932 0.14966538911911739 0 -0.42424517056402511 0.1395916182187126 0 -0.427578916598015 0.12738546973202461 0 -0.43218270635689932 0.14966538911911739 0 -0.41814759408836538 0.13514718372225731 0 -0.42424517056402511 0.1395916182187126 0 -0.427578916598015 0.12738546973202461 0 -0.427578916598015 0.12738546973202461 0 -0.43466183444402151 0.13737266648131211 0 -0.43218270635689932 0.14966538911911739 0 -0.427578916598015 0.12738546973202461 0 -0.43661566594034812 0.12695629774809031 0 -0.43466183444402151 0.13737266648131211 0 -0.427578916598015 0.12738546973202461 0 -0.43661566594034812 0.12695629774809031 0 -0.44016466233856749 0.13839256695714949 0 -0.43661566594034812 0.12695629774809031 0 -0.43466183444402151 0.13737266648131211 0 -0.44016466233856749 0.13839256695714949 0 -0.43466183444402151 0.13737266648131211 0 -0.43673190974362919 0.14372008676410589 0 -0.43466183444402151 0.13737266648131211 0 -0.43673190974362919 0.14372008676410589 0 -0.43218270635689932 0.14966538911911739 0 -0.43673190974362919 0.14372008676410589 0 -0.43218270635689932 0.14966538911911739 0 -0.43696775149513312 0.15073523096182531 0 -0.42424517056402511 0.1395916182187126 0 -0.42492558058631569 0.1456786098448446 0 -0.43218270635689932 0.14966538911911739 0 -0.41845610516243692 0.1420321326122326 0 -0.42424517056402511 0.1395916182187126 0 -0.42492558058631569 0.1456786098448446 0 -0.42631487585071598 0.15460757127004329 0 -0.43218270635689932 0.14966538911911739 0 -0.42882397802768052 0.16163062067305331 0 -0.42098279092789043 0.15052849100161689 0 -0.42610148843045542 0.15012001530890551 0 -0.42631487585071598 0.15460757127004329 0 -0.42098279092789043 0.15052849100161689 0 -0.42492558058631569 0.1456786098448446 0 -0.42610148843045542 0.15012001530890551 0 -0.42610148843045542 0.15012001530890551 0 -0.42631487585071598 0.15460757127004329 0 -0.43218270635689932 0.14966538911911739 0 -0.42492558058631569 0.1456786098448446 0 -0.42610148843045542 0.15012001530890551 0 -0.43218270635689932 0.14966538911911739 0 -0.43675118487313519 0.17120178642013789 0 -0.42882397802768052 0.16163062067305331 0 -0.41061722383557708 0.17880721951443909 0 -0.43218270635689932 0.14966538911911739 0 -0.43675118487313519 0.17120178642013789 0 -0.43218270635689932 0.14966538911911739 0 -0.43696775149513312 0.15073523096182531 0 -0.43675118487313519 0.17120178642013789 0 -0.43218270635689932 0.14966538911911739 0 -0.43675118487313519 0.17120178642013789 0 -0.42882397802768052 0.16163062067305331 0 -0.42631487585071598 0.15460757127004329 0 -0.42882397802768052 0.16163062067305331 0 -0.41587863874702202 0.16021150046382121 0 -0.44065200127261023 0.1895907383390022 0 -0.43675118487313519 0.17120178642013789 0 -0.42870845667701257 0.1829274063537267 0 -0.43675118487313519 0.17120178642013789 0 -0.42870845667701257 0.1829274063537267 0 -0.41061722383557708 0.17880721951443909 0 -0.43675118487313519 0.17120178642013789 0 -0.41061722383557708 0.17880721951443909 0 -0.4221016249016229 0.19561785164523501 0 -0.42870845667701257 0.1829274063537267 0 -0.41061722383557708 0.17880721951443909 0 -0.41061722383557708 0.17880721951443909 0 -0.41587863874702202 0.16021150046382121 0 -0.39504861851220668 0.1605037294226426 0 -0.42882397802768052 0.16163062067305331 0 -0.41061722383557708 0.17880721951443909 0 -0.41587863874702202 0.16021150046382121 0 -0.40911667806008473 0.1488664674034324 0 -0.41587863874702202 0.16021150046382121 0 -0.39504861851220668 0.1605037294226426 0 -0.41061722383557708 0.17880721951443909 0 -0.39504861851220668 0.1605037294226426 0 -0.3844832627980192 0.18641265260874079 0 -0.40460562730583838 0.19546372891946071 0 -0.41061722383557708 0.17880721951443909 0 -0.3844832627980192 0.18641265260874079 0 -0.41061722383557708 0.17880721951443909 0 -0.3844832627980192 0.18641265260874079 0 -0.39504861851220668 0.1605037294226426 0 -0.3844832627980192 0.18641265260874079 0 -0.37237860194242078 0.1605319093611092 0 -0.39504861851220668 0.1605037294226426 0 -0.37884871657146379 0.14602894298995181 0 -0.37237860194242078 0.1605319093611092 0 -0.39504861851220668 0.1605037294226426 0 -0.37884871657146379 0.14602894298995181 0 -0.39424699284383752 0.14214416439709199 0 -0.40911667806008473 0.1488664674034324 0 -0.39504861851220668 0.1605037294226426 0 -0.39424699284383752 0.14214416439709199 0 -0.40911667806008473 0.1488664674034324 0 -0.41006058297246217 0.13927886751481389 0 -0.39424699284383752 0.14214416439709199 0 -0.41006058297246217 0.13927886751481389 0 -0.41033554470758682 0.12820438943905521 0 -0.39424699284383752 0.14214416439709199 0 -0.39275843411867328 0.1170839100002684 0 -0.39424699284383752 0.14214416439709199 0 -0.39275843411867328 0.1170839100002684 0 -0.41033554470758682 0.12820438943905521 0 -0.39424699284383752 0.14214416439709199 0 -0.37884871657146379 0.14602894298995181 0 -0.39424699284383752 0.14214416439709199 0 -0.37437258627236542 0.12890371469479259 0 -0.39275843411867328 0.1170839100002684 0 -0.39424699284383752 0.14214416439709199 0 -0.37437258627236542 0.12890371469479259 0 -0.37884871657146379 0.14602894298995181 0 -0.37437258627236542 0.12890371469479259 0 -0.36370712971512958 0.1435894069765756 0 -0.37437258627236542 0.12890371469479259 0 -0.34899953175928211 0.12694253498055411 0 -0.36370712971512958 0.1435894069765756 0 -0.34899953175928211 0.12694253498055411 0 -0.34564644908257869 0.15299870548450989 0 -0.36370712971512958 0.1435894069765756 0 -0.37884871657146379 0.14602894298995181 0 -0.36370712971512958 0.1435894069765756 0 -0.37237860194242078 0.1605319093611092 0 -0.34564644908257869 0.15299870548450989 0 -0.36370712971512958 0.1435894069765756 0 -0.37237860194242078 0.1605319093611092 0 -0.34564644908257869 0.15299870548450989 0 -0.37237860194242078 0.1605319093611092 0 -0.36085444111495718 0.1753857021061101 0 -0.3844832627980192 0.18641265260874079 0 -0.37237860194242078 0.1605319093611092 0 -0.36085444111495718 0.1753857021061101 0 -0.3844832627980192 0.18641265260874079 0 -0.36085444111495718 0.1753857021061101 0 -0.35834930176046143 0.1940180857030426 0 -0.36085444111495718 0.1753857021061101 0 -0.33968278222427728 0.1770401652297168 0 -0.35834930176046143 0.1940180857030426 0 -0.34564644908257869 0.15299870548450989 0 -0.36085444111495718 0.1753857021061101 0 -0.33968278222427728 0.1770401652297168 0 -0.33140876683948511 0.16260067918260609 0 -0.33968278222427728 0.1770401652297168 0 -0.31846244455725531 0.17073107261740031 0 -0.34564644908257869 0.15299870548450989 0 -0.33140876683948511 0.16260067918260609 0 -0.33968278222427728 0.1770401652297168 0 -0.33968278222427728 0.1770401652297168 0 -0.32160972613096589 0.1869020899259973 0 -0.31846244455725531 0.17073107261740031 0 -0.32160972613096589 0.1869020899259973 0 -0.31846244455725531 0.17073107261740031 0 -0.3016637250851274 0.1862604527146563 0 -0.31846244455725531 0.17073107261740031 0 -0.32184339149382868 0.14963277339879741 0 -0.30247613355515868 0.16479353289604479 0 -0.33140876683948511 0.16260067918260609 0 -0.31846244455725531 0.17073107261740031 0 -0.32184339149382868 0.14963277339879741 0 -0.32184339149382868 0.14963277339879741 0 -0.32540106173061079 0.12928329294269461 0 -0.30735137396352707 0.13221906943945599 0 -0.34899953175928211 0.12694253498055411 0 -0.34564644908257869 0.15299870548450989 0 -0.32540106173061079 0.12928329294269461 0 -0.34564644908257869 0.15299870548450989 0 -0.32184339149382868 0.14963277339879741 0 -0.32540106173061079 0.12928329294269461 0 -0.34564644908257869 0.15299870548450989 0 -0.33140876683948511 0.16260067918260609 0 -0.32184339149382868 0.14963277339879741 0 -0.354800595287041 0.2409601351841657 0 -0.3399396116739396 0.22678050595944479 0 -0.33788940549799379 0.24380658160696719 0 -0.354800595287041 0.2409601351841657 0 -0.33788940549799379 0.24380658160696719 0 -0.35340254031448232 0.25560690021648391 0 -0.37762357589810641 0.24953723411872661 0 -0.354800595287041 0.2409601351841657 0 -0.37762357589810641 0.24953723411872661 0 -0.354800595287041 0.2409601351841657 0 -0.37064371362837262 0.23132679369821199 0 -0.354800595287041 0.2409601351841657 0 -0.37064371362837262 0.23132679369821199 0 -0.35724455417959922 0.22826397538780499 0 -0.37064371362837262 0.23132679369821199 0 -0.35724455417959922 0.22826397538780499 0 -0.3635942961290437 0.21398846670939739 0 -0.38010721481574627 0.2214306265789831 0 -0.37064371362837262 0.23132679369821199 0 -0.3635942961290437 0.21398846670939739 0 -0.354800595287041 0.2409601351841657 0 -0.35724455417959922 0.22826397538780499 0 -0.3399396116739396 0.22678050595944479 0 -0.35724455417959922 0.22826397538780499 0 -0.3635942961290437 0.21398846670939739 0 -0.3399396116739396 0.22678050595944479 0 -0.3635942961290437 0.21398846670939739 0 -0.3399396116739396 0.22678050595944479 0 -0.34666550792471718 0.21095103381863761 0 -0.3635942961290437 0.21398846670939739 0 -0.3399396116739396 0.22678050595944479 0 -0.34666550792471718 0.21095103381863761 0 -0.3635942961290437 0.21398846670939739 0 -0.35834930176046143 0.1940180857030426 0 -0.37511823529975852 0.20315917371936049 0 -0.3635942961290437 0.21398846670939739 0 -0.35834930176046143 0.1940180857030426 0 -0.37511823529975852 0.20315917371936049 0 -0.38010721481574627 0.2214306265789831 0 -0.3635942961290437 0.21398846670939739 0 -0.3844832627980192 0.18641265260874079 0 -0.35834930176046143 0.1940180857030426 0 -0.37511823529975852 0.20315917371936049 0 -0.3844832627980192 0.18641265260874079 0 -0.35834930176046143 0.1940180857030426 0 -0.34666550792471718 0.21095103381863761 0 -0.35834930176046143 0.1940180857030426 0 -0.3322153407229036 0.2016235187973443 0 -0.35834930176046143 0.1940180857030426 0 -0.3322153407229036 0.2016235187973443 0 -0.33968278222427728 0.1770401652297168 0 -0.35834930176046143 0.1940180857030426 0 -0.3322153407229036 0.2016235187973443 0 -0.33968278222427728 0.1770401652297168 0 -0.32160972613096589 0.1869020899259973 0 -0.3322153407229036 0.2016235187973443 0 -0.32160972613096589 0.1869020899259973 0 -0.3322153407229036 0.2016235187973443 0 -0.3118804771884186 0.19919437202805421 0 -0.32279744800827831 0.2162709251782258 0 -0.30578263988251009 0.21328130060021519 0 -0.3118804771884186 0.19919437202805421 0 -0.3322153407229036 0.2016235187973443 0 -0.32279744800827831 0.2162709251782258 0 -0.3118804771884186 0.19919437202805421 0 -0.34666550792471718 0.21095103381863761 0 -0.32279744800827831 0.2162709251782258 0 -0.3399396116739396 0.22678050595944479 0 -0.34666550792471718 0.21095103381863761 0 -0.3322153407229036 0.2016235187973443 0 -0.32279744800827831 0.2162709251782258 0 -0.32279744800827831 0.2162709251782258 0 -0.31628492721883539 0.23957254520949231 0 -0.30630482823392868 0.22479286098863899 0 -0.32279744800827831 0.2162709251782258 0 -0.3399396116739396 0.22678050595944479 0 -0.31628492721883539 0.23957254520949231 0 -0.3399396116739396 0.22678050595944479 0 -0.31628492721883539 0.23957254520949231 0 -0.31628492721883539 0.23957254520949231 0 -0.33788940549799379 0.24380658160696719 0 -0.31675628104696218 0.25816396337405889 0 -0.3399396116739396 0.22678050595944479 0 -0.31628492721883539 0.23957254520949231 0 -0.33788940549799379 0.24380658160696719 0 -0.28953809350711668 0.23582384755491001 0 -0.29263024276373129 0.25236458445954002 0 -0.28953809350711668 0.23582384755491001 0 -0.28056281431753932 0.24436326559548641 0 -0.29263024276373129 0.25236458445954002 0 -0.28953809350711668 0.23582384755491001 0 -0.27951610468914678 0.23595674179173851 0 -0.28056281431753932 0.24436326559548641 0 -0.31628492721883539 0.23957254520949231 0 -0.28953809350711668 0.23582384755491001 0 -0.29263024276373129 0.25236458445954002 0 -0.31628492721883539 0.23957254520949231 0 -0.29263024276373129 0.25236458445954002 0 -0.31628492721883539 0.23957254520949231 0 -0.28953809350711668 0.23582384755491001 0 -0.30630482823392868 0.22479286098863899 0 -0.28953809350711668 0.23582384755491001 0 -0.30630482823392868 0.22479286098863899 0 -0.2963224594072153 0.21939569551335331 0 -0.30630482823392868 0.22479286098863899 0 -0.2963224594072153 0.21939569551335331 0 -0.30578263988251009 0.21328130060021519 0 -0.28953809350711668 0.23582384755491001 0 -0.2963224594072153 0.21939569551335331 0 -0.28644594425050141 0.21928311065028 0 -0.28953809350711668 0.23582384755491001 0 -0.28644594425050141 0.21928311065028 0 -0.28953809350711668 0.23582384755491001 0 -0.28392592649920873 0.23054426920506241 0 -0.28644594425050141 0.21928311065028 0 -0.28953809350711668 0.23582384755491001 0 -0.28392592649920873 0.23054426920506241 0 -0.27951610468914678 0.23595674179173851 0 -0.28392592649920873 0.23054426920506241 0 -0.28364703771469152 0.2228441012119147 0 -0.27737966712738499 0.2284136078854235 0 -0.28392592649920873 0.23054426920506241 0 -0.28644594425050141 0.21928311065028 0 -0.28364703771469152 0.2228441012119147 0 -0.28644594425050141 0.21928311065028 0 -0.29059038014931837 0.21135197160129721 0 -0.26930028311021809 0.22350957117454021 0 -0.28264033799195282 0.20376448852662951 0 -0.29059038014931837 0.21135197160129721 0 -0.2792070856005755 0.21242422506037401 0 -0.28264033799195282 0.20376448852662951 0 -0.29059038014931837 0.21135197160129721 0 -0.29452911505391127 0.19839102252728141 0 -0.2963224594072153 0.21939569551335331 0 -0.28644594425050141 0.21928311065028 0 -0.29059038014931837 0.21135197160129721 0 -0.29059038014931837 0.21135197160129721 0 -0.30578263988251009 0.21328130060021519 0 -0.3118804771884186 0.19919437202805421 0 -0.29059038014931837 0.21135197160129721 0 -0.3118804771884186 0.19919437202805421 0 -0.32279744800827831 0.2162709251782258 0 -0.30630482823392868 0.22479286098863899 0 -0.30578263988251009 0.21328130060021519 0 -0.2963224594072153 0.21939569551335331 0 -0.29059038014931837 0.21135197160129721 0 -0.30578263988251009 0.21328130060021519 0 -0.29059038014931837 0.21135197160129721 0 -0.3118804771884186 0.19919437202805421 0 -0.29452911505391127 0.19839102252728141 0 -0.32160972613096589 0.1869020899259973 0 -0.3118804771884186 0.19919437202805421 0 -0.3016637250851274 0.1862604527146563 0 -0.3118804771884186 0.19919437202805421 0 -0.29452911505391127 0.19839102252728141 0 -0.3016637250851274 0.1862604527146563 0 -0.29452911505391127 0.19839102252728141 0 -0.28587065485473928 0.1913838277657699 0 -0.3016637250851274 0.1862604527146563 0 -0.28264033799195282 0.20376448852662951 0 -0.28587065485473928 0.1913838277657699 0 -0.27612779653814512 0.1950273158445901 0 -0.28264033799195282 0.20376448852662951 0 -0.29452911505391127 0.19839102252728141 0 -0.28587065485473928 0.1913838277657699 0 -0.28587065485473928 0.1913838277657699 0 -0.27612779653814512 0.1950273158445901 0 -0.27375998203997298 0.18440088484611569 0 -0.28264033799195282 0.20376448852662951 0 -0.27612779653814512 0.1950273158445901 0 -0.27070696005872991 0.20089434960754221 0 -0.27612779653814512 0.1950273158445901 0 -0.27070696005872991 0.20089434960754221 0 -0.26370506754215789 0.1929982117449037 0 -0.27612779653814512 0.1950273158445901 0 -0.26370506754215789 0.1929982117449037 0 -0.27375998203997298 0.18440088484611569 0 -0.26370506754215789 0.1929982117449037 0 -0.25346129445857718 0.19861817783096619 0 -0.24878729217559289 0.18841596133959801 0 -0.27070696005872991 0.20089434960754221 0 -0.26370506754215789 0.1929982117449037 0 -0.26102220092174261 0.20404015118323821 0 -0.26370506754215789 0.1929982117449037 0 -0.25346129445857718 0.19861817783096619 0 -0.26102220092174261 0.20404015118323821 0 -0.26102220092174261 0.20404015118323821 0 -0.26200442130901008 0.21179952794854459 0 -0.26743222623665258 0.2083937308163793 0 -0.26102220092174261 0.20404015118323821 0 -0.26200442130901008 0.21179952794854459 0 -0.24882323592532751 0.21153690915109311 0 -0.25346129445857718 0.19861817783096619 0 -0.26102220092174261 0.20404015118323821 0 -0.24882323592532751 0.21153690915109311 0 -0.2554876032892458 0.21554233830853251 0 -0.26200442130901008 0.21179952794854459 0 -0.24882323592532751 0.21153690915109311 0 -0.2554876032892458 0.21554233830853251 0 -0.25513340228505632 0.22342102262153321 0 -0.24882323592532751 0.21153690915109311 0 -0.2554876032892458 0.21554233830853251 0 -0.26200442130901008 0.21179952794854459 0 -0.26215907758600338 0.21804332980454821 0 -0.26200442130901008 0.21179952794854459 0 -0.26215907758600338 0.21804332980454821 0 -0.26733068654657288 0.2146420051879723 0 -0.26200442130901008 0.21179952794854459 0 -0.26733068654657288 0.2146420051879723 0 -0.26743222623665258 0.2083937308163793 0 -0.29059038014931837 0.21135197160129721 0 -0.2792070856005755 0.21242422506037401 0 -0.26930028311021809 0.22350957117454021 0 -0.29059038014931837 0.21135197160129721 0 -0.26930028311021809 0.22350957117454021 0 -0.26733068654657288 0.2146420051879723 0 -0.27429734115081261 0.21107086893902929 0 -0.26930028311021809 0.22350957117454021 0 -0.26215907758600338 0.21804332980454821 0 -0.26733068654657288 0.2146420051879723 0 -0.26930028311021809 0.22350957117454021 0 -0.26733068654657288 0.2146420051879723 0 -0.26743222623665258 0.2083937308163793 0 -0.27429734115081261 0.21107086893902929 0 -0.27070696005872991 0.20089434960754221 0 -0.26743222623665258 0.2083937308163793 0 -0.27429734115081261 0.21107086893902929 0 -0.27070696005872991 0.20089434960754221 0 -0.26102220092174261 0.20404015118323821 0 -0.26743222623665258 0.2083937308163793 0 -0.28264033799195282 0.20376448852662951 0 -0.2792070856005755 0.21242422506037401 0 -0.27429734115081261 0.21107086893902929 0 -0.28264033799195282 0.20376448852662951 0 -0.27070696005872991 0.20089434960754221 0 -0.27429734115081261 0.21107086893902929 0 -0.2792070856005755 0.21242422506037401 0 -0.27429734115081261 0.21107086893902929 0 -0.26930028311021809 0.22350957117454021 0 -0.28364703771469152 0.2228441012119147 0 -0.26582861189290469 0.2292556359798488 0 -0.26930028311021809 0.22350957117454021 0 -0.28644594425050141 0.21928311065028 0 -0.28364703771469152 0.2228441012119147 0 -0.26930028311021809 0.22350957117454021 0 -0.28364703771469152 0.2228441012119147 0 -0.26582861189290469 0.2292556359798488 0 -0.28364703771469152 0.2228441012119147 0 -0.27737966712738499 0.2284136078854235 0 -0.26582861189290469 0.2292556359798488 0 -0.28392592649920873 0.23054426920506241 0 -0.27737966712738499 0.2284136078854235 0 -0.27611709240273541 0.23101042514486789 0 -0.27611709240273541 0.23101042514486789 0 -0.27078496666887542 0.23517667169234549 0 -0.27951610468914678 0.23595674179173851 0 -0.28392592649920873 0.23054426920506241 0 -0.27611709240273541 0.23101042514486789 0 -0.27951610468914678 0.23595674179173851 0 -0.27737966712738499 0.2284136078854235 0 -0.27611709240273541 0.23101042514486789 0 -0.26582861189290469 0.2292556359798488 0 -0.26582861189290469 0.2292556359798488 0 -0.2623339504186305 0.23499167537175319 0 -0.27078496666887542 0.23517667169234549 0 -0.27611709240273541 0.23101042514486789 0 -0.26582861189290469 0.2292556359798488 0 -0.27078496666887542 0.23517667169234549 0 -0.26582861189290469 0.2292556359798488 0 -0.24801018607111791 0.23566717074778309 0 -0.26582861189290469 0.2292556359798488 0 -0.26930028311021809 0.22350957117454021 0 -0.24801018607111791 0.23566717074778309 0 -0.26930028311021809 0.22350957117454021 0 -0.25513340228505632 0.22342102262153321 0 -0.24801018607111791 0.23566717074778309 0 -0.26582861189290469 0.2292556359798488 0 -0.2623339504186305 0.23499167537175319 0 -0.24801018607111791 0.23566717074778309 0 -0.26215907758600338 0.21804332980454821 0 -0.26930028311021809 0.22350957117454021 0 -0.25513340228505632 0.22342102262153321 0 -0.26930028311021809 0.22350957117454021 0 -0.24801018607111791 0.23566717074778309 0 -0.25513340228505632 0.22342102262153321 0 -0.2467254125811553 0.2261864474181082 0 -0.24882323592532751 0.21153690915109311 0 -0.2554876032892458 0.21554233830853251 0 -0.26215907758600338 0.21804332980454821 0 -0.25513340228505632 0.22342102262153321 0 -0.2623339504186305 0.23499167537175319 0 -0.2654835780625579 0.2406753709197223 0 -0.25783309145261651 0.23839940173774191 0 -0.2654835780625579 0.2406753709197223 0 -0.25783309145261651 0.23839940173774191 0 -0.25763099413906082 0.24544012909566779 0 -0.2623339504186305 0.23499167537175319 0 -0.25783309145261651 0.23839940173774191 0 -0.24801018607111791 0.23566717074778309 0 -0.25783309145261651 0.23839940173774191 0 -0.2524210670499249 0.24119702039500171 0 -0.24801018607111791 0.23566717074778309 0 -0.25783309145261651 0.23839940173774191 0 -0.2524210670499249 0.24119702039500171 0 -0.25763099413906082 0.24544012909566779 0 -0.2524210670499249 0.24119702039500171 0 -0.25763099413906082 0.24544012909566779 0 -0.249435427503925 0.25000056447435692 0 -0.25763099413906082 0.24544012909566779 0 -0.25704079557700088 0.2542377393705969 0 -0.249435427503925 0.25000056447435692 0 -0.25763099413906082 0.24544012909566779 0 -0.26357200518833979 0.2481306776765875 0 -0.25704079557700088 0.2542377393705969 0 -0.2654835780625579 0.2406753709197223 0 -0.25763099413906082 0.24544012909566779 0 -0.26357200518833979 0.2481306776765875 0 -0.2654835780625579 0.2406753709197223 0 -0.27127102212297499 0.24781219944000599 0 -0.27433540924344818 0.24030615961227519 0 -0.2654835780625579 0.2406753709197223 0 -0.26357200518833979 0.2481306776765875 0 -0.27127102212297499 0.24781219944000599 0 -0.2623339504186305 0.23499167537175319 0 -0.2654835780625579 0.2406753709197223 0 -0.27078496666887542 0.23517667169234549 0 -0.2654835780625579 0.2406753709197223 0 -0.27078496666887542 0.23517667169234549 0 -0.27433540924344818 0.24030615961227519 0 -0.27078496666887542 0.23517667169234549 0 -0.27433540924344818 0.24030615961227519 0 -0.27951610468914678 0.23595674179173851 0 -0.27433540924344818 0.24030615961227519 0 -0.27951610468914678 0.23595674179173851 0 -0.28056281431753932 0.24436326559548641 0 -0.27127102212297499 0.24781219944000599 0 -0.28056281431753932 0.24436326559548641 0 -0.27576790151354769 0.25417373225169149 0 -0.27127102212297499 0.24781219944000599 0 -0.27433540924344818 0.24030615961227519 0 -0.28056281431753932 0.24436326559548641 0 -0.28604175881966731 0.13901345902447379 0 -0.30060888382580458 0.14783300940381519 0 -0.28532823134413671 0.1581088227101547 0 -0.28604175881966731 0.13901345902447379 0 -0.30735137396352707 0.13221906943945599 0 -0.28654838410871292 0.1196809548513967 0 -0.28604175881966731 0.13901345902447379 0 -0.30735137396352707 0.13221906943945599 0 -0.30060888382580458 0.14783300940381519 0 -0.32184339149382868 0.14963277339879741 0 -0.30060888382580458 0.14783300940381519 0 -0.30247613355515868 0.16479353289604479 0 -0.32184339149382868 0.14963277339879741 0 -0.30735137396352707 0.13221906943945599 0 -0.30060888382580458 0.14783300940381519 0 -0.30247613355515868 0.16479353289604479 0 -0.3016637250851274 0.1862604527146563 0 -0.28695012502479972 0.17619506653144501 0 -0.31846244455725531 0.17073107261740031 0 -0.30247613355515868 0.16479353289604479 0 -0.3016637250851274 0.1862604527146563 0 -0.28587065485473928 0.1913838277657699 0 -0.3016637250851274 0.1862604527146563 0 -0.28695012502479972 0.17619506653144501 0 -0.28587065485473928 0.1913838277657699 0 -0.28695012502479972 0.17619506653144501 0 -0.27375998203997298 0.18440088484611569 0 -0.30247613355515868 0.16479353289604479 0 -0.28695012502479972 0.17619506653144501 0 -0.28532823134413671 0.1581088227101547 0 -0.30060888382580458 0.14783300940381519 0 -0.30247613355515868 0.16479353289604479 0 -0.28532823134413671 0.1581088227101547 0 -0.28695012502479972 0.17619506653144501 0 -0.28532823134413671 0.1581088227101547 0 -0.27041054030413869 0.16811620387453691 0 -0.28532823134413671 0.1581088227101547 0 -0.27041054030413869 0.16811620387453691 0 -0.26815510970455281 0.15028743953375409 0 -0.28695012502479972 0.17619506653144501 0 -0.27041054030413869 0.16811620387453691 0 -0.27375998203997298 0.18440088484611569 0 -0.27041054030413869 0.16811620387453691 0 -0.27375998203997298 0.18440088484611569 0 -0.25838158176301529 0.17966884935518021 0 -0.26370506754215789 0.1929982117449037 0 -0.27375998203997298 0.18440088484611569 0 -0.25838158176301529 0.17966884935518021 0 -0.26370506754215789 0.1929982117449037 0 -0.25838158176301529 0.17966884935518021 0 -0.24878729217559289 0.18841596133959801 0 -0.25838158176301529 0.17966884935518021 0 -0.24284285117188789 0.17505671916914031 0 -0.24878729217559289 0.18841596133959801 0 -0.27041054030413869 0.16811620387453691 0 -0.25838158176301529 0.17966884935518021 0 -0.24798754635115419 0.15984541518354681 0 -0.27041054030413869 0.16811620387453691 0 -0.26815510970455281 0.15028743953375409 0 -0.24798754635115419 0.15984541518354681 0 -0.26815510970455281 0.15028743953375409 0 -0.24702679948613401 0.13593904432249651 0 -0.24798754635115419 0.15984541518354681 0 -0.28604175881966731 0.13901345902447379 0 -0.28532823134413671 0.1581088227101547 0 -0.26815510970455281 0.15028743953375409 0 -0.28604175881966731 0.13901345902447379 0 -0.26741751376760492 0.12627490468562241 0 -0.28654838410871292 0.1196809548513967 0 -0.28604175881966731 0.13901345902447379 0 -0.26815510970455281 0.15028743953375409 0 -0.26741751376760492 0.12627490468562241 0 -0.26815510970455281 0.15028743953375409 0 -0.26741751376760492 0.12627490468562241 0 -0.24702679948613401 0.13593904432249651 0 -0.26741751376760492 0.12627490468562241 0 -0.25234779532188129 0.1106429620443504 0 -0.27069244091099248 0.104274504506114 0 -0.26741751376760492 0.12627490468562241 0 -0.25234779532188129 0.1106429620443504 0 -0.24702679948613401 0.13593904432249651 0 -0.25234779532188129 0.1106429620443504 0 -0.27069244091099248 0.104274504506114 0 -0.25766879115762881 0.085346879766204309 0 -0.25234779532188129 0.1106429620443504 0 -0.25766879115762881 0.085346879766204309 0 -0.27069244091099248 0.104274504506114 0 -0.28956548761989631 0.1033638595259942 0 -0.28037778912858607 0.089545874510506357 0 -0.26741751376760492 0.12627490468562241 0 -0.27069244091099248 0.104274504506114 0 -0.28654838410871292 0.1196809548513967 0 -0.28654838410871292 0.1196809548513967 0 -0.28956548761989631 0.1033638595259942 0 -0.30932509195253499 0.1133855600758945 0 -0.28956548761989631 0.1033638595259942 0 -0.30308678709954351 0.093744869254807961 0 -0.28037778912858607 0.089545874510506357 0 -0.27069244091099248 0.104274504506114 0 -0.28654838410871292 0.1196809548513967 0 -0.28956548761989631 0.1033638595259942 0 -0.28956548761989631 0.1033638595259942 0 -0.30932509195253499 0.1133855600758945 0 -0.30308678709954351 0.093744869254807961 0 -0.30735137396352707 0.13221906943945599 0 -0.28654838410871292 0.1196809548513967 0 -0.30932509195253499 0.1133855600758945 0 -0.30537586548509588 0.07636921710924334 0 -0.29169612894446728 0.077877822485183823 0 -0.29669797670027198 0.069083302476939917 0 -0.29669797670027198 0.069083302476939917 0 -0.29699334683450412 0.059560980331707772 0 -0.3075099059644259 0.062341610942359148 0 -0.30537586548509588 0.07636921710924334 0 -0.29669797670027198 0.069083302476939917 0 -0.3075099059644259 0.062341610942359148 0 -0.30537586548509588 0.07636921710924334 0 -0.3075099059644259 0.062341610942359148 0 -0.31673402484082391 0.071322899472689744 0 -0.30537586548509588 0.07636921710924334 0 -0.30308678709954351 0.093744869254807961 0 -0.29169612894446728 0.077877822485183823 0 -0.30537586548509588 0.07636921710924334 0 -0.30308678709954351 0.093744869254807961 0 -0.31565760967855899 0.083683454060182016 0 -0.30308678709954351 0.093744869254807961 0 -0.29169612894446728 0.077877822485183823 0 -0.28037778912858607 0.089545874510506357 0 -0.30308678709954351 0.093744869254807961 0 -0.28037778912858607 0.089545874510506357 0 -0.29169612894446728 0.077877822485183823 0 -0.28062568226775342 0.075270909233353556 0 -0.28037778912858607 0.089545874510506357 0 -0.29169612894446728 0.077877822485183823 0 -0.28630815935504711 0.065170353189075492 0 -0.28062568226775342 0.075270909233353556 0 -0.29169612894446728 0.077877822485183823 0 -0.29669797670027198 0.069083302476939917 0 -0.28630815935504711 0.065170353189075492 0 -0.29669797670027198 0.069083302476939917 0 -0.28630815935504711 0.065170353189075492 0 -0.29699334683450412 0.059560980331707772 0 -0.28630815935504711 0.065170353189075492 0 -0.28062568226775342 0.075270909233353556 0 -0.27299329597064348 0.065002333592560996 0 -0.28062568226775342 0.075270909233353556 0 -0.27299329597064348 0.065002333592560996 0 -0.27175303794002309 0.078758162389441194 0 -0.27299329597064348 0.065002333592560996 0 -0.27175303794002309 0.078758162389441194 0 -0.25947939416256299 0.071044862163915756 0 -0.27069244091099248 0.104274504506114 0 -0.28037778912858607 0.089545874510506357 0 -0.25766879115762881 0.085346879766204309 0 -0.28037778912858607 0.089545874510506357 0 -0.25766879115762881 0.085346879766204309 0 -0.28037778912858607 0.089545874510506357 0 -0.27175303794002309 0.078758162389441194 0 -0.25766879115762881 0.085346879766204309 0 -0.28062568226775342 0.075270909233353556 0 -0.28037778912858607 0.089545874510506357 0 -0.27175303794002309 0.078758162389441194 0 -0.25766879115762881 0.085346879766204309 0 -0.25947939416256299 0.071044862163915756 0 -0.24347293784451701 0.082722003339298661 0 -0.27175303794002309 0.078758162389441194 0 -0.25766879115762881 0.085346879766204309 0 -0.25947939416256299 0.071044862163915756 0 -0.25766879115762881 0.085346879766204309 0 -0.25947939416256299 0.071044862163915756 0 -0.25766879115762881 0.085346879766204309 0 -0.24347293784451701 0.082722003339298661 0 -0.25947939416256299 0.071044862163915756 0 -0.25190428147771932 0.073234116385534689 0 -0.24347293784451701 0.082722003339298661 0 -0.25947939416256299 0.071044862163915756 0 -0.25708756303328739 0.064145941896188927 0 -0.26399871830067201 0.055254325145251422 0 -0.25947939416256299 0.071044862163915756 0 -0.24347293784451701 0.082722003339298661 0 -0.25947939416256299 0.071044862163915756 0 -0.26399871830067201 0.055254325145251422 0 -0.27299329597064348 0.065002333592560996 0 -0.25947939416256299 0.071044862163915756 0 -0.26399871830067201 0.055254325145251422 0 -0.25947939416256299 0.071044862163915756 0 -0.25727969600917788 0.06890848268601836 0 -0.25708756303328739 0.064145941896188927 0 -0.25947939416256299 0.071044862163915756 0 -0.25584273887132147 0.070509885400536751 0 -0.25190428147771932 0.073234116385534689 0 -0.25190428147771932 0.073234116385534689 0 -0.25272998449871309 0.067992264760302415 0 -0.24799635201148201 0.073901566263619864 0 -0.25584273887132147 0.070509885400536751 0 -0.25190428147771932 0.073234116385534689 0 -0.25272998449871309 0.067992264760302415 0 -0.25272998449871309 0.067992264760302415 0 -0.25116776642898098 0.057890226552889897 0 -0.24630962701273121 0.067782376752368534 0 -0.25272998449871309 0.067992264760302415 0 -0.25708756303328739 0.064145941896188927 0 -0.25116776642898098 0.057890226552889897 0 -0.25584273887132147 0.070509885400536751 0 -0.25272998449871309 0.067992264760302415 0 -0.25727969600917788 0.06890848268601836 0 -0.25272998449871309 0.067992264760302415 0 -0.25727969600917788 0.06890848268601836 0 -0.25708756303328739 0.064145941896188927 0 -0.25947939416256299 0.071044862163915756 0 -0.25584273887132147 0.070509885400536751 0 -0.25727969600917788 0.06890848268601836 0 -0.25708756303328739 0.064145941896188927 0 -0.25116776642898098 0.057890226552889897 0 -0.26399871830067201 0.055254325145251422 0 -0.26399871830067201 0.055254325145251422 0 -0.25276717720812231 0.044552257542074973 0 -0.26793627276672682 0.041794969657219377 0 -0.25116776642898098 0.057890226552889897 0 -0.26399871830067201 0.055254325145251422 0 -0.25276717720812231 0.044552257542074973 0 -0.25276717720812231 0.044552257542074973 0 -0.26793627276672682 0.041794969657219377 0 -0.2482379394587918 0.029714206062630741 0 -0.26793627276672682 0.041794969657219377 0 -0.26999567457334939 0.027923507963322231 0 -0.2482379394587918 0.029714206062630741 0 -0.26793627276672682 0.041794969657219377 0 -0.27926771681344409 0.051000386147283097 0 -0.28817958803376248 0.037002692062485222 0 -0.26999567457334939 0.027923507963322231 0 -0.28817958803376248 0.037002692062485222 0 -0.26793627276672682 0.041794969657219377 0 -0.26999567457334939 0.027923507963322231 0 -0.28817958803376248 0.037002692062485222 0 -0.28630815935504711 0.065170353189075492 0 -0.27299329597064348 0.065002333592560996 0 -0.27926771681344409 0.051000386147283097 0 -0.27299329597064348 0.065002333592560996 0 -0.26399871830067201 0.055254325145251422 0 -0.27926771681344409 0.051000386147283097 0 -0.26399871830067201 0.055254325145251422 0 -0.26793627276672682 0.041794969657219377 0 -0.27926771681344409 0.051000386147283097 0 -0.27008529692414812 -0.0016724996365426871 0 -0.25413409513496882 0.01424863755994726 0 -0.24156246817162111 3.8901865961206428e-05 0 -0.27008529692414812 -0.0016724996365426871 0 -0.25413409513496882 0.01424863755994726 0 -0.26999567457334939 0.027923507963322231 0 -0.25413409513496882 0.01424863755994726 0 -0.26999567457334939 0.027923507963322231 0 -0.2482379394587918 0.029714206062630741 0 -0.27008529692414812 -0.0016724996365426871 0 -0.26999567457334939 0.027923507963322231 0 -0.29010177380800739 0.01324963621358983 0 -0.27008529692414812 -0.0016724996365426871 0 -0.29313710650179581 -0.003376988243723194 0 -0.29010177380800739 0.01324963621358983 0 -0.29010177380800739 0.01324963621358983 0 -0.3085254927697213 0.021900993765881852 0 -0.28817958803376248 0.037002692062485222 0 -0.26999567457334939 0.027923507963322231 0 -0.29010177380800739 0.01324963621358983 0 -0.28817958803376248 0.037002692062485222 0 -0.31068748404526708 -0.0022798886298844401 0 -0.3085254927697213 0.021900993765881852 0 -0.29313710650179581 -0.003376988243723194 0 -0.31068748404526708 -0.0022798886298844401 0 -0.29010177380800739 0.01324963621358983 0 -0.31068748404526708 -0.0022798886298844401 0 -0.29010177380800739 0.01324963621358983 0 -0.3085254927697213 0.021900993765881852 0 -0.29430763316198921 0.047478446600465747 0 -0.28909292297441508 0.055141684762686008 0 -0.29938920044487499 0.05182889856576952 0 -0.28909292297441508 0.055141684762686008 0 -0.29938920044487499 0.05182889856576952 0 -0.29699334683450412 0.059560980331707772 0 -0.28630815935504711 0.065170353189075492 0 -0.28909292297441508 0.055141684762686008 0 -0.29699334683450412 0.059560980331707772 0 -0.28630815935504711 0.065170353189075492 0 -0.27926771681344409 0.051000386147283097 0 -0.28909292297441508 0.055141684762686008 0 -0.27926771681344409 0.051000386147283097 0 -0.29430763316198921 0.047478446600465747 0 -0.28909292297441508 0.055141684762686008 0 -0.27926771681344409 0.051000386147283097 0 -0.29430763316198921 0.047478446600465747 0 -0.28817958803376248 0.037002692062485222 0 -0.29430763316198921 0.047478446600465747 0 -0.28817958803376248 0.037002692062485222 0 -0.30636350149417563 0.046081876161648203 0 -0.28817958803376248 0.037002692062485222 0 -0.30636350149417563 0.046081876161648203 0 -0.3085254927697213 0.021900993765881852 0 -0.30636350149417563 0.046081876161648203 0 -0.3085254927697213 0.021900993765881852 0 -0.28817958803376248 0.037002692062485222 0 -0.30636350149417563 0.046081876161648203 0 -0.3085254927697213 0.021900993765881852 0 -0.30636350149417563 0.046081876161648203 0 -0.31942896445594499 0.035062955571345693 0 -0.30636350149417563 0.046081876161648203 0 -0.30592452940623749 0.050991577950695463 0 -0.30636350149417563 0.046081876161648203 0 -0.30592452940623749 0.050991577950695463 0 -0.29938920044487499 0.05182889856576952 0 -0.29430763316198921 0.047478446600465747 0 -0.30636350149417563 0.046081876161648203 0 -0.29938920044487499 0.05182889856576952 0 -0.30592452940623749 0.050991577950695463 0 -0.29938920044487499 0.05182889856576952 0 -0.30305546314214021 0.056940205727419702 0 -0.29699334683450412 0.059560980331707772 0 -0.30305546314214021 0.056940205727419702 0 -0.3075099059644259 0.062341610942359148 0 -0.29938920044487499 0.05182889856576952 0 -0.29699334683450412 0.059560980331707772 0 -0.30305546314214021 0.056940205727419702 0 -0.30592452940623749 0.050991577950695463 0 -0.30305546314214021 0.056940205727419702 0 -0.3075099059644259 0.062341610942359148 0 -0.30636350149417563 0.046081876161648203 0 -0.3267539894745678 0.056262797592493183 0 -0.30592452940623749 0.050991577950695463 0 -0.3075099059644259 0.062341610942359148 0 -0.3267539894745678 0.056262797592493183 0 -0.30636350149417563 0.046081876161648203 0 -0.30592452940623749 0.050991577950695463 0 -0.3267539894745678 0.056262797592493183 0 -0.30636350149417563 0.046081876161648203 0 -0.3267539894745678 0.056262797592493183 0 -0.31942896445594499 0.035062955571345693 0 -0.3267539894745678 0.056262797592493183 0 -0.31942896445594499 0.035062955571345693 0 -0.33665457531158011 0.03530767912586575 0 -0.3267539894745678 0.056262797592493183 0 -0.34714447745496002 0.066443719023338205 0 -0.3267539894745678 0.056262797592493183 0 -0.34405547159010519 0.050353832715325099 0 -0.34714447745496002 0.066443719023338205 0 -0.3267539894745678 0.056262797592493183 0 -0.33665457531158011 0.03530767912586575 0 -0.34405547159010519 0.050353832715325099 0 -0.31068748404526708 -0.0022798886298844401 0 -0.3085254927697213 0.021900993765881852 0 -0.32287077353134719 0.0073081144652285199 0 -0.3085254927697213 0.021900993765881852 0 -0.32287077353134719 0.0073081144652285199 0 -0.3281311389278937 0.019570625654905131 0 -0.31942896445594499 0.035062955571345693 0 -0.33665457531158011 0.03530767912586575 0 -0.3281311389278937 0.019570625654905131 0 -0.3085254927697213 0.021900993765881852 0 -0.31942896445594499 0.035062955571345693 0 -0.3281311389278937 0.019570625654905131 0 -0.33665457531158011 0.03530767912586575 0 -0.3281311389278937 0.019570625654905131 0 -0.34486911794267522 0.01360571280719213 0 -0.32287077353134719 0.0073081144652285199 0 -0.3281311389278937 0.019570625654905131 0 -0.33824337868228571 0.0027742543799208551 0 -0.3281311389278937 0.019570625654905131 0 -0.33824337868228571 0.0027742543799208551 0 -0.34486911794267522 0.01360571280719213 0 -0.32876637323156849 -0.0054254128446808037 0 -0.32287077353134719 0.0073081144652285199 0 -0.33824337868228571 0.0027742543799208551 0 -0.33824337868228571 0.0027742543799208551 0 -0.35379291907987859 0.0036531515146394689 0 -0.34486911794267522 0.01360571280719213 0 -0.35379291907987859 0.0036531515146394689 0 -0.34486911794267522 0.01360571280719213 0 -0.35931289835773211 0.017828073835621499 0 -0.34486911794267522 0.01360571280719213 0 -0.35949737397463011 0.03832767442470033 0 -0.33665457531158011 0.03530767912586575 0 -0.34486911794267522 0.01360571280719213 0 -0.35949737397463011 0.03832767442470033 0 -0.34486911794267522 0.01360571280719213 0 -0.35931289835773211 0.017828073835621499 0 -0.35949737397463011 0.03832767442470033 0 -0.35931289835773211 0.017828073835621499 0 -0.37240583582309161 0.025400119615024142 0 -0.35949737397463011 0.03832767442470033 0 -0.38352074967304828 0.015142460093222071 0 -0.35931289835773211 0.017828073835621499 0 -0.37240583582309161 0.025400119615024142 0 -0.36933859948822412 -0.0004439302888986224 0 -0.35931289835773211 0.017828073835621499 0 -0.36933859948822412 -0.0004439302888986224 0 -0.35379291907987859 0.0036531515146394689 0 -0.35931289835773211 0.017828073835621499 0 -0.36933859948822412 -0.0004439302888986224 0 -0.38352074967304828 0.015142460093222071 0 -0.35931289835773211 0.017828073835621499 0 -0.34405547159010519 0.050353832715325099 0 -0.35745999798806488 0.056821110297827382 0 -0.34714447745496002 0.066443719023338205 0 -0.34405547159010519 0.050353832715325099 0 -0.35745999798806488 0.056821110297827382 0 -0.35949737397463011 0.03832767442470033 0 -0.33665457531158011 0.03530767912586575 0 -0.34405547159010519 0.050353832715325099 0 -0.35949737397463011 0.03832767442470033 0 -0.378823189839815 0.03909604806771539 0 -0.37240583582309161 0.025400119615024142 0 -0.35949737397463011 0.03832767442470033 0 -0.378823189839815 0.03909604806771539 0 -0.35949737397463011 0.03832767442470033 0 -0.37412563000658372 0.063049636042209145 0 -0.35745999798806488 0.056821110297827382 0 -0.35949737397463011 0.03832767442470033 0 -0.37412563000658372 0.063049636042209145 0 -0.35745999798806488 0.056821110297827382 0 -0.37412563000658372 0.063049636042209145 0 -0.36156626772124018 0.065734776454389493 0 -0.35949737397463011 0.03832767442470033 0 -0.37412563000658372 0.063049636042209145 0 -0.37412563000658372 0.063049636042209145 0 -0.3695083412505395 0.086593909313416401 0 -0.37412563000658372 0.063049636042209145 0 -0.3675349654353523 0.076624640454183254 0 -0.36156626772124018 0.065734776454389493 0 -0.37412563000658372 0.063049636042209145 0 -0.3675349654353523 0.076624640454183254 0 -0.3695083412505395 0.086593909313416401 0 -0.3675349654353523 0.076624640454183254 0 -0.36156626772124018 0.065734776454389493 0 -0.34714447745496002 0.066443719023338205 0 -0.3675349654353523 0.076624640454183254 0 -0.34714447745496002 0.066443719023338205 0 -0.35702653106516902 0.082410930972139154 0 -0.3675349654353523 0.076624640454183254 0 -0.34714447745496002 0.066443719023338205 0 -0.35745999798806488 0.056821110297827382 0 -0.36156626772124018 0.065734776454389493 0 -0.34714447745496002 0.066443719023338205 0 -0.34714447745496002 0.066443719023338205 0 -0.34407184476484548 0.087747414081418729 0 -0.35702653106516902 0.082410930972139154 0 -0.34407184476484548 0.087747414081418729 0 -0.35702653106516902 0.082410930972139154 0 -0.35687302642014779 0.094644971988339224 0 -0.35702653106516902 0.082410930972139154 0 -0.3695083412505395 0.086593909313416401 0 -0.35687302642014779 0.094644971988339224 0 -0.3675349654353523 0.076624640454183254 0 -0.35702653106516902 0.082410930972139154 0 -0.3695083412505395 0.086593909313416401 0 -0.37761936588316741 0.1004094566761367 0 -0.3695083412505395 0.086593909313416401 0 -0.36489105249449738 0.11013818258462391 0 -0.3695083412505395 0.086593909313416401 0 -0.36489105249449738 0.11013818258462391 0 -0.3695083412505395 0.086593909313416401 0 -0.36489105249449738 0.11013818258462391 0 -0.35687302642014779 0.094644971988339224 0 -0.37853037782034571 0.11479208822673689 0 -0.37761936588316741 0.1004094566761367 0 -0.36489105249449738 0.11013818258462391 0 -0.37437258627236542 0.12890371469479259 0 -0.34899953175928211 0.12694253498055411 0 -0.36489105249449738 0.11013818258462391 0 -0.37853037782034571 0.11479208822673689 0 -0.37437258627236542 0.12890371469479259 0 -0.36489105249449738 0.11013818258462391 0 -0.34899953175928211 0.12694253498055411 0 -0.36489105249449738 0.11013818258462391 0 -0.34567692745287781 0.1054922003633196 0 -0.34407184476484548 0.087747414081418729 0 -0.34567692745287781 0.1054922003633196 0 -0.35687302642014779 0.094644971988339224 0 -0.36489105249449738 0.11013818258462391 0 -0.34567692745287781 0.1054922003633196 0 -0.35687302642014779 0.094644971988339224 0 -0.34567692745287781 0.1054922003633196 0 -0.33110235222149947 0.1133837925860197 0 -0.32579578507050072 0.097943863999109565 0 -0.34407184476484548 0.087747414081418729 0 -0.34567692745287781 0.1054922003633196 0 -0.32579578507050072 0.097943863999109565 0 -0.34899953175928211 0.12694253498055411 0 -0.32540106173061079 0.12928329294269461 0 -0.33110235222149947 0.1133837925860197 0 -0.34899953175928211 0.12694253498055411 0 -0.34567692745287781 0.1054922003633196 0 -0.33110235222149947 0.1133837925860197 0 -0.32540106173061079 0.12928329294269461 0 -0.30735137396352707 0.13221906943945599 0 -0.30932509195253499 0.1133855600758945 0 -0.32540106173061079 0.12928329294269461 0 -0.30932509195253499 0.1133855600758945 0 -0.33110235222149947 0.1133837925860197 0 -0.30932509195253499 0.1133855600758945 0 -0.33110235222149947 0.1133837925860197 0 -0.32579578507050072 0.097943863999109565 0 -0.30932509195253499 0.1133855600758945 0 -0.30308678709954351 0.093744869254807961 0 -0.32579578507050072 0.097943863999109565 0 -0.30308678709954351 0.093744869254807961 0 -0.32579578507050072 0.097943863999109565 0 -0.32579578507050072 0.097943863999109565 0 -0.31565760967855899 0.083683454060182016 0 -0.32944992130611078 0.076878414853282506 0 -0.30308678709954351 0.093744869254807961 0 -0.32579578507050072 0.097943863999109565 0 -0.31565760967855899 0.083683454060182016 0 -0.30537586548509588 0.07636921710924334 0 -0.31565760967855899 0.083683454060182016 0 -0.31673402484082391 0.071322899472689744 0 -0.3075099059644259 0.062341610942359148 0 -0.3267539894745678 0.056262797592493183 0 -0.31673402484082391 0.071322899472689744 0 -0.3267539894745678 0.056262797592493183 0 -0.31673402484082391 0.071322899472689744 0 -0.32944992130611078 0.076878414853282506 0 -0.31565760967855899 0.083683454060182016 0 -0.31673402484082391 0.071322899472689744 0 -0.32944992130611078 0.076878414853282506 0 -0.34714447745496002 0.066443719023338205 0 -0.34407184476484548 0.087747414081418729 0 -0.32944992130611078 0.076878414853282506 0 -0.3267539894745678 0.056262797592493183 0 -0.34714447745496002 0.066443719023338205 0 -0.32944992130611078 0.076878414853282506 0 -0.34407184476484548 0.087747414081418729 0 -0.32579578507050072 0.097943863999109565 0 -0.32944992130611078 0.076878414853282506 0 -0.38004119447167473 0.5 0 -0.40144598658735797 0.45639365525664533 0 -0.37105357443984133 0.46430303421273489 0 -0.37935242010599618 0.44071850896710518 0 -0.40144598658735797 0.45639365525664533 0 -0.40815779377537781 0.42331444172143279 0 -0.37935242010599618 0.44071850896710518 0 -0.40144598658735797 0.45639365525664533 0 -0.37105357443984133 0.46430303421273489 0 -0.40144598658735797 0.45639365525664533 0 -0.43868982565468229 0.46919677018466283 0 -0.44151031805047608 0.43389604525709558 0 -0.40144598658735797 0.45639365525664533 0 -0.44151031805047608 0.43389604525709558 0 -0.40815779377537781 0.42331444172143279 0 -0.38004119447167473 0.5 0 -0.40144598658735797 0.45639365525664533 0 -0.43868982565468229 0.46919677018466283 0 -0.38004119447167473 0.5 0 -0.43868982565468229 0.46919677018466283 0 -0.5 0.5 0 -0.43868982565468229 0.46919677018466283 0 -0.5 0.5 0 -0.47045162916390282 0.45569415040957312 0 -0.5 0.5 0 -0.47045162916390282 0.45569415040957312 0 -0.5 0.46098350244823749 0 -0.47045162916390282 0.45569415040957312 0 -0.5 0.46098350244823749 0 -0.47333664445486912 0.42717377998972711 0 -0.47045162916390282 0.45569415040957312 0 -0.44151031805047608 0.43389604525709558 0 -0.47333664445486912 0.42717377998972711 0 -0.43868982565468229 0.46919677018466283 0 -0.47045162916390282 0.45569415040957312 0 -0.44151031805047608 0.43389604525709558 0 -0.44151031805047608 0.43389604525709558 0 -0.47333664445486912 0.42717377998972711 0 -0.45305641546656872 0.4028152879681669 0 -0.44151031805047608 0.43389604525709558 0 -0.45305641546656872 0.4028152879681669 0 -0.42862352686567828 0.39764169790538312 0 -0.47333664445486912 0.42717377998972711 0 -0.47494289786125032 0.40449320305179431 0 -0.45305641546656872 0.4028152879681669 0 -0.5 0.46098350244823749 0 -0.47333664445486912 0.42717377998972711 0 -0.50000000000000022 0.40630833158888569 0 -0.47333664445486912 0.42717377998972711 0 -0.50000000000000022 0.40630833158888569 0 -0.47494289786125032 0.40449320305179431 0 -0.50000000000000022 0.37801765443503049 0 -0.48327612692995559 0.38905392358275981 0 -0.48273601746649741 0.3698857754784371 0 -0.50000000000000022 0.40630833158888569 0 -0.48327612692995559 0.38905392358275981 0 -0.50000000000000022 0.40630833158888569 0 -0.50000000000000022 0.37801765443503049 0 -0.48327612692995559 0.38905392358275981 0 -0.50000000000000022 0.40630833158888569 0 -0.47494289786125032 0.40449320305179431 0 -0.48327612692995559 0.38905392358275981 0 -0.47494289786125032 0.40449320305179431 0 -0.48327612692995559 0.38905392358275981 0 -0.46523084502349721 0.38981232346873329 0 -0.48327612692995559 0.38905392358275981 0 -0.46655225385991111 0.37179951557663399 0 -0.48327612692995559 0.38905392358275981 0 -0.46655225385991111 0.37179951557663399 0 -0.48273601746649741 0.3698857754784371 0 -0.48327612692995559 0.38905392358275981 0 -0.46523084502349721 0.38981232346873329 0 -0.46655225385991111 0.37179951557663399 0 -0.46523084502349721 0.38981232346873329 0 -0.44845528579802219 0.38169594497092257 0 -0.46655225385991111 0.37179951557663399 0 -0.47494289786125032 0.40449320305179431 0 -0.46523084502349721 0.38981232346873329 0 -0.45305641546656872 0.4028152879681669 0 -0.46523084502349721 0.38981232346873329 0 -0.45305641546656872 0.4028152879681669 0 -0.44845528579802219 0.38169594497092257 0 -0.45305641546656872 0.4028152879681669 0 -0.44845528579802219 0.38169594497092257 0 -0.42862352686567828 0.39764169790538312 0 -0.44845528579802219 0.38169594497092257 0 -0.42862352686567828 0.39764169790538312 0 -0.42744029278261242 0.37356173733610981 0 -0.40505220477535708 0.39257836710170962 0 -0.40688636955313201 0.37131471231572333 0 -0.42744029278261242 0.37356173733610981 0 -0.42862352686567828 0.39764169790538312 0 -0.40505220477535708 0.39257836710170962 0 -0.42744029278261242 0.37356173733610981 0 -0.40505220477535708 0.39257836710170962 0 -0.42744029278261242 0.37356173733610981 0 -0.42862352686567828 0.39764169790538312 0 -0.40815779377537781 0.42331444172143279 0 -0.40505220477535708 0.39257836710170962 0 -0.44151031805047608 0.43389604525709558 0 -0.42862352686567828 0.39764169790538312 0 -0.40815779377537781 0.42331444172143279 0 -0.40815779377537781 0.42331444172143279 0 -0.38266411676810169 0.41159499686730933 0 -0.40505220477535708 0.39257836710170962 0 -0.37935242010599618 0.44071850896710518 0 -0.40815779377537781 0.42331444172143279 0 -0.38266411676810169 0.41159499686730933 0 -0.38266411676810169 0.41159499686730933 0 -0.38212343750332289 0.38854718054588178 0 -0.36856188385864808 0.39801797795947791 0 -0.38266411676810169 0.41159499686730933 0 -0.38212343750332289 0.38854718054588178 0 -0.40505220477535708 0.39257836710170962 0 -0.38212343750332289 0.38854718054588178 0 -0.38752378813381583 0.37201545498575489 0 -0.3700817685325466 0.37979505833716981 0 -0.38212343750332289 0.38854718054588178 0 -0.40505220477535708 0.39257836710170962 0 -0.38752378813381583 0.37201545498575489 0 -0.40505220477535708 0.39257836710170962 0 -0.38752378813381583 0.37201545498575489 0 -0.40688636955313201 0.37131471231572333 0 -0.38266411676810169 0.41159499686730933 0 -0.40505220477535708 0.39257836710170962 0 -0.39919111385473632 0.35598313712109703 0 -0.3907308603588967 0.34451455003393228 0 -0.40728425845483163 0.34056357847230478 0 -0.39919111385473632 0.35598313712109703 0 -0.3907308603588967 0.34451455003393228 0 -0.38209297762938599 0.35465694138060438 0 -0.39919111385473632 0.35598313712109703 0 -0.38752378813381583 0.37201545498575489 0 -0.40688636955313201 0.37131471231572333 0 -0.39919111385473632 0.35598313712109703 0 -0.38752378813381583 0.37201545498575489 0 -0.38209297762938599 0.35465694138060438 0 -0.38752378813381583 0.37201545498575489 0 -0.38209297762938599 0.35465694138060438 0 -0.3717287424002621 0.36323611655130389 0 -0.38752378813381583 0.37201545498575489 0 -0.3717287424002621 0.36323611655130389 0 -0.3700817685325466 0.37979505833716981 0 -0.38209297762938599 0.35465694138060438 0 -0.37781694332799343 0.34069825694722561 0 -0.36556641770061149 0.35149413264431328 0 -0.3907308603588967 0.34451455003393228 0 -0.38209297762938599 0.35465694138060438 0 -0.37781694332799343 0.34069825694722561 0 -0.37781694332799343 0.34069825694722561 0 -0.38992013604823089 0.329463198427704 0 -0.37644965412025161 0.32667390061683688 0 -0.3907308603588967 0.34451455003393228 0 -0.37781694332799343 0.34069825694722561 0 -0.38992013604823089 0.329463198427704 0 -0.37644965412025161 0.32667390061683688 0 -0.38841603441457873 0.31545253070281309 0 -0.37414735523205589 0.31158160091767462 0 -0.38992013604823089 0.329463198427704 0 -0.37644965412025161 0.32667390061683688 0 -0.38841603441457873 0.31545253070281309 0 -0.38992013604823089 0.329463198427704 0 -0.40186638703887367 0.31843725645121918 0 -0.40755075726582007 0.32787903414615288 0 -0.38841603441457873 0.31545253070281309 0 -0.40186638703887367 0.31843725645121918 0 -0.39850319958813718 0.30488904003086947 0 -0.38992013604823089 0.329463198427704 0 -0.38841603441457873 0.31545253070281309 0 -0.40186638703887367 0.31843725645121918 0 -0.38992013604823089 0.329463198427704 0 -0.40186638703887367 0.31843725645121918 0 -0.3907308603588967 0.34451455003393228 0 -0.38992013604823089 0.329463198427704 0 -0.40728425845483163 0.34056357847230478 0 -0.38992013604823089 0.329463198427704 0 -0.40728425845483163 0.34056357847230478 0 -0.40755075726582007 0.32787903414615288 0 -0.40728425845483163 0.34056357847230478 0 -0.41903181225013503 0.33317945872286769 0 -0.42308930759585239 0.34324625311115942 0 -0.40728425845483163 0.34056357847230478 0 -0.41903181225013503 0.33317945872286769 0 -0.40755075726582007 0.32787903414615288 0 -0.41903181225013503 0.33317945872286769 0 -0.40755075726582007 0.32787903414615288 0 -0.41774318616480038 0.32430372752259101 0 -0.40186638703887367 0.31843725645121918 0 -0.4118548885168471 0.31510478003369408 0 -0.41381263802951562 0.30741131447473341 0 -0.40186638703887367 0.31843725645121918 0 -0.4118548885168471 0.31510478003369408 0 -0.41117476815539128 0.32031185398842421 0 -0.40186638703887367 0.31843725645121918 0 -0.41381263802951562 0.30741131447473341 0 -0.4118548885168471 0.31510478003369408 0 -0.41117476815539128 0.32031185398842421 0 -0.4169851572983172 0.3171043017175123 0 -0.40186638703887367 0.31843725645121918 0 -0.41117476815539128 0.32031185398842421 0 -0.40755075726582007 0.32787903414615288 0 -0.41117476815539128 0.32031185398842421 0 -0.40755075726582007 0.32787903414615288 0 -0.41774318616480038 0.32430372752259101 0 -0.41903181225013503 0.33317945872286769 0 -0.41774318616480038 0.32430372752259101 0 -0.42604410005288978 0.32629048402612498 0 -0.41774318616480038 0.32430372752259101 0 -0.4169851572983172 0.3171043017175123 0 -0.42254196977906089 0.31994429715136091 0 -0.41117476815539128 0.32031185398842421 0 -0.41774318616480038 0.32430372752259101 0 -0.4169851572983172 0.3171043017175123 0 -0.4169851572983172 0.3171043017175123 0 -0.42398131137488448 0.31280639406466842 0 -0.41558369743344298 0.31179393319581949 0 -0.4169851572983172 0.3171043017175123 0 -0.42398131137488448 0.31280639406466842 0 -0.42254196977906089 0.31994429715136091 0 -0.4118548885168471 0.31510478003369408 0 -0.4169851572983172 0.3171043017175123 0 -0.41558369743344298 0.31179393319581949 0 -0.42398131137488448 0.31280639406466842 0 -0.42254196977906089 0.31994429715136091 0 -0.42901752508540969 0.31973215906064401 0 -0.41774318616480038 0.32430372752259101 0 -0.42254196977906089 0.31994429715136091 0 -0.42604410005288978 0.32629048402612498 0 -0.42254196977906089 0.31994429715136091 0 -0.42901752508540969 0.31973215906064401 0 -0.42604410005288978 0.32629048402612498 0 -0.42901752508540969 0.31973215906064401 0 -0.42604410005288978 0.32629048402612498 0 -0.43502561634260462 0.32433295838133902 0 -0.42604410005288978 0.32629048402612498 0 -0.43502561634260462 0.32433295838133902 0 -0.43133824964419448 0.33359794736160242 0 -0.42398131137488448 0.31280639406466842 0 -0.42901752508540969 0.31973215906064401 0 -0.43742925905360402 0.31295939535957262 0 -0.42901752508540969 0.31973215906064401 0 -0.43502561634260462 0.32433295838133902 0 -0.43742925905360402 0.31295939535957262 0 -0.41903181225013503 0.33317945872286769 0 -0.42308930759585239 0.34324625311115942 0 -0.43133824964419448 0.33359794736160242 0 -0.41903181225013503 0.33317945872286769 0 -0.42604410005288978 0.32629048402612498 0 -0.43133824964419448 0.33359794736160242 0 -0.43133824964419448 0.33359794736160242 0 -0.43789400227309427 0.33025600036426739 0 -0.4408620077163749 0.33619204747053499 0 -0.43502561634260462 0.32433295838133902 0 -0.43133824964419448 0.33359794736160242 0 -0.43789400227309427 0.33025600036426739 0 -0.42308930759585239 0.34324625311115942 0 -0.43133824964419448 0.33359794736160242 0 -0.43590433707587162 0.34293966256795311 0 -0.43133824964419448 0.33359794736160242 0 -0.43590433707587162 0.34293966256795311 0 -0.4408620077163749 0.33619204747053499 0 -0.42308930759585239 0.34324625311115942 0 -0.43590433707587162 0.34293966256795311 0 -0.43268343360342998 0.35338737862817249 0 -0.42308930759585239 0.34324625311115942 0 -0.43268343360342998 0.35338737862817249 0 -0.415305155992721 0.35694963945439268 0 -0.40728425845483163 0.34056357847230478 0 -0.42308930759585239 0.34324625311115942 0 -0.415305155992721 0.35694963945439268 0 -0.39919111385473632 0.35598313712109703 0 -0.40728425845483163 0.34056357847230478 0 -0.415305155992721 0.35694963945439268 0 -0.39919111385473632 0.35598313712109703 0 -0.415305155992721 0.35694963945439268 0 -0.40688636955313201 0.37131471231572333 0 -0.415305155992721 0.35694963945439268 0 -0.40688636955313201 0.37131471231572333 0 -0.42744029278261242 0.37356173733610981 0 -0.43268343360342998 0.35338737862817249 0 -0.415305155992721 0.35694963945439268 0 -0.42744029278261242 0.37356173733610981 0 -0.43268343360342998 0.35338737862817249 0 -0.42744029278261242 0.37356173733610981 0 -0.44982838078986631 0.35454510757050839 0 -0.42744029278261242 0.37356173733610981 0 -0.44982838078986631 0.35454510757050839 0 -0.44845528579802219 0.38169594497092257 0 -0.42744029278261242 0.37356173733610981 0 -0.44982838078986631 0.35454510757050839 0 -0.43268343360342998 0.35338737862817249 0 -0.4445331273836568 0.34908187172891242 0 -0.44982838078986631 0.35454510757050839 0 -0.43590433707587162 0.34293966256795311 0 -0.43268343360342998 0.35338737862817249 0 -0.4445331273836568 0.34908187172891242 0 -0.43590433707587162 0.34293966256795311 0 -0.4445331273836568 0.34908187172891242 0 -0.44762338251319839 0.34123405015532371 0 -0.4445331273836568 0.34908187172891242 0 -0.44982838078986631 0.35454510757050839 0 -0.4445331273836568 0.34908187172891242 0 -0.44948374455315082 0.34690735268250228 0 -0.44762338251319839 0.34123405015532371 0 -0.44982838078986631 0.35454510757050839 0 -0.44948374455315082 0.34690735268250228 0 -0.45595008752588179 0.34276838127526488 0 -0.4445331273836568 0.34908187172891242 0 -0.44982838078986631 0.35454510757050839 0 -0.44948374455315082 0.34690735268250228 0 -0.44982838078986631 0.35454510757050839 0 -0.47284570334623899 0.3349940007002829 0 -0.45595008752588179 0.34276838127526488 0 -0.44982838078986631 0.35454510757050839 0 -0.4714582660822193 0.35578680710739757 0 -0.47284570334623899 0.3349940007002829 0 -0.44982838078986631 0.35454510757050839 0 -0.47284570334623899 0.3349940007002829 0 -0.44982838078986631 0.35454510757050839 0 -0.46655225385991111 0.37179951557663399 0 -0.4714582660822193 0.35578680710739757 0 -0.44982838078986631 0.35454510757050839 0 -0.46655225385991111 0.37179951557663399 0 -0.44845528579802219 0.38169594497092257 0 -0.44982838078986631 0.35454510757050839 0 -0.46655225385991111 0.37179951557663399 0 -0.46655225385991111 0.37179951557663399 0 -0.48273601746649741 0.3698857754784371 0 -0.4714582660822193 0.35578680710739757 0 -0.4714582660822193 0.35578680710739757 0 -0.49014006813793382 0.35103582091908969 0 -0.47284570334623899 0.3349940007002829 0 -0.48273601746649741 0.3698857754784371 0 -0.4714582660822193 0.35578680710739757 0 -0.49014006813793382 0.35103582091908969 0 -0.50000000000000022 0.37801765443503049 0 -0.5 0.35211114232432988 0 -0.49014006813793382 0.35103582091908969 0 -0.50000000000000022 0.37801765443503049 0 -0.48273601746649741 0.3698857754784371 0 -0.49014006813793382 0.35103582091908969 0 -0.50000000000000022 0.37801765443503049 0 -0.49014006813793382 0.35103582091908969 0 -0.5 0.32620463021362939 0 -0.48028013627586708 0.32405398740314878 0 -0.48605986930371448 0.30722341074840598 0 -0.49014006813793382 0.35103582091908969 0 -0.5 0.32620463021362939 0 -0.48028013627586708 0.32405398740314878 0 -0.5 0.35211114232432988 0 -0.49014006813793382 0.35103582091908969 0 -0.5 0.32620463021362939 0 -0.49014006813793382 0.35103582091908969 0 -0.48028013627586708 0.32405398740314878 0 -0.47284570334623899 0.3349940007002829 0 -0.48028013627586708 0.32405398740314878 0 -0.46319047201090091 0.32727484287737602 0 -0.49014006813793382 0.35103582091908969 0 -0.47284570334623899 0.3349940007002829 0 -0.48028013627586708 0.32405398740314878 0 -0.48028013627586708 0.32405398740314878 0 -0.46194104994715501 0.31544240544793162 0 -0.46319047201090091 0.32727484287737602 0 -0.46319047201090091 0.32727484287737602 0 -0.45411490689083811 0.32349528238146452 0 -0.45339561971969228 0.33074843129139281 0 -0.46194104994715501 0.31544240544793162 0 -0.46319047201090091 0.32727484287737602 0 -0.45411490689083811 0.32349528238146452 0 -0.46194104994715501 0.31544240544793162 0 -0.45411490689083811 0.32349528238146452 0 -0.44769725738723848 0.31710968404702888 0 -0.47284570334623899 0.3349940007002829 0 -0.45939485827529042 0.33437514589583162 0 -0.45595008752588179 0.34276838127526488 0 -0.47284570334623899 0.3349940007002829 0 -0.46319047201090091 0.32727484287737602 0 -0.45939485827529042 0.33437514589583162 0 -0.46319047201090091 0.32727484287737602 0 -0.45339561971969228 0.33074843129139281 0 -0.45939485827529042 0.33437514589583162 0 -0.45339561971969228 0.33074843129139281 0 -0.45939485827529042 0.33437514589583162 0 -0.45279783895559628 0.33672886566760057 0 -0.45939485827529042 0.33437514589583162 0 -0.45595008752588179 0.34276838127526488 0 -0.45279783895559628 0.33672886566760057 0 -0.45595008752588179 0.34276838127526488 0 -0.44762338251319839 0.34123405015532371 0 -0.45279783895559628 0.33672886566760057 0 -0.44948374455315082 0.34690735268250228 0 -0.45595008752588179 0.34276838127526488 0 -0.44762338251319839 0.34123405015532371 0 -0.44762338251319839 0.34123405015532371 0 -0.45279783895559628 0.33672886566760057 0 -0.44762524674391813 0.33451831972019003 0 -0.44762338251319839 0.34123405015532371 0 -0.44762524674391813 0.33451831972019003 0 -0.4408620077163749 0.33619204747053499 0 -0.45339561971969228 0.33074843129139281 0 -0.44762524674391813 0.33451831972019003 0 -0.44435013538920332 0.32690104824359328 0 -0.45339561971969228 0.33074843129139281 0 -0.45279783895559628 0.33672886566760057 0 -0.44762524674391813 0.33451831972019003 0 -0.44762524674391813 0.33451831972019003 0 -0.4408620077163749 0.33619204747053499 0 -0.44435013538920332 0.32690104824359328 0 -0.43789400227309427 0.33025600036426739 0 -0.4408620077163749 0.33619204747053499 0 -0.44435013538920332 0.32690104824359328 0 -0.43590433707587162 0.34293966256795311 0 -0.44762338251319839 0.34123405015532371 0 -0.4408620077163749 0.33619204747053499 0 -0.45411490689083811 0.32349528238146452 0 -0.44769725738723848 0.31710968404702888 0 -0.44435013538920332 0.32690104824359328 0 -0.45411490689083811 0.32349528238146452 0 -0.45339561971969228 0.33074843129139281 0 -0.44435013538920332 0.32690104824359328 0 -0.43502561634260462 0.32433295838133902 0 -0.44435013538920332 0.32690104824359328 0 -0.44112556704316258 0.32032577150788338 0 -0.43502561634260462 0.32433295838133902 0 -0.43789400227309427 0.33025600036426739 0 -0.44435013538920332 0.32690104824359328 0 -0.44769725738723848 0.31710968404702888 0 -0.44435013538920332 0.32690104824359328 0 -0.44112556704316258 0.32032577150788338 0 -0.43742925905360402 0.31295939535957262 0 -0.44769725738723848 0.31710968404702888 0 -0.44112556704316258 0.32032577150788338 0 -0.43502561634260462 0.32433295838133902 0 -0.43742925905360402 0.31295939535957262 0 -0.44112556704316258 0.32032577150788338 0 -0.43742925905360402 0.31295939535957262 0 -0.44769725738723848 0.31710968404702888 0 -0.45032183790163149 0.30271628052429539 0 -0.43742925905360402 0.31295939535957262 0 -0.44086832692730898 0.29716244850888912 0 -0.45032183790163149 0.30271628052429539 0 -0.45032183790163149 0.30271628052429539 0 -0.45289133249418789 0.28694182761617909 0 -0.44002068862340882 0.28798256870971439 0 -0.45289133249418789 0.28694182761617909 0 -0.45546082708674512 0.27116737470806301 0 -0.44002068862340882 0.28798256870971439 0 -0.45588178353635289 0.26858306972062762 0 -0.43436417083140172 0.28844301987093762 0 -0.44086832692730898 0.29716244850888912 0 -0.45032183790163149 0.30271628052429539 0 -0.45289133249418789 0.28694182761617909 0 -0.44086832692730898 0.29716244850888912 0 -0.44002068862340882 0.28798256870971439 0 -0.45289133249418789 0.28694182761617909 0 -0.44086832692730898 0.29716244850888912 0 -0.44002068862340882 0.28798256870971439 0 -0.43436417083140172 0.28844301987093762 0 -0.47042020441380028 0.29707215388720792 0 -0.46056027255173182 0.27009032037126768 0 -0.45032183790163149 0.30271628052429539 0 -0.45289133249418789 0.28694182761617909 0 -0.47042020441380028 0.29707215388720792 0 -0.45289133249418789 0.28694182761617909 0 -0.47042020441380028 0.29707215388720792 0 -0.46056027255173182 0.27009032037126768 0 -0.46194104994715501 0.31544240544793162 0 -0.45032183790163149 0.30271628052429539 0 -0.47042020441380028 0.29707215388720792 0 -0.46194104994715501 0.31544240544793162 0 -0.44769725738723848 0.31710968404702888 0 -0.45032183790163149 0.30271628052429539 0 -0.47042020441380028 0.29707215388720792 0 -0.48818945506275457 0.28810402338646313 0 -0.48605986930371448 0.30722341074840598 0 -0.48028013627586708 0.32405398740314878 0 -0.47042020441380028 0.29707215388720792 0 -0.48605986930371448 0.30722341074840598 0 -0.48028013627586708 0.32405398740314878 0 -0.46194104994715501 0.31544240544793162 0 -0.47042020441380028 0.29707215388720792 0 -0.48028013627586708 0.32405398740314878 0 -0.47042020441380028 0.29707215388720792 0 -0.47042020441380028 0.29707215388720792 0 -0.48818945506275457 0.28810402338646313 0 -0.48028013627586341 0.27224096318175017 0 -0.48818945506275457 0.28810402338646313 0 -0.5 0.30029811810292878 0 -0.49999999999999561 0.27439160599222812 0 -0.5 0.32620463021362939 0 -0.5 0.30029811810292878 0 -0.48605986930371448 0.30722341074840598 0 -0.48818945506275457 0.28810402338646313 0 -0.5 0.30029811810292878 0 -0.48605986930371448 0.30722341074840598 0 -0.48470493529518099 0.2598227295886173 0 -0.5 0.25574299280684493 0 -0.49999999999999561 0.27439160599222812 0 -0.48916327443797081 0.247883965171216 0 -0.48470493529518099 0.2598227295886173 0 -0.5 0.25574299280684493 0 -0.48470493529518099 0.2598227295886173 0 -0.49999999999999561 0.27439160599222812 0 -0.48028013627586341 0.27224096318175017 0 -0.49999999999999561 0.27439160599222812 0 -0.48028013627586341 0.27224096318175017 0 -0.48818945506275457 0.28810402338646313 0 -0.49999999999999561 0.27439160599222812 0 -0.48028013627586341 0.27224096318175017 0 -0.48028013627586341 0.27224096318175017 0 -0.46056027255173182 0.27009032037126768 0 -0.47042020441380028 0.29707215388720792 0 -0.48028013627586341 0.27224096318175017 0 -0.46056027255173182 0.27009032037126768 0 -0.48028013627586341 0.27224096318175017 0 -0.46868086514029889 0.25676999704804171 0 -0.46056027255173182 0.27009032037126768 0 -0.48470493529518099 0.2598227295886173 0 -0.48028013627586341 0.27224096318175017 0 -0.46868086514029889 0.25676999704804171 0 -0.47535244210990601 0.24950426809701751 0 -0.48470493529518099 0.2598227295886173 0 -0.46868086514029889 0.25676999704804171 0 -0.47535244210990601 0.24950426809701751 0 -0.48916327443797081 0.247883965171216 0 -0.48470493529518099 0.2598227295886173 0 -0.47535244210990601 0.24950426809701751 0 -0.46868086514029889 0.25676999704804171 0 -0.45036505421977402 0.24219097101065759 0 -0.45715442374461801 0.26077017021407978 0 -0.45981304281472068 0.2444485708445272 0 -0.46868086514029889 0.25676999704804171 0 -0.45715442374461801 0.26077017021407978 0 -0.47535244210990601 0.24950426809701751 0 -0.45981304281472068 0.2444485708445272 0 -0.46868086514029889 0.25676999704804171 0 -0.45981304281472068 0.2444485708445272 0 -0.45715442374461801 0.26077017021407978 0 -0.46868086514029889 0.25676999704804171 0 -0.45896842684731071 0.2657342136171198 0 -0.46056027255173182 0.27009032037126768 0 -0.46868086514029889 0.25676999704804171 0 -0.45715442374461801 0.26077017021407978 0 -0.45896842684731071 0.2657342136171198 0 -0.46868086514029889 0.25676999704804171 0 -0.45896842684731071 0.2657342136171198 0 -0.45715442374461801 0.26077017021407978 0 -0.45896842684731071 0.2657342136171198 0 -0.45588178353635289 0.26858306972062762 0 -0.45715442374461801 0.26077017021407978 0 -0.45588178353635289 0.26858306972062762 0 -0.45715442374461801 0.26077017021407978 0 -0.45896842684731071 0.2657342136171198 0 -0.45289133249418789 0.28694182761617909 0 -0.45546082708674512 0.27116737470806301 0 -0.45289133249418789 0.28694182761617909 0 -0.45546082708674512 0.27116737470806301 0 -0.46056027255173182 0.27009032037126768 0 -0.45896842684731071 0.2657342136171198 0 -0.46056027255173182 0.27009032037126768 0 -0.45896842684731071 0.2657342136171198 0 -0.45588178353635289 0.26858306972062762 0 -0.46056027255173182 0.27009032037126768 0 -0.45588178353635289 0.26858306972062762 0 -0.46056027255173182 0.27009032037126768 0 -0.45896842684731071 0.2657342136171198 0 -0.45588178353635289 0.26858306972062762 0 -0.45588178353635289 0.26858306972062762 0 -0.45546082708674512 0.27116737470806301 0 -0.45588178353635289 0.26858306972062762 0 -0.45546082708674512 0.27116737470806301 0 -0.46056027255173182 0.27009032037126768 0 -0.45588178353635289 0.26858306972062762 0 -0.42687187803059939 0.26641627350730818 0 -0.43237001904122191 0.27011148194182422 0 -0.45588178353635289 0.26858306972062762 0 -0.43436417083140172 0.28844301987093762 0 -0.44002068862340882 0.28798256870971439 0 -0.45546082708674512 0.27116737470806301 0 -0.44002068862340882 0.28798256870971439 0 -0.45588178353635289 0.26858306972062762 0 -0.45546082708674512 0.27116737470806301 0 -0.45588178353635289 0.26858306972062762 0 -0.43237001904122191 0.27011148194182422 0 -0.43436417083140172 0.28844301987093762 0 -0.45588178353635289 0.26858306972062762 0 -0.42687187803059939 0.26641627350730818 0 -0.45036505421977402 0.24219097101065759 0 -0.45715442374461801 0.26077017021407978 0 -0.44462105563271109 0.25670510479446867 0 -0.45588178353635289 0.26858306972062762 0 -0.44462105563271109 0.25670510479446867 0 -0.42687187803059939 0.26641627350730818 0 -0.45715442374461801 0.26077017021407978 0 -0.45588178353635289 0.26858306972062762 0 -0.44462105563271109 0.25670510479446867 0 -0.41605306156336558 0.24779447805732691 0 -0.43379821853527623 0.24467338397315699 0 -0.42687187803059939 0.26641627350730818 0 -0.43379821853527623 0.24467338397315699 0 -0.44462105563271109 0.25670510479446867 0 -0.42687187803059939 0.26641627350730818 0 -0.43379821853527623 0.24467338397315699 0 -0.42687187803059939 0.26641627350730818 0 -0.41605306156336558 0.24779447805732691 0 -0.42076521223890689 0.26575028224770259 0 -0.42687187803059939 0.26641627350730818 0 -0.42076521223890689 0.26575028224770259 0 -0.40141875768492008 0.26364036333665669 0 -0.40044655650917238 0.25811433305328563 0 -0.42076521223890689 0.26575028224770259 0 -0.40044655650917238 0.25811433305328563 0 -0.41605306156336558 0.24779447805732691 0 -0.42076521223890689 0.26575028224770259 0 -0.40044655650917238 0.25811433305328563 0 -0.42076521223890689 0.26575028224770259 0 -0.40141875768492008 0.26364036333665669 0 -0.41107146591579979 0.27206649530583682 0 -0.42011054146118609 0.28764118932435467 0 -0.40414049742014763 0.27911084061590902 0 -0.41107146591579979 0.27206649530583682 0 -0.42076521223890689 0.26575028224770259 0 -0.42011054146118609 0.28764118932435467 0 -0.41107146591579979 0.27206649530583682 0 -0.42076521223890689 0.26575028224770259 0 -0.40141875768492008 0.26364036333665669 0 -0.42801080507730838 0.27919138742788241 0 -0.42640844489285812 0.26787106417397671 0 -0.42011054146118609 0.28764118932435467 0 -0.42076521223890689 0.26575028224770259 0 -0.42640844489285812 0.26787106417397671 0 -0.42011054146118609 0.28764118932435467 0 -0.42640844489285812 0.26787106417397671 0 -0.42011054146118609 0.28764118932435467 0 -0.42801080507730838 0.27919138742788241 0 -0.43237001904122191 0.27011148194182422 0 -0.43436417083140172 0.28844301987093762 0 -0.42801080507730838 0.27919138742788241 0 -0.42640844489285812 0.26787106417397671 0 -0.43237001904122191 0.27011148194182422 0 -0.42076521223890689 0.26575028224770259 0 -0.42687187803059939 0.26641627350730818 0 -0.42076521223890689 0.26575028224770259 0 -0.42640844489285812 0.26787106417397671 0 -0.42687187803059939 0.26641627350730818 0 -0.42076521223890689 0.26575028224770259 0 -0.42640844489285812 0.26787106417397671 0 -0.42640844489285812 0.26787106417397671 0 -0.42687187803059939 0.26641627350730818 0 -0.43237001904122191 0.27011148194182422 0 -0.42640844489285812 0.26787106417397671 0 -0.43237001904122191 0.27011148194182422 0 -0.42640844489285812 0.26787106417397671 0 -0.42687187803059939 0.26641627350730818 0 -0.43436417083140172 0.28844301987093762 0 -0.41381263802951562 0.30741131447473341 0 -0.42011054146118609 0.28764118932435467 0 -0.44086832692730898 0.29716244850888912 0 -0.43436417083140172 0.28844301987093762 0 -0.43018267265962018 0.30393159897263528 0 -0.42801080507730838 0.27919138742788241 0 -0.43436417083140172 0.28844301987093762 0 -0.42011054146118609 0.28764118932435467 0 -0.43742925905360402 0.31295939535957262 0 -0.44086832692730898 0.29716244850888912 0 -0.43018267265962018 0.30393159897263528 0 -0.42398131137488448 0.31280639406466842 0 -0.43018267265962018 0.30393159897263528 0 -0.41381263802951562 0.30741131447473341 0 -0.43436417083140172 0.28844301987093762 0 -0.41381263802951562 0.30741131447473341 0 -0.43436417083140172 0.28844301987093762 0 -0.43018267265962018 0.30393159897263528 0 -0.41381263802951562 0.30741131447473341 0 -0.42398131137488448 0.31280639406466842 0 -0.43742925905360402 0.31295939535957262 0 -0.43018267265962018 0.30393159897263528 0 -0.41381263802951562 0.30741131447473341 0 -0.42011054146118609 0.28764118932435467 0 -0.42398131137488448 0.31280639406466842 0 -0.41558369743344298 0.31179393319581949 0 -0.41381263802951562 0.30741131447473341 0 -0.41381263802951562 0.30741131447473341 0 -0.40686223715537201 0.29458131789516168 0 -0.39850319958813718 0.30488904003086947 0 -0.4118548885168471 0.31510478003369408 0 -0.41558369743344298 0.31179393319581949 0 -0.41381263802951562 0.30741131447473341 0 -0.41381263802951562 0.30741131447473341 0 -0.42011054146118609 0.28764118932435467 0 -0.40686223715537201 0.29458131789516168 0 -0.42011054146118609 0.28764118932435467 0 -0.40686223715537201 0.29458131789516168 0 -0.40414049742014763 0.27911084061590902 0 -0.3945313373191971 0.29160111031247099 0 -0.38698471458664863 0.28081574712827129 0 -0.40414049742014763 0.27911084061590902 0 -0.40686223715537201 0.29458131789516168 0 -0.40414049742014763 0.27911084061590902 0 -0.40686223715537201 0.29458131789516168 0 -0.3945313373191971 0.29160111031247099 0 -0.40414049742014763 0.27911084061590902 0 -0.40186638703887367 0.31843725645121918 0 -0.41381263802951562 0.30741131447473341 0 -0.39850319958813718 0.30488904003086947 0 -0.40686223715537201 0.29458131789516168 0 -0.3945313373191971 0.29160111031247099 0 -0.39850319958813718 0.30488904003086947 0 -0.3945313373191971 0.29160111031247099 0 -0.39850319958813718 0.30488904003086947 0 -0.38553056357128579 0.301850710348818 0 -0.38841603441457873 0.31545253070281309 0 -0.39850319958813718 0.30488904003086947 0 -0.38553056357128579 0.301850710348818 0 -0.38553056357128579 0.301850710348818 0 -0.37335442502489302 0.29669283321319562 0 -0.37414735523205589 0.31158160091767462 0 -0.38841603441457873 0.31545253070281309 0 -0.38553056357128579 0.301850710348818 0 -0.37414735523205589 0.31158160091767462 0 -0.3945313373191971 0.29160111031247099 0 -0.38309632714991909 0.29083488048489758 0 -0.38698471458664863 0.28081574712827129 0 -0.3945313373191971 0.29160111031247099 0 -0.38553056357128579 0.301850710348818 0 -0.38309632714991909 0.29083488048489758 0 -0.38309632714991909 0.29083488048489758 0 -0.37322120776534662 0.28407307773153112 0 -0.37335442502489302 0.29669283321319562 0 -0.38553056357128579 0.301850710348818 0 -0.38309632714991909 0.29083488048489758 0 -0.37335442502489302 0.29669283321319562 0 -0.38309632714991909 0.29083488048489758 0 -0.38698471458664863 0.28081574712827129 0 -0.37322120776534662 0.28407307773153112 0 -0.38698471458664863 0.28081574712827129 0 -0.37707986127010029 0.27151455830838839 0 -0.37322120776534662 0.28407307773153112 0 -0.38698471458664863 0.28081574712827129 0 -0.39044159676440388 0.27047059327612821 0 -0.37707986127010029 0.27151455830838839 0 -0.39044159676440388 0.27047059327612821 0 -0.37707986127010029 0.27151455830838839 0 -0.38222141149610711 0.26154670614212489 0 -0.37762357589810641 0.24953723411872661 0 -0.40044655650917238 0.25811433305328563 0 -0.37762357589810641 0.24953723411872661 0 -0.38222141149610711 0.26154670614212489 0 -0.40044655650917238 0.25811433305328563 0 -0.37707986127010029 0.27151455830838839 0 -0.38222141149610711 0.26154670614212489 0 -0.36773374308549611 0.26020844267376703 0 -0.37762357589810641 0.24953723411872661 0 -0.38932782258989462 0.24452898672213899 0 -0.40044655650917238 0.25811433305328563 0 -0.37762357589810641 0.24953723411872661 0 -0.38222141149610711 0.26154670614212489 0 -0.36773374308549611 0.26020844267376703 0 -0.39044159676440388 0.27047059327612821 0 -0.38222141149610711 0.26154670614212489 0 -0.40141875768492008 0.26364036333665669 0 -0.38222141149610711 0.26154670614212489 0 -0.40141875768492008 0.26364036333665669 0 -0.38222141149610711 0.26154670614212489 0 -0.40141875768492008 0.26364036333665669 0 -0.40044655650917238 0.25811433305328563 0 -0.40141875768492008 0.26364036333665669 0 -0.40044655650917238 0.25811433305328563 0 -0.40141875768492008 0.26364036333665669 0 -0.40414049742014763 0.27911084061590902 0 -0.39044159676440388 0.27047059327612821 0 -0.40141875768492008 0.26364036333665669 0 -0.40414049742014763 0.27911084061590902 0 -0.41107146591579979 0.27206649530583682 0 -0.40141875768492008 0.26364036333665669 0 -0.40414049742014763 0.27911084061590902 0 -0.38698471458664863 0.28081574712827129 0 -0.39044159676440388 0.27047059327612821 0 -0.40414049742014763 0.27911084061590902 0 -0.36001710644037521 0.27283185920830721 0 -0.33779684838279261 0.28609816075947769 0 -0.34018326285651262 0.26080154602993127 0 -0.33788940549799379 0.24380658160696719 0 -0.35340254031448232 0.25560690021648391 0 -0.34018326285651262 0.26080154602993127 0 -0.354800595287041 0.2409601351841657 0 -0.35340254031448232 0.25560690021648391 0 -0.36773374308549611 0.26020844267376703 0 -0.35340254031448232 0.25560690021648391 0 -0.36001710644037521 0.27283185920830721 0 -0.34018326285651262 0.26080154602993127 0 -0.35340254031448232 0.25560690021648391 0 -0.36773374308549611 0.26020844267376703 0 -0.36001710644037521 0.27283185920830721 0 -0.37762357589810641 0.24953723411872661 0 -0.354800595287041 0.2409601351841657 0 -0.36773374308549611 0.26020844267376703 0 -0.37707986127010029 0.27151455830838839 0 -0.36001710644037521 0.27283185920830721 0 -0.37322120776534662 0.28407307773153112 0 -0.37707986127010029 0.27151455830838839 0 -0.36773374308549611 0.26020844267376703 0 -0.36001710644037521 0.27283185920830721 0 -0.36001710644037521 0.27283185920830721 0 -0.37322120776534662 0.28407307773153112 0 -0.35879481212014352 0.29174858804612658 0 -0.37322120776534662 0.28407307773153112 0 -0.37335442502489302 0.29669283321319562 0 -0.35879481212014352 0.29174858804612658 0 -0.37335442502489302 0.29669283321319562 0 -0.37414735523205589 0.31158160091767462 0 -0.35975862629799749 0.30478335323126249 0 -0.37335442502489302 0.29669283321319562 0 -0.35975862629799749 0.30478335323126249 0 -0.35879481212014352 0.29174858804612658 0 -0.37414735523205589 0.31158160091767462 0 -0.35975862629799749 0.30478335323126249 0 -0.36188662545293182 0.31529429906019529 0 -0.34828887442138462 0.30255211001056931 0 -0.33541043390907371 0.31139477548902439 0 -0.34968365139691632 0.31873567252695539 0 -0.35975862629799749 0.30478335323126249 0 -0.34828887442138462 0.30255211001056931 0 -0.34968365139691632 0.31873567252695539 0 -0.35975862629799749 0.30478335323126249 0 -0.34828887442138462 0.30255211001056931 0 -0.35879481212014352 0.29174858804612658 0 -0.34828887442138462 0.30255211001056931 0 -0.35879481212014352 0.29174858804612658 0 -0.33779684838279261 0.28609816075947769 0 -0.36001710644037521 0.27283185920830721 0 -0.35879481212014352 0.29174858804612658 0 -0.33779684838279261 0.28609816075947769 0 -0.33779684838279261 0.28609816075947769 0 -0.33541043390907371 0.31139477548902439 0 -0.34828887442138462 0.30255211001056931 0 -0.33779684838279261 0.28609816075947769 0 -0.33541043390907371 0.31139477548902439 0 -0.33779684838279261 0.28609816075947769 0 -0.33541043390907371 0.31139477548902439 0 -0.31784951446504062 0.30236297157796233 0 -0.33541043390907371 0.31139477548902439 0 -0.31784951446504062 0.30236297157796233 0 -0.3217462657091274 0.32064737635422041 0 -0.33541043390907371 0.31139477548902439 0 -0.31784951446504062 0.30236297157796233 0 -0.33779684838279261 0.28609816075947769 0 -0.31784951446504062 0.30236297157796233 0 -0.31709042905232671 0.27959064687520507 0 -0.31709042905232671 0.27959064687520507 0 -0.34018326285651262 0.26080154602993127 0 -0.31675628104696218 0.25816396337405889 0 -0.33779684838279261 0.28609816075947769 0 -0.34018326285651262 0.26080154602993127 0 -0.33779684838279261 0.28609816075947769 0 -0.31709042905232671 0.27959064687520507 0 -0.34018326285651262 0.26080154602993127 0 -0.33788940549799379 0.24380658160696719 0 -0.34018326285651262 0.26080154602993127 0 -0.31675628104696218 0.25816396337405889 0 -0.31628492721883539 0.23957254520949231 0 -0.31675628104696218 0.25816396337405889 0 -0.29263024276373129 0.25236458445954002 0 -0.31675628104696218 0.25816396337405889 0 -0.29645941889237332 0.27284787606321742 0 -0.29263024276373129 0.25236458445954002 0 -0.31709042905232671 0.27959064687520507 0 -0.31675628104696218 0.25816396337405889 0 -0.29645941889237332 0.27284787606321742 0 -0.28965444303604121 0.27892016551864202 0 -0.29645941889237332 0.27284787606321742 0 -0.28462976222723979 0.26633557703980448 0 -0.28965444303604121 0.27892016551864202 0 -0.28462976222723979 0.26633557703980448 0 -0.28095764949768981 0.27768346499108748 0 -0.28965444303604121 0.27892016551864202 0 -0.28095764949768981 0.27768346499108748 0 -0.28604931085245322 0.28600772296606719 0 -0.28462976222723979 0.26633557703980448 0 -0.29263024276373129 0.25236458445954002 0 -0.26694789876300162 0.26625314649527909 0 -0.28056281431753932 0.24436326559548641 0 -0.29263024276373129 0.25236458445954002 0 -0.27576790151354769 0.25417373225169149 0 -0.29645941889237332 0.27284787606321742 0 -0.29263024276373129 0.25236458445954002 0 -0.29645941889237332 0.27284787606321742 0 -0.28462976222723979 0.26633557703980448 0 -0.29263024276373129 0.25236458445954002 0 -0.29263024276373129 0.25236458445954002 0 -0.26694789876300162 0.26625314649527909 0 -0.29263024276373129 0.25236458445954002 0 -0.27576790151354769 0.25417373225169149 0 -0.26694789876300162 0.26625314649527909 0 -0.27127102212297499 0.24781219944000599 0 -0.27576790151354769 0.25417373225169149 0 -0.26546174464421152 0.25559093832545982 0 -0.26357200518833979 0.2481306776765875 0 -0.27127102212297499 0.24781219944000599 0 -0.26546174464421152 0.25559093832545982 0 -0.27576790151354769 0.25417373225169149 0 -0.26694789876300162 0.26625314649527909 0 -0.26546174464421152 0.25559093832545982 0 -0.28095764949768981 0.27768346499108748 0 -0.26610105853410998 0.27574808343626722 0 -0.28604931085245322 0.28600772296606719 0 -0.26610105853410998 0.27574808343626722 0 -0.28604931085245322 0.28600772296606719 0 -0.28462976222723979 0.26633557703980448 0 -0.27465909225551027 0.27150506799060958 0 -0.28095764949768981 0.27768346499108748 0 -0.28462976222723979 0.26633557703980448 0 -0.27465909225551027 0.27150506799060958 0 -0.26694789876300162 0.26625314649527909 0 -0.27465909225551027 0.27150506799060958 0 -0.28095764949768981 0.27768346499108748 0 -0.26610105853410998 0.27574808343626722 0 -0.27465909225551027 0.27150506799060958 0 -0.26610105853410998 0.27574808343626722 0 -0.26694789876300162 0.26625314649527909 0 -0.26610105853410998 0.27574808343626722 0 -0.24615280621576621 0.26548844390646842 0 -0.26610105853410998 0.27574808343626722 0 -0.26694789876300162 0.26625314649527909 0 -0.25956864423455489 0.26256166171682438 0 -0.26610105853410998 0.27574808343626722 0 -0.25956864423455489 0.26256166171682438 0 -0.24615280621576621 0.26548844390646842 0 -0.26130286593117402 0.28573621903864221 0 -0.24915420104852881 0.28720616524545362 0 -0.24615280621576621 0.26548844390646842 0 -0.26610105853410998 0.27574808343626722 0 -0.26130286593117402 0.28573621903864221 0 -0.24615280621576621 0.26548844390646842 0 -0.25704079557700088 0.2542377393705969 0 -0.25956864423455489 0.26256166171682438 0 -0.24615280621576621 0.26548844390646842 0 -0.25704079557700088 0.2542377393705969 0 -0.249435427503925 0.25000056447435692 0 -0.24615280621576621 0.26548844390646842 0 -0.25704079557700088 0.2542377393705969 0 -0.26546174464421152 0.25559093832545982 0 -0.25956864423455489 0.26256166171682438 0 -0.26357200518833979 0.2481306776765875 0 -0.25704079557700088 0.2542377393705969 0 -0.26546174464421152 0.25559093832545982 0 -0.26694789876300162 0.26625314649527909 0 -0.26546174464421152 0.25559093832545982 0 -0.25956864423455489 0.26256166171682438 0 -0.26525891187360168 0.30190844123559668 0 -0.25250351686746902 0.29989466443510299 0 -0.26121342260660041 0.29405981721879909 0 -0.26525891187360168 0.30190844123559668 0 -0.25250351686746902 0.29989466443510299 0 -0.2579230396276298 0.31303410818490363 0 -0.26525891187360168 0.30190844123559668 0 -0.26633353908766277 0.31093815740141878 0 -0.2579230396276298 0.31303410818490363 0 -0.25250351686746902 0.29989466443510299 0 -0.2579230396276298 0.31303410818490363 0 -0.24410435883272499 0.30730467973507741 0 -0.25250351686746902 0.29989466443510299 0 -0.26121342260660041 0.29405981721879909 0 -0.24915420104852881 0.28720616524545362 0 -0.26130286593117402 0.28573621903864221 0 -0.26121342260660041 0.29405981721879909 0 -0.24915420104852881 0.28720616524545362 0 -0.26130286593117402 0.28573621903864221 0 -0.26121342260660041 0.29405981721879909 0 -0.27128639101083041 0.29036254955448482 0 -0.26610105853410998 0.27574808343626722 0 -0.27118490658214173 0.28446364374886551 0 -0.28604931085245322 0.28600772296606719 0 -0.26121342260660041 0.29405981721879909 0 -0.27128639101083041 0.29036254955448482 0 -0.27245033075707742 0.29746328467139582 0 -0.26130286593117402 0.28573621903864221 0 -0.27128639101083041 0.29036254955448482 0 -0.27118490658214173 0.28446364374886551 0 -0.26610105853410998 0.27574808343626722 0 -0.26130286593117402 0.28573621903864221 0 -0.27118490658214173 0.28446364374886551 0 -0.27128639101083041 0.29036254955448482 0 -0.27118490658214173 0.28446364374886551 0 -0.28604931085245322 0.28600772296606719 0 -0.27128639101083041 0.29036254955448482 0 -0.28058453696013991 0.29596654379966292 0 -0.28604931085245322 0.28600772296606719 0 -0.27128639101083041 0.29036254955448482 0 -0.28058453696013991 0.29596654379966292 0 -0.27245033075707742 0.29746328467139582 0 -0.28058453696013991 0.29596654379966292 0 -0.27245033075707742 0.29746328467139582 0 -0.27757187736597938 0.30780140231922909 0 -0.26525891187360168 0.30190844123559668 0 -0.27245033075707742 0.29746328467139582 0 -0.27757187736597938 0.30780140231922909 0 -0.26525891187360168 0.30190844123559668 0 -0.26121342260660041 0.29405981721879909 0 -0.27245033075707742 0.29746328467139582 0 -0.26633353908766277 0.31093815740141878 0 -0.27757187736597938 0.30780140231922909 0 -0.27103404288107152 0.31748203656040119 0 -0.26525891187360168 0.30190844123559668 0 -0.26633353908766277 0.31093815740141878 0 -0.27757187736597938 0.30780140231922909 0 -0.29531682808224791 0.30115900637501469 0 -0.30458434531204509 0.31631028978396047 0 -0.28969416299380862 0.31788582217835382 0 -0.27757187736597938 0.30780140231922909 0 -0.29531682808224791 0.30115900637501469 0 -0.28969416299380862 0.31788582217835382 0 -0.28058453696013991 0.29596654379966292 0 -0.27757187736597938 0.30780140231922909 0 -0.29531682808224791 0.30115900637501469 0 -0.28965444303604121 0.27892016551864202 0 -0.29645941889237332 0.27284787606321742 0 -0.30028859502101002 0.29333116766689571 0 -0.28095764949768981 0.27768346499108748 0 -0.28604931085245322 0.28600772296606719 0 -0.28058453696013991 0.29596654379966292 0 -0.29531682808224791 0.30115900637501469 0 -0.28604931085245322 0.28600772296606719 0 -0.28604931085245322 0.28600772296606719 0 -0.30028859502101002 0.29333116766689571 0 -0.29531682808224791 0.30115900637501469 0 -0.28604931085245322 0.28600772296606719 0 -0.30028859502101002 0.29333116766689571 0 -0.29531682808224791 0.30115900637501469 0 -0.28604931085245322 0.28600772296606719 0 -0.28965444303604121 0.27892016551864202 0 -0.28604931085245322 0.28600772296606719 0 -0.30028859502101002 0.29333116766689571 0 -0.29645941889237332 0.27284787606321742 0 -0.30028859502101002 0.29333116766689571 0 -0.31784951446504062 0.30236297157796233 0 -0.31709042905232671 0.27959064687520507 0 -0.30028859502101002 0.29333116766689571 0 -0.31709042905232671 0.27959064687520507 0 -0.29645941889237332 0.27284787606321742 0 -0.30028859502101002 0.29333116766689571 0 -0.29531682808224791 0.30115900637501469 0 -0.30028859502101002 0.29333116766689571 0 -0.30458434531204509 0.31631028978396047 0 -0.31784951446504062 0.30236297157796233 0 -0.30028859502101002 0.29333116766689571 0 -0.30028859502101002 0.29333116766689571 0 -0.30458434531204509 0.31631028978396047 0 -0.31784951446504062 0.30236297157796233 0 -0.30028859502101002 0.29333116766689571 0 -0.30458434531204509 0.31631028978396047 0 -0.29531682808224791 0.30115900637501469 0 -0.30458434531204509 0.31631028978396047 0 -0.30458434531204509 0.31631028978396047 0 -0.31773699528048088 0.33781330103381202 0 -0.30458434531204509 0.31631028978396047 0 -0.29838890140195462 0.33174364257031491 0 -0.28969416299380862 0.31788582217835382 0 -0.30458434531204509 0.31631028978396047 0 -0.29838890140195462 0.33174364257031491 0 -0.30974136336272717 0.34389656447824729 0 -0.30458434531204509 0.31631028978396047 0 -0.30974136336272717 0.34389656447824729 0 -0.31773699528048088 0.33781330103381202 0 -0.30458434531204509 0.31631028978396047 0 -0.30974136336272717 0.34389656447824729 0 -0.29838890140195462 0.33174364257031491 0 -0.29774694638481219 0.34300877871200652 0 -0.30974136336272717 0.34389656447824729 0 -0.29838890140195462 0.33174364257031491 0 -0.28193024350727569 0.33019967796918243 0 -0.28680094178357762 0.3387887289635117 0 -0.29774694638481219 0.34300877871200652 0 -0.28680094178357762 0.3387887289635117 0 -0.29026130247215393 0.3475946345917772 0 -0.29838890140195462 0.33174364257031491 0 -0.29774694638481219 0.34300877871200652 0 -0.28680094178357762 0.3387887289635117 0 -0.28680094178357762 0.3387887289635117 0 -0.27840417713944399 0.34396159558360961 0 -0.29026130247215393 0.3475946345917772 0 -0.29838890140195462 0.33174364257031491 0 -0.28193024350727569 0.33019967796918243 0 -0.28969416299380862 0.31788582217835382 0 -0.28193024350727569 0.33019967796918243 0 -0.28969416299380862 0.31788582217835382 0 -0.279998122046764 0.32066165653919487 0 -0.27757187736597938 0.30780140231922909 0 -0.28969416299380862 0.31788582217835382 0 -0.279998122046764 0.32066165653919487 0 -0.27757187736597938 0.30780140231922909 0 -0.27103404288107152 0.31748203656040119 0 -0.279998122046764 0.32066165653919487 0 -0.26633353908766277 0.31093815740141878 0 -0.27103404288107152 0.31748203656040119 0 -0.2619699813775595 0.32067090670283022 0 -0.27103404288107152 0.31748203656040119 0 -0.279998122046764 0.32066165653919487 0 -0.26785032824016602 0.32887471985406591 0 -0.27103404288107152 0.31748203656040119 0 -0.26785032824016602 0.32887471985406591 0 -0.2619699813775595 0.32067090670283022 0 -0.28193024350727569 0.33019967796918243 0 -0.279998122046764 0.32066165653919487 0 -0.26785032824016602 0.32887471985406591 0 -0.28193024350727569 0.33019967796918243 0 -0.28680094178357762 0.3387887289635117 0 -0.27407407979582488 0.33622404435417991 0 -0.28193024350727569 0.33019967796918243 0 -0.27407407979582488 0.33622404435417991 0 -0.26785032824016602 0.32887471985406591 0 -0.28680094178357762 0.3387887289635117 0 -0.27407407979582488 0.33622404435417991 0 -0.27840417713944399 0.34396159558360961 0 -0.27407407979582488 0.33622404435417991 0 -0.2657891344612594 0.34260346541075559 0 -0.27840417713944399 0.34396159558360961 0 -0.27407407979582488 0.33622404435417991 0 -0.2657891344612594 0.34260346541075559 0 -0.26785032824016602 0.32887471985406591 0 -0.2657891344612594 0.34260346541075559 0 -0.26785032824016602 0.32887471985406591 0 -0.25765534988252359 0.33551440595186149 0 -0.26785032824016602 0.32887471985406591 0 -0.25765534988252359 0.33551440595186149 0 -0.25513146044283957 0.32598646153315808 0 -0.2657891344612594 0.34260346541075559 0 -0.25368043652116851 0.34365645987938581 0 -0.25765534988252359 0.33551440595186149 0 -0.25368043652116851 0.34365645987938581 0 -0.25765534988252359 0.33551440595186149 0 -0.24763081136529461 0.33494096372922999 0 -0.25765534988252359 0.33551440595186149 0 -0.25513146044283957 0.32598646153315808 0 -0.24763081136529461 0.33494096372922999 0 -0.25513146044283957 0.32598646153315808 0 -0.2579230396276298 0.31303410818490363 0 -0.24590158606486731 0.31892834640800533 0 -0.26633353908766277 0.31093815740141878 0 -0.2579230396276298 0.31303410818490363 0 -0.2619699813775595 0.32067090670283022 0 -0.25513146044283957 0.32598646153315808 0 -0.2579230396276298 0.31303410818490363 0 -0.2619699813775595 0.32067090670283022 0 -0.26785032824016602 0.32887471985406591 0 -0.25513146044283957 0.32598646153315808 0 -0.2619699813775595 0.32067090670283022 0 -0.26525078814191227 0.36110546955719242 0 -0.25743979375409431 0.3642842092102419 0 -0.25594486946715178 0.35704283167107043 0 -0.26525078814191227 0.36110546955719242 0 -0.26515504097039871 0.37148364879392209 0 -0.25743979375409431 0.3642842092102419 0 -0.26515504097039871 0.37148364879392209 0 -0.25470617562740888 0.3714596858883974 0 -0.2560937295827152 0.38004031966349888 0 -0.26515504097039871 0.37148364879392209 0 -0.25470617562740888 0.3714596858883974 0 -0.25743979375409431 0.3642842092102419 0 -0.25470617562740888 0.3714596858883974 0 -0.25081124317754028 0.36495989425522968 0 -0.24507155163857419 0.37309708549036119 0 -0.25470617562740888 0.3714596858883974 0 -0.2560937295827152 0.38004031966349888 0 -0.24507155163857419 0.37309708549036119 0 -0.25081124317754028 0.36495989425522968 0 -0.25743979375409431 0.3642842092102419 0 -0.25594486946715178 0.35704283167107043 0 -0.25081124317754028 0.36495989425522968 0 -0.25594486946715178 0.35704283167107043 0 -0.248255913421734 0.35836464571649412 0 -0.25470617562740888 0.3714596858883974 0 -0.25081124317754028 0.36495989425522968 0 -0.25743979375409431 0.3642842092102419 0 -0.25594486946715178 0.35704283167107043 0 -0.2585086214240499 0.34986687710485342 0 -0.2474994420061162 0.35137415341270778 0 -0.25594486946715178 0.35704283167107043 0 -0.2474994420061162 0.35137415341270778 0 -0.248255913421734 0.35836464571649412 0 -0.25368043652116851 0.34365645987938581 0 -0.2585086214240499 0.34986687710485342 0 -0.2474994420061162 0.35137415341270778 0 -0.2657891344612594 0.34260346541075559 0 -0.2585086214240499 0.34986687710485342 0 -0.26556371324638772 0.35230691355030352 0 -0.2657891344612594 0.34260346541075559 0 -0.25368043652116851 0.34365645987938581 0 -0.2585086214240499 0.34986687710485342 0 -0.25594486946715178 0.35704283167107043 0 -0.2585086214240499 0.34986687710485342 0 -0.26556371324638772 0.35230691355030352 0 -0.26525078814191227 0.36110546955719242 0 -0.25594486946715178 0.35704283167107043 0 -0.26556371324638772 0.35230691355030352 0 -0.26525078814191227 0.36110546955719242 0 -0.26556371324638772 0.35230691355030352 0 -0.27428448855606408 0.35645834139669103 0 -0.26556371324638772 0.35230691355030352 0 -0.27290001507207201 0.34940459057231349 0 -0.27428448855606408 0.35645834139669103 0 -0.2657891344612594 0.34260346541075559 0 -0.26556371324638772 0.35230691355030352 0 -0.27290001507207201 0.34940459057231349 0 -0.2657891344612594 0.34260346541075559 0 -0.27290001507207201 0.34940459057231349 0 -0.27840417713944399 0.34396159558360961 0 -0.27290001507207201 0.34940459057231349 0 -0.27840417713944399 0.34396159558360961 0 -0.28195932364824339 0.35154724259594877 0 -0.27428448855606408 0.35645834139669103 0 -0.28519135930223882 0.35987967276604388 0 -0.28195932364824339 0.35154724259594877 0 -0.27290001507207201 0.34940459057231349 0 -0.27428448855606408 0.35645834139669103 0 -0.28195932364824339 0.35154724259594877 0 -0.27428448855606408 0.35645834139669103 0 -0.27311682285737771 0.36505687272092557 0 -0.28519135930223882 0.35987967276604388 0 -0.27311682285737771 0.36505687272092557 0 -0.28057373982321288 0.37181319820896352 0 -0.28519135930223882 0.35987967276604388 0 -0.26525078814191227 0.36110546955719242 0 -0.26515504097039871 0.37148364879392209 0 -0.27311682285737771 0.36505687272092557 0 -0.26525078814191227 0.36110546955719242 0 -0.27428448855606408 0.35645834139669103 0 -0.27311682285737771 0.36505687272092557 0 -0.26515504097039871 0.37148364879392209 0 -0.27311682285737771 0.36505687272092557 0 -0.28057373982321288 0.37181319820896352 0 -0.28057373982321288 0.37181319820896352 0 -0.28519135930223882 0.35987967276604388 0 -0.29639606127656892 0.37106173439842888 0 -0.28057373982321288 0.37181319820896352 0 -0.29639606127656892 0.37106173439842888 0 -0.28892080910481849 0.38162830192451103 0 -0.28519135930223882 0.35987967276604388 0 -0.29639606127656892 0.37106173439842888 0 -0.29974777648205048 0.35562568544957229 0 -0.27840417713944399 0.34396159558360961 0 -0.28195932364824339 0.35154724259594877 0 -0.29026130247215393 0.3475946345917772 0 -0.28519135930223882 0.35987967276604388 0 -0.28195932364824339 0.35154724259594877 0 -0.29026130247215393 0.3475946345917772 0 -0.28519135930223882 0.35987967276604388 0 -0.29026130247215393 0.3475946345917772 0 -0.29974777648205048 0.35562568544957229 0 -0.29774694638481219 0.34300877871200652 0 -0.29026130247215393 0.3475946345917772 0 -0.29974777648205048 0.35562568544957229 0 -0.29974777648205048 0.35562568544957229 0 -0.30974136336272717 0.34389656447824729 0 -0.31489838141340709 0.37148283917253438 0 -0.30974136336272717 0.34389656447824729 0 -0.31489838141340709 0.37148283917253438 0 -0.29774694638481219 0.34300877871200652 0 -0.29974777648205048 0.35562568544957229 0 -0.30974136336272717 0.34389656447824729 0 -0.29639606127656892 0.37106173439842888 0 -0.29974777648205048 0.35562568544957229 0 -0.31489838141340709 0.37148283917253438 0 -0.31489838141340709 0.37148283917253438 0 -0.32610453590712452 0.37033398374484378 0 -0.32168007633979612 0.35734475152834277 0 -0.32610453590712452 0.37033398374484378 0 -0.33070953682611831 0.36122550845695689 0 -0.32168007633979612 0.35734475152834277 0 -0.32610453590712452 0.37033398374484378 0 -0.33531020706499892 0.36654340269433572 0 -0.33338984371457669 0.37613270995711873 0 -0.32610453590712452 0.37033398374484378 0 -0.33070953682611831 0.36122550845695689 0 -0.33531020706499892 0.36654340269433572 0 -0.33070953682611831 0.36122550845695689 0 -0.3308896452489184 0.35931631228366262 0 -0.33531020706499892 0.36654340269433572 0 -0.3308896452489184 0.35931631228366262 0 -0.33070953682611831 0.36122550845695689 0 -0.33531020706499892 0.36654340269433572 0 -0.3308896452489184 0.35931631228366262 0 -0.33531020706499892 0.36654340269433572 0 -0.34249884809267489 0.37060752425186289 0 -0.34240418109068299 0.35723876581172342 0 -0.33531020706499892 0.36654340269433572 0 -0.34240418109068299 0.35723876581172342 0 -0.3308896452489184 0.35931631228366262 0 -0.33531020706499892 0.36654340269433572 0 -0.34249884809267489 0.37060752425186289 0 -0.33338984371457669 0.37613270995711873 0 -0.34240418109068299 0.35723876581172342 0 -0.3308896452489184 0.35931631228366262 0 -0.33315003957899553 0.33535554388634342 0 -0.34240418109068299 0.35723876581172342 0 -0.33315003957899553 0.33535554388634342 0 -0.35122832465374448 0.34787735051578789 0 -0.3308896452489184 0.35931631228366262 0 -0.33315003957899553 0.33535554388634342 0 -0.3308896452489184 0.35931631228366262 0 -0.32168007633979612 0.35734475152834277 0 -0.31773699528048088 0.33781330103381202 0 -0.3308896452489184 0.35931631228366262 0 -0.31773699528048088 0.33781330103381202 0 -0.33315003957899553 0.33535554388634342 0 -0.30974136336272717 0.34389656447824729 0 -0.32168007633979612 0.35734475152834277 0 -0.31773699528048088 0.33781330103381202 0 -0.30974136336272717 0.34389656447824729 0 -0.31489838141340709 0.37148283917253438 0 -0.32168007633979612 0.35734475152834277 0 -0.3308896452489184 0.35931631228366262 0 -0.31773699528048088 0.33781330103381202 0 -0.33070953682611831 0.36122550845695689 0 -0.3308896452489184 0.35931631228366262 0 -0.32168007633979612 0.35734475152834277 0 -0.31773699528048088 0.33781330103381202 0 -0.3217462657091274 0.32064737635422041 0 -0.33315003957899553 0.33535554388634342 0 -0.30458434531204509 0.31631028978396047 0 -0.31773699528048088 0.33781330103381202 0 -0.3217462657091274 0.32064737635422041 0 -0.31784951446504062 0.30236297157796233 0 -0.30458434531204509 0.31631028978396047 0 -0.3217462657091274 0.32064737635422041 0 -0.33541043390907371 0.31139477548902439 0 -0.3217462657091274 0.32064737635422041 0 -0.33315003957899553 0.33535554388634342 0 -0.33541043390907371 0.31139477548902439 0 -0.33315003957899553 0.33535554388634342 0 -0.33541043390907371 0.31139477548902439 0 -0.33315003957899553 0.33535554388634342 0 -0.34968365139691632 0.31873567252695539 0 -0.33541043390907371 0.31139477548902439 0 -0.34968365139691632 0.31873567252695539 0 -0.33315003957899553 0.33535554388634342 0 -0.35162250330144518 0.3338496036482177 0 -0.34968365139691632 0.31873567252695539 0 -0.33315003957899553 0.33535554388634342 0 -0.35162250330144518 0.3338496036482177 0 -0.35122832465374448 0.34787735051578789 0 -0.35162250330144518 0.3338496036482177 0 -0.36444011866480058 0.33777830232287831 0 -0.35122832465374448 0.34787735051578789 0 -0.35162250330144518 0.3338496036482177 0 -0.34968365139691632 0.31873567252695539 0 -0.3639568688847577 0.32607656956488867 0 -0.34968365139691632 0.31873567252695539 0 -0.3639568688847577 0.32607656956488867 0 -0.34968365139691632 0.31873567252695539 0 -0.36188662545293182 0.31529429906019529 0 -0.3639568688847577 0.32607656956488867 0 -0.35975862629799749 0.30478335323126249 0 -0.34968365139691632 0.31873567252695539 0 -0.36188662545293182 0.31529429906019529 0 -0.37414735523205589 0.31158160091767462 0 -0.36188662545293182 0.31529429906019529 0 -0.3639568688847577 0.32607656956488867 0 -0.37644965412025161 0.32667390061683688 0 -0.37414735523205589 0.31158160091767462 0 -0.3639568688847577 0.32607656956488867 0 -0.35162250330144518 0.3338496036482177 0 -0.3639568688847577 0.32607656956488867 0 -0.36444011866480058 0.33777830232287831 0 -0.37644965412025161 0.32667390061683688 0 -0.3639568688847577 0.32607656956488867 0 -0.36444011866480058 0.33777830232287831 0 -0.37781694332799343 0.34069825694722561 0 -0.37644965412025161 0.32667390061683688 0 -0.36444011866480058 0.33777830232287831 0 -0.37781694332799343 0.34069825694722561 0 -0.36444011866480058 0.33777830232287831 0 -0.36556641770061149 0.35149413264431328 0 -0.38209297762938599 0.35465694138060438 0 -0.36556641770061149 0.35149413264431328 0 -0.3717287424002621 0.36323611655130389 0 -0.36444011866480058 0.33777830232287831 0 -0.36556641770061149 0.35149413264431328 0 -0.35122832465374448 0.34787735051578789 0 -0.36556641770061149 0.35149413264431328 0 -0.3717287424002621 0.36323611655130389 0 -0.35325789183830669 0.36926549755128868 0 -0.3717287424002621 0.36323611655130389 0 -0.35325789183830669 0.36926549755128868 0 -0.3700817685325466 0.37979505833716981 0 -0.34249884809267489 0.37060752425186289 0 -0.35325789183830669 0.36926549755128868 0 -0.34199887503737059 0.380772450128814 0 -0.34249884809267489 0.37060752425186289 0 -0.34240418109068299 0.35723876581172342 0 -0.35325789183830669 0.36926549755128868 0 -0.36556641770061149 0.35149413264431328 0 -0.35325789183830669 0.36926549755128868 0 -0.35122832465374448 0.34787735051578789 0 -0.34240418109068299 0.35723876581172342 0 -0.35325789183830669 0.36926549755128868 0 -0.35122832465374448 0.34787735051578789 0 -0.34473680579000171 0.40019505425397711 0 -0.36856188385864808 0.39801797795947791 0 -0.35963005199534548 0.41164505657854378 0 -0.34473680579000171 0.40019505425397711 0 -0.35637021793061519 0.38714964179772732 0 -0.36856188385864808 0.39801797795947791 0 -0.34473680579000171 0.40019505425397711 0 -0.35637021793061519 0.38714964179772732 0 -0.34199887503737059 0.380772450128814 0 -0.35325789183830669 0.36926549755128868 0 -0.35637021793061519 0.38714964179772732 0 -0.34199887503737059 0.380772450128814 0 -0.35325789183830669 0.36926549755128868 0 -0.35637021793061519 0.38714964179772732 0 -0.3700817685325466 0.37979505833716981 0 -0.38212343750332289 0.38854718054588178 0 -0.3700817685325466 0.37979505833716981 0 -0.36856188385864808 0.39801797795947791 0 -0.35637021793061519 0.38714964179772732 0 -0.3700817685325466 0.37979505833716981 0 -0.36856188385864808 0.39801797795947791 0 -0.38266411676810169 0.41159499686730933 0 -0.35963005199534548 0.41164505657854378 0 -0.36027602876084641 0.43061162663290908 0 -0.38266411676810169 0.41159499686730933 0 -0.36856188385864808 0.39801797795947791 0 -0.35963005199534548 0.41164505657854378 0 -0.38266411676810169 0.41159499686730933 0 -0.36027602876084641 0.43061162663290908 0 -0.37935242010599618 0.44071850896710518 0 -0.38266411676810169 0.41159499686730933 0 -0.36027602876084641 0.43061162663290908 0 -0.36027602876084641 0.43061162663290908 0 -0.343953131731215 0.43408179415007142 0 -0.34098677526882082 0.41726714654746139 0 -0.34473680579000171 0.40019505425397711 0 -0.35963005199534548 0.41164505657854378 0 -0.34098677526882082 0.41726714654746139 0 -0.35963005199534548 0.41164505657854378 0 -0.36027602876084641 0.43061162663290908 0 -0.34098677526882082 0.41726714654746139 0 -0.34098677526882082 0.41726714654746139 0 -0.32902716490274858 0.41009973325094801 0 -0.32430915101930108 0.42182357346540889 0 -0.34473680579000171 0.40019505425397711 0 -0.34098677526882082 0.41726714654746139 0 -0.33517908890721371 0.4049508773360308 0 -0.34098677526882082 0.41726714654746139 0 -0.32902716490274858 0.41009973325094801 0 -0.33517908890721371 0.4049508773360308 0 -0.34098677526882082 0.41726714654746139 0 -0.32430915101930108 0.42182357346540889 0 -0.33009624361327028 0.44338048662395679 0 -0.343953131731215 0.43408179415007142 0 -0.34098677526882082 0.41726714654746139 0 -0.33009624361327028 0.44338048662395679 0 -0.34098677526882082 0.41726714654746139 0 -0.33009624361327028 0.44338048662395679 0 -0.32430915101930108 0.42182357346540889 0 -0.3282595285809613 0.44295520408821359 0 -0.32430915101930108 0.42182357346540889 0 -0.3282595285809613 0.44295520408821359 0 -0.33009624361327028 0.44338048662395679 0 -0.31821964290833338 0.43477018593426348 0 -0.32430915101930108 0.42182357346540889 0 -0.30672873041261001 0.42552745449977769 0 -0.31821964290833338 0.43477018593426348 0 -0.32430915101930108 0.42182357346540889 0 -0.3282595285809613 0.44295520408821359 0 -0.32430915101930108 0.42182357346540889 0 -0.31932208979495608 0.40052500332728891 0 -0.31932208979495608 0.40052500332728891 0 -0.30672873041261001 0.42552745449977769 0 -0.31799493273674212 0.41206890259851081 0 -0.32430915101930108 0.42182357346540889 0 -0.30672873041261001 0.42552745449977769 0 -0.31799493273674212 0.41206890259851081 0 -0.31932208979495608 0.40052500332728891 0 -0.30672873041261001 0.42552745449977769 0 -0.32902716490274858 0.41009973325094801 0 -0.32430915101930108 0.42182357346540889 0 -0.31932208979495608 0.40052500332728891 0 -0.31799493273674212 0.41206890259851081 0 -0.32430915101930108 0.42182357346540889 0 -0.31932208979495608 0.40052500332728891 0 -0.32005539946408601 0.39906911386682209 0 -0.32733293219852311 0.4018150074011016 0 -0.32696037162265063 0.38536020395641918 0 -0.32005539946408601 0.39906911386682209 0 -0.31932208979495608 0.40052500332728891 0 -0.32005539946408601 0.39906911386682209 0 -0.31932208979495608 0.40052500332728891 0 -0.30625820659269309 0.38737321348770393 0 -0.32005539946408601 0.39906911386682209 0 -0.32696037162265063 0.38536020395641918 0 -0.32005539946408601 0.39906911386682209 0 -0.31932208979495608 0.40052500332728891 0 -0.32733293219852311 0.4018150074011016 0 -0.32902716490274858 0.41009973325094801 0 -0.31932208979495608 0.40052500332728891 0 -0.32733293219852311 0.4018150074011016 0 -0.31932208979495608 0.40052500332728891 0 -0.32733293219852311 0.4018150074011016 0 -0.32733293219852311 0.4018150074011016 0 -0.33532721454485342 0.39340238589559889 0 -0.32696037162265063 0.38536020395641918 0 -0.34473680579000171 0.40019505425397711 0 -0.33532721454485342 0.39340238589559889 0 -0.34199887503737059 0.380772450128814 0 -0.32733293219852311 0.4018150074011016 0 -0.33517908890721371 0.4049508773360308 0 -0.33532721454485342 0.39340238589559889 0 -0.32902716490274858 0.41009973325094801 0 -0.32733293219852311 0.4018150074011016 0 -0.33517908890721371 0.4049508773360308 0 -0.34473680579000171 0.40019505425397711 0 -0.33517908890721371 0.4049508773360308 0 -0.33532721454485342 0.39340238589559889 0 -0.34249884809267489 0.37060752425186289 0 -0.34199887503737059 0.380772450128814 0 -0.33338984371457669 0.37613270995711873 0 -0.33532721454485342 0.39340238589559889 0 -0.34199887503737059 0.380772450128814 0 -0.32696037162265063 0.38536020395641918 0 -0.34199887503737059 0.380772450128814 0 -0.33338984371457669 0.37613270995711873 0 -0.32696037162265063 0.38536020395641918 0 -0.32610453590712452 0.37033398374484378 0 -0.33338984371457669 0.37613270995711873 0 -0.32696037162265063 0.38536020395641918 0 -0.31489838141340709 0.37148283917253438 0 -0.32005539946408601 0.39906911386682209 0 -0.32696037162265063 0.38536020395641918 0 -0.31489838141340709 0.37148283917253438 0 -0.32005539946408601 0.39906911386682209 0 -0.30625820659269309 0.38737321348770393 0 -0.31489838141340709 0.37148283917253438 0 -0.32610453590712452 0.37033398374484378 0 -0.32696037162265063 0.38536020395641918 0 -0.31489838141340709 0.37148283917253438 0 -0.32005539946408601 0.39906911386682209 0 -0.29639606127656892 0.37106173439842888 0 -0.30625820659269309 0.38737321348770393 0 -0.28892080910481849 0.38162830192451103 0 -0.29639606127656892 0.37106173439842888 0 -0.31489838141340709 0.37148283917253438 0 -0.30625820659269309 0.38737321348770393 0 -0.31932208979495608 0.40052500332728891 0 -0.29027908954857712 0.39584814329857138 0 -0.30320727103978301 0.40808097963194018 0 -0.31932208979495608 0.40052500332728891 0 -0.30625820659269309 0.38737321348770393 0 -0.29027908954857712 0.39584814329857138 0 -0.31932208979495608 0.40052500332728891 0 -0.29027908954857712 0.39584814329857138 0 -0.29027908954857712 0.39584814329857138 0 -0.27886850066683327 0.4066823863111646 0 -0.30320727103978301 0.40808097963194018 0 -0.29027908954857712 0.39584814329857138 0 -0.28892080910481849 0.38162830192451103 0 -0.27370974972198658 0.38199748252655358 0 -0.30625820659269309 0.38737321348770393 0 -0.29027908954857712 0.39584814329857138 0 -0.28892080910481849 0.38162830192451103 0 -0.28057373982321288 0.37181319820896352 0 -0.28892080910481849 0.38162830192451103 0 -0.27370974972198658 0.38199748252655358 0 -0.29027908954857712 0.39584814329857138 0 -0.27370974972198658 0.38199748252655358 0 -0.26123608930219788 0.39117128326985462 0 -0.26515504097039871 0.37148364879392209 0 -0.28057373982321288 0.37181319820896352 0 -0.27370974972198658 0.38199748252655358 0 -0.26123608930219788 0.39117128326985462 0 -0.26574861793578319 0.41042474952792107 0 -0.27886850066683327 0.4066823863111646 0 -0.29027908954857712 0.39584814329857138 0 -0.26123608930219788 0.39117128326985462 0 -0.29027908954857712 0.39584814329857138 0 -0.26123608930219788 0.39117128326985462 0 -0.27886850066683327 0.4066823863111646 0 -0.26123608930219788 0.39117128326985462 0 -0.25443672127411232 0.40753113851161837 0 -0.2487540922718337 0.39786746445057958 0 -0.26123608930219788 0.39117128326985462 0 -0.25443672127411232 0.40753113851161837 0 -0.26574861793578319 0.41042474952792107 0 -0.27370974972198658 0.38199748252655358 0 -0.26123608930219788 0.39117128326985462 0 -0.2560937295827152 0.38004031966349888 0 -0.26515504097039871 0.37148364879392209 0 -0.27370974972198658 0.38199748252655358 0 -0.2560937295827152 0.38004031966349888 0 -0.26123608930219788 0.39117128326985462 0 -0.2560937295827152 0.38004031966349888 0 -0.24640294203220769 0.3818395311168023 0 -0.25992894544496009 0.42475478568301339 0 -0.26755533122200842 0.44150219003199942 0 -0.2401470957773337 0.43580564415847117 0 -0.25992894544496009 0.42475478568301339 0 -0.25443672127411232 0.40753113851161837 0 -0.24539948521445129 0.42162133900916038 0 -0.25992894544496009 0.42475478568301339 0 -0.25443672127411232 0.40753113851161837 0 -0.26574861793578319 0.41042474952792107 0 -0.26574861793578319 0.41042474952792107 0 -0.27886850066683327 0.4066823863111646 0 -0.28314824073989198 0.42283245400845931 0 -0.25992894544496009 0.42475478568301339 0 -0.26574861793578319 0.41042474952792107 0 -0.28314824073989198 0.42283245400845931 0 -0.25992894544496009 0.42475478568301339 0 -0.28314824073989198 0.42283245400845931 0 -0.26755533122200842 0.44150219003199942 0 -0.28314824073989198 0.42283245400845931 0 -0.30672873041261001 0.42552745449977769 0 -0.29413537103026188 0.45052990567226558 0 -0.27886850066683327 0.4066823863111646 0 -0.28314824073989198 0.42283245400845931 0 -0.30320727103978301 0.40808097963194018 0 -0.31932208979495608 0.40052500332728891 0 -0.30320727103978301 0.40808097963194018 0 -0.30672873041261001 0.42552745449977769 0 -0.28314824073989198 0.42283245400845931 0 -0.30320727103978301 0.40808097963194018 0 -0.30672873041261001 0.42552745449977769 0 -0.31821964290833338 0.43477018593426348 0 -0.30672873041261001 0.42552745449977769 0 -0.31037484746918098 0.44303671757187341 0 -0.30672873041261001 0.42552745449977769 0 -0.31037484746918098 0.44303671757187341 0 -0.29413537103026188 0.45052990567226558 0 -0.30672873041261001 0.42552745449977769 0 -0.29413537103026188 0.45052990567226558 0 -0.31037484746918098 0.44303671757187341 0 -0.29413537103026188 0.45052990567226558 0 -0.31920571195771991 0.46949382670045231 0 -0.29413537103026188 0.45052990567226558 0 -0.30028838623699999 0.47753303797813551 0 -0.31920571195771991 0.46949382670045231 0 -0.29413537103026188 0.45052990567226558 0 -0.274561189906114 0.45778575408508321 0 -0.2815420116479137 0.47553235684475342 0 -0.29413537103026188 0.45052990567226558 0 -0.2815420116479137 0.47553235684475342 0 -0.29413537103026188 0.45052990567226558 0 -0.2815420116479137 0.47553235684475342 0 -0.30028838623699999 0.47753303797813551 0 -0.28314824073989198 0.42283245400845931 0 -0.29413537103026188 0.45052990567226558 0 -0.26755533122200842 0.44150219003199942 0 -0.29413537103026188 0.45052990567226558 0 -0.26755533122200842 0.44150219003199942 0 -0.274561189906114 0.45778575408508321 0 -0.274561189906114 0.45778575408508321 0 -0.25501204572427211 0.46357856379131462 0 -0.2815420116479137 0.47553235684475342 0 -0.26755533122200842 0.44150219003199942 0 -0.274561189906114 0.45778575408508321 0 -0.25501204572427211 0.46357856379131462 0 -0.26755533122200842 0.44150219003199942 0 -0.25501204572427211 0.46357856379131462 0 -0.2401470957773337 0.43580564415847117 0 -0.25501204572427211 0.46357856379131462 0 -0.286154948057041 0.5 0 -0.23343930148379971 0.47568444581577191 0 -0.25501204572427211 0.46357856379131462 0 -0.286154948057041 0.5 0 -0.2815420116479137 0.47553235684475342 0 -0.286154948057041 0.5 0 -0.2815420116479137 0.47553235684475342 0 -0.30028838623699999 0.47753303797813551 0 -0.30028838623699999 0.47753303797813551 0 -0.30831518030216948 0.49560716677694738 0 -0.31920571195771991 0.46949382670045231 0 -0.286154948057041 0.5 0 -0.30028838623699999 0.47753303797813551 0 -0.30831518030216948 0.49560716677694738 0 -0.38004119447167473 0.5 0 -0.286154948057041 0.5 0 -0.30831518030216948 0.49560716677694738 0 -0.38004119447167473 0.5 0 -0.30831518030216948 0.49560716677694738 0 -0.34537086950538248 0.47239016686617308 0 -0.30831518030216948 0.49560716677694738 0 -0.31920571195771991 0.46949382670045231 0 -0.34537086950538248 0.47239016686617308 0 -0.30831518030216948 0.49560716677694738 0 -0.31920571195771991 0.46949382670045231 0 -0.31920571195771991 0.46949382670045231 0 -0.33009624361327028 0.44338048662395679 0 -0.31920571195771991 0.46949382670045231 0 -0.31931560591719232 0.44264883427353291 0 -0.3282595285809613 0.44295520408821359 0 -0.31920571195771991 0.46949382670045231 0 -0.3282595285809613 0.44295520408821359 0 -0.33009624361327028 0.44338048662395679 0 -0.31037484746918098 0.44303671757187341 0 -0.31920571195771991 0.46949382670045231 0 -0.31931560591719232 0.44264883427353291 0 -0.31821964290833338 0.43477018593426348 0 -0.31037484746918098 0.44303671757187341 0 -0.31931560591719232 0.44264883427353291 0 -0.31821964290833338 0.43477018593426348 0 -0.31931560591719232 0.44264883427353291 0 -0.3282595285809613 0.44295520408821359 0 -0.343953131731215 0.43408179415007142 0 -0.33009624361327028 0.44338048662395679 0 -0.33788794075359108 0.44962825639850879 0 -0.31920571195771991 0.46949382670045231 0 -0.33009624361327028 0.44338048662395679 0 -0.33788794075359108 0.44962825639850879 0 -0.31920571195771991 0.46949382670045231 0 -0.33788794075359108 0.44962825639850879 0 -0.34537086950538248 0.47239016686617308 0 -0.33788794075359108 0.44962825639850879 0 -0.35782455177239908 0.45118382420568298 0 -0.34537086950538248 0.47239016686617308 0 -0.35782455177239908 0.45118382420568298 0 -0.37105357443984133 0.46430303421273489 0 -0.34537086950538248 0.47239016686617308 0 -0.36027602876084641 0.43061162663290908 0 -0.33788794075359108 0.44962825639850879 0 -0.35782455177239908 0.45118382420568298 0 -0.36027602876084641 0.43061162663290908 0 -0.33788794075359108 0.44962825639850879 0 -0.36027602876084641 0.43061162663290908 0 -0.343953131731215 0.43408179415007142 0 -0.33788794075359108 0.44962825639850879 0 -0.37935242010599618 0.44071850896710518 0 -0.35782455177239908 0.45118382420568298 0 -0.37105357443984133 0.46430303421273489 0 -0.37935242010599618 0.44071850896710518 0 -0.36027602876084641 0.43061162663290908 0 -0.35782455177239908 0.45118382420568298 0 -0.38004119447167473 0.5 0 -0.37105357443984133 0.46430303421273489 0 -0.34537086950538248 0.47239016686617308 0 -0.15508226309130929 0.48596458144584759 0 -0.13590672581586691 0.49999999999999578 0 -0.21882433640643481 0.5 0 -0.15508226309130929 0.48596458144584759 0 -0.14061103173860301 0.47240595647875738 0 -0.15291596689380241 0.46775626101873108 0 -0.15508226309130929 0.48596458144584759 0 -0.14061103173860301 0.47240595647875738 0 -0.13185266503140139 0.48410183447219812 0 -0.15508226309130929 0.48596458144584759 0 -0.13590672581586691 0.49999999999999578 0 -0.15508226309130929 0.48596458144584759 0 -0.13590672581586691 0.49999999999999578 0 -0.13185266503140139 0.48410183447219812 0 -0.13590672581586691 0.49999999999999578 0 -0.13152524646030489 0.49999999999999889 0 -0.13185266503140139 0.48410183447219812 0 -0.13152524646030489 0.49999999999999889 0 -0.13185266503140139 0.48410183447219812 0 -0.1143705817159245 0.47661318690332199 0 -0.14061103173860301 0.47240595647875738 0 -0.13185266503140139 0.48410183447219812 0 -0.12646001653391509 0.46668721438350619 0 -0.12646001653391509 0.46668721438350619 0 -0.1272772443498997 0.45077262286745168 0 -0.1424908262529809 0.45504144784588979 0 -0.14061103173860301 0.47240595647875738 0 -0.12646001653391509 0.46668721438350619 0 -0.1424908262529809 0.45504144784588979 0 -0.1424908262529809 0.45504144784588979 0 -0.146736243775825 0.42824328223605279 0 -0.12996922900776969 0.43349752018555421 0 -0.1272772443498997 0.45077262286745168 0 -0.1424908262529809 0.45504144784588979 0 -0.12996922900776969 0.43349752018555421 0 -0.1424908262529809 0.45504144784588979 0 -0.1582351716154502 0.44869677905138389 0 -0.146736243775825 0.42824328223605279 0 -0.14061103173860301 0.47240595647875738 0 -0.1424908262529809 0.45504144784588979 0 -0.15291596689380241 0.46775626101873108 0 -0.1424908262529809 0.45504144784588979 0 -0.15291596689380241 0.46775626101873108 0 -0.1582351716154502 0.44869677905138389 0 -0.15291596689380241 0.46775626101873108 0 -0.16805719629047611 0.46025217826640957 0 -0.1582351716154502 0.44869677905138389 0 -0.15291596689380241 0.46775626101873108 0 -0.16805719629047611 0.46025217826640957 0 -0.1625783066605854 0.47147554590567259 0 -0.16805719629047611 0.46025217826640957 0 -0.1742578003667537 0.47192916289170228 0 -0.1625783066605854 0.47147554590567259 0 -0.16805719629047611 0.46025217826640957 0 -0.1582351716154502 0.44869677905138389 0 -0.17128141429890761 0.44879319635769549 0 -0.1582351716154502 0.44869677905138389 0 -0.17128141429890761 0.44879319635769549 0 -0.1652439778291136 0.4337418550098307 0 -0.17128141429890761 0.44879319635769549 0 -0.18432665399575501 0.43667817799187769 0 -0.1652439778291136 0.4337418550098307 0 -0.18054407176374321 0.46459699146897521 0 -0.193433337642198 0.45789374433755692 0 -0.18432665399575501 0.43667817799187769 0 -0.17128141429890761 0.44879319635769549 0 -0.18054407176374321 0.46459699146897521 0 -0.18432665399575501 0.43667817799187769 0 -0.18054407176374321 0.46459699146897521 0 -0.18432665399575501 0.43667817799187769 0 -0.1742578003667537 0.47192916289170228 0 -0.193433337642198 0.45789374433755692 0 -0.16805719629047611 0.46025217826640957 0 -0.17128141429890761 0.44879319635769549 0 -0.18054407176374321 0.46459699146897521 0 -0.18054407176374321 0.46459699146897521 0 -0.1742578003667537 0.47192916289170228 0 -0.193433337642198 0.45789374433755692 0 -0.16805719629047611 0.46025217826640957 0 -0.18054407176374321 0.46459699146897521 0 -0.1742578003667537 0.47192916289170228 0 -0.1742578003667537 0.47192916289170228 0 -0.19050353773478559 0.47765758843786071 0 -0.193433337642198 0.45789374433755692 0 -0.15508226309130929 0.48596458144584759 0 -0.1742578003667537 0.47192916289170228 0 -0.19050353773478559 0.47765758843786071 0 -0.15508226309130929 0.48596458144584759 0 -0.15291596689380241 0.46775626101873108 0 -0.1625783066605854 0.47147554590567259 0 -0.15508226309130929 0.48596458144584759 0 -0.1742578003667537 0.47192916289170228 0 -0.15508226309130929 0.48596458144584759 0 -0.1742578003667537 0.47192916289170228 0 -0.1625783066605854 0.47147554590567259 0 -0.286154948057041 0.5 0 -0.21882433640643481 0.5 0 -0.23343930148379971 0.47568444581577191 0 -0.15508226309130929 0.48596458144584759 0 -0.19050353773478559 0.47765758843786071 0 -0.21882433640643481 0.5 0 -0.19050353773478559 0.47765758843786071 0 -0.21091995116723211 0.47250045351419662 0 -0.193433337642198 0.45789374433755692 0 -0.19050353773478559 0.47765758843786071 0 -0.21091995116723211 0.47250045351419662 0 -0.21882433640643481 0.5 0 -0.21091995116723211 0.47250045351419662 0 -0.21882433640643481 0.5 0 -0.23343930148379971 0.47568444581577191 0 -0.25501204572427211 0.46357856379131462 0 -0.2200359772780788 0.45486756843485959 0 -0.2401470957773337 0.43580564415847117 0 -0.25501204572427211 0.46357856379131462 0 -0.23343930148379971 0.47568444581577191 0 -0.2200359772780788 0.45486756843485959 0 -0.21091995116723211 0.47250045351419662 0 -0.23343930148379971 0.47568444581577191 0 -0.2200359772780788 0.45486756843485959 0 -0.2200359772780788 0.45486756843485959 0 -0.21415399204139551 0.43117092131933599 0 -0.2401470957773337 0.43580564415847117 0 -0.2200359772780788 0.45486756843485959 0 -0.20176731502115269 0.44175413905293831 0 -0.21415399204139551 0.43117092131933599 0 -0.2200359772780788 0.45486756843485959 0 -0.193433337642198 0.45789374433755692 0 -0.20176731502115269 0.44175413905293831 0 -0.21091995116723211 0.47250045351419662 0 -0.2200359772780788 0.45486756843485959 0 -0.193433337642198 0.45789374433755692 0 -0.193433337642198 0.45789374433755692 0 -0.20176731502115269 0.44175413905293831 0 -0.18432665399575501 0.43667817799187769 0 -0.1989573137379585 0.42643222508220968 0 -0.18810923622776671 0.40875936451478018 0 -0.18432665399575501 0.43667817799187769 0 -0.20176731502115269 0.44175413905293831 0 -0.1989573137379585 0.42643222508220968 0 -0.18432665399575501 0.43667817799187769 0 -0.1989573137379585 0.42643222508220968 0 -0.18810923622776671 0.40875936451478018 0 -0.20642937140372261 0.41379852253211602 0 -0.20642937140372261 0.41379852253211602 0 -0.21415399204139551 0.43117092131933599 0 -0.22231650485467519 0.4184311695006514 0 -0.20642937140372261 0.41379852253211602 0 -0.22231650485467519 0.4184311695006514 0 -0.21801492073140169 0.40195426953664271 0 -0.1989573137379585 0.42643222508220968 0 -0.20642937140372261 0.41379852253211602 0 -0.21415399204139551 0.43117092131933599 0 -0.20176731502115269 0.44175413905293831 0 -0.1989573137379585 0.42643222508220968 0 -0.21415399204139551 0.43117092131933599 0 -0.21415399204139551 0.43117092131933599 0 -0.22231650485467519 0.4184311695006514 0 -0.2401470957773337 0.43580564415847117 0 -0.22231650485467519 0.4184311695006514 0 -0.23471445450358619 0.41091562903383527 0 -0.2401470957773337 0.43580564415847117 0 -0.22231650485467519 0.4184311695006514 0 -0.23471445450358619 0.41091562903383527 0 -0.21801492073140169 0.40195426953664271 0 -0.23471445450358619 0.41091562903383527 0 -0.24446726463622531 0.4065245488814066 0 -0.24539948521445129 0.42162133900916038 0 -0.25443672127411232 0.40753113851161837 0 -0.24446726463622531 0.4065245488814066 0 -0.24539948521445129 0.42162133900916038 0 -0.25992894544496009 0.42475478568301339 0 -0.24539948521445129 0.42162133900916038 0 -0.2401470957773337 0.43580564415847117 0 -0.23471445450358619 0.41091562903383527 0 -0.24539948521445129 0.42162133900916038 0 -0.2401470957773337 0.43580564415847117 0 -0.23471445450358619 0.41091562903383527 0 -0.2401470957773337 0.43580564415847117 0 -0.26123608930219788 0.39117128326985462 0 -0.23159671800447831 0.3863983882616735 0 -0.26123608930219788 0.39117128326985462 0 -0.24640294203220769 0.3818395311168023 0 -0.23159671800447831 0.3863983882616735 0 -0.23742025058172889 0.37839454391916311 0 -0.24640294203220769 0.3818395311168023 0 -0.23159671800447831 0.3863983882616735 0 -0.23742025058172889 0.37839454391916311 0 -0.23248536529626049 0.3741498274786077 0 -0.237137942874179 0.37268654133040358 0 -0.2560937295827152 0.38004031966349888 0 -0.24640294203220769 0.3818395311168023 0 -0.24507155163857419 0.37309708549036119 0 -0.23742025058172889 0.37839454391916311 0 -0.24640294203220769 0.3818395311168023 0 -0.24507155163857419 0.37309708549036119 0 -0.2487540922718337 0.39786746445057958 0 -0.23159671800447831 0.3863983882616735 0 -0.23471445450358619 0.41091562903383527 0 -0.24446726463622531 0.4065245488814066 0 -0.23159671800447831 0.3863983882616735 0 -0.26123608930219788 0.39117128326985462 0 -0.2487540922718337 0.39786746445057958 0 -0.23159671800447831 0.3863983882616735 0 -0.24446726463622531 0.4065245488814066 0 -0.23159671800447831 0.3863983882616735 0 -0.24446726463622531 0.4065245488814066 0 -0.2487540922718337 0.39786746445057958 0 -0.23159671800447831 0.3863983882616735 0 -0.25443672127411232 0.40753113851161837 0 -0.24446726463622531 0.4065245488814066 0 -0.2487540922718337 0.39786746445057958 0 -0.23471445450358619 0.41091562903383527 0 -0.2289816283852395 0.38465029664716027 0 -0.21801492073140169 0.40195426953664271 0 -0.2289816283852395 0.38465029664716027 0 -0.21682628828953601 0.39127062514643263 0 -0.21801492073140169 0.40195426953664271 0 -0.23471445450358619 0.41091562903383527 0 -0.2289816283852395 0.38465029664716027 0 -0.23471445450358619 0.41091562903383527 0 -0.2289816283852395 0.38465029664716027 0 -0.23159671800447831 0.3863983882616735 0 -0.2289816283852395 0.38465029664716027 0 -0.22783010215907801 0.37937450099982362 0 -0.2110628317511736 0.37267223749852713 0 -0.2289816283852395 0.38465029664716027 0 -0.211298722199082 0.38312975608042321 0 -0.21682628828953601 0.39127062514643263 0 -0.2289816283852395 0.38465029664716027 0 -0.211298722199082 0.38312975608042321 0 -0.2289816283852395 0.38465029664716027 0 -0.2110628317511736 0.37267223749852713 0 -0.2289816283852395 0.38465029664716027 0 -0.23159671800447831 0.3863983882616735 0 -0.22783010215907801 0.37937450099982362 0 -0.23159671800447831 0.3863983882616735 0 -0.22783010215907801 0.37937450099982362 0 -0.2289816283852395 0.38465029664716027 0 -0.23159671800447831 0.3863983882616735 0 -0.23742025058172889 0.37839454391916311 0 -0.23159671800447831 0.3863983882616735 0 -0.23248220177322251 0.37960332390968199 0 -0.23742025058172889 0.37839454391916311 0 -0.23248220177322251 0.37960332390968199 0 -0.23248536529626049 0.3741498274786077 0 -0.23248220177322251 0.37960332390968199 0 -0.22783010215907801 0.37937450099982362 0 -0.23248536529626049 0.3741498274786077 0 -0.23159671800447831 0.3863983882616735 0 -0.23248220177322251 0.37960332390968199 0 -0.22783010215907801 0.37937450099982362 0 -0.2289816283852395 0.38465029664716027 0 -0.22783010215907801 0.37937450099982362 0 -0.2289816283852395 0.38465029664716027 0 -0.211298722199082 0.38312975608042321 0 -0.2110628317511736 0.37267223749852713 0 -0.211298722199082 0.38312975608042321 0 -0.21682628828953601 0.39127062514643263 0 -0.19921251696210909 0.39604804477965611 0 -0.211298722199082 0.38312975608042321 0 -0.19200265662916621 0.38002246699149062 0 -0.2110628317511736 0.37267223749852713 0 -0.21682628828953601 0.39127062514643263 0 -0.21801492073140169 0.40195426953664271 0 -0.19921251696210909 0.39604804477965611 0 -0.20642937140372261 0.41379852253211602 0 -0.21801492073140169 0.40195426953664271 0 -0.19921251696210909 0.39604804477965611 0 -0.18810923622776671 0.40875936451478018 0 -0.19200265662916621 0.38002246699149062 0 -0.18322324318590411 0.39442576711758592 0 -0.18810923622776671 0.40875936451478018 0 -0.19921251696210909 0.39604804477965611 0 -0.19200265662916621 0.38002246699149062 0 -0.18810923622776671 0.40875936451478018 0 -0.19200265662916621 0.38002246699149062 0 -0.18810923622776671 0.40875936451478018 0 -0.20642937140372261 0.41379852253211602 0 -0.19921251696210909 0.39604804477965611 0 -0.19200265662916621 0.38002246699149062 0 -0.2110628317511736 0.37267223749852713 0 -0.211298722199082 0.38312975608042321 0 -0.19921251696210909 0.39604804477965611 0 -0.19200265662916621 0.38002246699149062 0 -0.211298722199082 0.38312975608042321 0 -0.19200265662916621 0.38002246699149062 0 -0.19200265662916621 0.38002246699149062 0 -0.1740224379994427 0.38845426973539521 0 -0.17379671726428361 0.37709072339136179 0 -0.19200265662916621 0.38002246699149062 0 -0.1740224379994427 0.38845426973539521 0 -0.18322324318590411 0.39442576711758592 0 -0.19200265662916621 0.38002246699149062 0 -0.1740224379994427 0.38845426973539521 0 -0.19200265662916621 0.38002246699149062 0 -0.17379671726428361 0.37709072339136179 0 -0.17379671726428361 0.37709072339136179 0 -0.16346290206688099 0.38443956891015302 0 -0.15559077789940101 0.37415897979123303 0 -0.16346290206688099 0.38443956891015302 0 -0.15615305753910369 0.39606798843310381 0 -0.15559077789940101 0.37415897979123303 0 -0.1740224379994427 0.38845426973539521 0 -0.16346290206688099 0.38443956891015302 0 -0.15615305753910369 0.39606798843310381 0 -0.17379671726428361 0.37709072339136179 0 -0.15559077789940101 0.37415897979123303 0 -0.1740224379994427 0.38845426973539521 0 -0.17379671726428361 0.37709072339136179 0 -0.16346290206688099 0.38443956891015302 0 -0.1740224379994427 0.38845426973539521 0 -0.15615305753910369 0.39606798843310381 0 -0.1740224379994427 0.38845426973539521 0 -0.16833431332443119 0.3998808110554265 0 -0.15615305753910369 0.39606798843310381 0 -0.16833431332443119 0.3998808110554265 0 -0.15857724357758909 0.40825208227788617 0 -0.15615305753910369 0.39606798843310381 0 -0.16833431332443119 0.3998808110554265 0 -0.1788694800566285 0.39964888318248548 0 -0.1704990924109715 0.41586719865120447 0 -0.1740224379994427 0.38845426973539521 0 -0.16833431332443119 0.3998808110554265 0 -0.1788694800566285 0.39964888318248548 0 -0.1740224379994427 0.38845426973539521 0 -0.1788694800566285 0.39964888318248548 0 -0.18322324318590411 0.39442576711758592 0 -0.18810923622776671 0.40875936451478018 0 -0.1788694800566285 0.39964888318248548 0 -0.18322324318590411 0.39442576711758592 0 -0.18810923622776671 0.40875936451478018 0 -0.1788694800566285 0.39964888318248548 0 -0.1704990924109715 0.41586719865120447 0 -0.18810923622776671 0.40875936451478018 0 -0.18432665399575501 0.43667817799187769 0 -0.1704990924109715 0.41586719865120447 0 -0.18432665399575501 0.43667817799187769 0 -0.1652439778291136 0.4337418550098307 0 -0.1704990924109715 0.41586719865120447 0 -0.18810923622776671 0.40875936451478018 0 -0.18432665399575501 0.43667817799187769 0 -0.1652439778291136 0.4337418550098307 0 -0.1704990924109715 0.41586719865120447 0 -0.146736243775825 0.42824328223605279 0 -0.1582351716154502 0.44869677905138389 0 -0.1652439778291136 0.4337418550098307 0 -0.146736243775825 0.42824328223605279 0 -0.16833431332443119 0.3998808110554265 0 -0.1704990924109715 0.41586719865120447 0 -0.15857724357758909 0.40825208227788617 0 -0.1704990924109715 0.41586719865120447 0 -0.15857724357758909 0.40825208227788617 0 -0.146736243775825 0.42824328223605279 0 -0.15857724357758909 0.40825208227788617 0 -0.146736243775825 0.42824328223605279 0 -0.15116351083761401 0.40120113101364302 0 -0.146736243775825 0.42824328223605279 0 -0.15116351083761401 0.40120113101364302 0 -0.1418994643888471 0.40871960798315649 0 -0.146736243775825 0.42824328223605279 0 -0.15116351083761401 0.40120113101364302 0 -0.1418994643888471 0.40871960798315649 0 -0.146736243775825 0.42824328223605279 0 -0.13457265184884129 0.41752639487503818 0 -0.146736243775825 0.42824328223605279 0 -0.12996922900776969 0.43349752018555421 0 -0.13457265184884129 0.41752639487503818 0 -0.12996922900776969 0.43349752018555421 0 -0.13457265184884129 0.41752639487503818 0 -0.1203746603948761 0.41251815508081607 0 -0.13457265184884129 0.41752639487503818 0 -0.13425335872459301 0.40139977936119048 0 -0.1203746603948761 0.41251815508081607 0 -0.1418994643888471 0.40871960798315649 0 -0.13457265184884129 0.41752639487503818 0 -0.13425335872459301 0.40139977936119048 0 -0.13425335872459301 0.40139977936119048 0 -0.1232329307171732 0.39081748336030991 0 -0.1203746603948761 0.41251815508081607 0 -0.1418994643888471 0.40871960798315649 0 -0.13425335872459301 0.40139977936119048 0 -0.1427715567573625 0.39522745242985818 0 -0.13425335872459301 0.40139977936119048 0 -0.13702674538908621 0.3859352177706592 0 -0.1427715567573625 0.39522745242985818 0 -0.13425335872459301 0.40139977936119048 0 -0.13702674538908621 0.3859352177706592 0 -0.1232329307171732 0.39081748336030991 0 -0.13702674538908621 0.3859352177706592 0 -0.15559077789940101 0.37415897979123303 0 -0.12796394006501099 0.36971016759926228 0 -0.13702674538908621 0.3859352177706592 0 -0.12796394006501099 0.36971016759926228 0 -0.1232329307171732 0.39081748336030991 0 -0.15116351083761401 0.40120113101364302 0 -0.15559077789940101 0.37415897979123303 0 -0.15615305753910369 0.39606798843310381 0 -0.15116351083761401 0.40120113101364302 0 -0.15559077789940101 0.37415897979123303 0 -0.15116351083761401 0.40120113101364302 0 -0.1427715567573625 0.39522745242985818 0 -0.15559077789940101 0.37415897979123303 0 -0.13702674538908621 0.3859352177706592 0 -0.1427715567573625 0.39522745242985818 0 -0.15559077789940101 0.37415897979123303 0 -0.15857724357758909 0.40825208227788617 0 -0.15615305753910369 0.39606798843310381 0 -0.15116351083761401 0.40120113101364302 0 -0.1418994643888471 0.40871960798315649 0 -0.15116351083761401 0.40120113101364302 0 -0.1427715567573625 0.39522745242985818 0 -0.14452541007402739 0.34557607129485329 0 -0.16128213292978361 0.33939566390266313 0 -0.15843645541459439 0.35677732184694838 0 -0.14452541007402739 0.34557607129485329 0 -0.1436044278846986 0.3595303602328429 0 -0.15843645541459439 0.35677732184694838 0 -0.15559077789940101 0.37415897979123303 0 -0.1436044278846986 0.3595303602328429 0 -0.12796394006501099 0.36971016759926228 0 -0.15559077789940101 0.37415897979123303 0 -0.1436044278846986 0.3595303602328429 0 -0.15843645541459439 0.35677732184694838 0 -0.15559077789940101 0.37415897979123303 0 -0.12796394006501099 0.36971016759926228 0 -0.1436044278846986 0.3595303602328429 0 -0.12796394006501099 0.36971016759926228 0 -0.13150555597045929 0.35142926063191721 0 -0.14452541007402739 0.34557607129485329 0 -0.1436044278846986 0.3595303602328429 0 -0.13150555597045929 0.35142926063191721 0 -0.14452541007402739 0.34557607129485329 0 -0.13150555597045929 0.35142926063191721 0 -0.13566624030762289 0.34033657152908869 0 -0.13248335184565271 0.33238614976276798 0 -0.13566624030762289 0.34033657152908869 0 -0.13712470336561469 0.32391964524753458 0 -0.13248335184565271 0.33238614976276798 0 -0.13712470336561469 0.32391964524753458 0 -0.118377308158662 0.32960323520238249 0 -0.13248335184565271 0.33238614976276798 0 -0.13566624030762289 0.34033657152908869 0 -0.122741643959492 0.33912597706905528 0 -0.14452541007402739 0.34557607129485329 0 -0.13566624030762289 0.34033657152908869 0 -0.13712470336561469 0.32391964524753458 0 -0.13150555597045929 0.35142926063191721 0 -0.13566624030762289 0.34033657152908869 0 -0.122741643959492 0.33912597706905528 0 -0.13248335184565271 0.33238614976276798 0 -0.118377308158662 0.32960323520238249 0 -0.13712470336561469 0.32391964524753458 0 -0.1161243536851109 0.32126165558681002 0 -0.13712470336561469 0.32391964524753458 0 -0.1147960104634634 0.30832139391327168 0 -0.13712470336561469 0.32391964524753458 0 -0.13528710567376709 0.31581649060604811 0 -0.1147960104634634 0.30832139391327168 0 -0.13712470336561469 0.32391964524753458 0 -0.15005813762593989 0.31525375646269921 0 -0.16128213292978361 0.33939566390266313 0 -0.13712470336561469 0.32391964524753458 0 -0.13528710567376709 0.31581649060604811 0 -0.15005813762593989 0.31525375646269921 0 -0.13712470336561469 0.32391964524753458 0 -0.16128213292978361 0.33939566390266313 0 -0.14452541007402739 0.34557607129485329 0 -0.13712470336561469 0.32391964524753458 0 -0.16128213292978361 0.33939566390266313 0 -0.16128213292978361 0.33939566390266313 0 -0.16505648963277081 0.31634154873297893 0 -0.18026432729818129 0.33261281114432728 0 -0.16128213292978361 0.33939566390266313 0 -0.16505648963277081 0.31634154873297893 0 -0.15005813762593989 0.31525375646269921 0 -0.16128213292978361 0.33939566390266313 0 -0.16505648963277081 0.31634154873297893 0 -0.18015237552054009 0.31644380666632538 0 -0.19354091981991059 0.32341826786166361 0 -0.18593753942008651 0.30646007121581109 0 -0.16505648963277081 0.31634154873297893 0 -0.18015237552054009 0.31644380666632538 0 -0.18026432729818129 0.33261281114432728 0 -0.18015237552054009 0.31644380666632538 0 -0.18026432729818129 0.33261281114432728 0 -0.19354091981991059 0.32341826786166361 0 -0.16128213292978361 0.33939566390266313 0 -0.18026432729818129 0.33261281114432728 0 -0.1778903996787258 0.35049768183041707 0 -0.18026432729818129 0.33261281114432728 0 -0.1778903996787258 0.35049768183041707 0 -0.1876317379332563 0.345350048859141 0 -0.1778903996787258 0.35049768183041707 0 -0.1944986664276705 0.3615996997581673 0 -0.1778903996787258 0.35049768183041707 0 -0.1712118079836599 0.36308119971963609 0 -0.1944986664276705 0.3615996997581673 0 -0.1778903996787258 0.35049768183041707 0 -0.1944986664276705 0.3615996997581673 0 -0.1876317379332563 0.345350048859141 0 -0.16128213292978361 0.33939566390266313 0 -0.1778903996787258 0.35049768183041707 0 -0.15843645541459439 0.35677732184694838 0 -0.16128213292978361 0.33939566390266313 0 -0.15843645541459439 0.35677732184694838 0 -0.16128213292978361 0.33939566390266313 0 -0.1778903996787258 0.35049768183041707 0 -0.1778903996787258 0.35049768183041707 0 -0.15843645541459439 0.35677732184694838 0 -0.1712118079836599 0.36308119971963609 0 -0.15559077789940101 0.37415897979123303 0 -0.15843645541459439 0.35677732184694838 0 -0.15559077789940101 0.37415897979123303 0 -0.15843645541459439 0.35677732184694838 0 -0.1712118079836599 0.36308119971963609 0 -0.17379671726428361 0.37709072339136179 0 -0.15559077789940101 0.37415897979123303 0 -0.1712118079836599 0.36308119971963609 0 -0.19200265662916621 0.38002246699149062 0 -0.17379671726428361 0.37709072339136179 0 -0.1944986664276705 0.3615996997581673 0 -0.17379671726428361 0.37709072339136179 0 -0.1712118079836599 0.36308119971963609 0 -0.1944986664276705 0.3615996997581673 0 -0.1944986664276705 0.3615996997581673 0 -0.2110628317511736 0.37267223749852713 0 -0.19200265662916621 0.38002246699149062 0 -0.1944986664276705 0.3615996997581673 0 -0.19200265662916621 0.38002246699149062 0 -0.1944986664276705 0.3615996997581673 0 -0.2110628317511736 0.37267223749852713 0 -0.1944986664276705 0.3615996997581673 0 -0.2073214160740704 0.34590654575438262 0 -0.197873558328447 0.33669000270365301 0 -0.1944986664276705 0.3615996997581673 0 -0.197873558328447 0.33669000270365301 0 -0.1944986664276705 0.3615996997581673 0 -0.2073214160740704 0.34590654575438262 0 -0.20665738114653409 0.36130749654331479 0 -0.1944986664276705 0.3615996997581673 0 -0.1876317379332563 0.345350048859141 0 -0.197873558328447 0.33669000270365301 0 -0.2073214160740704 0.34590654575438262 0 -0.22110191232823101 0.36839482364710119 0 -0.2073214160740704 0.34590654575438262 0 -0.20665738114653409 0.36130749654331479 0 -0.21153588532500181 0.36207027586083212 0 -0.2073214160740704 0.34590654575438262 0 -0.21153588532500181 0.36207027586083212 0 -0.22110191232823101 0.36839482364710119 0 -0.2073214160740704 0.34590654575438262 0 -0.21622846350863251 0.35299043607687708 0 -0.22110191232823101 0.36839482364710119 0 -0.2073214160740704 0.34590654575438262 0 -0.21622846350863251 0.35299043607687708 0 -0.21711209476383639 0.34203159341161249 0 -0.1944986664276705 0.3615996997581673 0 -0.20665738114653409 0.36130749654331479 0 -0.2110628317511736 0.37267223749852713 0 -0.20665738114653409 0.36130749654331479 0 -0.21153588532500181 0.36207027586083212 0 -0.2110628317511736 0.37267223749852713 0 -0.21153588532500181 0.36207027586083212 0 -0.2110628317511736 0.37267223749852713 0 -0.22110191232823101 0.36839482364710119 0 -0.2110628317511736 0.37267223749852713 0 -0.22110191232823101 0.36839482364710119 0 -0.22783010215907801 0.37937450099982362 0 -0.2110628317511736 0.37267223749852713 0 -0.22110191232823101 0.36839482364710119 0 -0.22783010215907801 0.37937450099982362 0 -0.22506504962741961 0.36670622495038913 0 -0.22783010215907801 0.37937450099982362 0 -0.22110191232823101 0.36839482364710119 0 -0.22506504962741961 0.36670622495038913 0 -0.22783010215907801 0.37937450099982362 0 -0.22110191232823101 0.36839482364710119 0 -0.22110191232823101 0.36839482364710119 0 -0.22506504962741961 0.36670622495038913 0 -0.22783010215907801 0.37937450099982362 0 -0.229501313582714 0.3707740285046483 0 -0.22506504962741961 0.36670622495038913 0 -0.22783010215907801 0.37937450099982362 0 -0.229501313582714 0.3707740285046483 0 -0.23248536529626049 0.3741498274786077 0 -0.229501313582714 0.3707740285046483 0 -0.2287302936412379 0.36514455150895953 0 -0.22506504962741961 0.36670622495038913 0 -0.229501313582714 0.3707740285046483 0 -0.23339575718957351 0.3684950375854617 0 -0.2287302936412379 0.36514455150895953 0 -0.23339575718957351 0.3684950375854617 0 -0.23248536529626049 0.3741498274786077 0 -0.237137942874179 0.37268654133040358 0 -0.229501313582714 0.3707740285046483 0 -0.23339575718957351 0.3684950375854617 0 -0.23248536529626049 0.3741498274786077 0 -0.2287302936412379 0.36514455150895953 0 -0.2289847924495747 0.35944979673795208 0 -0.23462614204162871 0.36193401622845112 0 -0.23339575718957351 0.3684950375854617 0 -0.2287302936412379 0.36514455150895953 0 -0.23462614204162871 0.36193401622845112 0 -0.2287302936412379 0.36514455150895953 0 -0.22506504962741961 0.36670622495038913 0 -0.2287302936412379 0.36514455150895953 0 -0.2289847924495747 0.35944979673795208 0 -0.2239051293727172 0.36139197149094637 0 -0.22110191232823101 0.36839482364710119 0 -0.2239051293727172 0.36139197149094637 0 -0.22154876073365579 0.35909311603687921 0 -0.21622846350863251 0.35299043607687708 0 -0.22110191232823101 0.36839482364710119 0 -0.22154876073365579 0.35909311603687921 0 -0.2287302936412379 0.36514455150895953 0 -0.2239051293727172 0.36139197149094637 0 -0.22506504962741961 0.36670622495038913 0 -0.22110191232823101 0.36839482364710119 0 -0.2239051293727172 0.36139197149094637 0 -0.22506504962741961 0.36670622495038913 0 -0.2239051293727172 0.36139197149094637 0 -0.22506504962741961 0.36670622495038913 0 -0.21622846350863251 0.35299043607687708 0 -0.22154876073365579 0.35909311603687921 0 -0.2249595377250426 0.3535952329325921 0 -0.2239051293727172 0.36139197149094637 0 -0.22154876073365579 0.35909311603687921 0 -0.2249595377250426 0.3535952329325921 0 -0.2289847924495747 0.35944979673795208 0 -0.2239051293727172 0.36139197149094637 0 -0.2249595377250426 0.3535952329325921 0 -0.21622846350863251 0.35299043607687708 0 -0.2249595377250426 0.3535952329325921 0 -0.22399557766145009 0.3446724475075314 0 -0.21622846350863251 0.35299043607687708 0 -0.22399557766145009 0.3446724475075314 0 -0.21711209476383639 0.34203159341161249 0 -0.2249595377250426 0.3535952329325921 0 -0.22399557766145009 0.3446724475075314 0 -0.23214746714678799 0.34799149612710301 0 -0.2289847924495747 0.35944979673795208 0 -0.2249595377250426 0.3535952329325921 0 -0.232702859467247 0.35518321152881138 0 -0.2249595377250426 0.3535952329325921 0 -0.23214746714678799 0.34799149612710301 0 -0.232702859467247 0.35518321152881138 0 -0.2289847924495747 0.35944979673795208 0 -0.232702859467247 0.35518321152881138 0 -0.23462614204162871 0.36193401622845112 0 -0.232702859467247 0.35518321152881138 0 -0.23708631196676869 0.35765945639158631 0 -0.23462614204162871 0.36193401622845112 0 -0.23214746714678799 0.34799149612710301 0 -0.232702859467247 0.35518321152881138 0 -0.23868609591597759 0.35227544345544881 0 -0.232702859467247 0.35518321152881138 0 -0.23708631196676869 0.35765945639158631 0 -0.23868609591597759 0.35227544345544881 0 -0.23708631196676869 0.35765945639158631 0 -0.23868609591597759 0.35227544345544881 0 -0.24197092156993499 0.35865019818147748 0 -0.23214746714678799 0.34799149612710301 0 -0.23868609591597759 0.35227544345544881 0 -0.24014865592026091 0.34488460349518613 0 -0.23868609591597759 0.35227544345544881 0 -0.24014865592026091 0.34488460349518613 0 -0.2474994420061162 0.35137415341270778 0 -0.24014865592026091 0.34488460349518613 0 -0.2474994420061162 0.35137415341270778 0 -0.24659695281660601 0.34418041765800123 0 -0.25368043652116851 0.34365645987938581 0 -0.2474994420061162 0.35137415341270778 0 -0.24659695281660601 0.34418041765800123 0 -0.23868609591597759 0.35227544345544881 0 -0.24197092156993499 0.35865019818147748 0 -0.2474994420061162 0.35137415341270778 0 -0.24197092156993499 0.35865019818147748 0 -0.2474994420061162 0.35137415341270778 0 -0.248255913421734 0.35836464571649412 0 -0.25081124317754028 0.36495989425522968 0 -0.248255913421734 0.35836464571649412 0 -0.24398077621117059 0.36424438698549588 0 -0.24197092156993499 0.35865019818147748 0 -0.248255913421734 0.35836464571649412 0 -0.24398077621117059 0.36424438698549588 0 -0.24398077621117059 0.36424438698549588 0 -0.24507155163857419 0.37309708549036119 0 -0.2384856196122109 0.36748449934990363 0 -0.25081124317754028 0.36495989425522968 0 -0.24398077621117059 0.36424438698549588 0 -0.24507155163857419 0.37309708549036119 0 -0.23742025058172889 0.37839454391916311 0 -0.24507155163857419 0.37309708549036119 0 -0.237137942874179 0.37268654133040358 0 -0.24507155163857419 0.37309708549036119 0 -0.2384856196122109 0.36748449934990363 0 -0.237137942874179 0.37268654133040358 0 -0.23339575718957351 0.3684950375854617 0 -0.2384856196122109 0.36748449934990363 0 -0.237137942874179 0.37268654133040358 0 -0.23339575718957351 0.3684950375854617 0 -0.2384856196122109 0.36748449934990363 0 -0.23462614204162871 0.36193401622845112 0 -0.2384856196122109 0.36748449934990363 0 -0.23462614204162871 0.36193401622845112 0 -0.23921977308823369 0.36277535003063738 0 -0.23708631196676869 0.35765945639158631 0 -0.23462614204162871 0.36193401622845112 0 -0.23921977308823369 0.36277535003063738 0 -0.23708631196676869 0.35765945639158631 0 -0.24197092156993499 0.35865019818147748 0 -0.23921977308823369 0.36277535003063738 0 -0.24197092156993499 0.35865019818147748 0 -0.24398077621117059 0.36424438698549588 0 -0.23921977308823369 0.36277535003063738 0 -0.24398077621117059 0.36424438698549588 0 -0.2384856196122109 0.36748449934990363 0 -0.23921977308823369 0.36277535003063738 0 -0.23849393053106641 0.32795833173514138 0 -0.2355048975007363 0.31629870412113048 0 -0.24590158606486731 0.31892834640800533 0 -0.2355048975007363 0.31629870412113048 0 -0.24590158606486731 0.31892834640800533 0 -0.24410435883272499 0.30730467973507741 0 -0.2579230396276298 0.31303410818490363 0 -0.24590158606486731 0.31892834640800533 0 -0.24410435883272499 0.30730467973507741 0 -0.25513146044283957 0.32598646153315808 0 -0.24590158606486731 0.31892834640800533 0 -0.246789447101017 0.32695352585138371 0 -0.23849393053106641 0.32795833173514138 0 -0.24590158606486731 0.31892834640800533 0 -0.246789447101017 0.32695352585138371 0 -0.25513146044283957 0.32598646153315808 0 -0.246789447101017 0.32695352585138371 0 -0.24763081136529461 0.33494096372922999 0 -0.23849393053106641 0.32795833173514138 0 -0.246789447101017 0.32695352585138371 0 -0.24763081136529461 0.33494096372922999 0 -0.24659695281660601 0.34418041765800123 0 -0.24763081136529461 0.33494096372922999 0 -0.2401371347952754 0.33758706316301113 0 -0.25368043652116851 0.34365645987938581 0 -0.24659695281660601 0.34418041765800123 0 -0.24763081136529461 0.33494096372922999 0 -0.24014865592026091 0.34488460349518613 0 -0.24659695281660601 0.34418041765800123 0 -0.2401371347952754 0.33758706316301113 0 -0.23214746714678799 0.34799149612710301 0 -0.24014865592026091 0.34488460349518613 0 -0.23239207619074989 0.33733803784304872 0 -0.24014865592026091 0.34488460349518613 0 -0.2401371347952754 0.33758706316301113 0 -0.23239207619074989 0.33733803784304872 0 -0.23849393053106641 0.32795833173514138 0 -0.24763081136529461 0.33494096372922999 0 -0.2401371347952754 0.33758706316301113 0 -0.23849393053106641 0.32795833173514138 0 -0.2401371347952754 0.33758706316301113 0 -0.23239207619074989 0.33733803784304872 0 -0.23239207619074989 0.33733803784304872 0 -0.22343300475429789 0.33584365750468509 0 -0.22787459063421209 0.32654515700405817 0 -0.23849393053106641 0.32795833173514138 0 -0.23239207619074989 0.33733803784304872 0 -0.22787459063421209 0.32654515700405817 0 -0.22399557766145009 0.3446724475075314 0 -0.23214746714678799 0.34799149612710301 0 -0.23239207619074989 0.33733803784304872 0 -0.22399557766145009 0.3446724475075314 0 -0.23239207619074989 0.33733803784304872 0 -0.22343300475429789 0.33584365750468509 0 -0.22399557766145009 0.3446724475075314 0 -0.22343300475429789 0.33584365750468509 0 -0.21711209476383639 0.34203159341161249 0 -0.22343300475429789 0.33584365750468509 0 -0.22787459063421209 0.32654515700405817 0 -0.214582011820731 0.33074488021458681 0 -0.22787459063421209 0.32654515700405817 0 -0.22256089289947889 0.31285758013840059 0 -0.214582011820731 0.33074488021458681 0 -0.23849393053106641 0.32795833173514138 0 -0.2355048975007363 0.31629870412113048 0 -0.22787459063421209 0.32654515700405817 0 -0.2355048975007363 0.31629870412113048 0 -0.22787459063421209 0.32654515700405817 0 -0.22256089289947889 0.31285758013840059 0 -0.22256089289947889 0.31285758013840059 0 -0.20814440165080289 0.31535590543381581 0 -0.214582011820731 0.33074488021458681 0 -0.20814440165080289 0.31535590543381581 0 -0.214582011820731 0.33074488021458681 0 -0.20589718734137871 0.32885639981611209 0 -0.2073214160740704 0.34590654575438262 0 -0.214582011820731 0.33074488021458681 0 -0.20589718734137871 0.32885639981611209 0 -0.2073214160740704 0.34590654575438262 0 -0.21711209476383639 0.34203159341161249 0 -0.214582011820731 0.33074488021458681 0 -0.22343300475429789 0.33584365750468509 0 -0.21711209476383639 0.34203159341161249 0 -0.214582011820731 0.33074488021458681 0 -0.2073214160740704 0.34590654575438262 0 -0.197873558328447 0.33669000270365301 0 -0.19354091981991059 0.32341826786166361 0 -0.2073214160740704 0.34590654575438262 0 -0.20589718734137871 0.32885639981611209 0 -0.19354091981991059 0.32341826786166361 0 -0.18026432729818129 0.33261281114432728 0 -0.1876317379332563 0.345350048859141 0 -0.197873558328447 0.33669000270365301 0 -0.18026432729818129 0.33261281114432728 0 -0.197873558328447 0.33669000270365301 0 -0.19354091981991059 0.32341826786166361 0 -0.2073214160740704 0.34590654575438262 0 -0.19354091981991059 0.32341826786166361 0 -0.20814440165080289 0.31535590543381581 0 -0.19354091981991059 0.32341826786166361 0 -0.1968910746106588 0.30294802942791871 0 -0.20814440165080289 0.31535590543381581 0 -0.20589718734137871 0.32885639981611209 0 -0.19354091981991059 0.32341826786166361 0 -0.19354091981991059 0.32341826786166361 0 -0.1968910746106588 0.30294802942791871 0 -0.18593753942008651 0.30646007121581109 0 -0.1968910746106588 0.30294802942791871 0 -0.18292734299439711 0.28760956803163301 0 -0.18593753942008651 0.30646007121581109 0 -0.1968910746106588 0.30294802942791871 0 -0.19959370522924999 0.28857551862397368 0 -0.18292734299439711 0.28760956803163301 0 -0.19959370522924999 0.28857551862397368 0 -0.18967870183386801 0.27333845197175088 0 -0.18292734299439711 0.28760956803163301 0 -0.1968910746106588 0.30294802942791871 0 -0.19959370522924999 0.28857551862397368 0 -0.2117316528941674 0.29884943333469738 0 -0.19959370522924999 0.28857551862397368 0 -0.2117316528941674 0.29884943333469738 0 -0.21667191069777411 0.27824766948075808 0 -0.2117316528941674 0.29884943333469738 0 -0.22652793227703991 0.29511189690331718 0 -0.21667191069777411 0.27824766948075808 0 -0.20814440165080289 0.31535590543381581 0 -0.1968910746106588 0.30294802942791871 0 -0.2117316528941674 0.29884943333469738 0 -0.22256089289947889 0.31285758013840059 0 -0.20814440165080289 0.31535590543381581 0 -0.2117316528941674 0.29884943333469738 0 -0.22256089289947889 0.31285758013840059 0 -0.23360268989923161 0.30533656225006611 0 -0.22652793227703991 0.29511189690331718 0 -0.22256089289947889 0.31285758013840059 0 -0.2117316528941674 0.29884943333469738 0 -0.22652793227703991 0.29511189690331718 0 -0.2355048975007363 0.31629870412113048 0 -0.22256089289947889 0.31285758013840059 0 -0.23360268989923161 0.30533656225006611 0 -0.23360268989923161 0.30533656225006611 0 -0.22652793227703991 0.29511189690331718 0 -0.23931536798617781 0.29510995035240489 0 -0.22652793227703991 0.29511189690331718 0 -0.23416307858718921 0.27986431622324481 0 -0.21667191069777411 0.27824766948075808 0 -0.22652793227703991 0.29511189690331718 0 -0.23931536798617781 0.29510995035240489 0 -0.23416307858718921 0.27986431622324481 0 -0.23931536798617781 0.29510995035240489 0 -0.24915420104852881 0.28720616524545362 0 -0.23416307858718921 0.27986431622324481 0 -0.25250351686746902 0.29989466443510299 0 -0.23931536798617781 0.29510995035240489 0 -0.24915420104852881 0.28720616524545362 0 -0.25250351686746902 0.29989466443510299 0 -0.23931536798617781 0.29510995035240489 0 -0.24410435883272499 0.30730467973507741 0 -0.2355048975007363 0.31629870412113048 0 -0.23360268989923161 0.30533656225006611 0 -0.24410435883272499 0.30730467973507741 0 -0.23360268989923161 0.30533656225006611 0 -0.23931536798617781 0.29510995035240489 0 -0.24410435883272499 0.30730467973507741 0 -0.2381547251009824 0.25036062724400548 0 -0.24615280621576621 0.26548844390646842 0 -0.22632201528160181 0.26194095871487422 0 -0.2381547251009824 0.25036062724400548 0 -0.249435427503925 0.25000056447435692 0 -0.24615280621576621 0.26548844390646842 0 -0.24615280621576621 0.26548844390646842 0 -0.23416307858718921 0.27986431622324481 0 -0.22632201528160181 0.26194095871487422 0 -0.24915420104852881 0.28720616524545362 0 -0.24615280621576621 0.26548844390646842 0 -0.23416307858718921 0.27986431622324481 0 -0.23416307858718921 0.27986431622324481 0 -0.22632201528160181 0.26194095871487422 0 -0.21667191069777411 0.27824766948075808 0 -0.2381547251009824 0.25036062724400548 0 -0.22632201528160181 0.26194095871487422 0 -0.22359991905300591 0.24445062206085111 0 -0.22632201528160181 0.26194095871487422 0 -0.19918965203489319 0.25323407337391712 0 -0.22359991905300591 0.24445062206085111 0 -0.22632201528160181 0.26194095871487422 0 -0.21667191069777411 0.27824766948075808 0 -0.19918965203489319 0.25323407337391712 0 -0.21667191069777411 0.27824766948075808 0 -0.18967870183386801 0.27333845197175088 0 -0.21667191069777411 0.27824766948075808 0 -0.18967870183386801 0.27333845197175088 0 -0.19918965203489319 0.25323407337391712 0 -0.19959370522924999 0.28857551862397368 0 -0.21667191069777411 0.27824766948075808 0 -0.18967870183386801 0.27333845197175088 0 -0.18967870183386801 0.27333845197175088 0 -0.19918965203489319 0.25323407337391712 0 -0.17924130513872569 0.26041200934687198 0 -0.19918965203489319 0.25323407337391712 0 -0.17924130513872569 0.26041200934687198 0 -0.18967870183386801 0.27333845197175088 0 -0.19918965203489319 0.25323407337391712 0 -0.1726052030387418 0.27023331839360992 0 -0.17672660698543041 0.2450594069896791 0 -0.17924130513872569 0.26041200934687198 0 -0.1726052030387418 0.27023331839360992 0 -0.17672660698543041 0.2450594069896791 0 -0.19918965203489319 0.25323407337391712 0 -0.17924130513872569 0.26041200934687198 0 -0.17672660698543041 0.2450594069896791 0 -0.16476888297622971 0.25602604930352812 0 -0.1726052030387418 0.27023331839360992 0 -0.15243209967297619 0.26656446402532918 0 -0.16476888297622971 0.25602604930352812 0 -0.1726052030387418 0.27023331839360992 0 -0.17672660698543041 0.2450594069896791 0 -0.1610836178181364 0.2762893869838719 0 -0.15564269798255731 0.28811390744384968 0 -0.15243209967297619 0.26656446402532918 0 -0.1610836178181364 0.2762893869838719 0 -0.1726052030387418 0.27023331839360992 0 -0.16883084633575579 0.29328743356329429 0 -0.1610836178181364 0.2762893869838719 0 -0.1726052030387418 0.27023331839360992 0 -0.15243209967297619 0.26656446402532918 0 -0.1726052030387418 0.27023331839360992 0 -0.15243209967297619 0.26656446402532918 0 -0.18967870183386801 0.27333845197175088 0 -0.1726052030387418 0.27023331839360992 0 -0.18967870183386801 0.27333845197175088 0 -0.1726052030387418 0.27023331839360992 0 -0.17851052355069061 0.28111719299007198 0 -0.18967870183386801 0.27333845197175088 0 -0.17924130513872569 0.26041200934687198 0 -0.1726052030387418 0.27023331839360992 0 -0.18967870183386801 0.27333845197175088 0 -0.17851052355069061 0.28111719299007198 0 -0.18292734299439711 0.28760956803163301 0 -0.18967870183386801 0.27333845197175088 0 -0.18292734299439711 0.28760956803163301 0 -0.1726052030387418 0.27023331839360992 0 -0.17851052355069061 0.28111719299007198 0 -0.16883084633575579 0.29328743356329429 0 -0.18292734299439711 0.28760956803163301 0 -0.176175984154926 0.30188068409151497 0 -0.18292734299439711 0.28760956803163301 0 -0.176175984154926 0.30188068409151497 0 -0.16883084633575579 0.29328743356329429 0 -0.17851052355069061 0.28111719299007198 0 -0.18292734299439711 0.28760956803163301 0 -0.16883084633575579 0.29328743356329429 0 -0.18292734299439711 0.28760956803163301 0 -0.18593753942008651 0.30646007121581109 0 -0.176175984154926 0.30188068409151497 0 -0.18015237552054009 0.31644380666632538 0 -0.18593753942008651 0.30646007121581109 0 -0.176175984154926 0.30188068409151497 0 -0.16505648963277081 0.31634154873297893 0 -0.18015237552054009 0.31644380666632538 0 -0.176175984154926 0.30188068409151497 0 -0.16505648963277081 0.31634154873297893 0 -0.176175984154926 0.30188068409151497 0 -0.16883084633575579 0.29328743356329429 0 -0.16505648963277081 0.31634154873297893 0 -0.16883084633575579 0.29328743356329429 0 -0.16505648963277081 0.31634154873297893 0 -0.16883084633575579 0.29328743356329429 0 -0.1548031483610689 0.30324951582385901 0 -0.15005813762593989 0.31525375646269921 0 -0.16505648963277081 0.31634154873297893 0 -0.1548031483610689 0.30324951582385901 0 -0.1726052030387418 0.27023331839360992 0 -0.16883084633575579 0.29328743356329429 0 -0.1610836178181364 0.2762893869838719 0 -0.16883084633575579 0.29328743356329429 0 -0.15564269798255731 0.28811390744384968 0 -0.16883084633575579 0.29328743356329429 0 -0.15564269798255731 0.28811390744384968 0 -0.1548031483610689 0.30324951582385901 0 -0.15564269798255731 0.28811390744384968 0 -0.14678045925907779 0.29680204395800303 0 -0.1548031483610689 0.30324951582385901 0 -0.14206035996479041 0.28912345579663279 0 -0.14678045925907779 0.29680204395800303 0 -0.1397947742064381 0.29913891173837709 0 -0.15564269798255731 0.28811390744384968 0 -0.14206035996479041 0.28912345579663279 0 -0.14678045925907779 0.29680204395800303 0 -0.15564269798255731 0.28811390744384968 0 -0.14206035996479041 0.28912345579663279 0 -0.14154353395585409 0.27800723532345228 0 -0.15005813762593989 0.31525375646269921 0 -0.1548031483610689 0.30324951582385901 0 -0.14462508507352129 0.30524255006214629 0 -0.14678045925907779 0.29680204395800303 0 -0.1548031483610689 0.30324951582385901 0 -0.14462508507352129 0.30524255006214629 0 -0.14678045925907779 0.29680204395800303 0 -0.14462508507352129 0.30524255006214629 0 -0.1397947742064381 0.29913891173837709 0 -0.13528710567376709 0.31581649060604811 0 -0.15005813762593989 0.31525375646269921 0 -0.14462508507352129 0.30524255006214629 0 -0.13528710567376709 0.31581649060604811 0 -0.12926835532243419 0.30075690948640388 0 -0.13022086106103389 0.28871001826905551 0 -0.13528710567376709 0.31581649060604811 0 -0.1397947742064381 0.29913891173837709 0 -0.13022086106103389 0.28871001826905551 0 -0.13528710567376709 0.31581649060604811 0 -0.13022086106103389 0.28871001826905551 0 -0.13528710567376709 0.31581649060604811 0 -0.14462508507352129 0.30524255006214629 0 -0.1397947742064381 0.29913891173837709 0 -0.13528710567376709 0.31581649060604811 0 -0.12926835532243419 0.30075690948640388 0 -0.1147960104634634 0.30832139391327168 0 -0.14206035996479041 0.28912345579663279 0 -0.13022086106103389 0.28871001826905551 0 -0.14154353395585409 0.27800723532345228 0 -0.14206035996479041 0.28912345579663279 0 -0.1397947742064381 0.29913891173837709 0 -0.13022086106103389 0.28871001826905551 0 -0.12926835532243419 0.30075690948640388 0 -0.13022086106103389 0.28871001826905551 0 -0.1167690343654553 0.29370753043912179 0 -0.13022086106103389 0.28871001826905551 0 -0.1323331887336478 0.26290910293088432 0 -0.14154353395585409 0.27800723532345228 0 -0.13022086106103389 0.28871001826905551 0 -0.12515461644829939 0.26160354593206298 0 -0.12030084411280979 0.27696641295795332 0 -0.13022086106103389 0.28871001826905551 0 -0.12515461644829939 0.26160354593206298 0 -0.13022086106103389 0.28871001826905551 0 -0.12515461644829939 0.26160354593206298 0 -0.1323331887336478 0.26290910293088432 0 -0.1323331887336478 0.26290910293088432 0 -0.1386323871262797 0.23956516594961019 0 -0.12515461644829939 0.26160354593206298 0 -0.1323331887336478 0.26290910293088432 0 -0.12515461644829939 0.26160354593206298 0 -0.1323331887336478 0.26290910293088432 0 -0.12907737633496441 0.24962857445301059 0 -0.1323331887336478 0.26290910293088432 0 -0.1386323871262797 0.23956516594961019 0 -0.12907737633496441 0.24962857445301059 0 -0.12515461644829939 0.26160354593206298 0 -0.12907737633496441 0.24962857445301059 0 -0.1212830836163822 0.24088926827038079 0 -0.1323331887336478 0.26290910293088432 0 -0.15243209967297619 0.26656446402532918 0 -0.14868184259594561 0.24139284649683301 0 -0.15243209967297619 0.26656446402532918 0 -0.14868184259594561 0.24139284649683301 0 -0.16476888297622971 0.25602604930352812 0 -0.15243209967297619 0.26656446402532918 0 -0.14868184259594561 0.24139284649683301 0 -0.1323331887336478 0.26290910293088432 0 -0.15243209967297619 0.26656446402532918 0 -0.15564269798255731 0.28811390744384968 0 -0.15243209967297619 0.26656446402532918 0 -0.1323331887336478 0.26290910293088432 0 -0.15243209967297619 0.26656446402532918 0 -0.14154353395585409 0.27800723532345228 0 -0.15564269798255731 0.28811390744384968 0 -0.15243209967297619 0.26656446402532918 0 -0.14154353395585409 0.27800723532345228 0 -0.1009275834509456 0.26867340665007389 0 -0.10903011336986559 0.28162300019745062 0 -0.093055835147581936 0.27830993635481338 0 -0.1009275834509456 0.26867340665007389 0 -0.1157426567319621 0.26744421432395449 0 -0.10903011336986559 0.28162300019745062 0 -0.1009275834509456 0.26867340665007389 0 -0.10903011336986559 0.28162300019745062 0 -0.1009275834509456 0.26867340665007389 0 -0.090035611100586166 0.26680364507765603 0 -0.093055835147581936 0.27830993635481338 0 -0.1009275834509456 0.26867340665007389 0 -0.10898983499016381 0.25866367951737868 0 -0.092825053532027996 0.25572381310269582 0 -0.10898983499016381 0.25866367951737868 0 -0.092825053532027996 0.25572381310269582 0 -0.1009275834509456 0.26867340665007389 0 -0.092825053532027996 0.25572381310269582 0 -0.1009275834509456 0.26867340665007389 0 -0.090035611100586166 0.26680364507765603 0 -0.092825053532027996 0.25572381310269582 0 -0.10898983499016381 0.25866367951737868 0 -0.092825053532027996 0.25572381310269582 0 -0.09788140403950131 0.24634004413176361 0 -0.092803926884228172 0.25053040598172899 0 -0.092825053532027996 0.25572381310269582 0 -0.09788140403950131 0.24634004413176361 0 -0.1009275834509456 0.26867340665007389 0 -0.10898983499016381 0.25866367951737868 0 -0.1157426567319621 0.26744421432395449 0 -0.12515461644829939 0.26160354593206298 0 -0.10898983499016381 0.25866367951737868 0 -0.12515461644829939 0.26160354593206298 0 -0.115970302515576 0.25098152906068399 0 -0.1212830836163822 0.24088926827038079 0 -0.12515461644829939 0.26160354593206298 0 -0.10898983499016381 0.25866367951737868 0 -0.1157426567319621 0.26744421432395449 0 -0.12515461644829939 0.26160354593206298 0 -0.1212830836163822 0.24088926827038079 0 -0.10898983499016381 0.25866367951737868 0 -0.115970302515576 0.25098152906068399 0 -0.1084536750074588 0.24276962252291351 0 -0.12515461644829939 0.26160354593206298 0 -0.10898983499016381 0.25866367951737868 0 -0.115970302515576 0.25098152906068399 0 -0.12515461644829939 0.26160354593206298 0 -0.1157426567319621 0.26744421432395449 0 -0.12030084411280979 0.27696641295795332 0 -0.1157426567319621 0.26744421432395449 0 -0.12030084411280979 0.27696641295795332 0 -0.10903011336986559 0.28162300019745062 0 -0.13022086106103389 0.28871001826905551 0 -0.12030084411280979 0.27696641295795332 0 -0.1190802132272912 0.2852517404658953 0 -0.13022086106103389 0.28871001826905551 0 -0.1190802132272912 0.2852517404658953 0 -0.1167690343654553 0.29370753043912179 0 -0.12030084411280979 0.27696641295795332 0 -0.1190802132272912 0.2852517404658953 0 -0.10903011336986559 0.28162300019745062 0 -0.1190802132272912 0.2852517404658953 0 -0.1167690343654553 0.29370753043912179 0 -0.10903011336986559 0.28162300019745062 0 -0.1167690343654553 0.29370753043912179 0 -0.1147960104634634 0.30832139391327168 0 -0.097491782498826549 0.29675415140728062 0 -0.12926835532243419 0.30075690948640388 0 -0.1167690343654553 0.29370753043912179 0 -0.1147960104634634 0.30832139391327168 0 -0.12926835532243419 0.30075690948640388 0 -0.1147960104634634 0.30832139391327168 0 -0.1147960104634634 0.30832139391327168 0 -0.097491782498826549 0.29675415140728062 0 -0.09512400400460716 0.31860366592608508 0 -0.1147960104634634 0.30832139391327168 0 -0.097491782498826549 0.29675415140728062 0 -0.1167690343654553 0.29370753043912179 0 -0.097491782498826549 0.29675415140728062 0 -0.10903011336986559 0.28162300019745062 0 -0.097491782498826549 0.29675415140728062 0 -0.10903011336986559 0.28162300019745062 0 -0.093055835147581936 0.27830993635481338 0 -0.097491782498826549 0.29675415140728062 0 -0.080187554534190311 0.28518690890128851 0 -0.082180653803224438 0.30238691344433472 0 -0.097491782498826549 0.29675415140728062 0 -0.080187554534190311 0.28518690890128851 0 -0.093055835147581936 0.27830993635481338 0 -0.097491782498826549 0.29675415140728062 0 -0.080187554534190311 0.28518690890128851 0 -0.097491782498826549 0.29675415140728062 0 -0.082180653803224438 0.30238691344433472 0 -0.09512400400460716 0.31860366592608508 0 -0.082180653803224438 0.30238691344433472 0 -0.070435224019783207 0.31547883596211101 0 -0.09512400400460716 0.31860366592608508 0 -0.069910016508989037 0.29693434480645542 0 -0.058333626216541187 0.30353905419620569 0 -0.070435224019783207 0.31547883596211101 0 -0.082180653803224438 0.30238691344433472 0 -0.069910016508989037 0.29693434480645542 0 -0.070435224019783207 0.31547883596211101 0 -0.058333626216541187 0.30353905419620569 0 -0.060493970586394052 0.31422058315953461 0 -0.070435224019783207 0.31547883596211101 0 -0.058333626216541187 0.30353905419620569 0 -0.070435224019783207 0.31547883596211101 0 -0.080187554534190311 0.28518690890128851 0 -0.082180653803224438 0.30238691344433472 0 -0.069910016508989037 0.29693434480645542 0 -0.080187554534190311 0.28518690890128851 0 -0.06252571920817282 0.28477070812665461 0 -0.071836522049402579 0.27679401152849781 0 -0.069910016508989037 0.29693434480645542 0 -0.06252571920817282 0.28477070812665461 0 -0.058333626216541187 0.30353905419620569 0 -0.080187554534190311 0.28518690890128851 0 -0.069910016508989037 0.29693434480645542 0 -0.06252571920817282 0.28477070812665461 0 -0.06252571920817282 0.28477070812665461 0 -0.063493306409347777 0.274175895010561 0 -0.071836522049402579 0.27679401152849781 0 -0.063493306409347777 0.274175895010561 0 -0.069217857229412538 0.26882375785545892 0 -0.059176626246956077 0.26742431868950373 0 -0.063493306409347777 0.274175895010561 0 -0.069217857229412538 0.26882375785545892 0 -0.071836522049402579 0.27679401152849781 0 -0.069217857229412538 0.26882375785545892 0 -0.063808532278066044 0.26096950509128769 0 -0.059176626246956077 0.26742431868950373 0 -0.069217857229412538 0.26882375785545892 0 -0.071836522049402579 0.27679401152849781 0 -0.080662365931077271 0.27081850589513068 0 -0.069217857229412538 0.26882375785545892 0 -0.080662365931077271 0.27081850589513068 0 -0.074622406796695032 0.26128246331223082 0 -0.080187554534190311 0.28518690890128851 0 -0.071836522049402579 0.27679401152849781 0 -0.080662365931077271 0.27081850589513068 0 -0.080187554534190311 0.28518690890128851 0 -0.080662365931077271 0.27081850589513068 0 -0.093055835147581936 0.27830993635481338 0 -0.080662365931077271 0.27081850589513068 0 -0.090035611100586166 0.26680364507765603 0 -0.083535837439683819 0.25977536041333599 0 -0.080662365931077271 0.27081850589513068 0 -0.090035611100586166 0.26680364507765603 0 -0.093055835147581936 0.27830993635481338 0 -0.092825053532027996 0.25572381310269582 0 -0.083535837439683819 0.25977536041333599 0 -0.076267965387558284 0.25271259841433158 0 -0.092825053532027996 0.25572381310269582 0 -0.076267965387558284 0.25271259841433158 0 -0.089436495014079617 0.25030816441543419 0 -0.076267965387558284 0.25271259841433158 0 -0.073135677888041331 0.24923235374733829 0 -0.089436495014079617 0.25030816441543419 0 -0.092825053532027996 0.25572381310269582 0 -0.076267965387558284 0.25271259841433158 0 -0.089436495014079617 0.25030816441543419 0 -0.092803926884228172 0.25053040598172899 0 -0.092825053532027996 0.25572381310269582 0 -0.089436495014079617 0.25030816441543419 0 -0.092825053532027996 0.25572381310269582 0 -0.089436495014079617 0.25030816441543419 0 -0.092803926884228172 0.25053040598172899 0 -0.090035611100586166 0.26680364507765603 0 -0.092825053532027996 0.25572381310269582 0 -0.083535837439683819 0.25977536041333599 0 -0.083535837439683819 0.25977536041333599 0 -0.07624210973768572 0.25719067581913219 0 -0.074622406796695032 0.26128246331223082 0 -0.080662365931077271 0.27081850589513068 0 -0.083535837439683819 0.25977536041333599 0 -0.074622406796695032 0.26128246331223082 0 -0.083535837439683819 0.25977536041333599 0 -0.076267965387558284 0.25271259841433158 0 -0.07624210973768572 0.25719067581913219 0 -0.070542229326805775 0.25499228113663053 0 -0.073135677888041331 0.24923235374733829 0 -0.056834860762002989 0.24815654307924351 0 -0.076267965387558284 0.25271259841433158 0 -0.07624210973768572 0.25719067581913219 0 -0.070542229326805775 0.25499228113663053 0 -0.076267965387558284 0.25271259841433158 0 -0.070542229326805775 0.25499228113663053 0 -0.073135677888041331 0.24923235374733829 0 -0.07624210973768572 0.25719067581913219 0 -0.070542229326805775 0.25499228113663053 0 -0.074622406796695032 0.26128246331223082 0 -0.070542229326805775 0.25499228113663053 0 -0.074622406796695032 0.26128246331223082 0 -0.063808532278066044 0.26096950509128769 0 -0.069217857229412538 0.26882375785545892 0 -0.074622406796695032 0.26128246331223082 0 -0.063808532278066044 0.26096950509128769 0 -0.070542229326805775 0.25499228113663053 0 -0.063808532278066044 0.26096950509128769 0 -0.056834860762002989 0.24815654307924351 0 -0.052396398897271677 0.2663421458675399 0 -0.043429986064867067 0.25593886148048639 0 -0.056834860762002989 0.24815654307924351 0 -0.063808532278066044 0.26096950509128769 0 -0.052396398897271677 0.2663421458675399 0 -0.056834860762002989 0.24815654307924351 0 -0.052396398897271677 0.2663421458675399 0 -0.056834860762002989 0.24815654307924351 0 -0.063808532278066044 0.26096950509128769 0 -0.059176626246956077 0.26742431868950373 0 -0.052396398897271677 0.2663421458675399 0 -0.052396398897271677 0.2663421458675399 0 -0.046232028413296107 0.29159927243030348 0 -0.06252571920817282 0.28477070812665461 0 -0.052396398897271677 0.2663421458675399 0 -0.046232028413296107 0.29159927243030348 0 -0.06252571920817282 0.28477070812665461 0 -0.063493306409347777 0.274175895010561 0 -0.052396398897271677 0.2663421458675399 0 -0.063493306409347777 0.274175895010561 0 -0.059176626246956077 0.26742431868950373 0 -0.052396398897271677 0.2663421458675399 0 -0.059176626246956077 0.26742431868950373 0 -0.052396398897271677 0.2663421458675399 0 -0.052396398897271677 0.2663421458675399 0 -0.033692763614023291 0.27922767591532449 0 -0.027943398718329439 0.26243927198965761 0 -0.052396398897271677 0.2663421458675399 0 -0.033692763614023291 0.27922767591532449 0 -0.046232028413296107 0.29159927243030348 0 -0.052396398897271677 0.2663421458675399 0 -0.043429986064867067 0.25593886148048639 0 -0.027943398718329439 0.26243927198965761 0 -0.052396398897271677 0.2663421458675399 0 -0.027943398718329439 0.26243927198965761 0 -0.043429986064867067 0.25593886148048639 0 -0.036545285881863981 0.2468174849855049 0 -0.056834860762002989 0.24815654307924351 0 -0.043429986064867067 0.25593886148048639 0 -0.027943398718329439 0.26243927198965761 0 -0.036545285881863981 0.2468174849855049 0 -0.027943398718329439 0.26243927198965761 0 -0.036545285881863981 0.2468174849855049 0 -0.016255711001725019 0.24547842689176669 0 -0.027943398718329439 0.26243927198965761 0 -0.0034903985393868221 0.25853639811177698 0 -0.016255711001725019 0.24547842689176669 0 -0.027943398718329439 0.26243927198965761 0 -0.0034903985393868221 0.25853639811177698 0 -0.027943398718329439 0.26243927198965761 0 -0.02087470435408539 0.27415397068469499 0 -0.0034903985393868221 0.25853639811177698 0 -0.033692763614023291 0.27922767591532449 0 -0.027943398718329439 0.26243927198965761 0 -0.02087470435408539 0.27415397068469499 0 -0.0091796179168699803 0.28065720455182208 0 -0.0034903985393868221 0.25853639811177698 0 0.01235737625438715 0.27566787937973941 0 -0.02087470435408539 0.27415397068469499 0 -0.0091796179168699803 0.28065720455182208 0 -0.0034903985393868221 0.25853639811177698 0 -0.01127632507762838 0.29599024991135331 0 -0.016587983717251609 0.3095217014027225 0 0.0075209757127229632 0.30476535896382217 0 -0.016587983717251609 0.3095217014027225 0 0.0075209757127229632 0.30476535896382217 0 -0.0091796179168699803 0.28065720455182208 0 -0.01127632507762838 0.29599024991135331 0 0.0059730323149553791 0.28997367436947741 0 -0.01127632507762838 0.29599024991135331 0 -0.027342374190062479 0.29067306321841357 0 -0.023486676678597079 0.30025973808487011 0 -0.02087470435408539 0.27415397068469499 0 -0.0091796179168699803 0.28065720455182208 0 -0.027342374190062479 0.29067306321841357 0 -0.033692763614023291 0.27922767591532449 0 -0.02087470435408539 0.27415397068469499 0 -0.027342374190062479 0.29067306321841357 0 -0.0091796179168699803 0.28065720455182208 0 -0.01127632507762838 0.29599024991135331 0 -0.027342374190062479 0.29067306321841357 0 -0.027342374190062479 0.29067306321841357 0 -0.023486676678597079 0.30025973808487011 0 -0.033462243323422187 0.29975083894690918 0 -0.016587983717251609 0.3095217014027225 0 -0.040696943147226293 0.31427804384162272 0 -0.023486676678597079 0.30025973808487011 0 -0.03011694568268046 0.3060609687348908 0 -0.033462243323422187 0.29975083894690918 0 -0.016587983717251609 0.3095217014027225 0 -0.03011694568268046 0.3060609687348908 0 -0.040696943147226293 0.31427804384162272 0 -0.01127632507762838 0.29599024991135331 0 -0.023486676678597079 0.30025973808487011 0 -0.016587983717251609 0.3095217014027225 0 -0.023486676678597079 0.30025973808487011 0 -0.016587983717251609 0.3095217014027225 0 -0.03011694568268046 0.3060609687348908 0 -0.03011694568268046 0.3060609687348908 0 -0.03780693982600776 0.30479574344446841 0 -0.040696943147226293 0.31427804384162272 0 -0.03011694568268046 0.3060609687348908 0 -0.03780693982600776 0.30479574344446841 0 -0.033462243323422187 0.29975083894690918 0 -0.033462243323422187 0.29975083894690918 0 -0.041330946399602997 0.30079916065489692 0 -0.036412071188081048 0.29241000223316937 0 -0.03780693982600776 0.30479574344446841 0 -0.033462243323422187 0.29975083894690918 0 -0.041330946399602997 0.30079916065489692 0 -0.041330946399602997 0.30079916065489692 0 -0.043427620577108042 0.30308970504402261 0 -0.046232028413296107 0.29159927243030348 0 -0.03780693982600776 0.30479574344446841 0 -0.041330946399602997 0.30079916065489692 0 -0.043427620577108042 0.30308970504402261 0 -0.043427620577108042 0.30308970504402261 0 -0.046232028413296107 0.29159927243030348 0 -0.041330946399602997 0.30079916065489692 0 -0.043427620577108042 0.30308970504402261 0 -0.03780693982600776 0.30479574344446841 0 -0.043427620577108042 0.30308970504402261 0 -0.040696943147226293 0.31427804384162272 0 -0.043427620577108042 0.30308970504402261 0 -0.040696943147226293 0.31427804384162272 0 -0.033692763614023291 0.27922767591532449 0 -0.027342374190062479 0.29067306321841357 0 -0.036412071188081048 0.29241000223316937 0 -0.033692763614023291 0.27922767591532449 0 -0.036412071188081048 0.29241000223316937 0 -0.046232028413296107 0.29159927243030348 0 -0.027342374190062479 0.29067306321841357 0 -0.033462243323422187 0.29975083894690918 0 -0.036412071188081048 0.29241000223316937 0 -0.041330946399602997 0.30079916065489692 0 -0.036412071188081048 0.29241000223316937 0 -0.046232028413296107 0.29159927243030348 0 -0.033692763614023291 0.27922767591532449 0 -0.046232028413296107 0.29159927243030348 0 -0.06252571920817282 0.28477070812665461 0 -0.046232028413296107 0.29159927243030348 0 -0.058333626216541187 0.30353905419620569 0 -0.043427620577108042 0.30308970504402261 0 -0.05652784284900117 0.31740124707717637 0 -0.040696943147226293 0.31427804384162272 0 -0.043427620577108042 0.30308970504402261 0 -0.05652784284900117 0.31740124707717637 0 -0.043427620577108042 0.30308970504402261 0 -0.058333626216541187 0.30353905419620569 0 -0.05652784284900117 0.31740124707717637 0 -0.043427620577108042 0.30308970504402261 0 -0.046232028413296107 0.29159927243030348 0 -0.058333626216541187 0.30353905419620569 0 -0.046232028413296107 0.29159927243030348 0 -0.058333626216541187 0.30353905419620569 0 -0.058333626216541187 0.30353905419620569 0 -0.060493970586394052 0.31422058315953461 0 -0.05652784284900117 0.31740124707717637 0 -0.060493970586394052 0.31422058315953461 0 -0.05652784284900117 0.31740124707717637 0 -0.070435224019783207 0.31547883596211101 0 -0.053949199910575903 0.33095622381377332 0 -0.038695296552776662 0.32247934217392432 0 -0.063097214898758275 0.32457805997929129 0 -0.038695296552776662 0.32247934217392432 0 -0.063097214898758275 0.32457805997929129 0 -0.05652784284900117 0.31740124707717637 0 -0.040696943147226293 0.31427804384162272 0 -0.05652784284900117 0.31740124707717637 0 -0.038695296552776662 0.32247934217392432 0 -0.063097214898758275 0.32457805997929129 0 -0.05652784284900117 0.31740124707717637 0 -0.063097214898758275 0.32457805997929129 0 -0.053460837060086523 0.34038039807259329 0 -0.069762562575301196 0.33185972295100452 0 -0.053949199910575903 0.33095622381377332 0 -0.069762562575301196 0.33185972295100452 0 -0.063097214898758275 0.32457805997929129 0 -0.053949199910575903 0.33095622381377332 0 -0.053460837060086523 0.34038039807259329 0 -0.069762562575301196 0.33185972295100452 0 -0.053949199910575903 0.33095622381377332 0 -0.053460837060086523 0.34038039807259329 0 -0.044730088465956643 0.33548359589205418 0 -0.053460837060086523 0.34038039807259329 0 -0.044730088465956643 0.33548359589205418 0 -0.043763960751531182 0.34417121486810792 0 -0.044730088465956643 0.33548359589205418 0 -0.034100778548388007 0.34130435002076248 0 -0.038695296552776662 0.32247934217392432 0 -0.034100778548388007 0.34130435002076248 0 -0.038695296552776662 0.32247934217392432 0 -0.034100778548388007 0.34130435002076248 0 -0.038695296552776662 0.32247934217392432 0 -0.030511742196305369 0.32177550524619708 0 -0.034100778548388007 0.34130435002076248 0 -0.030511742196305369 0.32177550524619708 0 -0.032296131655756691 0.35014490670097193 0 -0.030511742196305369 0.32177550524619708 0 -0.032296131655756691 0.35014490670097193 0 -0.044730088465956643 0.33548359589205418 0 -0.034100778548388007 0.34130435002076248 0 -0.043763960751531182 0.34417121486810792 0 -0.053949199910575903 0.33095622381377332 0 -0.044730088465956643 0.33548359589205418 0 -0.038695296552776662 0.32247934217392432 0 -0.05652784284900117 0.31740124707717637 0 -0.040696943147226293 0.31427804384162272 0 -0.038695296552776662 0.32247934217392432 0 -0.040696943147226293 0.31427804384162272 0 -0.038695296552776662 0.32247934217392432 0 -0.038695296552776662 0.32247934217392432 0 -0.033476053198191302 0.31771390019135048 0 -0.030511742196305369 0.32177550524619708 0 -0.038695296552776662 0.32247934217392432 0 -0.030511742196305369 0.32177550524619708 0 -0.040696943147226293 0.31427804384162272 0 -0.038695296552776662 0.32247934217392432 0 -0.033476053198191302 0.31771390019135048 0 -0.033476053198191302 0.31771390019135048 0 -0.02534719022929903 0.32133132143179249 0 -0.030511742196305369 0.32177550524619708 0 -0.016587983717251609 0.3095217014027225 0 -0.040696943147226293 0.31427804384162272 0 -0.033476053198191302 0.31771390019135048 0 -0.016587983717251609 0.3095217014027225 0 -0.033476053198191302 0.31771390019135048 0 -0.02534719022929903 0.32133132143179249 0 -0.016587983717251609 0.3095217014027225 0 -0.017134382125609599 0.32078890628859352 0 -0.02534719022929903 0.32133132143179249 0 -0.01952096879434586 0.32674557664147802 0 -0.017134382125609599 0.32078890628859352 0 -0.02534719022929903 0.32133132143179249 0 -0.01952096879434586 0.32674557664147802 0 -0.02534719022929903 0.32133132143179249 0 -0.030511742196305369 0.32177550524619708 0 -0.02534719022929903 0.32133132143179249 0 -0.030511742196305369 0.32177550524619708 0 -0.030511742196305369 0.32177550524619708 0 -0.01972516732872899 0.33793190566565429 0 -0.032296131655756691 0.35014490670097193 0 -0.01952096879434586 0.32674557664147802 0 -0.030511742196305369 0.32177550524619708 0 -0.01972516732872899 0.33793190566565429 0 -0.01952096879434586 0.32674557664147802 0 -0.01972516732872899 0.33793190566565429 0 -0.007659023569372596 0.32388775754765192 0 -0.01972516732872899 0.33793190566565429 0 -0.007659023569372596 0.32388775754765192 0 0.0045422153079443823 0.33974475314486291 0 -0.016587983717251609 0.3095217014027225 0 -0.007659023569372596 0.32388775754765192 0 0.0075209757127229632 0.30476535896382217 0 -0.016587983717251609 0.3095217014027225 0 -0.017134382125609599 0.32078890628859352 0 -0.007659023569372596 0.32388775754765192 0 -0.01952096879434586 0.32674557664147802 0 -0.017134382125609599 0.32078890628859352 0 -0.007659023569372596 0.32388775754765192 0 -0.0045426006561533408 0.37315282105005088 0 -0.012589133325050361 0.35629326518858673 0 0.010567405497599351 0.35827089641423382 0 -0.01972516732872899 0.33793190566565429 0 -0.012589133325050361 0.35629326518858673 0 0.0045422153079443823 0.33974475314486291 0 -0.01972516732872899 0.33793190566565429 0 -0.012589133325050361 0.35629326518858673 0 -0.032296131655756691 0.35014490670097193 0 -0.012589133325050361 0.35629326518858673 0 -0.032296131655756691 0.35014490670097193 0 -0.034080521115206881 0.37851430815574671 0 -0.0045426006561533408 0.37315282105005088 0 -0.012589133325050361 0.35629326518858673 0 -0.034080521115206881 0.37851430815574671 0 -0.032296131655756691 0.35014490670097193 0 -0.034080521115206881 0.37851430815574671 0 -0.032296131655756691 0.35014490670097193 0 -0.05289439062466203 0.35762154823580239 0 -0.034080521115206881 0.37851430815574671 0 -0.032296131655756691 0.35014490670097193 0 -0.043763960751531182 0.34417121486810792 0 -0.05289439062466203 0.35762154823580239 0 -0.034100778548388007 0.34130435002076248 0 -0.032296131655756691 0.35014490670097193 0 -0.043763960751531182 0.34417121486810792 0 -0.053460837060086523 0.34038039807259329 0 -0.05289439062466203 0.35762154823580239 0 -0.065670960331832395 0.34625609997416612 0 -0.053460837060086523 0.34038039807259329 0 -0.043763960751531182 0.34417121486810792 0 -0.05289439062466203 0.35762154823580239 0 -0.05289439062466203 0.35762154823580239 0 -0.070899961949904777 0.36052102611724862 0 -0.05289439062466203 0.35762154823580239 0 -0.070899961949904777 0.36052102611724862 0 -0.060850739561521622 0.37996687948229863 0 -0.05289439062466203 0.35762154823580239 0 -0.060850739561521622 0.37996687948229863 0 -0.034080521115206881 0.37851430815574671 0 -0.070899961949904777 0.36052102611724862 0 -0.060850739561521622 0.37996687948229863 0 -0.070899961949904777 0.36052102611724862 0 -0.076315094498247679 0.37414400683445298 0 -0.060850739561521622 0.37996687948229863 0 -0.070899961949904777 0.36052102611724862 0 -0.089768302905147479 0.36355943774391392 0 -0.070899961949904777 0.36052102611724862 0 -0.076315094498247679 0.37414400683445298 0 -0.089768302905147479 0.36355943774391392 0 -0.070899961949904777 0.36052102611724862 0 -0.089768302905147479 0.36355943774391392 0 -0.091587997054771109 0.35570325907290168 0 -0.089768302905147479 0.36355943774391392 0 -0.091587997054771109 0.35570325907290168 0 -0.070899961949904777 0.36052102611724862 0 -0.091587997054771109 0.35570325907290168 0 -0.07995644325806224 0.34299618680973798 0 -0.091587997054771109 0.35570325907290168 0 -0.093934845268146314 0.34557119436200701 0 -0.091587997054771109 0.35570325907290168 0 -0.08822359836096319 0.34354535834216587 0 -0.093934845268146314 0.34557119436200701 0 -0.091587997054771109 0.35570325907290168 0 -0.07995644325806224 0.34299618680973798 0 -0.08822359836096319 0.34354535834216587 0 -0.091587997054771109 0.35570325907290168 0 -0.07995644325806224 0.34299618680973798 0 -0.070899961949904777 0.36052102611724862 0 -0.07995644325806224 0.34299618680973798 0 -0.070899961949904777 0.36052102611724862 0 -0.065670960331832395 0.34625609997416612 0 -0.07995644325806224 0.34299618680973798 0 -0.05289439062466203 0.35762154823580239 0 -0.070899961949904777 0.36052102611724862 0 -0.065670960331832395 0.34625609997416612 0 -0.053460837060086523 0.34038039807259329 0 -0.065670960331832395 0.34625609997416612 0 -0.069762562575301196 0.33185972295100452 0 -0.069762562575301196 0.33185972295100452 0 -0.063097214898758275 0.32457805997929129 0 -0.069762562575301196 0.33185972295100452 0 -0.080783578508548115 0.32609919801826648 0 -0.069762562575301196 0.33185972295100452 0 -0.07995644325806224 0.34299618680973798 0 -0.079019282631744056 0.332702813596087 0 -0.069762562575301196 0.33185972295100452 0 -0.080783578508548115 0.32609919801826648 0 -0.079019282631744056 0.332702813596087 0 -0.069762562575301196 0.33185972295100452 0 -0.07995644325806224 0.34299618680973798 0 -0.065670960331832395 0.34625609997416612 0 -0.069762562575301196 0.33185972295100452 0 -0.07995644325806224 0.34299618680973798 0 -0.05652784284900117 0.31740124707717637 0 -0.076346634981989778 0.32131120272597569 0 -0.070435224019783207 0.31547883596211101 0 -0.05652784284900117 0.31740124707717637 0 -0.063097214898758275 0.32457805997929129 0 -0.076346634981989778 0.32131120272597569 0 -0.069762562575301196 0.33185972295100452 0 -0.063097214898758275 0.32457805997929129 0 -0.080783578508548115 0.32609919801826648 0 -0.063097214898758275 0.32457805997929129 0 -0.076346634981989778 0.32131120272597569 0 -0.080783578508548115 0.32609919801826648 0 -0.063097214898758275 0.32457805997929129 0 -0.080783578508548115 0.32609919801826648 0 -0.05652784284900117 0.31740124707717637 0 -0.076346634981989778 0.32131120272597569 0 -0.060493970586394052 0.31422058315953461 0 -0.070435224019783207 0.31547883596211101 0 -0.076346634981989778 0.32131120272597569 0 -0.070435224019783207 0.31547883596211101 0 -0.070435224019783207 0.31547883596211101 0 -0.09512400400460716 0.31860366592608508 0 -0.080783578508548115 0.32609919801826648 0 -0.098591778497473109 0.3276308147488996 0 -0.076346634981989778 0.32131120272597569 0 -0.070435224019783207 0.31547883596211101 0 -0.09512400400460716 0.31860366592608508 0 -0.080783578508548115 0.32609919801826648 0 -0.086218037865840938 0.32325868505528488 0 -0.098591778497473109 0.3276308147488996 0 -0.076346634981989778 0.32131120272597569 0 -0.086218037865840938 0.32325868505528488 0 -0.09512400400460716 0.31860366592608508 0 -0.076346634981989778 0.32131120272597569 0 -0.086218037865840938 0.32325868505528488 0 -0.076346634981989778 0.32131120272597569 0 -0.080783578508548115 0.32609919801826648 0 -0.086218037865840938 0.32325868505528488 0 -0.076346634981989778 0.32131120272597569 0 -0.080783578508548115 0.32609919801826648 0 -0.080783578508548115 0.32609919801826648 0 -0.086218037865840938 0.32325868505528488 0 -0.086218037865840938 0.32325868505528488 0 -0.09512400400460716 0.31860366592608508 0 -0.080783578508548115 0.32609919801826648 0 -0.092284118840694762 0.33703557914836868 0 -0.098591778497473109 0.3276308147488996 0 -0.083354587383140194 0.33642057231781519 0 -0.07995644325806224 0.34299618680973798 0 -0.08822359836096319 0.34354535834216587 0 -0.083354587383140194 0.33642057231781519 0 -0.07995644325806224 0.34299618680973798 0 -0.079019282631744056 0.332702813596087 0 -0.083354587383140194 0.33642057231781519 0 -0.07995644325806224 0.34299618680973798 0 -0.080783578508548115 0.32609919801826648 0 -0.083354587383140194 0.33642057231781519 0 -0.079019282631744056 0.332702813596087 0 -0.080783578508548115 0.32609919801826648 0 -0.083354587383140194 0.33642057231781519 0 -0.092284118840694762 0.33703557914836868 0 -0.080783578508548115 0.32609919801826648 0 -0.092284118840694762 0.33703557914836868 0 -0.083354587383140194 0.33642057231781519 0 -0.092284118840694762 0.33703557914836868 0 -0.08822359836096319 0.34354535834216587 0 -0.092284118840694762 0.33703557914836868 0 -0.08822359836096319 0.34354535834216587 0 -0.093934845268146314 0.34557119436200701 0 -0.1052980038644945 0.33894621453504031 0 -0.098591778497473109 0.3276308147488996 0 -0.1159443155612791 0.3291232416141866 0 -0.098591778497473109 0.3276308147488996 0 -0.1159443155612791 0.3291232416141866 0 -0.092284118840694762 0.33703557914836868 0 -0.1052980038644945 0.33894621453504031 0 -0.093934845268146314 0.34557119436200701 0 -0.092284118840694762 0.33703557914836868 0 -0.1052980038644945 0.33894621453504031 0 -0.098591778497473109 0.3276308147488996 0 -0.1147960104634634 0.30832139391327168 0 -0.09512400400460716 0.31860366592608508 0 -0.1147960104634634 0.30832139391327168 0 -0.09512400400460716 0.31860366592608508 0 -0.1161243536851109 0.32126165558681002 0 -0.086218037865840938 0.32325868505528488 0 -0.09512400400460716 0.31860366592608508 0 -0.1159443155612791 0.3291232416141866 0 -0.09512400400460716 0.31860366592608508 0 -0.1161243536851109 0.32126165558681002 0 -0.1159443155612791 0.3291232416141866 0 -0.086218037865840938 0.32325868505528488 0 -0.098591778497473109 0.3276308147488996 0 -0.1159443155612791 0.3291232416141866 0 -0.086218037865840938 0.32325868505528488 0 -0.1159443155612791 0.3291232416141866 0 -0.09512400400460716 0.31860366592608508 0 -0.1161243536851109 0.32126165558681002 0 -0.13712470336561469 0.32391964524753458 0 -0.1161243536851109 0.32126165558681002 0 -0.118377308158662 0.32960323520238249 0 -0.13712470336561469 0.32391964524753458 0 -0.1147960104634634 0.30832139391327168 0 -0.1161243536851109 0.32126165558681002 0 -0.1161243536851109 0.32126165558681002 0 -0.1159443155612791 0.3291232416141866 0 -0.118377308158662 0.32960323520238249 0 -0.1052980038644945 0.33894621453504031 0 -0.122741643959492 0.33912597706905528 0 -0.11478268076750379 0.35206942212872511 0 -0.1052980038644945 0.33894621453504031 0 -0.1159443155612791 0.3291232416141866 0 -0.122741643959492 0.33912597706905528 0 -0.1159443155612791 0.3291232416141866 0 -0.118377308158662 0.32960323520238249 0 -0.13248335184565271 0.33238614976276798 0 -0.118377308158662 0.32960323520238249 0 -0.122741643959492 0.33912597706905528 0 -0.1159443155612791 0.3291232416141866 0 -0.118377308158662 0.32960323520238249 0 -0.122741643959492 0.33912597706905528 0 -0.12796394006501099 0.36971016759926228 0 -0.13150555597045929 0.35142926063191721 0 -0.11478268076750379 0.35206942212872511 0 -0.13150555597045929 0.35142926063191721 0 -0.122741643959492 0.33912597706905528 0 -0.11478268076750379 0.35206942212872511 0 -0.12796394006501099 0.36971016759926228 0 -0.11478268076750379 0.35206942212872511 0 -0.1003371022306211 0.3652613554072911 0 -0.12796394006501099 0.36971016759926228 0 -0.1003371022306211 0.3652613554072911 0 -0.11266105448221971 0.37872484915592258 0 -0.12796394006501099 0.36971016759926228 0 -0.1003371022306211 0.3652613554072911 0 -0.1003371022306211 0.3652613554072911 0 -0.11266105448221971 0.37872484915592258 0 -0.1003371022306211 0.3652613554072911 0 -0.098519283332364274 0.37849628923692291 0 -0.11266105448221971 0.37872484915592258 0 -0.089768302905147479 0.36355943774391392 0 -0.1003371022306211 0.3652613554072911 0 -0.098519283332364274 0.37849628923692291 0 -0.091587997054771109 0.35570325907290168 0 -0.1003371022306211 0.3652613554072911 0 -0.089768302905147479 0.36355943774391392 0 -0.091587997054771109 0.35570325907290168 0 -0.1003371022306211 0.3652613554072911 0 -0.089768302905147479 0.36355943774391392 0 -0.1003371022306211 0.3652613554072911 0 -0.091587997054771109 0.35570325907290168 0 -0.1003371022306211 0.3652613554072911 0 -0.1017038881607014 0.3519379759486575 0 -0.091587997054771109 0.35570325907290168 0 -0.093934845268146314 0.34557119436200701 0 -0.1017038881607014 0.3519379759486575 0 -0.1052980038644945 0.33894621453504031 0 -0.093934845268146314 0.34557119436200701 0 -0.1017038881607014 0.3519379759486575 0 -0.1052980038644945 0.33894621453504031 0 -0.11478268076750379 0.35206942212872511 0 -0.1017038881607014 0.3519379759486575 0 -0.11478268076750379 0.35206942212872511 0 -0.1003371022306211 0.3652613554072911 0 -0.1017038881607014 0.3519379759486575 0 -0.1062038381056192 0.39485867101187172 0 -0.099923345832045846 0.41560824843269573 0 -0.083626118938213853 0.3900771328656143 0 -0.1062038381056192 0.39485867101187172 0 -0.098519283332364274 0.37849628923692291 0 -0.083626118938213853 0.3900771328656143 0 -0.1062038381056192 0.39485867101187172 0 -0.098519283332364274 0.37849628923692291 0 -0.11266105448221971 0.37872484915592258 0 -0.1062038381056192 0.39485867101187172 0 -0.11266105448221971 0.37872484915592258 0 -0.1232329307171732 0.39081748336030991 0 -0.12796394006501099 0.36971016759926228 0 -0.11266105448221971 0.37872484915592258 0 -0.1232329307171732 0.39081748336030991 0 -0.1062038381056192 0.39485867101187172 0 -0.1232329307171732 0.39081748336030991 0 -0.1203746603948761 0.41251815508081607 0 -0.1203746603948761 0.41251815508081607 0 -0.11120801991973291 0.43703896361145472 0 -0.099923345832045846 0.41560824843269573 0 -0.12996922900776969 0.43349752018555421 0 -0.1203746603948761 0.41251815508081607 0 -0.11120801991973291 0.43703896361145472 0 -0.11120801991973291 0.43703896361145472 0 -0.099923345832045846 0.41560824843269573 0 -0.089871677374432093 0.43386133156577228 0 -0.1062038381056192 0.39485867101187172 0 -0.1203746603948761 0.41251815508081607 0 -0.099923345832045846 0.41560824843269573 0 -0.099923345832045846 0.41560824843269573 0 -0.077483934971280144 0.41659482798731462 0 -0.083626118938213853 0.3900771328656143 0 -0.099923345832045846 0.41560824843269573 0 -0.089871677374432093 0.43386133156577228 0 -0.077483934971280144 0.41659482798731462 0 -0.089871677374432093 0.43386133156577228 0 -0.077483934971280144 0.41659482798731462 0 -0.071341751004346421 0.44311252310901511 0 -0.065383313845563409 0.43421625499203198 0 -0.077483934971280144 0.41659482798731462 0 -0.06005183717116052 0.42723826647083418 0 -0.077483934971280144 0.41659482798731462 0 -0.071341751004346421 0.44311252310901511 0 -0.065383313845563409 0.43421625499203198 0 -0.077483934971280144 0.41659482798731462 0 -0.071341751004346421 0.44311252310901511 0 -0.077483934971280144 0.41659482798731462 0 -0.055290111237088747 0.414051890947991 0 -0.06005183717116052 0.42723826647083418 0 -0.077483934971280144 0.41659482798731462 0 -0.066728440221001356 0.40107828336712281 0 -0.055290111237088747 0.414051890947991 0 -0.077483934971280144 0.41659482798731462 0 -0.066728440221001356 0.40107828336712281 0 -0.083626118938213853 0.3900771328656143 0 -0.077483934971280144 0.41659482798731462 0 -0.083626118938213853 0.3900771328656143 0 -0.076315094498247679 0.37414400683445298 0 -0.089768302905147479 0.36355943774391392 0 -0.083626118938213853 0.3900771328656143 0 -0.089768302905147479 0.36355943774391392 0 -0.083626118938213853 0.3900771328656143 0 -0.089768302905147479 0.36355943774391392 0 -0.098519283332364274 0.37849628923692291 0 -0.083626118938213853 0.3900771328656143 0 -0.076315094498247679 0.37414400683445298 0 -0.083626118938213853 0.3900771328656143 0 -0.060850739561521622 0.37996687948229863 0 -0.066728440221001356 0.40107828336712281 0 -0.083626118938213853 0.3900771328656143 0 -0.060850739561521622 0.37996687948229863 0 -0.060850739561521622 0.37996687948229863 0 -0.050801517173141013 0.39941273284734991 0 -0.060850739561521622 0.37996687948229863 0 -0.050801517173141013 0.39941273284734991 0 -0.034080521115206881 0.37851430815574671 0 -0.066728440221001356 0.40107828336712281 0 -0.050801517173141013 0.39941273284734991 0 -0.055290111237088747 0.414051890947991 0 -0.066728440221001356 0.40107828336712281 0 -0.060850739561521622 0.37996687948229863 0 -0.050801517173141013 0.39941273284734991 0 -0.034080521115206881 0.37851430815574671 0 -0.035864910574657072 0.40688370961052162 0 -0.050801517173141013 0.39941273284734991 0 -0.034080521115206881 0.37851430815574671 0 -0.035864910574657072 0.40688370961052162 0 -0.034080521115206881 0.37851430815574671 0 -0.0073143073136647503 0.39745635484607128 0 -0.035864910574657072 0.40688370961052162 0 -0.0045426006561533408 0.37315282105005088 0 -0.034080521115206881 0.37851430815574671 0 -0.0073143073136647503 0.39745635484607128 0 -0.0040682684714412696 0.42417482241573168 0 -0.015782937492065951 0.43554010381058977 0 -0.0049807791518667174 0.44616128958802082 0 -0.0040682684714412696 0.42417482241573168 0 -0.019107250757187139 0.4176064176722506 0 -0.015782937492065951 0.43554010381058977 0 -0.0073143073136647503 0.39745635484607128 0 -0.0040682684714412696 0.42417482241573168 0 -0.019107250757187139 0.4176064176722506 0 -0.019107250757187139 0.4176064176722506 0 -0.02656500704299854 0.4325989637187696 0 -0.035864910574657072 0.40688370961052162 0 -0.0073143073136647503 0.39745635484607128 0 -0.019107250757187139 0.4176064176722506 0 -0.035864910574657072 0.40688370961052162 0 -0.019107250757187139 0.4176064176722506 0 -0.015782937492065951 0.43554010381058977 0 -0.02656500704299854 0.4325989637187696 0 -0.015782937492065951 0.43554010381058977 0 -0.02656500704299854 0.4325989637187696 0 -0.023675093468530781 0.44402859556799201 0 -0.02656500704299854 0.4325989637187696 0 -0.037649300034107269 0.43525311106529641 0 -0.035864910574657072 0.40688370961052162 0 -0.037649300034107269 0.43525311106529641 0 -0.040752294784760362 0.4188585862124013 0 -0.048474037110131409 0.42958265343806668 0 -0.02656500704299854 0.4325989637187696 0 -0.037649300034107269 0.43525311106529641 0 -0.034523192171998299 0.44075821237917812 0 -0.037649300034107269 0.43525311106529641 0 -0.048474037110131409 0.42958265343806668 0 -0.046103454652248188 0.44423988733506659 0 -0.050801517173141013 0.39941273284734991 0 -0.040752294784760362 0.4188585862124013 0 -0.037649300034107269 0.43525311106529641 0 -0.035864910574657072 0.40688370961052162 0 -0.037649300034107269 0.43525311106529641 0 -0.035864910574657072 0.40688370961052162 0 -0.040752294784760362 0.4188585862124013 0 -0.050801517173141013 0.39941273284734991 0 -0.035864910574657072 0.40688370961052162 0 -0.040752294784760362 0.4188585862124013 0 -0.050801517173141013 0.39941273284734991 0 -0.040752294784760362 0.4188585862124013 0 -0.055290111237088747 0.414051890947991 0 -0.040752294784760362 0.4188585862124013 0 -0.055290111237088747 0.414051890947991 0 -0.048474037110131409 0.42958265343806668 0 -0.055290111237088747 0.414051890947991 0 -0.048474037110131409 0.42958265343806668 0 -0.06005183717116052 0.42723826647083418 0 -0.065383313845563409 0.43421625499203198 0 -0.06005183717116052 0.42723826647083418 0 -0.056003875674400627 0.44065376515210219 0 -0.048474037110131409 0.42958265343806668 0 -0.06005183717116052 0.42723826647083418 0 -0.056003875674400627 0.44065376515210219 0 -0.065383313845563409 0.43421625499203198 0 -0.056003875674400627 0.44065376515210219 0 -0.06287247633919027 0.44319610961936079 0 -0.056003875674400627 0.44065376515210219 0 -0.058179896233418182 0.4505115193336458 0 -0.06287247633919027 0.44319610961936079 0 -0.056003875674400627 0.44065376515210219 0 -0.058179896233418182 0.4505115193336458 0 -0.051042475487784678 0.4532538888978343 0 -0.056003875674400627 0.44065376515210219 0 -0.051042475487784678 0.4532538888978343 0 -0.046103454652248188 0.44423988733506659 0 -0.048474037110131409 0.42958265343806668 0 -0.056003875674400627 0.44065376515210219 0 -0.046103454652248188 0.44423988733506659 0 -0.058179896233418182 0.4505115193336458 0 -0.05434534618376094 0.46905332145074818 0 -0.067472613414515326 0.44611472892665049 0 -0.058179896233418182 0.4505115193336458 0 -0.051042475487784678 0.4532538888978343 0 -0.05434534618376094 0.46905332145074818 0 -0.051042475487784678 0.4532538888978343 0 -0.03943368949355746 0.46362251252007131 0 -0.05434534618376094 0.46905332145074818 0 -0.05434534618376094 0.46905332145074818 0 -0.067472613414515326 0.44611472892665049 0 -0.05434534618376094 0.46905332145074818 0 -0.06519956703741267 0.4696302182307156 0 -0.067472613414515326 0.44611472892665049 0 -0.029853594842888988 0.45173519517568939 0 -0.028903662133188238 0.45988144744529869 0 -0.035334068008208652 0.47037910618958828 0 -0.03943368949355746 0.46362251252007131 0 -0.034523192171998299 0.44075821237917812 0 -0.035334068008208652 0.47037910618958828 0 -0.034523192171998299 0.44075821237917812 0 -0.029853594842888988 0.45173519517568939 0 -0.035334068008208652 0.47037910618958828 0 -0.034523192171998299 0.44075821237917812 0 -0.035334068008208652 0.47037910618958828 0 -0.051042475487784678 0.4532538888978343 0 -0.03943368949355746 0.46362251252007131 0 -0.046103454652248188 0.44423988733506659 0 -0.037649300034107269 0.43525311106529641 0 -0.03943368949355746 0.46362251252007131 0 -0.037649300034107269 0.43525311106529641 0 -0.03943368949355746 0.46362251252007131 0 -0.046103454652248188 0.44423988733506659 0 -0.037649300034107269 0.43525311106529641 0 -0.03943368949355746 0.46362251252007131 0 -0.034523192171998299 0.44075821237917812 0 -0.02656500704299854 0.4325989637187696 0 -0.034523192171998299 0.44075821237917812 0 -0.028997254779897039 0.44295092291603899 0 -0.034523192171998299 0.44075821237917812 0 -0.028997254779897039 0.44295092291603899 0 -0.029853594842888988 0.45173519517568939 0 -0.02656500704299854 0.4325989637187696 0 -0.023675093468530781 0.44402859556799201 0 -0.028997254779897039 0.44295092291603899 0 -0.015782937492065951 0.43554010381058977 0 -0.023675093468530781 0.44402859556799201 0 -0.016013913773140868 0.44694064644226822 0 -0.016013913773140868 0.44694064644226822 0 -0.023510305137849359 0.45362514901992429 0 -0.01433842468709174 0.45509930100057761 0 -0.023675093468530781 0.44402859556799201 0 -0.016013913773140868 0.44694064644226822 0 -0.023510305137849359 0.45362514901992429 0 -0.023675093468530781 0.44402859556799201 0 -0.028997254779897039 0.44295092291603899 0 -0.029853594842888988 0.45173519517568939 0 -0.023675093468530781 0.44402859556799201 0 -0.029853594842888988 0.45173519517568939 0 -0.023510305137849359 0.45362514901992429 0 -0.029853594842888988 0.45173519517568939 0 -0.023510305137849359 0.45362514901992429 0 -0.028903662133188238 0.45988144744529869 0 -0.023510305137849359 0.45362514901992429 0 -0.028903662133188238 0.45988144744529869 0 -0.02024587318469839 0.46173495204913262 0 -0.028903662133188238 0.45988144744529869 0 -0.026678086131145081 0.46715933272864602 0 -0.035334068008208652 0.47037910618958828 0 -0.028903662133188238 0.45988144744529869 0 -0.026678086131145081 0.46715933272864602 0 -0.02024587318469839 0.46173495204913262 0 -0.02024587318469839 0.46173495204913262 0 -0.0076889094467738816 0.46478000118795137 0 -0.02035585157214204 0.4698644809123983 0 -0.026678086131145081 0.46715933272864602 0 -0.02024587318469839 0.46173495204913262 0 -0.02035585157214204 0.4698644809123983 0 -0.023510305137849359 0.45362514901992429 0 -0.02024587318469839 0.46173495204913262 0 -0.01433842468709174 0.45509930100057761 0 -0.01433842468709174 0.45509930100057761 0 -0.0076889094467738816 0.46478000118795137 0 -0.0049807791518667174 0.44616128958802082 0 -0.0076889094467738816 0.46478000118795137 0 -0.0049807791518667174 0.44616128958802082 0 0.0067190561514857416 0.45457892549911538 0 -0.02024587318469839 0.46173495204913262 0 -0.01433842468709174 0.45509930100057761 0 -0.0076889094467738816 0.46478000118795137 0 -0.015782937492065951 0.43554010381058977 0 -0.016013913773140868 0.44694064644226822 0 -0.0049807791518667174 0.44616128958802082 0 -0.016013913773140868 0.44694064644226822 0 -0.01433842468709174 0.45509930100057761 0 -0.0049807791518667174 0.44616128958802082 0 -0.01067909684907253 0.5 0 -0.0156062486182605 0.47973855648976349 0 0.0017979149220028511 0.48165652148318122 0 -0.0076889094467738816 0.46478000118795137 0 -0.0156062486182605 0.47973855648976349 0 0.0017979149220028511 0.48165652148318122 0 -0.0076889094467738816 0.46478000118795137 0 -0.0156062486182605 0.47973855648976349 0 -0.02035585157214204 0.4698644809123983 0 -0.0156062486182605 0.47973855648976349 0 -0.02035585157214204 0.4698644809123983 0 -0.025993513961239261 0.47423678715391149 0 -0.026678086131145081 0.46715933272864602 0 -0.025993513961239261 0.47423678715391149 0 -0.035334068008208652 0.47037910618958828 0 -0.026678086131145081 0.46715933272864602 0 -0.02035585157214204 0.4698644809123983 0 -0.025993513961239261 0.47423678715391149 0 -0.025993513961239261 0.47423678715391149 0 -0.029084936037789871 0.4853717228145033 0 -0.035334068008208652 0.47037910618958828 0 -0.0156062486182605 0.47973855648976349 0 -0.025993513961239261 0.47423678715391149 0 -0.029084936037789871 0.4853717228145033 0 -0.01067909684907253 0.5 0 -0.0156062486182605 0.47973855648976349 0 -0.029084936037789871 0.4853717228145033 0 -0.01067909684907253 0.5 0 -0.029084936037789871 0.4853717228145033 0 -0.036144943844418992 0.49999999999999872 0 -0.029084936037789871 0.4853717228145033 0 -0.036144943844418992 0.49999999999999872 0 -0.035334068008208652 0.47037910618958828 0 -0.036144943844418992 0.49999999999999872 0 -0.041218078953006998 0.49199191397484621 0 -0.035334068008208652 0.47037910618958828 0 -0.036144943844418992 0.49999999999999872 0 -0.035334068008208652 0.47037910618958828 0 -0.036144943844418992 0.49999999999999872 0 -0.041218078953006998 0.49199191397484621 0 -0.041218078953006998 0.49199191397484621 0 -0.044078524422878518 0.5 0 -0.041721774609626561 0.49999999999999811 0 -0.036144943844418992 0.49999999999999872 0 -0.041218078953006998 0.49199191397484621 0 -0.041721774609626561 0.49999999999999811 0 -0.041218078953006998 0.49199191397484621 0 -0.041721774609626561 0.49999999999999811 0 -0.03943368949355746 0.46362251252007131 0 -0.041218078953006998 0.49199191397484621 0 -0.035334068008208652 0.47037910618958828 0 -0.03943368949355746 0.46362251252007131 0 -0.041218078953006998 0.49199191397484621 0 -0.03943368949355746 0.46362251252007131 0 -0.041218078953006998 0.49199191397484621 0 -0.05434534618376094 0.46905332145074818 0 -0.0590573830704786 0.49614791335241581 0 -0.06519956703741267 0.4696302182307156 0 -0.041218078953006998 0.49199191397484621 0 -0.05434534618376094 0.46905332145074818 0 -0.054955093811165062 0.4817058417521814 0 -0.0590573830704786 0.49614791335241581 0 -0.06519956703741267 0.4696302182307156 0 -0.041218078953006998 0.49199191397484621 0 -0.05434534618376094 0.46905332145074818 0 -0.054955093811165062 0.4817058417521814 0 -0.05434534618376094 0.46905332145074818 0 -0.054955093811165062 0.4817058417521814 0 -0.06519956703741267 0.4696302182307156 0 -0.041218078953006998 0.49199191397484621 0 -0.054955093811165062 0.4817058417521814 0 -0.0590573830704786 0.49614791335241581 0 -0.041218078953006998 0.49199191397484621 0 -0.044078524422878518 0.5 0 -0.0590573830704786 0.49614791335241581 0 -0.044078524422878518 0.5 0 -0.058165140183702127 0.50000000000000189 0 -0.0590573830704786 0.49614791335241581 0 -0.044078524422878518 0.5 0 -0.0590573830704786 0.49614791335241581 0 -0.058165140183702127 0.50000000000000189 0 -0.0590573830704786 0.49614791335241581 0 -0.0590573830704786 0.49614791335241581 0 -0.069931900117377432 0.48508350430910852 0 -0.081273071594596319 0.49043474393517239 0 -0.0590573830704786 0.49614791335241581 0 -0.082618508942569724 0.5 0 -0.081273071594596319 0.49043474393517239 0 -0.0590573830704786 0.49614791335241581 0 -0.081273071594596319 0.49043474393517239 0 -0.058165140183702127 0.50000000000000189 0 -0.0590573830704786 0.49614791335241581 0 -0.082618508942569724 0.5 0 -0.069931900117377432 0.48508350430910852 0 -0.081273071594596319 0.49043474393517239 0 -0.075958334991466092 0.4792870028873748 0 -0.081273071594596319 0.49043474393517239 0 -0.1034887601187142 0.48472157451792991 0 -0.093912603506258352 0.49353413449259642 0 -0.081273071594596319 0.49043474393517239 0 -0.1034887601187142 0.48472157451792991 0 -0.082618508942569724 0.5 0 -0.081273071594596319 0.49043474393517239 0 -0.093912603506258352 0.49353413449259642 0 -0.081273071594596319 0.49043474393517239 0 -0.088218026713187306 0.47139074348274329 0 -0.075958334991466092 0.4792870028873748 0 -0.081273071594596319 0.49043474393517239 0 -0.088218026713187306 0.47139074348274329 0 -0.1034887601187142 0.48472157451792991 0 -0.088218026713187306 0.47139074348274329 0 -0.075958334991466092 0.4792870028873748 0 -0.06519956703741267 0.4696302182307156 0 -0.0590573830704786 0.49614791335241581 0 -0.069931900117377432 0.48508350430910852 0 -0.06519956703741267 0.4696302182307156 0 -0.069931900117377432 0.48508350430910852 0 -0.075958334991466092 0.4792870028873748 0 -0.06519956703741267 0.4696302182307156 0 -0.088218026713187306 0.47139074348274329 0 -0.06519956703741267 0.4696302182307156 0 -0.071341751004346421 0.44311252310901511 0 -0.06519956703741267 0.4696302182307156 0 -0.071341751004346421 0.44311252310901511 0 -0.06519956703741267 0.4696302182307156 0 -0.067472613414515326 0.44611472892665049 0 -0.071341751004346421 0.44311252310901511 0 -0.06287247633919027 0.44319610961936079 0 -0.067472613414515326 0.44611472892665049 0 -0.071341751004346421 0.44311252310901511 0 -0.065383313845563409 0.43421625499203198 0 -0.06287247633919027 0.44319610961936079 0 -0.071341751004346421 0.44311252310901511 0 -0.058179896233418182 0.4505115193336458 0 -0.06287247633919027 0.44319610961936079 0 -0.067472613414515326 0.44611472892665049 0 -0.089871677374432093 0.43386133156577228 0 -0.071341751004346421 0.44311252310901511 0 -0.097215916971543415 0.45322637380664538 0 -0.088218026713187306 0.47139074348274329 0 -0.071341751004346421 0.44311252310901511 0 -0.097215916971543415 0.45322637380664538 0 -0.097215916971543415 0.45322637380664538 0 -0.1143705817159245 0.47661318690332199 0 -0.088218026713187306 0.47139074348274329 0 -0.097215916971543415 0.45322637380664538 0 -0.1143705817159245 0.47661318690332199 0 -0.097215916971543415 0.45322637380664538 0 -0.1148651275162057 0.45701265773121902 0 -0.1143705817159245 0.47661318690332199 0 -0.11120801991973291 0.43703896361145472 0 -0.097215916971543415 0.45322637380664538 0 -0.1148651275162057 0.45701265773121902 0 -0.11120801991973291 0.43703896361145472 0 -0.089871677374432093 0.43386133156577228 0 -0.097215916971543415 0.45322637380664538 0 -0.1272772443498997 0.45077262286745168 0 -0.11120801991973291 0.43703896361145472 0 -0.1148651275162057 0.45701265773121902 0 -0.1272772443498997 0.45077262286745168 0 -0.12996922900776969 0.43349752018555421 0 -0.11120801991973291 0.43703896361145472 0 -0.12646001653391509 0.46668721438350619 0 -0.1272772443498997 0.45077262286745168 0 -0.1148651275162057 0.45701265773121902 0 -0.12646001653391509 0.46668721438350619 0 -0.1148651275162057 0.45701265773121902 0 -0.1143705817159245 0.47661318690332199 0 -0.13185266503140139 0.48410183447219812 0 -0.12646001653391509 0.46668721438350619 0 -0.1143705817159245 0.47661318690332199 0 -0.1143705817159245 0.47661318690332199 0 -0.1141141164990952 0.49033369035531288 0 -0.1034887601187142 0.48472157451792991 0 -0.13152524646030489 0.49999999999999889 0 -0.1143705817159245 0.47661318690332199 0 -0.1141141164990952 0.49033369035531288 0 -0.13152524646030489 0.49999999999999889 0 -0.1143705817159245 0.47661318690332199 0 -0.13152524646030489 0.49999999999999889 0 -0.1141141164990952 0.49033369035531288 0 -0.10707187770143731 0.5 0 -0.082618508942569724 0.5 0 -0.10707187770143731 0.5 0 -0.093912603506258352 0.49353413449259642 0 -0.1141141164990952 0.49033369035531288 0 -0.1034887601187142 0.48472157451792991 0 -0.10707187770143731 0.5 0 -0.1034887601187142 0.48472157451792991 0 -0.10707187770143731 0.5 0 -0.093912603506258352 0.49353413449259642 0 -0.088218026713187306 0.47139074348274329 0 -0.1143705817159245 0.47661318690332199 0 -0.1034887601187142 0.48472157451792991 0 -0.1661971227857981 0.078557615014028415 0 -0.1696000463671872 0.090486790117669247 0 -0.15052620736169109 0.089586875673122943 0 -0.1661971227857981 0.078557615014028415 0 -0.1696000463671872 0.090486790117669247 0 -0.17322377873682129 0.082178747011534048 0 -0.1661971227857981 0.078557615014028415 0 -0.17466744690556341 0.072210934782529768 0 -0.16573689351737059 0.058418533155446262 0 -0.1661971227857981 0.078557615014028415 0 -0.15022012338656149 0.071613750069491541 0 -0.16573689351737059 0.058418533155446262 0 -0.1661971227857981 0.078557615014028415 0 -0.16573689351737059 0.058418533155446262 0 -0.1661971227857981 0.078557615014028415 0 -0.17466744690556341 0.072210934782529768 0 -0.17322377873682129 0.082178747011534048 0 -0.18195787630629109 0.089405519221786023 0 -0.18395297478579681 0.061834440741264707 0 -0.18904825503125969 0.074596579277287578 0 -0.17466744690556341 0.072210934782529768 0 -0.18195787630629109 0.089405519221786023 0 -0.18395297478579681 0.061834440741264707 0 -0.17466744690556341 0.072210934782529768 0 -0.16573689351737059 0.058418533155446262 0 -0.18395297478579681 0.061834440741264707 0 -0.18195787630629109 0.089405519221786023 0 -0.18395297478579681 0.061834440741264707 0 -0.17466744690556341 0.072210934782529768 0 -0.17322377873682129 0.082178747011534048 0 -0.18195787630629109 0.089405519221786023 0 -0.18195787630629109 0.089405519221786023 0 -0.1876203062103812 0.085154091553751227 0 -0.18904825503125969 0.074596579277287578 0 -0.1696000463671872 0.090486790117669247 0 -0.18195787630629109 0.089405519221786023 0 -0.17430669802228721 0.10127932723892839 0 -0.1696000463671872 0.090486790117669247 0 -0.17322377873682129 0.082178747011534048 0 -0.18195787630629109 0.089405519221786023 0 -0.18195787630629109 0.089405519221786023 0 -0.18957189966287441 0.093117068594800498 0 -0.1876203062103812 0.085154091553751227 0 -0.18195787630629109 0.089405519221786023 0 -0.17996277782678469 0.1169765977023071 0 -0.18195787630629109 0.089405519221786023 0 -0.17996277782678469 0.1169765977023071 0 -0.18751175784101981 0.1019174488126332 0 -0.18195787630629109 0.089405519221786023 0 -0.17430669802228721 0.10127932723892839 0 -0.17996277782678469 0.1169765977023071 0 -0.18195787630629109 0.089405519221786023 0 -0.18957189966287441 0.093117068594800498 0 -0.18751175784101981 0.1019174488126332 0 -0.17430669802228721 0.10127932723892839 0 -0.17996277782678469 0.1169765977023071 0 -0.17008507433928949 0.1129307387472854 0 -0.18399944287813769 0.1243110413724456 0 -0.17996277782678469 0.1169765977023071 0 -0.1915165139578541 0.12062561452203339 0 -0.17996277782678469 0.1169765977023071 0 -0.19070674849365871 0.1098036214123289 0 -0.18751175784101981 0.1019174488126332 0 -0.17996277782678469 0.1169765977023071 0 -0.1915165139578541 0.12062561452203339 0 -0.19070674849365871 0.1098036214123289 0 -0.18399944287813769 0.1243110413724456 0 -0.17996277782678469 0.1169765977023071 0 -0.17238658245394531 0.12545986635763931 0 -0.17996277782678469 0.1169765977023071 0 -0.17008507433928949 0.1129307387472854 0 -0.17238658245394531 0.12545986635763931 0 -0.17008507433928949 0.1129307387472854 0 -0.1609078447057396 0.11821543189307759 0 -0.17238658245394531 0.12545986635763931 0 -0.17008507433928949 0.1129307387472854 0 -0.1609078447057396 0.11821543189307759 0 -0.16286146868769069 0.1027224705444747 0 -0.1696000463671872 0.090486790117669247 0 -0.16286146868769069 0.1027224705444747 0 -0.15052620736169109 0.089586875673122943 0 -0.1696000463671872 0.090486790117669247 0 -0.17430669802228721 0.10127932723892839 0 -0.16286146868769069 0.1027224705444747 0 -0.17430669802228721 0.10127932723892839 0 -0.17008507433928949 0.1129307387472854 0 -0.16286146868769069 0.1027224705444747 0 -0.14483809316289209 0.10788626194089659 0 -0.12953394143352689 0.0962220954654186 0 -0.15052620736169109 0.089586875673122943 0 -0.16286146868769069 0.1027224705444747 0 -0.14483809316289209 0.10788626194089659 0 -0.15052620736169109 0.089586875673122943 0 -0.1609078447057396 0.11821543189307759 0 -0.14483809316289209 0.10788626194089659 0 -0.146422009359223 0.12588572965013881 0 -0.1609078447057396 0.11821543189307759 0 -0.16286146868769069 0.1027224705444747 0 -0.14483809316289209 0.10788626194089659 0 -0.14483809316289209 0.10788626194089659 0 -0.13007033986284439 0.11468940196259191 0 -0.146422009359223 0.12588572965013881 0 -0.13007033986284439 0.11468940196259191 0 -0.146422009359223 0.12588572965013881 0 -0.12794092556623851 0.1308087954511595 0 -0.14483809316289209 0.10788626194089659 0 -0.13007033986284439 0.11468940196259191 0 -0.12953394143352689 0.0962220954654186 0 -0.12953394143352689 0.0962220954654186 0 -0.15052620736169109 0.089586875673122943 0 -0.13065787682797539 0.074490167233760132 0 -0.15052620736169109 0.089586875673122943 0 -0.15022012338656149 0.071613750069491541 0 -0.13065787682797539 0.074490167233760132 0 -0.1661971227857981 0.078557615014028415 0 -0.15052620736169109 0.089586875673122943 0 -0.15022012338656149 0.071613750069491541 0 -0.15022012338656149 0.071613750069491541 0 -0.13065787682797539 0.074490167233760132 0 -0.14515982565357641 0.054559889730765067 0 -0.13065787682797539 0.074490167233760132 0 -0.13896875645631149 0.050392457974293377 0 -0.13065787682797539 0.074490167233760132 0 -0.13896875645631149 0.050392457974293377 0 -0.12525322860273669 0.054683915403429713 0 -0.13065787682797539 0.074490167233760132 0 -0.13896875645631149 0.050392457974293377 0 -0.14515982565357641 0.054559889730765067 0 -0.13896875645631149 0.050392457974293377 0 -0.12525322860273669 0.054683915403429713 0 -0.13112496187718059 0.044324123850062493 0 -0.12525322860273669 0.054683915403429713 0 -0.13112496187718059 0.044324123850062493 0 -0.11947386029792641 0.044699115915308937 0 -0.13112496187718059 0.044324123850062493 0 -0.13207584708741921 0.037796525428943371 0 -0.1241829150729519 0.03733201807985212 0 -0.13207584708741921 0.037796525428943371 0 -0.131833608700272 0.030524403571461269 0 -0.1241829150729519 0.03733201807985212 0 -0.131833608700272 0.030524403571461269 0 -0.12279062167827851 0.029362630448722959 0 -0.1241829150729519 0.03733201807985212 0 -0.13207584708741921 0.037796525428943371 0 -0.13748289047400489 0.031740414346278022 0 -0.131833608700272 0.030524403571461269 0 -0.13207584708741921 0.037796525428943371 0 -0.1376660792386305 0.038226945630428777 0 -0.13748289047400489 0.031740414346278022 0 -0.13896875645631149 0.050392457974293377 0 -0.13112496187718059 0.044324123850062493 0 -0.1376660792386305 0.038226945630428777 0 -0.13112496187718059 0.044324123850062493 0 -0.13207584708741921 0.037796525428943371 0 -0.1376660792386305 0.038226945630428777 0 -0.13896875645631149 0.050392457974293377 0 -0.14671443159904121 0.045399133558557639 0 -0.1472796360846475 0.026294748714826701 0 -0.14671443159904121 0.045399133558557639 0 -0.15124688017340179 0.039609834018222753 0 -0.1472796360846475 0.026294748714826701 0 -0.13896875645631149 0.050392457974293377 0 -0.1376660792386305 0.038226945630428777 0 -0.1472796360846475 0.026294748714826701 0 -0.13896875645631149 0.050392457974293377 0 -0.1472796360846475 0.026294748714826701 0 -0.1376660792386305 0.038226945630428777 0 -0.13748289047400489 0.031740414346278022 0 -0.1472796360846475 0.026294748714826701 0 -0.15377806982209841 0.031910215931445288 0 -0.15124688017340179 0.039609834018222753 0 -0.1472796360846475 0.026294748714826701 0 -0.14671443159904121 0.045399133558557639 0 -0.15124688017340179 0.039609834018222753 0 -0.15554430400163299 0.04845401766222325 0 -0.14671443159904121 0.045399133558557639 0 -0.15554430400163299 0.04845401766222325 0 -0.14515982565357641 0.054559889730765067 0 -0.15022012338656149 0.071613750069491541 0 -0.14515982565357641 0.054559889730765067 0 -0.16573689351737059 0.058418533155446262 0 -0.15554430400163299 0.04845401766222325 0 -0.14515982565357641 0.054559889730765067 0 -0.16573689351737059 0.058418533155446262 0 -0.14515982565357641 0.054559889730765067 0 -0.16573689351737059 0.058418533155446262 0 -0.13896875645631149 0.050392457974293377 0 -0.14671443159904121 0.045399133558557639 0 -0.14515982565357641 0.054559889730765067 0 -0.13082697262089341 0.0013823364580261221 0 -0.1360887568453997 0.017432280465049261 0 -0.13082697262089341 0.0013823364580261221 0 -0.13871558333384901 0.0091914915382712535 0 -0.1360887568453997 0.017432280465049261 0 -0.13082697262089341 0.0013823364580261221 0 -0.1360887568453997 0.017432280465049261 0 -0.1198791301280094 0.01256548056862198 0 -0.13082697262089341 0.0013823364580261221 0 -0.13871558333384901 0.0091914915382712535 0 -0.1430733723094596 0.0027738663656623908 0 -0.13871558333384901 0.0091914915382712535 0 -0.1360887568453997 0.017432280465049261 0 -0.1448732315596436 0.015177482864347251 0 -0.1360887568453997 0.017432280465049261 0 -0.13869379842726631 0.02537840097113014 0 -0.1360887568453997 0.017432280465049261 0 -0.13869379842726631 0.02537840097113014 0 -0.1448732315596436 0.015177482864347251 0 -0.1360887568453997 0.017432280465049261 0 -0.1448732315596436 0.015177482864347251 0 -0.1360887568453997 0.017432280465049261 0 -0.131833608700272 0.030524403571461269 0 -0.12279062167827851 0.029362630448722959 0 -0.13748289047400489 0.031740414346278022 0 -0.131833608700272 0.030524403571461269 0 -0.13869379842726631 0.02537840097113014 0 -0.1360887568453997 0.017432280465049261 0 -0.131833608700272 0.030524403571461269 0 -0.13869379842726631 0.02537840097113014 0 -0.13748289047400489 0.031740414346278022 0 -0.13869379842726631 0.02537840097113014 0 -0.1472796360846475 0.026294748714826701 0 -0.15377806982209841 0.031910215931445288 0 -0.1472796360846475 0.026294748714826701 0 -0.1561335750157348 0.026808813557556051 0 -0.1472796360846475 0.026294748714826701 0 -0.1561335750157348 0.026808813557556051 0 -0.1579328502657682 0.018159964467206611 0 -0.13869379842726631 0.02537840097113014 0 -0.1472796360846475 0.026294748714826701 0 -0.1448732315596436 0.015177482864347251 0 -0.1472796360846475 0.026294748714826701 0 -0.15559051571298349 0.0021970394553601428 0 -0.1472796360846475 0.026294748714826701 0 -0.15559051571298349 0.0021970394553601428 0 -0.1579328502657682 0.018159964467206611 0 -0.1472796360846475 0.026294748714826701 0 -0.1448732315596436 0.015177482864347251 0 -0.15559051571298349 0.0021970394553601428 0 -0.13871558333384901 0.0091914915382712535 0 -0.1448732315596436 0.015177482864347251 0 -0.1430733723094596 0.0027738663656623908 0 -0.14682546129531099 -0.0042659812654107041 0 -0.15559051571298349 0.0021970394553601428 0 -0.1430733723094596 0.0027738663656623908 0 -0.1448732315596436 0.015177482864347251 0 -0.15559051571298349 0.0021970394553601428 0 -0.1430733723094596 0.0027738663656623908 0 -0.15559051571298349 0.0021970394553601428 0 -0.1645132280666701 0.0048723978490777626 0 -0.1579328502657682 0.018159964467206611 0 -0.17142969566451249 -0.002320172152788679 0 -0.1645132280666701 0.0048723978490777626 0 -0.17409539937870841 0.0038983075190149349 0 -0.1645132280666701 0.0048723978490777626 0 -0.17573815155413611 0.010906618706079859 0 -0.17409539937870841 0.0038983075190149349 0 -0.1645132280666701 0.0048723978490777626 0 -0.1651250607920203 0.031645465502262007 0 -0.1645132280666701 0.0048723978490777626 0 -0.1579328502657682 0.018159964467206611 0 -0.1651250607920203 0.031645465502262007 0 -0.1645132280666701 0.0048723978490777626 0 -0.17573815155413611 0.010906618706079859 0 -0.1651250607920203 0.031645465502262007 0 -0.1561335750157348 0.026808813557556051 0 -0.1579328502657682 0.018159964467206611 0 -0.1651250607920203 0.031645465502262007 0 -0.15377806982209841 0.031910215931445288 0 -0.1561335750157348 0.026808813557556051 0 -0.1651250607920203 0.031645465502262007 0 -0.18189124422637781 0.014762174366335829 0 -0.18601038568932329 0.033402241493726878 0 -0.18806779659284831 0.0049700422461890943 0 -0.17719121056546441 0.022679125017101141 0 -0.18189124422637781 0.014762174366335829 0 -0.18601038568932329 0.033402241493726878 0 -0.17719121056546441 0.022679125017101141 0 -0.17573815155413611 0.010906618706079859 0 -0.1651250607920203 0.031645465502262007 0 -0.18601038568932329 0.033402241493726878 0 -0.18806779659284831 0.0049700422461890943 0 -0.17719121056546441 0.022679125017101141 0 -0.1651250607920203 0.031645465502262007 0 -0.18601038568932329 0.033402241493726878 0 -0.17719121056546441 0.022679125017101141 0 -0.17573815155413611 0.010906618706079859 0 -0.18189124422637781 0.014762174366335829 0 -0.17573815155413611 0.010906618706079859 0 -0.17889033448411179 0.0079964195331972236 0 -0.18189124422637781 0.014762174366335829 0 -0.18189124422637781 0.014762174366335829 0 -0.18273711566350151 0.0072184972263333383 0 -0.18806779659284831 0.0049700422461890943 0 -0.17889033448411179 0.0079964195331972236 0 -0.18189124422637781 0.014762174366335829 0 -0.18273711566350151 0.0072184972263333383 0 -0.18273711566350151 0.0072184972263333383 0 -0.18446886122977971 0.003824433103355296 0 -0.179989761597835 0.003196499848222149 0 -0.17889033448411179 0.0079964195331972236 0 -0.18273711566350151 0.0072184972263333383 0 -0.179989761597835 0.003196499848222149 0 -0.18273711566350151 0.0072184972263333383 0 -0.18446886122977971 0.003824433103355296 0 -0.18806779659284831 0.0049700422461890943 0 -0.18346386537279349 -0.001647984405783556 0 -0.18446886122977971 0.003824433103355296 0 -0.18806779659284831 0.0049700422461890943 0 -0.18346386537279349 -0.001647984405783556 0 -0.18446886122977971 0.003824433103355296 0 -0.179989761597835 0.003196499848222149 0 -0.17622003680225889 -0.0018283141660710069 0 -0.179989761597835 0.003196499848222149 0 -0.17409539937870841 0.0038983075190149349 0 -0.17889033448411179 0.0079964195331972236 0 -0.179989761597835 0.003196499848222149 0 -0.17409539937870841 0.0038983075190149349 0 -0.17573815155413611 0.010906618706079859 0 -0.17889033448411179 0.0079964195331972236 0 -0.17409539937870841 0.0038983075190149349 0 -0.15554430400163299 0.04845401766222325 0 -0.16573689351737059 0.058418533155446262 0 -0.1651250607920203 0.031645465502262007 0 -0.16573689351737059 0.058418533155446262 0 -0.1651250607920203 0.031645465502262007 0 -0.16573689351737059 0.058418533155446262 0 -0.1651250607920203 0.031645465502262007 0 -0.17520632869612771 0.046325170223174991 0 -0.15124688017340179 0.039609834018222753 0 -0.15554430400163299 0.04845401766222325 0 -0.1651250607920203 0.031645465502262007 0 -0.15377806982209841 0.031910215931445288 0 -0.15124688017340179 0.039609834018222753 0 -0.1651250607920203 0.031645465502262007 0 -0.1651250607920203 0.031645465502262007 0 -0.17520632869612771 0.046325170223174991 0 -0.18601038568932329 0.033402241493726878 0 -0.18601038568932329 0.033402241493726878 0 -0.18395297478579681 0.061834440741264707 0 -0.16573689351737059 0.058418533155446262 0 -0.18395297478579681 0.061834440741264707 0 -0.17520632869612771 0.046325170223174991 0 -0.18601038568932329 0.033402241493726878 0 -0.18395297478579681 0.061834440741264707 0 -0.16573689351737059 0.058418533155446262 0 -0.17520632869612771 0.046325170223174991 0 -0.18395297478579681 0.061834440741264707 0 -0.18601038568932329 0.033402241493726878 0 -0.18395297478579681 0.061834440741264707 0 -0.19432427019888721 0.047717368901783637 0 -0.18395297478579681 0.061834440741264707 0 -0.19432427019888721 0.047717368901783637 0 -0.2004398973288736 0.064926093822507414 0 -0.19432427019888721 0.047717368901783637 0 -0.20919739655702321 0.05110765976474177 0 -0.2004398973288736 0.064926093822507414 0 -0.19432427019888721 0.047717368901783637 0 -0.20919739655702321 0.05110765976474177 0 -0.20302794047968459 0.023081294018651489 0 -0.18601038568932329 0.033402241493726878 0 -0.19432427019888721 0.047717368901783637 0 -0.20302794047968459 0.023081294018651489 0 -0.20919739655702321 0.05110765976474177 0 -0.20302794047968459 0.023081294018651489 0 -0.2186503457585714 0.036191877097800897 0 -0.20919739655702321 0.05110765976474177 0 -0.20302794047968459 0.023081294018651489 0 -0.2186503457585714 0.036191877097800897 0 -0.20919739655702321 0.05110765976474177 0 -0.2186503457585714 0.036191877097800897 0 -0.20919739655702321 0.05110765976474177 0 -0.2239393004417794 0.057035151505099642 0 -0.20919739655702321 0.05110765976474177 0 -0.21274729391246061 0.067233995765417526 0 -0.20919739655702321 0.05110765976474177 0 -0.2239393004417794 0.057035151505099642 0 -0.21274729391246061 0.067233995765417526 0 -0.20919739655702321 0.05110765976474177 0 -0.21274729391246061 0.067233995765417526 0 -0.2004398973288736 0.064926093822507414 0 -0.20919739655702321 0.05110765976474177 0 -0.2004398973288736 0.064926093822507414 0 -0.19685848440234599 -0.0049450717274387504 0 -0.20302794047968459 0.023081294018651489 0 -0.19685848440234599 -0.0049450717274387504 0 -0.18806779659284831 0.0049700422461890943 0 -0.20302794047968459 0.023081294018651489 0 -0.19685848440234599 -0.0049450717274387504 0 -0.18806779659284831 0.0049700422461890943 0 -0.18601038568932329 0.033402241493726878 0 -0.18806779659284831 0.0049700422461890943 0 -0.20302794047968459 0.023081294018651489 0 -0.2186503457585714 0.036191877097800897 0 -0.20302794047968459 0.023081294018651489 0 -0.21578872032528251 0.017709636277511719 0 -0.20302794047968459 0.023081294018651489 0 -0.21578872032528251 0.017709636277511719 0 -0.21019557575314421 0.006394909686725795 0 -0.19685848440234599 -0.0049450717274387504 0 -0.20302794047968459 0.023081294018651489 0 -0.21019557575314421 0.006394909686725795 0 -0.21578872032528251 0.017709636277511719 0 -0.21019557575314421 0.006394909686725795 0 -0.22381138727050781 0.002909525995360538 0 -0.2120469589708838 -0.0066311205522630702 0 -0.21019557575314421 0.006394909686725795 0 -0.22381138727050781 0.002909525995360538 0 -0.22381138727050781 0.002909525995360538 0 -0.22810329496012 0.021276094430860339 0 -0.24156246817162111 3.8901865961206428e-05 0 -0.21578872032528251 0.017709636277511719 0 -0.22381138727050781 0.002909525995360538 0 -0.22810329496012 0.021276094430860339 0 -0.22381138727050781 0.002909525995360538 0 -0.22810329496012 0.021276094430860339 0 -0.2186503457585714 0.036191877097800897 0 -0.21578872032528251 0.017709636277511719 0 -0.22810329496012 0.021276094430860339 0 -0.2186503457585714 0.036191877097800897 0 -0.22810329496012 0.021276094430860339 0 -0.22810329496012 0.021276094430860339 0 -0.2482379394587918 0.029714206062630741 0 -0.2430094494313754 0.01631945997984989 0 -0.25413409513496882 0.01424863755994726 0 -0.2482379394587918 0.029714206062630741 0 -0.2430094494313754 0.01631945997984989 0 -0.25413409513496882 0.01424863755994726 0 -0.2430094494313754 0.01631945997984989 0 -0.24156246817162111 3.8901865961206428e-05 0 -0.22810329496012 0.021276094430860339 0 -0.2430094494313754 0.01631945997984989 0 -0.24156246817162111 3.8901865961206428e-05 0 -0.22810329496012 0.021276094430860339 0 -0.24156246817162111 3.8901865961206428e-05 0 -0.2239393004417794 0.057035151505099642 0 -0.23392784627468649 0.046201378957349278 0 -0.23975239758925179 0.071126663483838351 0 -0.2186503457585714 0.036191877097800897 0 -0.2239393004417794 0.057035151505099642 0 -0.23392784627468649 0.046201378957349278 0 -0.22810329496012 0.021276094430860339 0 -0.23392784627468649 0.046201378957349278 0 -0.2186503457585714 0.036191877097800897 0 -0.22810329496012 0.021276094430860339 0 -0.23392784627468649 0.046201378957349278 0 -0.25276717720812231 0.044552257542074973 0 -0.2482379394587918 0.029714206062630741 0 -0.23392784627468649 0.046201378957349278 0 -0.22810329496012 0.021276094430860339 0 -0.2482379394587918 0.029714206062630741 0 -0.23392784627468649 0.046201378957349278 0 -0.23392784627468649 0.046201378957349278 0 -0.24630962701273121 0.067782376752368534 0 -0.23975239758925179 0.071126663483838351 0 -0.25116776642898098 0.057890226552889897 0 -0.25276717720812231 0.044552257542074973 0 -0.23392784627468649 0.046201378957349278 0 -0.23392784627468649 0.046201378957349278 0 -0.23975239758925179 0.071126663483838351 0 -0.25116776642898098 0.057890226552889897 0 -0.23392784627468649 0.046201378957349278 0 -0.24630962701273121 0.067782376752368534 0 -0.25272998449871309 0.067992264760302415 0 -0.24630962701273121 0.067782376752368534 0 -0.24799635201148201 0.073901566263619864 0 -0.24799635201148201 0.073901566263619864 0 -0.243266688756439 0.074511835008774494 0 -0.24347293784451701 0.082722003339298661 0 -0.25190428147771932 0.073234116385534689 0 -0.24799635201148201 0.073901566263619864 0 -0.24347293784451701 0.082722003339298661 0 -0.24630962701273121 0.067782376752368534 0 -0.24799635201148201 0.073901566263619864 0 -0.243266688756439 0.074511835008774494 0 -0.24630962701273121 0.067782376752368534 0 -0.243266688756439 0.074511835008774494 0 -0.23975239758925179 0.071126663483838351 0 -0.23975239758925179 0.071126663483838351 0 -0.22936052255868389 0.070349333961449836 0 -0.23417457342052941 0.075843321837321981 0 -0.243266688756439 0.074511835008774494 0 -0.23880212932421291 0.077026565204747086 0 -0.24347293784451701 0.082722003339298661 0 -0.243266688756439 0.074511835008774494 0 -0.23975239758925179 0.071126663483838351 0 -0.23880212932421291 0.077026565204747086 0 -0.23975239758925179 0.071126663483838351 0 -0.23880212932421291 0.077026565204747086 0 -0.23417457342052941 0.075843321837321981 0 -0.25766879115762881 0.085346879766204309 0 -0.24347293784451701 0.082722003339298661 0 -0.2379383999704123 0.099852136835595309 0 -0.23880212932421291 0.077026565204747086 0 -0.24347293784451701 0.082722003339298661 0 -0.23841998103028911 0.081787689146604198 0 -0.23880212932421291 0.077026565204747086 0 -0.23841998103028911 0.081787689146604198 0 -0.23417457342052941 0.075843321837321981 0 -0.24347293784451701 0.082722003339298661 0 -0.23841998103028911 0.081787689146604198 0 -0.23841998103028911 0.081787689146604198 0 -0.2263927576408894 0.080950786320467455 0 -0.21993642918294579 0.099892520595323886 0 -0.2263927576408894 0.080950786320467455 0 -0.21634186154770299 0.083563258180370761 0 -0.21993642918294579 0.099892520595323886 0 -0.24347293784451701 0.082722003339298661 0 -0.21993642918294579 0.099892520595323886 0 -0.24347293784451701 0.082722003339298661 0 -0.23841998103028911 0.081787689146604198 0 -0.21993642918294579 0.099892520595323886 0 -0.23841998103028911 0.081787689146604198 0 -0.2263927576408894 0.080950786320467455 0 -0.23417457342052941 0.075843321837321981 0 -0.2263927576408894 0.080950786320467455 0 -0.2206779897428123 0.0749092826482608 0 -0.21634186154770299 0.083563258180370761 0 -0.22936052255868389 0.070349333961449836 0 -0.21274729391246061 0.067233995765417526 0 -0.22936052255868389 0.070349333961449836 0 -0.2206779897428123 0.0749092826482608 0 -0.21274729391246061 0.067233995765417526 0 -0.2239393004417794 0.057035151505099642 0 -0.23975239758925179 0.071126663483838351 0 -0.22936052255868389 0.070349333961449836 0 -0.2239393004417794 0.057035151505099642 0 -0.22936052255868389 0.070349333961449836 0 -0.21274729391246061 0.067233995765417526 0 -0.2263927576408894 0.080950786320467455 0 -0.22936052255868389 0.070349333961449836 0 -0.23417457342052941 0.075843321837321981 0 -0.2263927576408894 0.080950786320467455 0 -0.22936052255868389 0.070349333961449836 0 -0.2206779897428123 0.0749092826482608 0 -0.21274729391246061 0.067233995765417526 0 -0.21634186154770299 0.083563258180370761 0 -0.21274729391246061 0.067233995765417526 0 -0.21634186154770299 0.083563258180370761 0 -0.20473296819448689 0.079316544454668333 0 -0.2206779897428123 0.0749092826482608 0 -0.21274729391246061 0.067233995765417526 0 -0.21634186154770299 0.083563258180370761 0 -0.21274729391246061 0.067233995765417526 0 -0.2004398973288736 0.064926093822507414 0 -0.21274729391246061 0.067233995765417526 0 -0.20473296819448689 0.079316544454668333 0 -0.2004398973288736 0.064926093822507414 0 -0.21634186154770299 0.083563258180370761 0 -0.21993642918294579 0.099892520595323886 0 -0.21634186154770299 0.083563258180370761 0 -0.2090166835931582 0.090043566635817834 0 -0.21993642918294579 0.099892520595323886 0 -0.2090166835931582 0.090043566635817834 0 -0.20473296819448689 0.079316544454668333 0 -0.19782004329977801 0.089496679051309327 0 -0.2090166835931582 0.090043566635817834 0 -0.19782004329977801 0.089496679051309327 0 -0.2062521157408774 0.09794883089741685 0 -0.21634186154770299 0.083563258180370761 0 -0.2090166835931582 0.090043566635817834 0 -0.20473296819448689 0.079316544454668333 0 -0.20473296819448689 0.079316544454668333 0 -0.19765330375837989 0.07972335222055929 0 -0.19782004329977801 0.089496679051309327 0 -0.19782004329977801 0.089496679051309327 0 -0.18957189966287441 0.093117068594800498 0 -0.1876203062103812 0.085154091553751227 0 -0.19765330375837989 0.07972335222055929 0 -0.19782004329977801 0.089496679051309327 0 -0.1876203062103812 0.085154091553751227 0 -0.18395297478579681 0.061834440741264707 0 -0.2004398973288736 0.064926093822507414 0 -0.1876203062103812 0.085154091553751227 0 -0.18904825503125969 0.074596579277287578 0 -0.2004398973288736 0.064926093822507414 0 -0.18395297478579681 0.061834440741264707 0 -0.18904825503125969 0.074596579277287578 0 -0.2004398973288736 0.064926093822507414 0 -0.1876203062103812 0.085154091553751227 0 -0.2004398973288736 0.064926093822507414 0 -0.19765330375837989 0.07972335222055929 0 -0.1876203062103812 0.085154091553751227 0 -0.2004398973288736 0.064926093822507414 0 -0.20473296819448689 0.079316544454668333 0 -0.19765330375837989 0.07972335222055929 0 -0.2004398973288736 0.064926093822507414 0 -0.1915165139578541 0.12062561452203339 0 -0.20572647157039989 0.11025906755867849 0 -0.20573516551881479 0.1273700891938872 0 -0.1915165139578541 0.12062561452203339 0 -0.20572647157039989 0.11025906755867849 0 -0.1915165139578541 0.12062561452203339 0 -0.19070674849365871 0.1098036214123289 0 -0.20572647157039989 0.11025906755867849 0 -0.19070674849365871 0.1098036214123289 0 -0.18751175784101981 0.1019174488126332 0 -0.1953594869154904 0.1002844371319435 0 -0.18957189966287441 0.093117068594800498 0 -0.18751175784101981 0.1019174488126332 0 -0.1953594869154904 0.1002844371319435 0 -0.19782004329977801 0.089496679051309327 0 -0.18957189966287441 0.093117068594800498 0 -0.1953594869154904 0.1002844371319435 0 -0.19782004329977801 0.089496679051309327 0 -0.1953594869154904 0.1002844371319435 0 -0.2062521157408774 0.09794883089741685 0 -0.19070674849365871 0.1098036214123289 0 -0.1953594869154904 0.1002844371319435 0 -0.20572647157039989 0.11025906755867849 0 -0.1953594869154904 0.1002844371319435 0 -0.2062521157408774 0.09794883089741685 0 -0.20572647157039989 0.11025906755867849 0 -0.2062521157408774 0.09794883089741685 0 -0.20572647157039989 0.11025906755867849 0 -0.21993642918294579 0.099892520595323886 0 -0.20572647157039989 0.11025906755867849 0 -0.22371639989274039 0.11706402490529801 0 -0.21993642918294579 0.099892520595323886 0 -0.2090166835931582 0.090043566635817834 0 -0.2062521157408774 0.09794883089741685 0 -0.21993642918294579 0.099892520595323886 0 -0.20572647157039989 0.11025906755867849 0 -0.21993642918294579 0.099892520595323886 0 -0.20572647157039989 0.11025906755867849 0 -0.22371639989274039 0.11706402490529801 0 -0.20573516551881479 0.1273700891938872 0 -0.22371639989274039 0.11706402490529801 0 -0.23803867693615771 0.1218014097798229 0 -0.22799041247121521 0.13469512599485131 0 -0.22371639989274039 0.11706402490529801 0 -0.2379383999704123 0.099852136835595309 0 -0.23803867693615771 0.1218014097798229 0 -0.22371639989274039 0.11706402490529801 0 -0.21993642918294579 0.099892520595323886 0 -0.24347293784451701 0.082722003339298661 0 -0.21993642918294579 0.099892520595323886 0 -0.2379383999704123 0.099852136835595309 0 -0.22371639989274039 0.11706402490529801 0 -0.21993642918294579 0.099892520595323886 0 -0.2379383999704123 0.099852136835595309 0 -0.25234779532188129 0.1106429620443504 0 -0.25766879115762881 0.085346879766204309 0 -0.2379383999704123 0.099852136835595309 0 -0.25234779532188129 0.1106429620443504 0 -0.23803867693615771 0.1218014097798229 0 -0.24702679948613401 0.13593904432249651 0 -0.25234779532188129 0.1106429620443504 0 -0.24702679948613401 0.13593904432249651 0 -0.25234779532188129 0.1106429620443504 0 -0.2379383999704123 0.099852136835595309 0 -0.23803867693615771 0.1218014097798229 0 -0.23803867693615771 0.1218014097798229 0 -0.24702679948613401 0.13593904432249651 0 -0.22799041247121521 0.13469512599485131 0 -0.24702679948613401 0.13593904432249651 0 -0.22799041247121521 0.13469512599485131 0 -0.23256472405461259 0.14843013697506799 0 -0.22371639989274039 0.11706402490529801 0 -0.22799041247121521 0.13469512599485131 0 -0.20573516551881479 0.1273700891938872 0 -0.23256472405461259 0.14843013697506799 0 -0.22358061803701171 0.16225992021088251 0 -0.21367954882749951 0.14604350555839521 0 -0.22799041247121521 0.13469512599485131 0 -0.23256472405461259 0.14843013697506799 0 -0.21367954882749951 0.14604350555839521 0 -0.24702679948613401 0.13593904432249651 0 -0.23256472405461259 0.14843013697506799 0 -0.24798754635115419 0.15984541518354681 0 -0.23256472405461259 0.14843013697506799 0 -0.24798754635115419 0.15984541518354681 0 -0.22358061803701171 0.16225992021088251 0 -0.25838158176301529 0.17966884935518021 0 -0.24798754635115419 0.15984541518354681 0 -0.24284285117188789 0.17505671916914031 0 -0.24798754635115419 0.15984541518354681 0 -0.24284285117188789 0.17505671916914031 0 -0.22358061803701171 0.16225992021088251 0 -0.24284285117188789 0.17505671916914031 0 -0.24878729217559289 0.18841596133959801 0 -0.2325455095579794 0.1920156105778652 0 -0.22746078847163709 0.1784894408967303 0 -0.2108741751196693 0.18462551362903321 0 -0.2325455095579794 0.1920156105778652 0 -0.24284285117188789 0.17505671916914031 0 -0.22746078847163709 0.1784894408967303 0 -0.22358061803701171 0.16225992021088251 0 -0.24284285117188789 0.17505671916914031 0 -0.22746078847163709 0.1784894408967303 0 -0.2325455095579794 0.1920156105778652 0 -0.22746078847163709 0.1784894408967303 0 -0.22358061803701171 0.16225992021088251 0 -0.2108741751196693 0.18462551362903321 0 -0.22358061803701171 0.16225992021088251 0 -0.2049433530265215 0.16061588083114869 0 -0.2108741751196693 0.18462551362903321 0 -0.22358061803701171 0.16225992021088251 0 -0.2049433530265215 0.16061588083114869 0 -0.21367954882749951 0.14604350555839521 0 -0.2108741751196693 0.18462551362903321 0 -0.1890908188254993 0.16953767277788731 0 -0.18496941487880969 0.19471158418181789 0 -0.2049433530265215 0.16061588083114869 0 -0.2108741751196693 0.18462551362903321 0 -0.1890908188254993 0.16953767277788731 0 -0.2049433530265215 0.16061588083114869 0 -0.1890908188254993 0.16953767277788731 0 -0.19321222277218891 0.14436376137395671 0 -0.1890908188254993 0.16953767277788731 0 -0.19321222277218891 0.14436376137395671 0 -0.1890908188254993 0.16953767277788731 0 -0.19321222277218891 0.14436376137395671 0 -0.1852995688568064 0.14720474994801419 0 -0.19321222277218891 0.14436376137395671 0 -0.20573516551881479 0.1273700891938872 0 -0.1852995688568064 0.14720474994801419 0 -0.19029650623126329 0.13143711820087781 0 -0.20573516551881479 0.1273700891938872 0 -0.1852995688568064 0.14720474994801419 0 -0.20573516551881479 0.1273700891938872 0 -0.1852995688568064 0.14720474994801419 0 -0.18399944287813769 0.1243110413724456 0 -0.1915165139578541 0.12062561452203339 0 -0.19029650623126329 0.13143711820087781 0 -0.1915165139578541 0.12062561452203339 0 -0.19029650623126329 0.13143711820087781 0 -0.20573516551881479 0.1273700891938872 0 -0.19321222277218891 0.14436376137395671 0 -0.20573516551881479 0.1273700891938872 0 -0.21367954882749951 0.14604350555839521 0 -0.22799041247121521 0.13469512599485131 0 -0.20573516551881479 0.1273700891938872 0 -0.21367954882749951 0.14604350555839521 0 -0.2049433530265215 0.16061588083114869 0 -0.19321222277218891 0.14436376137395671 0 -0.21367954882749951 0.14604350555839521 0 -0.22359991905300591 0.24445062206085111 0 -0.23687497177736189 0.23150414832798791 0 -0.22618988828923989 0.2273314179536059 0 -0.2381547251009824 0.25036062724400548 0 -0.22359991905300591 0.24445062206085111 0 -0.2415436617167393 0.2393598459660678 0 -0.22359991905300591 0.24445062206085111 0 -0.24801018607111791 0.23566717074778309 0 -0.2415436617167393 0.2393598459660678 0 -0.22359991905300591 0.24445062206085111 0 -0.24801018607111791 0.23566717074778309 0 -0.23687497177736189 0.23150414832798791 0 -0.22359991905300591 0.24445062206085111 0 -0.24801018607111791 0.23566717074778309 0 -0.2381547251009824 0.25036062724400548 0 -0.24591301348853789 0.24331704576544311 0 -0.2415436617167393 0.2393598459660678 0 -0.2381547251009824 0.25036062724400548 0 -0.249435427503925 0.25000056447435692 0 -0.24591301348853789 0.24331704576544311 0 -0.2524210670499249 0.24119702039500171 0 -0.249435427503925 0.25000056447435692 0 -0.24591301348853789 0.24331704576544311 0 -0.2524210670499249 0.24119702039500171 0 -0.24591301348853789 0.24331704576544311 0 -0.24801018607111791 0.23566717074778309 0 -0.24591301348853789 0.24331704576544311 0 -0.24801018607111791 0.23566717074778309 0 -0.2415436617167393 0.2393598459660678 0 -0.24801018607111791 0.23566717074778309 0 -0.2415436617167393 0.2393598459660678 0 -0.23687497177736189 0.23150414832798791 0 -0.2467254125811553 0.2261864474181082 0 -0.2385505544831793 0.22259089851681441 0 -0.24801018607111791 0.23566717074778309 0 -0.23687497177736189 0.23150414832798791 0 -0.2467254125811553 0.2261864474181082 0 -0.25513340228505632 0.22342102262153321 0 -0.24801018607111791 0.23566717074778309 0 -0.2467254125811553 0.2261864474181082 0 -0.2467254125811553 0.2261864474181082 0 -0.2385505544831793 0.22259089851681441 0 -0.24882323592532751 0.21153690915109311 0 -0.2385505544831793 0.22259089851681441 0 -0.22618988828923989 0.2273314179536059 0 -0.2345365239906404 0.2107118266271652 0 -0.22618988828923989 0.2273314179536059 0 -0.2203298980247814 0.20854752786068689 0 -0.20975977502983659 0.23089080061730161 0 -0.22359991905300591 0.24445062206085111 0 -0.22618988828923989 0.2273314179536059 0 -0.20975977502983659 0.23089080061730161 0 -0.23687497177736189 0.23150414832798791 0 -0.2385505544831793 0.22259089851681441 0 -0.22618988828923989 0.2273314179536059 0 -0.2203298980247814 0.20854752786068689 0 -0.2345365239906404 0.2107118266271652 0 -0.2325455095579794 0.1920156105778652 0 -0.22618988828923989 0.2273314179536059 0 -0.2203298980247814 0.20854752786068689 0 -0.2345365239906404 0.2107118266271652 0 -0.2385505544831793 0.22259089851681441 0 -0.24882323592532751 0.21153690915109311 0 -0.2345365239906404 0.2107118266271652 0 -0.25346129445857718 0.19861817783096619 0 -0.24882323592532751 0.21153690915109311 0 -0.24330736002138159 0.19976563414728099 0 -0.24882323592532751 0.21153690915109311 0 -0.2345365239906404 0.2107118266271652 0 -0.24330736002138159 0.19976563414728099 0 -0.2345365239906404 0.2107118266271652 0 -0.24330736002138159 0.19976563414728099 0 -0.2325455095579794 0.1920156105778652 0 -0.24330736002138159 0.19976563414728099 0 -0.24878729217559289 0.18841596133959801 0 -0.2325455095579794 0.1920156105778652 0 -0.25346129445857718 0.19861817783096619 0 -0.24330736002138159 0.19976563414728099 0 -0.24878729217559289 0.18841596133959801 0 -0.2108741751196693 0.18462551362903321 0 -0.2203298980247814 0.20854752786068689 0 -0.2325455095579794 0.1920156105778652 0 -0.2108741751196693 0.18462551362903321 0 -0.2203298980247814 0.20854752786068689 0 -0.19992667255052921 0.21233891253311929 0 -0.2108741751196693 0.18462551362903321 0 -0.19992667255052921 0.21233891253311929 0 -0.18496941487880969 0.19471158418181789 0 -0.19992667255052921 0.21233891253311929 0 -0.18084801093212 0.21988549558574849 0 -0.18496941487880969 0.19471158418181789 0 -0.2203298980247814 0.20854752786068689 0 -0.19992667255052921 0.21233891253311929 0 -0.20975977502983659 0.23089080061730161 0 -0.2203298980247814 0.20854752786068689 0 -0.20975977502983659 0.23089080061730161 0 -0.19992667255052921 0.21233891253311929 0 -0.1927787613179586 0.2353725533241281 0 -0.18084801093212 0.21988549558574849 0 -0.19992667255052921 0.21233891253311929 0 -0.20975977502983659 0.23089080061730161 0 -0.1927787613179586 0.2353725533241281 0 -0.19918965203489319 0.25323407337391712 0 -0.1927787613179586 0.2353725533241281 0 -0.17672660698543041 0.2450594069896791 0 -0.19918965203489319 0.25323407337391712 0 -0.20975977502983659 0.23089080061730161 0 -0.1927787613179586 0.2353725533241281 0 -0.19918965203489319 0.25323407337391712 0 -0.22359991905300591 0.24445062206085111 0 -0.20975977502983659 0.23089080061730161 0 -0.19918965203489319 0.25323407337391712 0 -0.20975977502983659 0.23089080061730161 0 -0.19918965203489319 0.25323407337391712 0 -0.22359991905300591 0.24445062206085111 0 -0.16476888297622971 0.25602604930352812 0 -0.16409502612009411 0.24328878717079289 0 -0.14868184259594561 0.24139284649683301 0 -0.16409502612009411 0.24328878717079289 0 -0.16436325682262101 0.23053653317431089 0 -0.14868184259594561 0.24139284649683301 0 -0.16409502612009411 0.24328878717079289 0 -0.17672660698543041 0.2450594069896791 0 -0.16436325682262101 0.23053653317431089 0 -0.16476888297622971 0.25602604930352812 0 -0.16409502612009411 0.24328878717079289 0 -0.17672660698543041 0.2450594069896791 0 -0.17672660698543041 0.2450594069896791 0 -0.18084801093212 0.21988549558574849 0 -0.17672660698543041 0.2450594069896791 0 -0.18084801093212 0.21988549558574849 0 -0.16436325682262101 0.23053653317431089 0 -0.1927787613179586 0.2353725533241281 0 -0.17672660698543041 0.2450594069896791 0 -0.18084801093212 0.21988549558574849 0 -0.16436325682262101 0.23053653317431089 0 -0.1559897371102448 0.22130659102740149 0 -0.14868184259594561 0.24139284649683301 0 -0.18084801093212 0.21988549558574849 0 -0.16436325682262101 0.23053653317431089 0 -0.1665582439784892 0.20956271258860129 0 -0.16436325682262101 0.23053653317431089 0 -0.1665582439784892 0.20956271258860129 0 -0.1559897371102448 0.22130659102740149 0 -0.1665582439784892 0.20956271258860129 0 -0.1554137566352532 0.20881963390892511 0 -0.1559897371102448 0.22130659102740149 0 -0.1665582439784892 0.20956271258860129 0 -0.15935902016339959 0.19989430888723209 0 -0.1554137566352532 0.20881963390892511 0 -0.18084801093212 0.21988549558574849 0 -0.1665582439784892 0.20956271258860129 0 -0.18496941487880969 0.19471158418181789 0 -0.18084801093212 0.21988549558574849 0 -0.18496941487880969 0.19471158418181789 0 -0.1665582439784892 0.20956271258860129 0 -0.18496941487880969 0.19471158418181789 0 -0.16809049218491301 0.19293107635713549 0 -0.18496941487880969 0.19471158418181789 0 -0.16809049218491301 0.19293107635713549 0 -0.17544031540391961 0.1797377063952216 0 -0.1665582439784892 0.20956271258860129 0 -0.16809049218491301 0.19293107635713549 0 -0.15935902016339959 0.19989430888723209 0 -0.16809049218491301 0.19293107635713549 0 -0.15925409296766671 0.19077767936338921 0 -0.16448148820998909 0.18205793911320739 0 -0.16809049218491301 0.19293107635713549 0 -0.15935902016339959 0.19989430888723209 0 -0.15925409296766671 0.19077767936338921 0 -0.15925409296766671 0.19077767936338921 0 -0.14984507690878149 0.19801252585824339 0 -0.15475856829864801 0.17980382274814979 0 -0.14984507690878149 0.19801252585824339 0 -0.15475856829864801 0.17980382274814979 0 -0.14442837553278959 0.18687407145626789 0 -0.14984507690878149 0.19801252585824339 0 -0.15475856829864801 0.17980382274814979 0 -0.14236389564678001 0.19898696847216821 0 -0.13979620577464569 0.18175270797599941 0 -0.14236389564678001 0.19898696847216821 0 -0.14442837553278959 0.18687407145626789 0 -0.13979620577464569 0.18175270797599941 0 -0.15935902016339959 0.19989430888723209 0 -0.15925409296766671 0.19077767936338921 0 -0.14984507690878149 0.19801252585824339 0 -0.15935902016339959 0.19989430888723209 0 -0.14984507690878149 0.19801252585824339 0 -0.1554137566352532 0.20881963390892511 0 -0.14984507690878149 0.19801252585824339 0 -0.14236389564678001 0.19898696847216821 0 -0.14442837553278959 0.18687407145626789 0 -0.13450487708287151 0.18921428582242031 0 -0.13620945063090739 0.20979011221575081 0 -0.13979620577464569 0.18175270797599941 0 -0.13620945063090739 0.20979011221575081 0 -0.13979620577464569 0.18175270797599941 0 -0.13450487708287151 0.18921428582242031 0 -0.12953838583240601 0.19687383645675199 0 -0.13620945063090739 0.20979011221575081 0 -0.14236389564678001 0.19898696847216821 0 -0.13620945063090739 0.20979011221575081 0 -0.13979620577464569 0.18175270797599941 0 -0.12772775648191961 0.1891643003610621 0 -0.12953838583240601 0.19687383645675199 0 -0.12058679761668591 0.1942974369511673 0 -0.13450487708287151 0.18921428582242031 0 -0.12772775648191961 0.1891643003610621 0 -0.12953838583240601 0.19687383645675199 0 -0.12953838583240601 0.19687383645675199 0 -0.12653459010600179 0.20395830259826531 0 -0.12058679761668591 0.1942974369511673 0 -0.13620945063090739 0.20979011221575081 0 -0.12653459010600179 0.20395830259826531 0 -0.12409215442168731 0.2119439862754314 0 -0.12953838583240601 0.19687383645675199 0 -0.13620945063090739 0.20979011221575081 0 -0.12653459010600179 0.20395830259826531 0 -0.13620945063090739 0.20979011221575081 0 -0.12535758724892981 0.22264998485569101 0 -0.12409215442168731 0.2119439862754314 0 -0.14236389564678001 0.19898696847216821 0 -0.13620945063090739 0.20979011221575081 0 -0.14493158551891461 0.21622122896833679 0 -0.14984507690878149 0.19801252585824339 0 -0.14493158551891461 0.21622122896833679 0 -0.1554137566352532 0.20881963390892511 0 -0.14984507690878149 0.19801252585824339 0 -0.14493158551891461 0.21622122896833679 0 -0.14984507690878149 0.19801252585824339 0 -0.14236389564678001 0.19898696847216821 0 -0.14493158551891461 0.21622122896833679 0 -0.14236389564678001 0.19898696847216821 0 -0.14493158551891461 0.21622122896833679 0 -0.14493158551891461 0.21622122896833679 0 -0.1554137566352532 0.20881963390892511 0 -0.1559897371102448 0.22130659102740149 0 -0.14493158551891461 0.21622122896833679 0 -0.1386323871262797 0.23956516594961019 0 -0.14493158551891461 0.21622122896833679 0 -0.1386323871262797 0.23956516594961019 0 -0.14868184259594561 0.24139284649683301 0 -0.14493158551891461 0.21622122896833679 0 -0.14868184259594561 0.24139284649683301 0 -0.14493158551891461 0.21622122896833679 0 -0.1559897371102448 0.22130659102740149 0 -0.14868184259594561 0.24139284649683301 0 -0.14493158551891461 0.21622122896833679 0 -0.1386323871262797 0.23956516594961019 0 -0.13262269548716879 0.23782751645550221 0 -0.13620945063090739 0.20979011221575081 0 -0.14493158551891461 0.21622122896833679 0 -0.13262269548716879 0.23782751645550221 0 -0.13620945063090739 0.20979011221575081 0 -0.12535758724892981 0.22264998485569101 0 -0.13262269548716879 0.23782751645550221 0 -0.13620945063090739 0.20979011221575081 0 -0.13262269548716879 0.23782751645550221 0 -0.12535758724892981 0.22264998485569101 0 -0.13262269548716879 0.23782751645550221 0 -0.12425289891910871 0.23359296055499801 0 -0.1386323871262797 0.23956516594961019 0 -0.13262269548716879 0.23782751645550221 0 -0.1282933940016103 0.24242737913280821 0 -0.1323331887336478 0.26290910293088432 0 -0.1386323871262797 0.23956516594961019 0 -0.14868184259594561 0.24139284649683301 0 -0.13262269548716879 0.23782751645550221 0 -0.1282933940016103 0.24242737913280821 0 -0.12425289891910871 0.23359296055499801 0 -0.1386323871262797 0.23956516594961019 0 -0.12907737633496441 0.24962857445301059 0 -0.1282933940016103 0.24242737913280821 0 -0.12907737633496441 0.24962857445301059 0 -0.1282933940016103 0.24242737913280821 0 -0.1212830836163822 0.24088926827038079 0 -0.16871575145322229 0.14969033694552081 0 -0.16123777607545309 0.13610621136858139 0 -0.1556688909628586 0.15404665095293679 0 -0.16871575145322229 0.14969033694552081 0 -0.16123777607545309 0.13610621136858139 0 -0.17548335328717929 0.14089709619144039 0 -0.1609078447057396 0.11821543189307759 0 -0.16123777607545309 0.13610621136858139 0 -0.17238658245394531 0.12545986635763931 0 -0.16123777607545309 0.13610621136858139 0 -0.17238658245394531 0.12545986635763931 0 -0.17548335328717929 0.14089709619144039 0 -0.17238658245394531 0.12545986635763931 0 -0.18147810643326789 0.13229424819796479 0 -0.17548335328717929 0.14089709619144039 0 -0.19029650623126329 0.13143711820087781 0 -0.18358076706488169 0.13791082654706799 0 -0.1852995688568064 0.14720474994801419 0 -0.18399944287813769 0.1243110413724456 0 -0.17238658245394531 0.12545986635763931 0 -0.18147810643326789 0.13229424819796479 0 -0.18399944287813769 0.1243110413724456 0 -0.19029650623126329 0.13143711820087781 0 -0.18147810643326789 0.13229424819796479 0 -0.18147810643326789 0.13229424819796479 0 -0.18358076706488169 0.13791082654706799 0 -0.17548335328717929 0.14089709619144039 0 -0.19029650623126329 0.13143711820087781 0 -0.18147810643326789 0.13229424819796479 0 -0.18358076706488169 0.13791082654706799 0 -0.16871575145322229 0.14969033694552081 0 -0.1852995688568064 0.14720474994801419 0 -0.17548335328717929 0.14089709619144039 0 -0.16871575145322229 0.14969033694552081 0 -0.1852995688568064 0.14720474994801419 0 -0.16486397219479801 0.16703941070214101 0 -0.18358076706488169 0.13791082654706799 0 -0.1852995688568064 0.14720474994801419 0 -0.17548335328717929 0.14089709619144039 0 -0.1890908188254993 0.16953767277788731 0 -0.1852995688568064 0.14720474994801419 0 -0.16486397219479801 0.16703941070214101 0 -0.1852995688568064 0.14720474994801419 0 -0.16486397219479801 0.16703941070214101 0 -0.1890908188254993 0.16953767277788731 0 -0.18496941487880969 0.19471158418181789 0 -0.17544031540391961 0.1797377063952216 0 -0.1890908188254993 0.16953767277788731 0 -0.17544031540391961 0.1797377063952216 0 -0.16486397219479801 0.16703941070214101 0 -0.1890908188254993 0.16953767277788731 0 -0.18496941487880969 0.19471158418181789 0 -0.16809049218491301 0.19293107635713549 0 -0.17544031540391961 0.1797377063952216 0 -0.16448148820998909 0.18205793911320739 0 -0.17544031540391961 0.1797377063952216 0 -0.16448148820998909 0.18205793911320739 0 -0.16486397219479801 0.16703941070214101 0 -0.16448148820998909 0.18205793911320739 0 -0.16486397219479801 0.16703941070214101 0 -0.15475856829864801 0.17980382274814979 0 -0.15925409296766671 0.19077767936338921 0 -0.16448148820998909 0.18205793911320739 0 -0.15475856829864801 0.17980382274814979 0 -0.16871575145322229 0.14969033694552081 0 -0.16486397219479801 0.16703941070214101 0 -0.1556688909628586 0.15404665095293679 0 -0.16486397219479801 0.16703941070214101 0 -0.1497954440605635 0.169366134620211 0 -0.1556688909628586 0.15404665095293679 0 -0.1497954440605635 0.169366134620211 0 -0.13979620577464569 0.18175270797599941 0 -0.1432407495814593 0.15482695941974381 0 -0.1497954440605635 0.169366134620211 0 -0.1432407495814593 0.15482695941974381 0 -0.1556688909628586 0.15404665095293679 0 -0.13979620577464569 0.18175270797599941 0 -0.13921567432316551 0.17785619758757359 0 -0.1432407495814593 0.15482695941974381 0 -0.13979620577464569 0.18175270797599941 0 -0.1432407495814593 0.15482695941974381 0 -0.1497954440605635 0.169366134620211 0 -0.14442837553278959 0.18687407145626789 0 -0.13979620577464569 0.18175270797599941 0 -0.16486397219479801 0.16703941070214101 0 -0.1497954440605635 0.169366134620211 0 -0.14442837553278959 0.18687407145626789 0 -0.16486397219479801 0.16703941070214101 0 -0.14442837553278959 0.18687407145626789 0 -0.16486397219479801 0.16703941070214101 0 -0.15475856829864801 0.17980382274814979 0 -0.14442837553278959 0.18687407145626789 0 -0.13450487708287151 0.18921428582242031 0 -0.1358130723590173 0.18299489052391341 0 -0.1324281899790912 0.18085894927009269 0 -0.13450487708287151 0.18921428582242031 0 -0.13979620577464569 0.18175270797599941 0 -0.1358130723590173 0.18299489052391341 0 -0.13979620577464569 0.18175270797599941 0 -0.1365230165994607 0.18015361902714111 0 -0.1358130723590173 0.18299489052391341 0 -0.13979620577464569 0.18175270797599941 0 -0.13921567432316551 0.17785619758757359 0 -0.13979620577464569 0.18175270797599941 0 -0.1365230165994607 0.18015361902714111 0 -0.13921567432316551 0.17785619758757359 0 -0.1365230165994607 0.18015361902714111 0 -0.1358130723590173 0.18299489052391341 0 -0.1324281899790912 0.18085894927009269 0 -0.13517227170691951 0.1776918918350264 0 -0.13252220592596059 0.17189880145529821 0 -0.1324281899790912 0.18085894927009269 0 -0.1365230165994607 0.18015361902714111 0 -0.13517227170691951 0.1776918918350264 0 -0.1324281899790912 0.18085894927009269 0 -0.13517227170691951 0.1776918918350264 0 -0.13921567432316551 0.17785619758757359 0 -0.13252220592596059 0.17189880145529821 0 -0.1365230165994607 0.18015361902714111 0 -0.13517227170691951 0.1776918918350264 0 -0.13921567432316551 0.17785619758757359 0 -0.13252220592596059 0.17189880145529821 0 -0.1324281899790912 0.18085894927009269 0 -0.1237259898728903 0.1818994084390376 0 -0.12772775648191961 0.1891643003610621 0 -0.1324281899790912 0.18085894927009269 0 -0.1237259898728903 0.1818994084390376 0 -0.13450487708287151 0.18921428582242031 0 -0.12772775648191961 0.1891643003610621 0 -0.1324281899790912 0.18085894927009269 0 -0.13921567432316551 0.17785619758757359 0 -0.13252220592596059 0.17189880145529821 0 -0.1432407495814593 0.15482695941974381 0 -0.13252220592596059 0.17189880145529821 0 -0.1264709729354743 0.16016678923656219 0 -0.1432407495814593 0.15482695941974381 0 -0.13252220592596059 0.17189880145529821 0 -0.1264709729354743 0.16016678923656219 0 -0.1177564125815504 0.1708702102024765 0 -0.1273705585781979 0.14655133117890001 0 -0.1432407495814593 0.15482695941974381 0 -0.14380998939661621 0.14175275843590429 0 -0.1264709729354743 0.16016678923656219 0 -0.1273705585781979 0.14655133117890001 0 -0.1432407495814593 0.15482695941974381 0 -0.1432407495814593 0.15482695941974381 0 -0.14380998939661621 0.14175275843590429 0 -0.1556688909628586 0.15404665095293679 0 -0.16123777607545309 0.13610621136858139 0 -0.14380998939661621 0.14175275843590429 0 -0.1556688909628586 0.15404665095293679 0 -0.16123777607545309 0.13610621136858139 0 -0.14380998939661621 0.14175275843590429 0 -0.146422009359223 0.12588572965013881 0 -0.1609078447057396 0.11821543189307759 0 -0.16123777607545309 0.13610621136858139 0 -0.146422009359223 0.12588572965013881 0 -0.14380998939661621 0.14175275843590429 0 -0.146422009359223 0.12588572965013881 0 -0.12794092556623851 0.1308087954511595 0 -0.1273705585781979 0.14655133117890001 0 -0.14380998939661621 0.14175275843590429 0 -0.12794092556623851 0.1308087954511595 0 -0.1273705585781979 0.14655133117890001 0 -0.12794092556623851 0.1308087954511595 0 -0.10974542753282721 0.12941988493019499 0 -0.10974542753282721 0.12941988493019499 0 -0.095290714172933083 0.141111952959558 0 -0.07791463978225964 0.1273806028977284 0 -0.095290714172933083 0.141111952959558 0 -0.1126667885636066 0.15484330302138771 0 -0.10974542753282721 0.12941988493019499 0 -0.095290714172933083 0.141111952959558 0 -0.1126667885636066 0.15484330302138771 0 -0.095290714172933083 0.141111952959558 0 -0.1126667885636066 0.15484330302138771 0 -0.096170129396594597 0.15739719785470019 0 -0.1273705585781979 0.14655133117890001 0 -0.10974542753282721 0.12941988493019499 0 -0.1126667885636066 0.15484330302138771 0 -0.1264709729354743 0.16016678923656219 0 -0.1273705585781979 0.14655133117890001 0 -0.1126667885636066 0.15484330302138771 0 -0.1126667885636066 0.15484330302138771 0 -0.1177564125815504 0.1708702102024765 0 -0.103037108416657 0.16994393888498041 0 -0.1264709729354743 0.16016678923656219 0 -0.1126667885636066 0.15484330302138771 0 -0.1177564125815504 0.1708702102024765 0 -0.1237259898728903 0.1818994084390376 0 -0.11026248496986391 0.18409379591486499 0 -0.12058679761668591 0.1942974369511673 0 -0.1177564125815504 0.1708702102024765 0 -0.1237259898728903 0.1818994084390376 0 -0.11026248496986391 0.18409379591486499 0 -0.13252220592596059 0.17189880145529821 0 -0.1177564125815504 0.1708702102024765 0 -0.1237259898728903 0.1818994084390376 0 -0.1177564125815504 0.1708702102024765 0 -0.11026248496986391 0.18409379591486499 0 -0.103037108416657 0.16994393888498041 0 -0.11026248496986391 0.18409379591486499 0 -0.103037108416657 0.16994393888498041 0 -0.09353275242833245 0.183694077046408 0 -0.103037108416657 0.16994393888498041 0 -0.086115191607606459 0.16857145896338471 0 -0.09353275242833245 0.183694077046408 0 -0.1126667885636066 0.15484330302138771 0 -0.096170129396594597 0.15739719785470019 0 -0.103037108416657 0.16994393888498041 0 -0.096170129396594597 0.15739719785470019 0 -0.103037108416657 0.16994393888498041 0 -0.086115191607606459 0.16857145896338471 0 -0.086115191607606459 0.16857145896338471 0 -0.071570205622166178 0.16451514241004311 0 -0.083740844222169888 0.15251533544419019 0 -0.096170129396594597 0.15739719785470019 0 -0.086115191607606459 0.16857145896338471 0 -0.083740844222169888 0.15251533544419019 0 -0.086115191607606459 0.16857145896338471 0 -0.077524999160549724 0.17900739997883111 0 -0.071570205622166178 0.16451514241004311 0 -0.09353275242833245 0.183694077046408 0 -0.077524999160549724 0.17900739997883111 0 -0.079415058581209078 0.19673744734919471 0 -0.086115191607606459 0.16857145896338471 0 -0.09353275242833245 0.183694077046408 0 -0.077524999160549724 0.17900739997883111 0 -0.077524999160549724 0.17900739997883111 0 -0.071570205622166178 0.16451514241004311 0 -0.058716528685592767 0.17900066479214491 0 -0.077524999160549724 0.17900739997883111 0 -0.079415058581209078 0.19673744734919471 0 -0.058716528685592767 0.17900066479214491 0 -0.071570205622166178 0.16451514241004311 0 -0.067596123117718315 0.15084662084012049 0 -0.055727546939359981 0.15714937444158719 0 -0.067596123117718315 0.15084662084012049 0 -0.07791463978225964 0.1273806028977284 0 -0.083740844222169888 0.15251533544419019 0 -0.071570205622166178 0.16451514241004311 0 -0.067596123117718315 0.15084662084012049 0 -0.083740844222169888 0.15251533544419019 0 -0.067596123117718315 0.15084662084012049 0 -0.07791463978225964 0.1273806028977284 0 -0.057075523611279787 0.1415033920691785 0 -0.095290714172933083 0.141111952959558 0 -0.07791463978225964 0.1273806028977284 0 -0.095290714172933083 0.141111952959558 0 -0.07791463978225964 0.1273806028977284 0 -0.083740844222169888 0.15251533544419019 0 -0.095290714172933083 0.141111952959558 0 -0.096170129396594597 0.15739719785470019 0 -0.083740844222169888 0.15251533544419019 0 -0.10898983499016381 0.25866367951737868 0 -0.09788140403950131 0.24634004413176361 0 -0.1084536750074588 0.24276962252291351 0 -0.09788140403950131 0.24634004413176361 0 -0.1084536750074588 0.24276962252291351 0 -0.09333316433788108 0.22980941152379991 0 -0.09788140403950131 0.24634004413176361 0 -0.09333316433788108 0.22980941152379991 0 -0.090882769485247733 0.24054333214206711 0 -0.092803926884228172 0.25053040598172899 0 -0.09788140403950131 0.24634004413176361 0 -0.090882769485247733 0.24054333214206711 0 -0.115970302515576 0.25098152906068399 0 -0.1084536750074588 0.24276962252291351 0 -0.1212830836163822 0.24088926827038079 0 -0.1282933940016103 0.24242737913280821 0 -0.1212830836163822 0.24088926827038079 0 -0.12425289891910871 0.23359296055499801 0 -0.1212830836163822 0.24088926827038079 0 -0.1104048905081139 0.23036724624518581 0 -0.12425289891910871 0.23359296055499801 0 -0.1084536750074588 0.24276962252291351 0 -0.1212830836163822 0.24088926827038079 0 -0.1104048905081139 0.23036724624518581 0 -0.12535758724892981 0.22264998485569101 0 -0.1104048905081139 0.23036724624518581 0 -0.12425289891910871 0.23359296055499801 0 -0.12535758724892981 0.22264998485569101 0 -0.1104048905081139 0.23036724624518581 0 -0.11341166294182881 0.21784852096916679 0 -0.1104048905081139 0.23036724624518581 0 -0.1001135884768254 0.21447422990624451 0 -0.11341166294182881 0.21784852096916679 0 -0.1084536750074588 0.24276962252291351 0 -0.1104048905081139 0.23036724624518581 0 -0.09333316433788108 0.22980941152379991 0 -0.1104048905081139 0.23036724624518581 0 -0.1001135884768254 0.21447422990624451 0 -0.09333316433788108 0.22980941152379991 0 -0.1104048905081139 0.23036724624518581 0 -0.09333316433788108 0.22980941152379991 0 -0.1001135884768254 0.21447422990624451 0 -0.1054884747435865 0.19867778115645379 0 -0.079415058581209078 0.19673744734919471 0 -0.1001135884768254 0.21447422990624451 0 -0.11341166294182881 0.21784852096916679 0 -0.1054884747435865 0.19867778115645379 0 -0.11341166294182881 0.21784852096916679 0 -0.11894748118076839 0.20547301073828311 0 -0.1054884747435865 0.19867778115645379 0 -0.11341166294182881 0.21784852096916679 0 -0.12409215442168731 0.2119439862754314 0 -0.11894748118076839 0.20547301073828311 0 -0.12535758724892981 0.22264998485569101 0 -0.11341166294182881 0.21784852096916679 0 -0.12409215442168731 0.2119439862754314 0 -0.12653459010600179 0.20395830259826531 0 -0.12409215442168731 0.2119439862754314 0 -0.11894748118076839 0.20547301073828311 0 -0.11894748118076839 0.20547301073828311 0 -0.12058679761668591 0.1942974369511673 0 -0.1054884747435865 0.19867778115645379 0 -0.12653459010600179 0.20395830259826531 0 -0.11894748118076839 0.20547301073828311 0 -0.12058679761668591 0.1942974369511673 0 -0.12772775648191961 0.1891643003610621 0 -0.1237259898728903 0.1818994084390376 0 -0.12058679761668591 0.1942974369511673 0 -0.11026248496986391 0.18409379591486499 0 -0.12058679761668591 0.1942974369511673 0 -0.1054884747435865 0.19867778115645379 0 -0.11026248496986391 0.18409379591486499 0 -0.09353275242833245 0.183694077046408 0 -0.1054884747435865 0.19867778115645379 0 -0.09353275242833245 0.183694077046408 0 -0.1054884747435865 0.19867778115645379 0 -0.079415058581209078 0.19673744734919471 0 -0.079415058581209078 0.19673744734919471 0 -0.058716528685592767 0.17900066479214491 0 -0.079415058581209078 0.19673744734919471 0 -0.063460953470129408 0.20879363641823559 0 -0.058716528685592767 0.17900066479214491 0 -0.079415058581209078 0.19673744734919471 0 -0.063460953470129408 0.20879363641823559 0 -0.082655909963969418 0.21515104595148621 0 -0.063460953470129408 0.20879363641823559 0 -0.082655909963969418 0.21515104595148621 0 -0.07626143816764816 0.2292515768024139 0 -0.1001135884768254 0.21447422990624451 0 -0.079415058581209078 0.19673744734919471 0 -0.082655909963969418 0.21515104595148621 0 -0.1001135884768254 0.21447422990624451 0 -0.079415058581209078 0.19673744734919471 0 -0.09333316433788108 0.22980941152379991 0 -0.07626143816764816 0.2292515768024139 0 -0.09333316433788108 0.22980941152379991 0 -0.07626143816764816 0.2292515768024139 0 -0.090882769485247733 0.24054333214206711 0 -0.1001135884768254 0.21447422990624451 0 -0.082655909963969418 0.21515104595148621 0 -0.09333316433788108 0.22980941152379991 0 -0.082655909963969418 0.21515104595148621 0 -0.09333316433788108 0.22980941152379991 0 -0.07626143816764816 0.2292515768024139 0 -0.07626143816764816 0.2292515768024139 0 -0.05500867203951381 0.22855712266499709 0 -0.07626143816764816 0.2292515768024139 0 -0.063998046190080288 0.23595052208145709 0 -0.05500867203951381 0.22855712266499709 0 -0.063460953470129408 0.20879363641823559 0 -0.07626143816764816 0.2292515768024139 0 -0.063460953470129408 0.20879363641823559 0 -0.07626143816764816 0.2292515768024139 0 -0.05500867203951381 0.22855712266499709 0 -0.067393243976941838 0.2437428137186525 0 -0.073135677888041331 0.24923235374733829 0 -0.056834860762002989 0.24815654307924351 0 -0.07626143816764816 0.2292515768024139 0 -0.067393243976941838 0.2437428137186525 0 -0.073135677888041331 0.24923235374733829 0 -0.073135677888041331 0.24923235374733829 0 -0.056834860762002989 0.24815654307924351 0 -0.07626143816764816 0.2292515768024139 0 -0.063998046190080288 0.23595052208145709 0 -0.067393243976941838 0.2437428137186525 0 -0.063998046190080288 0.23595052208145709 0 -0.067393243976941838 0.2437428137186525 0 -0.060299001187947197 0.24016757719491261 0 -0.089436495014079617 0.25030816441543419 0 -0.07626143816764816 0.2292515768024139 0 -0.090882769485247733 0.24054333214206711 0 -0.089436495014079617 0.25030816441543419 0 -0.07626143816764816 0.2292515768024139 0 -0.073135677888041331 0.24923235374733829 0 -0.089436495014079617 0.25030816441543419 0 -0.073135677888041331 0.24923235374733829 0 -0.089436495014079617 0.25030816441543419 0 -0.07626143816764816 0.2292515768024139 0 -0.089436495014079617 0.25030816441543419 0 -0.092803926884228172 0.25053040598172899 0 -0.090882769485247733 0.24054333214206711 0 -0.036545285881863981 0.2468174849855049 0 -0.046717423499075678 0.24273165285232959 0 -0.056834860762002989 0.24815654307924351 0 -0.036545285881863981 0.2468174849855049 0 -0.056834860762002989 0.24815654307924351 0 -0.031895926198960832 0.23789204631109731 0 -0.040279042052702732 0.23980529119977709 0 -0.041573185299783183 0.23277234435221961 0 -0.036545285881863981 0.2468174849855049 0 -0.031895926198960832 0.23789204631109731 0 -0.040279042052702732 0.23980529119977709 0 -0.040279042052702732 0.23980529119977709 0 -0.048555257190820253 0.2374178558292403 0 -0.041573185299783183 0.23277234435221961 0 -0.040279042052702732 0.23980529119977709 0 -0.046717423499075678 0.24273165285232959 0 -0.048555257190820253 0.2374178558292403 0 -0.036545285881863981 0.2468174849855049 0 -0.040279042052702732 0.23980529119977709 0 -0.046717423499075678 0.24273165285232959 0 -0.046717423499075678 0.24273165285232959 0 -0.052509841951801507 0.24298189470035381 0 -0.056834860762002989 0.24815654307924351 0 -0.067393243976941838 0.2437428137186525 0 -0.056834860762002989 0.24815654307924351 0 -0.057355194675469331 0.2460245914807023 0 -0.067393243976941838 0.2437428137186525 0 -0.057355194675469331 0.2460245914807023 0 -0.060299001187947197 0.24016757719491261 0 -0.056834860762002989 0.24815654307924351 0 -0.057355194675469331 0.2460245914807023 0 -0.057355194675469331 0.2460245914807023 0 -0.060299001187947197 0.24016757719491261 0 -0.056420334248329422 0.24168367585396919 0 -0.052509841951801507 0.24298189470035381 0 -0.056834860762002989 0.24815654307924351 0 -0.057355194675469331 0.2460245914807023 0 -0.052509841951801507 0.24298189470035381 0 -0.057355194675469331 0.2460245914807023 0 -0.056420334248329422 0.24168367585396919 0 -0.063998046190080288 0.23595052208145709 0 -0.060299001187947197 0.24016757719491261 0 -0.055517299178099638 0.23756064003990821 0 -0.060299001187947197 0.24016757719491261 0 -0.056420334248329422 0.24168367585396919 0 -0.055517299178099638 0.23756064003990821 0 -0.052509841951801507 0.24298189470035381 0 -0.056420334248329422 0.24168367585396919 0 -0.055517299178099638 0.23756064003990821 0 -0.055517299178099638 0.23756064003990821 0 -0.048555257190820253 0.2374178558292403 0 -0.05500867203951381 0.22855712266499709 0 -0.052509841951801507 0.24298189470035381 0 -0.055517299178099638 0.23756064003990821 0 -0.048555257190820253 0.2374178558292403 0 -0.046717423499075678 0.24273165285232959 0 -0.052509841951801507 0.24298189470035381 0 -0.048555257190820253 0.2374178558292403 0 -0.048555257190820253 0.2374178558292403 0 -0.05500867203951381 0.22855712266499709 0 -0.041573185299783183 0.23277234435221961 0 -0.063998046190080288 0.23595052208145709 0 -0.055517299178099638 0.23756064003990821 0 -0.05500867203951381 0.22855712266499709 0 -0.05500867203951381 0.22855712266499709 0 -0.033755905911379488 0.2278626685275793 0 -0.044823540565144662 0.21470602783276521 0 -0.05500867203951381 0.22855712266499709 0 -0.041573185299783183 0.23277234435221961 0 -0.033755905911379488 0.2278626685275793 0 -0.05500867203951381 0.22855712266499709 0 -0.033755905911379488 0.2278626685275793 0 -0.031895926198960832 0.23789204631109731 0 -0.041573185299783183 0.23277234435221961 0 -0.033755905911379488 0.2278626685275793 0 -0.041573185299783183 0.23277234435221961 0 -0.033755905911379488 0.2278626685275793 0 -0.033755905911379488 0.2278626685275793 0 -0.044823540565144662 0.21470602783276521 0 -0.029146577573605999 0.2103115916447961 0 -0.044823540565144662 0.21470602783276521 0 -0.039500416256375868 0.19835812035825759 0 -0.029146577573605999 0.2103115916447961 0 -0.063460953470129408 0.20879363641823559 0 -0.05500867203951381 0.22855712266499709 0 -0.044823540565144662 0.21470602783276521 0 -0.063460953470129408 0.20879363641823559 0 -0.044823540565144662 0.21470602783276521 0 -0.039500416256375868 0.19835812035825759 0 -0.063460953470129408 0.20879363641823559 0 -0.039500416256375868 0.19835812035825759 0 -0.058716528685592767 0.17900066479214491 0 -0.039500416256375868 0.19835812035825759 0 -0.01317752082893355 0.19681828710550109 0 -0.020691642251402891 0.1807937892341285 0 -0.039500416256375868 0.19835812035825759 0 -0.01317752082893355 0.19681828710550109 0 -0.029146577573605999 0.2103115916447961 0 -0.039500416256375868 0.19835812035825759 0 -0.020691642251402891 0.1807937892341285 0 -0.01317752082893355 0.19681828710550109 0 -0.010145096427021071 0.2130337984353157 0 0.01346571305733776 0.19820492834305281 0 -0.033755905911379488 0.2278626685275793 0 -0.010145096427021071 0.2130337984353157 0 -0.029146577573605999 0.2103115916447961 0 -0.01317752082893355 0.19681828710550109 0 -0.010145096427021071 0.2130337984353157 0 -0.029146577573605999 0.2103115916447961 0 -0.033755905911379488 0.2278626685275793 0 -0.010145096427021071 0.2130337984353157 0 -0.0098889277353725498 0.22708279255087011 0 -0.033755905911379488 0.2278626685275793 0 -0.0098889277353725498 0.22708279255087011 0 -0.023240347922365609 0.23451787274387981 0 -0.033755905911379488 0.2278626685275793 0 -0.010145096427021071 0.2130337984353157 0 -0.033755905911379488 0.2278626685275793 0 -0.0098889277353725498 0.22708279255087011 0 -0.031895926198960832 0.23789204631109731 0 -0.033755905911379488 0.2278626685275793 0 -0.023240347922365609 0.23451787274387981 0 -0.010145096427021071 0.2130337984353157 0 -0.0098889277353725498 0.22708279255087011 0 0.013978050440634229 0.2263029165741601 0 -0.0034903985393868221 0.25853639811177698 0 -0.016255711001725019 0.24547842689176669 0 0.0055636717745417936 0.2409115006921535 0 -0.0098889277353725498 0.22708279255087011 0 -0.016255711001725019 0.24547842689176669 0 0.0055636717745417936 0.2409115006921535 0 -0.031895926198960832 0.23789204631109731 0 -0.016255711001725019 0.24547842689176669 0 -0.023240347922365609 0.23451787274387981 0 -0.036545285881863981 0.2468174849855049 0 -0.031895926198960832 0.23789204631109731 0 -0.016255711001725019 0.24547842689176669 0 -0.0098889277353725498 0.22708279255087011 0 -0.016255711001725019 0.24547842689176669 0 -0.023240347922365609 0.23451787274387981 0 -0.036545285881863981 0.2468174849855049 0 -0.016255711001725019 0.24547842689176669 0 -0.043113642931584727 0.14324833496996131 0 -0.038017998789976457 0.16126388223509511 0 -0.029133362338952778 0.14319444627801159 0 -0.043113642931584727 0.14324833496996131 0 -0.055727546939359981 0.15714937444158719 0 -0.038017998789976457 0.16126388223509511 0 -0.043113642931584727 0.14324833496996131 0 -0.035979705447399507 0.12799186084919251 0 -0.029133362338952778 0.14319444627801159 0 -0.043113642931584727 0.14324833496996131 0 -0.035979705447399507 0.12799186084919251 0 -0.051826104161584799 0.12844879390293071 0 -0.043113642931584727 0.14324833496996131 0 -0.051826104161584799 0.12844879390293071 0 -0.057075523611279787 0.1415033920691785 0 -0.043113642931584727 0.14324833496996131 0 -0.051826104161584799 0.12844879390293071 0 -0.07791463978225964 0.1273806028977284 0 -0.051826104161584799 0.12844879390293071 0 -0.057075523611279787 0.1415033920691785 0 -0.067596123117718315 0.15084662084012049 0 -0.057075523611279787 0.1415033920691785 0 -0.055727546939359981 0.15714937444158719 0 -0.043113642931584727 0.14324833496996131 0 -0.057075523611279787 0.1415033920691785 0 -0.055727546939359981 0.15714937444158719 0 -0.071570205622166178 0.16451514241004311 0 -0.055727546939359981 0.15714937444158719 0 -0.058716528685592767 0.17900066479214491 0 -0.055727546939359981 0.15714937444158719 0 -0.058716528685592767 0.17900066479214491 0 -0.038017998789976457 0.16126388223509511 0 -0.058716528685592767 0.17900066479214491 0 -0.038017998789976457 0.16126388223509511 0 -0.039500416256375868 0.19835812035825759 0 -0.038403657321684957 0.17891193235910041 0 -0.020691642251402891 0.1807937892341285 0 -0.039500416256375868 0.19835812035825759 0 -0.058716528685592767 0.17900066479214491 0 -0.038403657321684957 0.17891193235910041 0 -0.058716528685592767 0.17900066479214491 0 -0.038403657321684957 0.17891193235910041 0 -0.038017998789976457 0.16126388223509511 0 -0.038403657321684957 0.17891193235910041 0 -0.038017998789976457 0.16126388223509511 0 -0.023314497240787099 0.16263801041429671 0 -0.038403657321684957 0.17891193235910041 0 -0.023314497240787099 0.16263801041429671 0 -0.020691642251402891 0.1807937892341285 0 -0.020691642251402891 0.1807937892341285 0 -0.001882868246429909 0.16322945810999931 0 -0.01317752082893355 0.19681828710550109 0 -0.020691642251402891 0.1807937892341285 0 0.0069528944774667478 0.18020749461745639 0 -0.020691642251402891 0.1807937892341285 0 -0.001882868246429909 0.16322945810999931 0 0.0069528944774667478 0.18020749461745639 0 -0.023314497240787099 0.16263801041429671 0 -0.020691642251402891 0.1807937892341285 0 -0.001882868246429909 0.16322945810999931 0 -0.023314497240787099 0.16263801041429671 0 -0.001882868246429909 0.16322945810999931 0 -0.016396250213246921 0.14708269029223031 0 -0.001882868246429909 0.16322945810999931 0 -0.0059854301838424447 0.1423607794300526 0 -0.016396250213246921 0.14708269029223031 0 -0.001882868246429909 0.16322945810999931 0 -0.0059854301838424447 0.1423607794300526 0 0.0051904508739024149 0.14476521251461599 0 -0.038017998789976457 0.16126388223509511 0 -0.023314497240787099 0.16263801041429671 0 -0.029133362338952778 0.14319444627801159 0 -0.023314497240787099 0.16263801041429671 0 -0.016396250213246921 0.14708269029223031 0 -0.029133362338952778 0.14319444627801159 0 -0.035979705447399507 0.12799186084919251 0 -0.029133362338952778 0.14319444627801159 0 -0.01759377655894671 0.1278581109488037 0 -0.016396250213246921 0.14708269029223031 0 -0.029133362338952778 0.14319444627801159 0 -0.01759377655894671 0.1278581109488037 0 -0.0059854301838424447 0.1423607794300526 0 -0.01759377655894671 0.1278581109488037 0 -0.0003142905406453442 0.1318192574220213 0 -0.0059854301838424447 0.1423607794300526 0 -0.016396250213246921 0.14708269029223031 0 -0.01759377655894671 0.1278581109488037 0 -0.01759377655894671 0.1278581109488037 0 -0.0003142905406453442 0.1318192574220213 0 -0.0042797142796552976 0.1179519394458359 0 -0.0059854301838424447 0.1423607794300526 0 -0.0003142905406453442 0.1318192574220213 0 0.0051904508739024149 0.14476521251461599 0 -0.01759377655894671 0.1278581109488037 0 -0.0042797142796552976 0.1179519394458359 0 -0.015388266426666099 0.10392410588605561 0 -0.0042797142796552976 0.1179519394458359 0 -0.015388266426666099 0.10392410588605561 0 0.0057440419539671996 0.1070541674132964 0 -0.015388266426666099 0.10392410588605561 0 -0.00278832882414145 0.093432140897515836 0 0.0057440419539671996 0.1070541674132964 0 -0.015388266426666099 0.10392410588605561 0 -0.020222966824605431 0.081790066207845111 0 -0.040380766108095732 0.097719659521871893 0 -0.015388266426666099 0.10392410588605561 0 -0.03084251554004451 0.1143766496264156 0 -0.040380766108095732 0.097719659521871893 0 -0.01759377655894671 0.1278581109488037 0 -0.015388266426666099 0.10392410588605561 0 -0.03084251554004451 0.1143766496264156 0 -0.035979705447399507 0.12799186084919251 0 -0.01759377655894671 0.1278581109488037 0 -0.03084251554004451 0.1143766496264156 0 -0.020222966824605431 0.081790066207845111 0 -0.015853810636596879 0.062925156809576277 0 0.0043624206876303551 0.079126651593034655 0 -0.015853810636596879 0.062925156809576277 0 0.0062649722180432351 0.057751210548817773 0 0.0043624206876303551 0.079126651593034655 0 -0.00278832882414145 0.093432140897515836 0 -0.020222966824605431 0.081790066207845111 0 0.0043624206876303551 0.079126651593034655 0 -0.015388266426666099 0.10392410588605561 0 -0.00278832882414145 0.093432140897515836 0 -0.020222966824605431 0.081790066207845111 0 -0.020222966824605431 0.081790066207845111 0 -0.040380766108095732 0.097719659521871893 0 -0.020222966824605431 0.081790066207845111 0 -0.015853810636596879 0.062925156809576277 0 -0.037470957758676447 0.069793661932416567 0 -0.020222966824605431 0.081790066207845111 0 -0.037470957758676447 0.069793661932416567 0 -0.040380766108095732 0.097719659521871893 0 -0.037470957758676447 0.069793661932416567 0 -0.055495759758028049 0.079496875974578357 0 -0.040380766108095732 0.097719659521871893 0 -0.055495759758028049 0.079496875974578357 0 -0.040380766108095732 0.097719659521871893 0 -0.057395099407177907 0.096601294809169042 0 -0.055495759758028049 0.079496875974578357 0 -0.057395099407177907 0.096601294809169042 0 -0.07350934737728991 0.091616257152894648 0 -0.037470957758676447 0.069793661932416567 0 -0.055495759758028049 0.079496875974578357 0 -0.053754412500219402 0.056517517594490752 0 -0.055495759758028049 0.079496875974578357 0 -0.070494243644024415 0.064387713007426142 0 -0.053754412500219402 0.056517517594490752 0 -0.035979705447399507 0.12799186084919251 0 -0.051826104161584799 0.12844879390293071 0 -0.04391353132974192 0.1164372433472622 0 -0.03084251554004451 0.1143766496264156 0 -0.04391353132974192 0.1164372433472622 0 -0.040380766108095732 0.097719659521871893 0 -0.035979705447399507 0.12799186084919251 0 -0.03084251554004451 0.1143766496264156 0 -0.04391353132974192 0.1164372433472622 0 -0.040380766108095732 0.097719659521871893 0 -0.057395099407177907 0.096601294809169042 0 -0.060538565391585072 0.11364925283590011 0 -0.04391353132974192 0.1164372433472622 0 -0.040380766108095732 0.097719659521871893 0 -0.060538565391585072 0.11364925283590011 0 -0.040380766108095732 0.097719659521871893 0 -0.060538565391585072 0.11364925283590011 0 -0.051826104161584799 0.12844879390293071 0 -0.04391353132974192 0.1164372433472622 0 -0.060538565391585072 0.11364925283590011 0 -0.051826104161584799 0.12844879390293071 0 -0.060538565391585072 0.11364925283590011 0 -0.07791463978225964 0.1273806028977284 0 -0.060538565391585072 0.11364925283590011 0 -0.07791463978225964 0.1273806028977284 0 -0.060538565391585072 0.11364925283590011 0 -0.078171762161767744 0.1091954467153539 0 -0.07791463978225964 0.1273806028977284 0 -0.051826104161584799 0.12844879390293071 0 -0.060538565391585072 0.11364925283590011 0 -0.07791463978225964 0.1273806028977284 0 -0.078171762161767744 0.1091954467153539 0 -0.10687524926759261 0.109762609167841 0 -0.078171762161767744 0.1091954467153539 0 -0.092699626555879433 0.1005657399193349 0 -0.07350934737728991 0.091616257152894648 0 -0.078171762161767744 0.1091954467153539 0 -0.092699626555879433 0.1005657399193349 0 -0.10687524926759261 0.109762609167841 0 -0.060538565391585072 0.11364925283590011 0 -0.07350934737728991 0.091616257152894648 0 -0.060538565391585072 0.11364925283590011 0 -0.078171762161767744 0.1091954467153539 0 -0.07350934737728991 0.091616257152894648 0 -0.057395099407177907 0.096601294809169042 0 -0.060538565391585072 0.11364925283590011 0 -0.07350934737728991 0.091616257152894648 0 -0.055495759758028049 0.079496875974578357 0 -0.07350934737728991 0.091616257152894648 0 -0.070494243644024415 0.064387713007426142 0 -0.07350934737728991 0.091616257152894648 0 -0.070494243644024415 0.064387713007426142 0 -0.086480129362994956 0.069583261469889301 0 -0.070494243644024415 0.064387713007426142 0 -0.086480129362994956 0.069583261469889301 0 -0.086888665286464453 0.058625090010807887 0 -0.086480129362994956 0.069583261469889301 0 -0.096881957277028585 0.084193849589324535 0 -0.086888665286464453 0.058625090010807887 0 -0.096881957277028585 0.084193849589324535 0 -0.086888665286464453 0.058625090010807887 0 -0.07350934737728991 0.091616257152894648 0 -0.086480129362994956 0.069583261469889301 0 -0.096881957277028585 0.084193849589324535 0 -0.07350934737728991 0.091616257152894648 0 -0.086480129362994956 0.069583261469889301 0 -0.092699626555879433 0.1005657399193349 0 -0.07350934737728991 0.091616257152894648 0 -0.096881957277028585 0.084193849589324535 0 -0.096881957277028585 0.084193849589324535 0 -0.114235882118166 0.080917256814298982 0 -0.10687524926759261 0.109762609167841 0 -0.096881957277028585 0.084193849589324535 0 -0.10355812616660449 0.066816566697085036 0 -0.114235882118166 0.080917256814298982 0 -0.096881957277028585 0.084193849589324535 0 -0.10355812616660449 0.066816566697085036 0 -0.086888665286464453 0.058625090010807887 0 -0.10355812616660449 0.066816566697085036 0 -0.1155689013367721 0.064088044817609824 0 -0.1071004048705806 0.057292102044782182 0 -0.10355812616660449 0.066816566697085036 0 -0.1155689013367721 0.064088044817609824 0 -0.114235882118166 0.080917256814298982 0 -0.13065787682797539 0.074490167233760132 0 -0.12525322860273669 0.054683915403429713 0 -0.1155689013367721 0.064088044817609824 0 -0.13065787682797539 0.074490167233760132 0 -0.1155689013367721 0.064088044817609824 0 -0.114235882118166 0.080917256814298982 0 -0.12953394143352689 0.0962220954654186 0 -0.13065787682797539 0.074490167233760132 0 -0.114235882118166 0.080917256814298982 0 -0.13007033986284439 0.11468940196259191 0 -0.12953394143352689 0.0962220954654186 0 -0.10687524926759261 0.109762609167841 0 -0.12953394143352689 0.0962220954654186 0 -0.114235882118166 0.080917256814298982 0 -0.10687524926759261 0.109762609167841 0 -0.10974542753282721 0.12941988493019499 0 -0.07791463978225964 0.1273806028977284 0 -0.10687524926759261 0.109762609167841 0 -0.13007033986284439 0.11468940196259191 0 -0.10974542753282721 0.12941988493019499 0 -0.10687524926759261 0.109762609167841 0 -0.13007033986284439 0.11468940196259191 0 -0.12794092556623851 0.1308087954511595 0 -0.10974542753282721 0.12941988493019499 0 -0.092699626555879433 0.1005657399193349 0 -0.096881957277028585 0.084193849589324535 0 -0.10687524926759261 0.109762609167841 0 -0.096881957277028585 0.084193849589324535 0 -0.10687524926759261 0.109762609167841 0 -0.097680971997609722 0.01602634173443376 0 -0.1122919901225129 0.023540430839055791 0 -0.088495223399625775 0.029648581213061489 0 -0.1122919901225129 0.023540430839055791 0 -0.088495223399625775 0.029648581213061489 0 -0.1122919901225129 0.023540430839055791 0 -0.098427137054293123 0.035311925015822358 0 -0.088495223399625775 0.029648581213061489 0 -0.097680971997609722 0.01602634173443376 0 -0.1015133298770437 4.9595544974906723e-05 0 -0.1198791301280094 0.01256548056862198 0 -0.13082697262089341 0.0013823364580261221 0 -0.1015133298770437 4.9595544974906723e-05 0 -0.1198791301280094 0.01256548056862198 0 -0.1360887568453997 0.017432280465049261 0 -0.1198791301280094 0.01256548056862198 0 -0.1122919901225129 0.023540430839055791 0 -0.1360887568453997 0.017432280465049261 0 -0.1122919901225129 0.023540430839055791 0 -0.12279062167827851 0.029362630448722959 0 -0.1360887568453997 0.017432280465049261 0 -0.1122919901225129 0.023540430839055791 0 -0.097680971997609722 0.01602634173443376 0 -0.1198791301280094 0.01256548056862198 0 -0.1122919901225129 0.023540430839055791 0 -0.1122919901225129 0.023540430839055791 0 -0.12279062167827851 0.029362630448722959 0 -0.109555837650256 0.03798401928819635 0 -0.12279062167827851 0.029362630448722959 0 -0.1241829150729519 0.03733201807985212 0 -0.109555837650256 0.03798401928819635 0 -0.13112496187718059 0.044324123850062493 0 -0.1241829150729519 0.03733201807985212 0 -0.11947386029792641 0.044699115915308937 0 -0.1241829150729519 0.03733201807985212 0 -0.11947386029792641 0.044699115915308937 0 -0.109555837650256 0.03798401928819635 0 -0.11947386029792641 0.044699115915308937 0 -0.109555837650256 0.03798401928819635 0 -0.11260788943456961 0.050328260712302918 0 -0.12525322860273669 0.054683915403429713 0 -0.1155689013367721 0.064088044817609824 0 -0.11260788943456961 0.050328260712302918 0 -0.12525322860273669 0.054683915403429713 0 -0.11947386029792641 0.044699115915308937 0 -0.11260788943456961 0.050328260712302918 0 -0.1155689013367721 0.064088044817609824 0 -0.11260788943456961 0.050328260712302918 0 -0.1071004048705806 0.057292102044782182 0 -0.10355812616660449 0.066816566697085036 0 -0.097666651578714153 0.054357738591390203 0 -0.086888665286464453 0.058625090010807887 0 -0.10355812616660449 0.066816566697085036 0 -0.1071004048705806 0.057292102044782182 0 -0.097666651578714153 0.054357738591390203 0 -0.11260788943456961 0.050328260712302918 0 -0.1071004048705806 0.057292102044782182 0 -0.1043626929177757 0.049020655387381221 0 -0.1071004048705806 0.057292102044782182 0 -0.1043626929177757 0.049020655387381221 0 -0.097666651578714153 0.054357738591390203 0 -0.1043626929177757 0.049020655387381221 0 -0.097666651578714153 0.054357738591390203 0 -0.096330456383664845 0.044615784670338131 0 -0.097666651578714153 0.054357738591390203 0 -0.096330456383664845 0.044615784670338131 0 -0.091586987741062359 0.049592355585249062 0 -0.1122919901225129 0.023540430839055791 0 -0.109555837650256 0.03798401928819635 0 -0.098427137054293123 0.035311925015822358 0 -0.109555837650256 0.03798401928819635 0 -0.11260788943456961 0.050328260712302918 0 -0.1043626929177757 0.049020655387381221 0 -0.109555837650256 0.03798401928819635 0 -0.1043626929177757 0.049020655387381221 0 -0.096330456383664845 0.044615784670338131 0 -0.109555837650256 0.03798401928819635 0 -0.096330456383664845 0.044615784670338131 0 -0.098427137054293123 0.035311925015822358 0 -0.098427137054293123 0.035311925015822358 0 -0.08546217771540604 0.040770809068460048 0 -0.088495223399625775 0.029648581213061489 0 -0.08546217771540604 0.040770809068460048 0 -0.086888665286464453 0.058625090010807887 0 -0.07679175070062047 0.032652626761604048 0 -0.086888665286464453 0.058625090010807887 0 -0.07679175070062047 0.032652626761604048 0 -0.086888665286464453 0.058625090010807887 0 -0.074010454079176974 0.048921140551553548 0 -0.07679175070062047 0.032652626761604048 0 -0.096330456383664845 0.044615784670338131 0 -0.08546217771540604 0.040770809068460048 0 -0.091586987741062359 0.049592355585249062 0 -0.096330456383664845 0.044615784670338131 0 -0.098427137054293123 0.035311925015822358 0 -0.08546217771540604 0.040770809068460048 0 -0.08546217771540604 0.040770809068460048 0 -0.07679175070062047 0.032652626761604048 0 -0.088495223399625775 0.029648581213061489 0 -0.08546217771540604 0.040770809068460048 0 -0.086888665286464453 0.058625090010807887 0 -0.091586987741062359 0.049592355585249062 0 -0.097666651578714153 0.054357738591390203 0 -0.086888665286464453 0.058625090010807887 0 -0.091586987741062359 0.049592355585249062 0 -0.070494243644024415 0.064387713007426142 0 -0.086888665286464453 0.058625090010807887 0 -0.074010454079176974 0.048921140551553548 0 -0.070494243644024415 0.064387713007426142 0 -0.074010454079176974 0.048921140551553548 0 -0.06271496397009034 0.047483512836647292 0 -0.074010454079176974 0.048921140551553548 0 -0.07679175070062047 0.032652626761604048 0 -0.064698456676738694 0.035756731587067193 0 -0.07679175070062047 0.032652626761604048 0 -0.064698456676738694 0.035756731587067193 0 -0.074010454079176974 0.048921140551553548 0 -0.06271496397009034 0.047483512836647292 0 -0.064698456676738694 0.035756731587067193 0 -0.064698456676738694 0.035756731587067193 0 -0.063115994947373952 0.02026748138564443 0 -0.073442786595359966 0.025109898206180221 0 -0.063115994947373952 0.02026748138564443 0 -0.073442786595359966 0.025109898206180221 0 -0.07746147135770147 0.01476679863894776 0 -0.07679175070062047 0.032652626761604048 0 -0.064698456676738694 0.035756731587067193 0 -0.073442786595359966 0.025109898206180221 0 -0.097680971997609722 0.01602634173443376 0 -0.088495223399625775 0.029648581213061489 0 -0.07746147135770147 0.01476679863894776 0 -0.07679175070062047 0.032652626761604048 0 -0.088495223399625775 0.029648581213061489 0 -0.07679175070062047 0.032652626761604048 0 -0.073442786595359966 0.025109898206180221 0 -0.088495223399625775 0.029648581213061489 0 -0.073442786595359966 0.025109898206180221 0 -0.088495223399625775 0.029648581213061489 0 -0.07746147135770147 0.01476679863894776 0 -0.080113023358067775 -0.0034963713414790428 0 -0.1015133298770437 4.9595544974906723e-05 0 -0.07746147135770147 0.01476679863894776 0 -0.097680971997609722 0.01602634173443376 0 -0.1015133298770437 4.9595544974906723e-05 0 -0.07746147135770147 0.01476679863894776 0 -0.1015133298770437 4.9595544974906723e-05 0 -0.07746147135770147 0.01476679863894776 0 -0.080113023358067775 -0.0034963713414790428 0 -0.07746147135770147 0.01476679863894776 0 -0.067016117272491557 0.0064617448389865436 0 -0.063115994947373952 0.02026748138564443 0 -0.07746147135770147 0.01476679863894776 0 -0.067016117272491557 0.0064617448389865436 0 -0.063115994947373952 0.02026748138564443 0 -0.067016117272491557 0.0064617448389865436 0 -0.047480093400365117 0.0071514052909069717 0 -0.066910003298949472 -0.006380589779087396 0 -0.067016117272491557 0.0064617448389865436 0 -0.047480093400365117 0.0071514052909069717 0 -0.063115994947373952 0.02026748138564443 0 -0.047480093400365117 0.0071514052909069717 0 -0.050617252950292249 0.03183446144269883 0 -0.047480093400365117 0.0071514052909069717 0 -0.050617252950292249 0.03183446144269883 0 -0.064698456676738694 0.035756731587067193 0 -0.063115994947373952 0.02026748138564443 0 -0.050617252950292249 0.03183446144269883 0 -0.047480093400365117 0.0071514052909069717 0 -0.033781343123897689 0.028319727075923468 0 -0.050617252950292249 0.03183446144269883 0 -0.047480093400365117 0.0071514052909069717 0 -0.033781343123897689 0.028319727075923468 0 -0.022753037126858049 0.013523418070667899 0 -0.03197940571368342 -0.014345644471004631 0 -0.047480093400365117 0.0071514052909069717 0 -0.022753037126858049 0.013523418070667899 0 -0.070494243644024415 0.064387713007426142 0 -0.06271496397009034 0.047483512836647292 0 -0.053754412500219402 0.056517517594490752 0 -0.053754412500219402 0.056517517594490752 0 -0.050617252950292249 0.03183446144269883 0 -0.06271496397009034 0.047483512836647292 0 -0.064698456676738694 0.035756731587067193 0 -0.050617252950292249 0.03183446144269883 0 -0.06271496397009034 0.047483512836647292 0 -0.053754412500219402 0.056517517594490752 0 -0.050617252950292249 0.03183446144269883 0 -0.053754412500219402 0.056517517594490752 0 -0.050617252950292249 0.03183446144269883 0 -0.03452966360194034 0.047696869963003222 0 -0.033781343123897689 0.028319727075923468 0 -0.050617252950292249 0.03183446144269883 0 -0.03452966360194034 0.047696869963003222 0 -0.037470957758676447 0.069793661932416567 0 -0.053754412500219402 0.056517517594490752 0 -0.03452966360194034 0.047696869963003222 0 -0.015853810636596879 0.062925156809576277 0 -0.03452966360194034 0.047696869963003222 0 -0.01352666854003268 0.041392480612340417 0 -0.015853810636596879 0.062925156809576277 0 -0.037470957758676447 0.069793661932416567 0 -0.03452966360194034 0.047696869963003222 0 -0.033781343123897689 0.028319727075923468 0 -0.03452966360194034 0.047696869963003222 0 -0.01352666854003268 0.041392480612340417 0 -0.01352666854003268 0.041392480612340417 0 -0.0046017228383098841 0.02150879718613441 0 0.01617323494729353 0.031743731181248451 0 -0.015853810636596879 0.062925156809576277 0 -0.01352666854003268 0.041392480612340417 0 0.0062649722180432351 0.057751210548817773 0 -0.033781343123897689 0.028319727075923468 0 -0.01352666854003268 0.041392480612340417 0 -0.022753037126858049 0.013523418070667899 0 -0.01352666854003268 0.041392480612340417 0 -0.022753037126858049 0.013523418070667899 0 -0.01352666854003268 0.041392480612340417 0 -0.022753037126858049 0.013523418070667899 0 -0.0046017228383098841 0.02150879718613441 0 -0.015090251476702499 -0.003079934255059254 0 -0.022753037126858049 0.013523418070667899 0 -0.0046017228383098841 0.02150879718613441 0 -0.015090251476702499 -0.003079934255059254 0 -0.0046017228383098841 0.02150879718613441 0 0.0064513957917756229 0.0050175021511877811 0 0.0064513957917756229 0.0050175021511877811 0 0.01617323494729353 0.031743731181248451 0 -0.0046017228383098841 0.02150879718613441 0 0.0064513957917756229 0.0050175021511877811 0 0.01617323494729353 0.031743731181248451 0 0.0064513957917756229 0.0050175021511877811 0 0.024746283423928109 0.012135358359482091 0 0.01617323494729353 0.031743731181248451 0 0.024746283423928109 0.012135358359482091 0 0.01617323494729353 0.031743731181248451 0 0.041172076667347068 0.02288524704725424 0 0.0064513957917756229 0.0050175021511877811 0 0.024746283423928109 0.012135358359482091 0 0.021358438075749119 -0.01346850733666991 0 -0.01352666854003268 0.041392480612340417 0 0.0062649722180432351 0.057751210548817773 0 0.01617323494729353 0.031743731181248451 0 0.01617323494729353 0.031743731181248451 0 0.025895074102811451 0.058469960211309138 0 0.01617323494729353 0.031743731181248451 0 0.025895074102811451 0.058469960211309138 0 0.044735112818178199 0.048464709918128318 0 0.0062649722180432351 0.057751210548817773 0 0.01617323494729353 0.031743731181248451 0 0.025895074102811451 0.058469960211309138 0 0.025895074102811451 0.058469960211309138 0 0.044735112818178199 0.048464709918128318 0 0.048298148969009323 0.074044172789002452 0 0.044735112818178199 0.048464709918128318 0 0.048298148969009323 0.074044172789002452 0 0.044735112818178199 0.048464709918128318 0 0.041172076667347068 0.02288524704725424 0 0.044735112818178199 0.048464709918128318 0 0.05432588191438549 0.037505089675795869 0 0.041172076667347068 0.02288524704725424 0 0.01617323494729353 0.031743731181248451 0 0.044735112818178199 0.048464709918128318 0 0.041172076667347068 0.02288524704725424 0 0.05432588191438549 0.037505089675795869 0 0.062834062436994145 0.02393732622744342 0 0.068263696047256905 0.042341635084050568 0 0.05432588191438549 0.037505089675795869 0 0.061737886447169217 0.059380168910106557 0 0.068263696047256905 0.042341635084050568 0 0.044735112818178199 0.048464709918128318 0 0.061737886447169217 0.059380168910106557 0 0.048298148969009323 0.074044172789002452 0 0.044735112818178199 0.048464709918128318 0 0.05432588191438549 0.037505089675795869 0 0.061737886447169217 0.059380168910106557 0 0.024746283423928109 0.012135358359482091 0 0.041172076667347068 0.02288524704725424 0 0.037609040516515958 -0.002694215823619749 0 0.041172076667347068 0.02288524704725424 0 0.037609040516515958 -0.002694215823619749 0 0.041172076667347068 0.02288524704725424 0 0.051776364882943383 0.0085896918281474291 0 0.037609040516515958 -0.002694215823619749 0 0.05432588191438549 0.037505089675795869 0 0.041172076667347068 0.02288524704725424 0 0.062834062436994145 0.02393732622744342 0 0.041172076667347068 0.02288524704725424 0 0.051776364882943383 0.0085896918281474291 0 0.062834062436994145 0.02393732622744342 0 0.051776364882943383 0.0085896918281474291 0 0.065424783188372249 0.00153595686847981 0 0.062834062436994145 0.02393732622744342 0 0.051776364882943383 0.0085896918281474291 0 0.051841861605487469 -0.0027158551788205791 0 0.037609040516515958 -0.002694215823619749 0 0.051776364882943383 0.0085896918281474291 0 0.065424783188372249 0.00153595686847981 0 0.051841861605487469 -0.0027158551788205791 0 0.065424783188372249 0.00153595686847981 0 0.078557178622528062 0.020013474191852652 0 0.062834062436994145 0.02393732622744342 0 0.065424783188372249 0.00153595686847981 0 0.078557178622528062 0.020013474191852652 0 0.065424783188372249 0.00153595686847981 0 0.080134274616143808 0.0040937821631618111 0 0.078557178622528062 0.020013474191852652 0 0.080134274616143808 0.0040937821631618111 0 0.089941950092211786 0.012570042527085899 0 0.078557178622528062 0.020013474191852652 0 0.080134274616143808 0.0040937821631618111 0 0.089941950092211786 0.012570042527085899 0 0.090190712691382735 -0.002244999235090887 0 0.090657039815479498 0.02761260221752557 0 0.078557178622528062 0.020013474191852652 0 0.09168957405668382 0.038490991515225378 0 0.078557178622528062 0.020013474191852652 0 0.08140050949098257 0.034023925630769322 0 0.09168957405668382 0.038490991515225378 0 0.078557178622528062 0.020013474191852652 0 0.09168957405668382 0.038490991515225378 0 0.090657039815479498 0.02761260221752557 0 0.089336626240308581 0.020517447882289722 0 0.098183258058842843 0.022160408079909068 0 0.090657039815479498 0.02761260221752557 0 0.089336626240308581 0.020517447882289722 0 0.078557178622528062 0.020013474191852652 0 0.089941950092211786 0.012570042527085899 0 0.089336626240308581 0.020517447882289722 0 0.098183258058842843 0.022160408079909068 0 0.089941950092211786 0.012570042527085899 0 0.089336626240308581 0.020517447882289722 0 0.078557178622528062 0.020013474191852652 0 0.078557178622528062 0.020013474191852652 0 0.074802501227715271 0.033440982268584579 0 0.08140050949098257 0.034023925630769322 0 0.078557178622528062 0.020013474191852652 0 0.062834062436994145 0.02393732622744342 0 0.074802501227715271 0.033440982268584579 0 0.062834062436994145 0.02393732622744342 0 0.068263696047256905 0.042341635084050568 0 0.074802501227715271 0.033440982268584579 0 0.068263696047256905 0.042341635084050568 0 0.074802501227715271 0.033440982268584579 0 0.080552784057003141 0.044150254547414683 0 0.061737886447169217 0.059380168910106557 0 0.068263696047256905 0.042341635084050568 0 0.07456544535656473 0.057435498820888983 0 0.068263696047256905 0.042341635084050568 0 0.07456544535656473 0.057435498820888983 0 0.080552784057003141 0.044150254547414683 0 0.087703068238926749 0.054393729821081559 0 0.096059235358378847 0.037536691201763409 0 0.092140733212540488 0.065903618916232809 0 0.07456544535656473 0.057435498820888983 0 0.087703068238926749 0.054393729821081559 0 0.079346901119473581 0.071250768440399195 0 0.07456544535656473 0.057435498820888983 0 0.087703068238926749 0.054393729821081559 0 0.080552784057003141 0.044150254547414683 0 0.087703068238926749 0.054393729821081559 0 0.096059235358378847 0.037536691201763409 0 0.087703068238926749 0.054393729821081559 0 0.09168957405668382 0.038490991515225378 0 0.096059235358378847 0.037536691201763409 0 0.087703068238926749 0.054393729821081559 0 0.080552784057003141 0.044150254547414683 0 0.09168957405668382 0.038490991515225378 0 0.08140050949098257 0.034023925630769322 0 0.080552784057003141 0.044150254547414683 0 0.09168957405668382 0.038490991515225378 0 0.074802501227715271 0.033440982268584579 0 0.08140050949098257 0.034023925630769322 0 0.080552784057003141 0.044150254547414683 0 0.09168957405668382 0.038490991515225378 0 0.09327145459684992 0.03321916225880657 0 0.096059235358378847 0.037536691201763409 0 0.090657039815479498 0.02761260221752557 0 0.09168957405668382 0.038490991515225378 0 0.09327145459684992 0.03321916225880657 0 0.096059235358378847 0.037536691201763409 0 0.104639432192685 0.041230258932630527 0 0.1026100945599967 0.055505613264408747 0 0.104639432192685 0.041230258932630527 0 0.109920860497948 0.036608784364290638 0 0.11292063962577879 0.041031077726388678 0 0.096059235358378847 0.037536691201763409 0 0.104639432192685 0.041230258932630527 0 0.10678149162092319 0.031240749472272181 0 0.104639432192685 0.041230258932630527 0 0.109920860497948 0.036608784364290638 0 0.10678149162092319 0.031240749472272181 0 0.096059235358378847 0.037536691201763409 0 0.1026100945599967 0.055505613264408747 0 0.092140733212540488 0.065903618916232809 0 0.096059235358378847 0.037536691201763409 0 0.092140733212540488 0.065903618916232809 0 0.104639432192685 0.041230258932630527 0 0.1026100945599967 0.055505613264408747 0 0.1115805916839322 0.048741743490307667 0 0.1026100945599967 0.055505613264408747 0 0.1183353402422497 0.057783242689010132 0 0.1098056344569701 0.069378565114921534 0 0.1026100945599967 0.055505613264408747 0 0.1115805916839322 0.048741743490307667 0 0.1183353402422497 0.057783242689010132 0 0.1115805916839322 0.048741743490307667 0 0.1183353402422497 0.057783242689010132 0 0.11883342924132261 0.046488442517630763 0 0.1183353402422497 0.057783242689010132 0 0.11883342924132261 0.046488442517630763 0 0.12924827989677509 0.045498500018059863 0 0.11534187855240489 0.032933051325871168 0 0.11292063962577879 0.041031077726388678 0 0.1213180390941878 0.039610316036882427 0 0.11534187855240489 0.032933051325871168 0 0.109920860497948 0.036608784364290638 0 0.10678149162092319 0.031240749472272181 0 0.11534187855240489 0.032933051325871168 0 0.109920860497948 0.036608784364290638 0 0.11292063962577879 0.041031077726388678 0 0.104639432192685 0.041230258932630527 0 0.1115805916839322 0.048741743490307667 0 0.11292063962577879 0.041031077726388678 0 0.1115805916839322 0.048741743490307667 0 0.11292063962577879 0.041031077726388678 0 0.11883342924132261 0.046488442517630763 0 0.11292063962577879 0.041031077726388678 0 0.1213180390941878 0.039610316036882427 0 0.11883342924132261 0.046488442517630763 0 0.1213180390941878 0.039610316036882427 0 0.11883342924132261 0.046488442517630763 0 0.12924827989677509 0.045498500018059863 0 0.11534187855240489 0.032933051325871168 0 0.1213180390941878 0.039610316036882427 0 0.12657754096894899 0.033169311984437747 0 0.11534187855240489 0.032933051325871168 0 0.1192050179883003 0.025289878379008021 0 0.12657754096894899 0.033169311984437747 0 0.11534187855240489 0.032933051325871168 0 0.111549158247362 0.023216751289535761 0 0.10678149162092319 0.031240749472272181 0 0.11534187855240489 0.032933051325871168 0 0.1192050179883003 0.025289878379008021 0 0.111549158247362 0.023216751289535761 0 0.111549158247362 0.023216751289535761 0 0.11443592250114799 0.017584130101141932 0 0.106274661414675 0.01692893778059772 0 0.1192050179883003 0.025289878379008021 0 0.111549158247362 0.023216751289535761 0 0.11443592250114799 0.017584130101141932 0 0.1192050179883003 0.025289878379008021 0 0.11443592250114799 0.017584130101141932 0 0.1239353080246805 0.015523316410563801 0 0.1239353080246805 0.015523316410563801 0 0.1112154668307228 0.0069617666460044213 0 0.1394184874939306 0.0075857919787062364 0 0.1112154668307228 0.0069617666460044213 0 0.1394184874939306 0.0075857919787062364 0 0.1186815333657793 -0.0080996568651242658 0 0.11443592250114799 0.017584130101141932 0 0.1239353080246805 0.015523316410563801 0 0.1112154668307228 0.0069617666460044213 0 0.11443592250114799 0.017584130101141932 0 0.1112154668307228 0.0069617666460044213 0 0.106274661414675 0.01692893778059772 0 0.1112154668307228 0.0069617666460044213 0 0.1006728258854344 0.0067284981921742707 0 0.106274661414675 0.01692893778059772 0 0.106274661414675 0.01692893778059772 0 0.090190712691382735 -0.002244999235090887 0 0.089941950092211786 0.012570042527085899 0 0.106274661414675 0.01692893778059772 0 0.090190712691382735 -0.002244999235090887 0 0.1112154668307228 0.0069617666460044213 0 0.106274661414675 0.01692893778059772 0 0.1006728258854344 0.0067284981921742707 0 0.106274661414675 0.01692893778059772 0 0.090190712691382735 -0.002244999235090887 0 0.1112154668307228 0.0069617666460044213 0 0.1006728258854344 0.0067284981921742707 0 0.1112154668307228 0.0069617666460044213 0 0.1006728258854344 0.0067284981921742707 0 0.1054165138138201 -0.0048713011027633141 0 0.096059235358378847 0.037536691201763409 0 0.098183258058842843 0.022160408079909068 0 0.106274661414675 0.01692893778059772 0 0.089941950092211786 0.012570042527085899 0 0.098183258058842843 0.022160408079909068 0 0.106274661414675 0.01692893778059772 0 0.096059235358378847 0.037536691201763409 0 0.10678149162092319 0.031240749472272181 0 0.106274661414675 0.01692893778059772 0 0.096059235358378847 0.037536691201763409 0 0.106274661414675 0.01692893778059772 0 0.09327145459684992 0.03321916225880657 0 0.096059235358378847 0.037536691201763409 0 0.098183258058842843 0.022160408079909068 0 0.096059235358378847 0.037536691201763409 0 0.098183258058842843 0.022160408079909068 0 0.090657039815479498 0.02761260221752557 0 0.09327145459684992 0.03321916225880657 0 0.098183258058842843 0.022160408079909068 0 0.111549158247362 0.023216751289535761 0 0.10678149162092319 0.031240749472272181 0 0.106274661414675 0.01692893778059772 0 0.111549158247362 0.023216751289535761 0 0.106274661414675 0.01692893778059772 0 0.1068729160657173 0.1091415772908397 0 0.1063848258670575 0.097631464247106656 0 0.098107369409231718 0.1056872943054626 0 0.1063848258670575 0.097631464247106656 0 0.098901367255357725 0.098360746536220289 0 0.099621264379513838 0.090752517511206915 0 0.098901367255357725 0.098360746536220289 0 0.098107369409231718 0.1056872943054626 0 0.090405850800577281 0.10026018731825111 0 0.1063848258670575 0.097631464247106656 0 0.098901367255357725 0.098360746536220289 0 0.098107369409231718 0.1056872943054626 0 0.098901367255357725 0.098360746536220289 0 0.099621264379513838 0.090752517511206915 0 0.090405850800577281 0.10026018731825111 0 0.098107369409231718 0.1056872943054626 0 0.092947523167870846 0.10854554585519 0 0.090405850800577281 0.10026018731825111 0 0.098107369409231718 0.1056872943054626 0 0.094060648690377224 0.11210128309459449 0 0.092947523167870846 0.10854554585519 0 0.1068729160657173 0.1091415772908397 0 0.098107369409231718 0.1056872943054626 0 0.099627253813488553 0.1134470310051468 0 0.098107369409231718 0.1056872943054626 0 0.094060648690377224 0.11210128309459449 0 0.099627253813488553 0.1134470310051468 0 0.094060648690377224 0.11210128309459449 0 0.099627253813488553 0.1134470310051468 0 0.094024046965758182 0.117298107169826 0 0.099627253813488553 0.1134470310051468 0 0.094024046965758182 0.117298107169826 0 0.097732113875080517 0.12216187644950841 0 0.097732113875080517 0.12216187644950841 0 0.091896473568712569 0.1223104214677275 0 0.092941879234427649 0.12859403705842229 0 0.094024046965758182 0.117298107169826 0 0.097732113875080517 0.12216187644950841 0 0.091896473568712569 0.1223104214677275 0 0.099627253813488553 0.1134470310051468 0 0.097732113875080517 0.12216187644950841 0 0.1104450548428248 0.1198156003671198 0 0.097732113875080517 0.12216187644950841 0 0.1104450548428248 0.1198156003671198 0 0.1003664336185331 0.12938797741038191 0 0.1068729160657173 0.1091415772908397 0 0.099627253813488553 0.1134470310051468 0 0.1104450548428248 0.1198156003671198 0 0.1104450548428248 0.1198156003671198 0 0.13190173259588339 0.12673162022164239 0 0.12619853450777779 0.1078330730874123 0 0.1068729160657173 0.1091415772908397 0 0.1104450548428248 0.1198156003671198 0 0.12619853450777779 0.1078330730874123 0 0.1068729160657173 0.1091415772908397 0 0.12619853450777779 0.1078330730874123 0 0.1068729160657173 0.1091415772908397 0 0.1196566717525884 0.095935737169380891 0 0.12619853450777779 0.1078330730874123 0 0.1063848258670575 0.097631464247106656 0 0.1196566717525884 0.095935737169380891 0 0.11254258578381469 0.08804325803868028 0 0.1068729160657173 0.1091415772908397 0 0.1063848258670575 0.097631464247106656 0 0.1196566717525884 0.095935737169380891 0 0.1196566717525884 0.095935737169380891 0 0.12277357628353951 0.084307659091952911 0 0.13172932320218789 0.090527424033019929 0 0.1196566717525884 0.095935737169380891 0 0.12277357628353951 0.084307659091952911 0 0.11254258578381469 0.08804325803868028 0 0.12277357628353951 0.084307659091952911 0 0.11606835485290259 0.077247542885991075 0 0.12601201663717829 0.073782779713414431 0 0.11254258578381469 0.08804325803868028 0 0.11606835485290259 0.077247542885991075 0 0.10682976835084521 0.08057885028869459 0 0.12277357628353951 0.084307659091952911 0 0.11254258578381469 0.08804325803868028 0 0.11606835485290259 0.077247542885991075 0 0.1183353402422497 0.057783242689010132 0 0.11939743099048709 0.067795358029729025 0 0.13133004901314721 0.062710481960249712 0 0.11939743099048709 0.067795358029729025 0 0.11606835485290259 0.077247542885991075 0 0.12601201663717829 0.073782779713414431 0 0.11939743099048709 0.067795358029729025 0 0.11606835485290259 0.077247542885991075 0 0.1098056344569701 0.069378565114921534 0 0.11606835485290259 0.077247542885991075 0 0.1098056344569701 0.069378565114921534 0 0.10682976835084521 0.08057885028869459 0 0.1183353402422497 0.057783242689010132 0 0.11939743099048709 0.067795358029729025 0 0.1098056344569701 0.069378565114921534 0 0.1026100945599967 0.055505613264408747 0 0.1098056344569701 0.069378565114921534 0 0.096507972680286977 0.077882900291329951 0 0.1026100945599967 0.055505613264408747 0 0.096507972680286977 0.077882900291329951 0 0.1026100945599967 0.055505613264408747 0 0.096507972680286977 0.077882900291329951 0 0.092140733212540488 0.065903618916232809 0 0.1098056344569701 0.069378565114921534 0 0.096507972680286977 0.077882900291329951 0 0.10682976835084521 0.08057885028869459 0 0.096507972680286977 0.077882900291329951 0 0.099621264379513838 0.090752517511206915 0 0.090405850800577281 0.10026018731825111 0 0.1063848258670575 0.097631464247106656 0 0.11254258578381469 0.08804325803868028 0 0.099621264379513838 0.090752517511206915 0 0.11254258578381469 0.08804325803868028 0 0.10682976835084521 0.08057885028869459 0 0.099621264379513838 0.090752517511206915 0 0.096507972680286977 0.077882900291329951 0 0.10682976835084521 0.08057885028869459 0 0.099621264379513838 0.090752517511206915 0 0.096507972680286977 0.077882900291329951 0 0.092140733212540488 0.065903618916232809 0 0.088222231066703266 0.09427054663070239 0 0.092140733212540488 0.065903618916232809 0 0.088222231066703266 0.09427054663070239 0 0.096507972680286977 0.077882900291329951 0 0.090405850800577281 0.10026018731825111 0 0.096507972680286977 0.077882900291329951 0 0.090405850800577281 0.10026018731825111 0 0.088222231066703266 0.09427054663070239 0 0.07916600553617581 0.084034169940261444 0 0.092140733212540488 0.065903618916232809 0 0.088222231066703266 0.09427054663070239 0 0.07916600553617581 0.084034169940261444 0 0.079451916767000405 0.093117548951572482 0 0.088222231066703266 0.09427054663070239 0 0.07916600553617581 0.084034169940261444 0 0.092140733212540488 0.065903618916232809 0 0.079346901119473581 0.071250768440399195 0 0.087703068238926749 0.054393729821081559 0 0.092140733212540488 0.065903618916232809 0 0.079346901119473581 0.071250768440399195 0 0.087703068238926749 0.054393729821081559 0 0.079346901119473581 0.071250768440399195 0 0.061737886447169217 0.059380168910106557 0 0.07456544535656473 0.057435498820888983 0 0.069788336229558878 0.073096436122281325 0 0.07456544535656473 0.057435498820888983 0 0.079346901119473581 0.071250768440399195 0 0.069788336229558878 0.073096436122281325 0 0.07916600553617581 0.084034169940261444 0 0.079346901119473581 0.071250768440399195 0 0.069788336229558878 0.073096436122281325 0 0.069788336229558878 0.073096436122281325 0 0.068151406132979639 0.082692951729811323 0 0.060101149528714842 0.074061353615978862 0 0.061737886447169217 0.059380168910106557 0 0.069788336229558878 0.073096436122281325 0 0.060101149528714842 0.074061353615978862 0 0.07916600553617581 0.084034169940261444 0 0.079451916767000405 0.093117548951572482 0 0.073788158930500308 0.089778118978551785 0 0.073788158930500308 0.089778118978551785 0 0.067434982061374202 0.092085149511699521 0 0.074736484154971444 0.096960774759414073 0 0.079451916767000405 0.093117548951572482 0 0.073788158930500308 0.089778118978551785 0 0.074736484154971444 0.096960774759414073 0 0.07916600553617581 0.084034169940261444 0 0.073788158930500308 0.089778118978551785 0 0.068151406132979639 0.082692951729811323 0 0.07916600553617581 0.084034169940261444 0 0.069788336229558878 0.073096436122281325 0 0.068151406132979639 0.082692951729811323 0 0.068151406132979639 0.082692951729811323 0 0.060101149528714842 0.074061353615978862 0 0.059451472415866798 0.086463349349621549 0 0.073788158930500308 0.089778118978551785 0 0.068151406132979639 0.082692951729811323 0 0.067434982061374202 0.092085149511699521 0 0.068151406132979639 0.082692951729811323 0 0.067434982061374202 0.092085149511699521 0 0.059451472415866798 0.086463349349621549 0 0.067434982061374202 0.092085149511699521 0 0.068805539888164999 0.10023901732316889 0 0.06052727451919248 0.09676900528031912 0 0.068805539888164999 0.10023901732316889 0 0.075142511625235844 0.1043198158499633 0 0.066186447080050975 0.11106034121444849 0 0.066186447080050975 0.11106034121444849 0 0.06052727451919248 0.09676900528031912 0 0.068805539888164999 0.10023901732316889 0 0.066186447080050975 0.11106034121444849 0 0.06052727451919248 0.09676900528031912 0 0.075142511625235844 0.1043198158499633 0 0.078026257425687806 0.1114973930597328 0 0.066186447080050975 0.11106034121444849 0 0.067434982061374202 0.092085149511699521 0 0.068805539888164999 0.10023901732316889 0 0.074736484154971444 0.096960774759414073 0 0.068805539888164999 0.10023901732316889 0 0.075142511625235844 0.1043198158499633 0 0.074736484154971444 0.096960774759414073 0 0.075142511625235844 0.1043198158499633 0 0.074736484154971444 0.096960774759414073 0 0.080851470667874237 0.099506210196501868 0 0.090405850800577281 0.10026018731825111 0 0.088222231066703266 0.09427054663070239 0 0.084303728920866822 0.122637474345172 0 0.079451916767000405 0.093117548951572482 0 0.080851470667874237 0.099506210196501868 0 0.088222231066703266 0.09427054663070239 0 0.083594547686872994 0.10808540314963461 0 0.088222231066703266 0.09427054663070239 0 0.084303728920866822 0.122637474345172 0 0.080851470667874237 0.099506210196501868 0 0.083594547686872994 0.10808540314963461 0 0.088222231066703266 0.09427054663070239 0 0.079451916767000405 0.093117548951572482 0 0.074736484154971444 0.096960774759414073 0 0.080851470667874237 0.099506210196501868 0 0.088222231066703266 0.09427054663070239 0 0.084303728920866822 0.122637474345172 0 0.092947523167870846 0.10854554585519 0 0.090405850800577281 0.10026018731825111 0 0.089216223771297162 0.1161334187024516 0 0.075142511625235844 0.1043198158499633 0 0.080851470667874237 0.099506210196501868 0 0.083594547686872994 0.10808540314963461 0 0.075142511625235844 0.1043198158499633 0 0.083594547686872994 0.10808540314963461 0 0.078026257425687806 0.1114973930597328 0 0.090405850800577281 0.10026018731825111 0 0.089216223771297162 0.1161334187024516 0 0.084303728920866822 0.122637474345172 0 0.090405850800577281 0.10026018731825111 0 0.084303728920866822 0.122637474345172 0 0.088605954425768116 0.1215839084594238 0 0.089216223771297162 0.1161334187024516 0 0.084303728920866822 0.122637474345172 0 0.088605954425768116 0.1215839084594238 0 0.084303728920866822 0.122637474345172 0 0.089007391442195868 0.12525431932234421 0 0.088605954425768116 0.1215839084594238 0 0.091896473568712569 0.1223104214677275 0 0.089007391442195868 0.12525431932234421 0 0.088605954425768116 0.1215839084594238 0 0.091896473568712569 0.1223104214677275 0 0.089216223771297162 0.1161334187024516 0 0.094024046965758182 0.117298107169826 0 0.091896473568712569 0.1223104214677275 0 0.089216223771297162 0.1161334187024516 0 0.094060648690377224 0.11210128309459449 0 0.094024046965758182 0.117298107169826 0 0.089216223771297162 0.1161334187024516 0 0.094060648690377224 0.11210128309459449 0 0.092947523167870846 0.10854554585519 0 0.089216223771297162 0.1161334187024516 0 0.083594547686872994 0.10808540314963461 0 0.082816578700130219 0.1155789838255082 0 0.084303728920866822 0.122637474345172 0 0.083594547686872994 0.10808540314963461 0 0.082816578700130219 0.1155789838255082 0 0.078026257425687806 0.1114973930597328 0 0.082816578700130219 0.1155789838255082 0 0.078385618670791968 0.1186453904136909 0 0.078026257425687806 0.1114973930597328 0 0.082816578700130219 0.1155789838255082 0 0.078385618670791968 0.1186453904136909 0 0.08184329714152086 0.1199775606946808 0 0.078385618670791968 0.1186453904136909 0 0.08184329714152086 0.1199775606946808 0 0.081583977945612063 0.122515348520916 0 0.082816578700130219 0.1155789838255082 0 0.08184329714152086 0.1199775606946808 0 0.084303728920866822 0.122637474345172 0 0.08184329714152086 0.1199775606946808 0 0.084303728920866822 0.122637474345172 0 0.081583977945612063 0.122515348520916 0 0.084303728920866822 0.122637474345172 0 0.081583977945612063 0.122515348520916 0 0.078603530777755976 0.12557981141835409 0 0.066186447080050975 0.11106034121444849 0 0.055424221270671592 0.12520309853075071 0 0.071845619640909464 0.12535167714857781 0 0.074197981170891492 0.11695137923273009 0 0.066186447080050975 0.11106034121444849 0 0.071845619640909464 0.12535167714857781 0 0.081583977945612063 0.122515348520916 0 0.078603530777755976 0.12557981141835409 0 0.071845619640909464 0.12535167714857781 0 0.078385618670791968 0.1186453904136909 0 0.074197981170891492 0.11695137923273009 0 0.071845619640909464 0.12535167714857781 0 0.081583977945612063 0.122515348520916 0 0.071845619640909464 0.12535167714857781 0 0.078385618670791968 0.1186453904136909 0 0.081583977945612063 0.122515348520916 0 0.071845619640909464 0.12535167714857781 0 0.078026257425687806 0.1114973930597328 0 0.074197981170891492 0.11695137923273009 0 0.066186447080050975 0.11106034121444849 0 0.078385618670791968 0.1186453904136909 0 0.078026257425687806 0.1114973930597328 0 0.074197981170891492 0.11695137923273009 0 0.066186447080050975 0.11106034121444849 0 0.071845619640909464 0.12535167714857781 0 0.047056567666475153 0.1127632500511619 0 0.051861185119840447 0.0996236356598766 0 0.055424221270671592 0.12520309853075071 0 0.058499781997438882 0.1081640201713487 0 0.051861185119840447 0.0996236356598766 0 0.055424221270671592 0.12520309853075071 0 0.066186447080050975 0.11106034121444849 0 0.058499781997438882 0.1081640201713487 0 0.055424221270671592 0.12520309853075071 0 0.051861185119840447 0.0996236356598766 0 0.055424221270671592 0.12520309853075071 0 0.047056567666475153 0.1127632500511619 0 0.044990336119378888 0.1215935382934524 0 0.055424221270671592 0.12520309853075071 0 0.066186447080050975 0.11106034121444849 0 0.058499781997438882 0.1081640201713487 0 0.06052727451919248 0.09676900528031912 0 0.058499781997438882 0.1081640201713487 0 0.06052727451919248 0.09676900528031912 0 0.051861185119840447 0.0996236356598766 0 0.06052727451919248 0.09676900528031912 0 0.051861185119840447 0.0996236356598766 0 0.059451472415866798 0.086463349349621549 0 0.047056567666475153 0.1127632500511619 0 0.051861185119840447 0.0996236356598766 0 0.043834957280768611 0.1038325564267777 0 0.036235871832989278 0.1009334789706878 0 0.035616913258329358 0.085196189241369819 0 0.02348318981885077 0.10033662342233859 0 0.043834957280768611 0.1038325564267777 0 0.036235871832989278 0.1009334789706878 0 0.037772465249520777 0.1139359301035627 0 0.043834957280768611 0.1038325564267777 0 0.036235871832989278 0.1009334789706878 0 0.043449349950626492 0.092651504865820772 0 0.051861185119840447 0.0996236356598766 0 0.043834957280768611 0.1038325564267777 0 0.043449349950626492 0.092651504865820772 0 0.036235871832989278 0.1009334789706878 0 0.037772465249520777 0.1139359301035627 0 0.027061050510341959 0.1105975282518479 0 0.037772465249520777 0.1139359301035627 0 0.024557959906582778 0.1207113608662482 0 0.034295275469920922 0.1263429534295008 0 0.037772465249520777 0.1139359301035627 0 0.044990336119378888 0.1215935382934524 0 0.034295275469920922 0.1263429534295008 0 0.047056567666475153 0.1127632500511619 0 0.037772465249520777 0.1139359301035627 0 0.044990336119378888 0.1215935382934524 0 0.047056567666475153 0.1127632500511619 0 0.043834957280768611 0.1038325564267777 0 0.037772465249520777 0.1139359301035627 0 0.061737886447169217 0.059380168910106557 0 0.060101149528714842 0.074061353615978862 0 0.048298148969009323 0.074044172789002452 0 0.051861185119840447 0.0996236356598766 0 0.048298148969009323 0.074044172789002452 0 0.051861185119840447 0.0996236356598766 0 0.048298148969009323 0.074044172789002452 0 0.059451472415866798 0.086463349349621549 0 0.051861185119840447 0.0996236356598766 0 0.048298148969009323 0.074044172789002452 0 0.043449349950626492 0.092651504865820772 0 0.060101149528714842 0.074061353615978862 0 0.048298148969009323 0.074044172789002452 0 0.059451472415866798 0.086463349349621549 0 0.067434982061374202 0.092085149511699521 0 0.06052727451919248 0.09676900528031912 0 0.059451472415866798 0.086463349349621549 0 0.036235871832989278 0.1009334789706878 0 0.043449349950626492 0.092651504865820772 0 0.035616913258329358 0.085196189241369819 0 0.048298148969009323 0.074044172789002452 0 0.043449349950626492 0.092651504865820772 0 0.035616913258329358 0.085196189241369819 0 0.025895074102811451 0.058469960211309138 0 0.048298148969009323 0.074044172789002452 0 0.035616913258329358 0.085196189241369819 0 0.025895074102811451 0.058469960211309138 0 0.035616913258329358 0.085196189241369819 0 0.0062649722180432351 0.057751210548817773 0 0.025895074102811451 0.058469960211309138 0 0.01898689904755636 0.073610204842910532 0 0.025895074102811451 0.058469960211309138 0 0.035616913258329358 0.085196189241369819 0 0.01898689904755636 0.073610204842910532 0 0.035616913258329358 0.085196189241369819 0 0.01898689904755636 0.073610204842910532 0 0.021711875470706288 0.087206404810191471 0 0.035616913258329358 0.085196189241369819 0 0.021711875470706288 0.087206404810191471 0 0.02348318981885077 0.10033662342233859 0 0.021711875470706288 0.087206404810191471 0 0.01071928772145486 0.093491319189241362 0 0.02348318981885077 0.10033662342233859 0 0.01898689904755636 0.073610204842910532 0 0.021711875470706288 0.087206404810191471 0 0.0043624206876303551 0.079126651593034655 0 0.021711875470706288 0.087206404810191471 0 0.01071928772145486 0.093491319189241362 0 0.0043624206876303551 0.079126651593034655 0 -0.00278832882414145 0.093432140897515836 0 0.01071928772145486 0.093491319189241362 0 0.0043624206876303551 0.079126651593034655 0 0.0062649722180432351 0.057751210548817773 0 0.01898689904755636 0.073610204842910532 0 0.0043624206876303551 0.079126651593034655 0 0.017562888300967919 0.1127484468018302 0 0.024557959906582778 0.1207113608662482 0 0.027061050510341959 0.1105975282518479 0 0.017562888300967919 0.1127484468018302 0 0.024557959906582778 0.1207113608662482 0 0.010073102219326851 0.1225131567554034 0 0.024557959906582778 0.1207113608662482 0 0.010073102219326851 0.1225131567554034 0 0.021055945695268169 0.13059278844706759 0 0.037772465249520777 0.1139359301035627 0 0.024557959906582778 0.1207113608662482 0 0.027061050510341959 0.1105975282518479 0 0.036235871832989278 0.1009334789706878 0 0.027061050510341959 0.1105975282518479 0 0.02348318981885077 0.10033662342233859 0 0.017562888300967919 0.1127484468018302 0 0.027061050510341959 0.1105975282518479 0 0.02348318981885077 0.10033662342233859 0 0.017562888300967919 0.1127484468018302 0 0.02348318981885077 0.10033662342233859 0 0.0057440419539671996 0.1070541674132964 0 0.01071928772145486 0.093491319189241362 0 0.02348318981885077 0.10033662342233859 0 0.0057440419539671996 0.1070541674132964 0 -0.00278832882414145 0.093432140897515836 0 0.01071928772145486 0.093491319189241362 0 0.0057440419539671996 0.1070541674132964 0 -0.0042797142796552976 0.1179519394458359 0 0.0057440419539671996 0.1070541674132964 0 0.010073102219326851 0.1225131567554034 0 0.017562888300967919 0.1127484468018302 0 0.0057440419539671996 0.1070541674132964 0 0.010073102219326851 0.1225131567554034 0 -0.0003142905406453442 0.1318192574220213 0 -0.0042797142796552976 0.1179519394458359 0 0.010073102219326851 0.1225131567554034 0 0.01268280974215137 0.1335968898396756 0 0.02740884046290477 0.13829403405926999 0 0.0051904508739024149 0.14476521251461599 0 -0.0003142905406453442 0.1318192574220213 0 0.010073102219326851 0.1225131567554034 0 0.01268280974215137 0.1335968898396756 0 -0.0003142905406453442 0.1318192574220213 0 0.01268280974215137 0.1335968898396756 0 0.0051904508739024149 0.14476521251461599 0 0.010073102219326851 0.1225131567554034 0 0.01268280974215137 0.1335968898396756 0 0.021055945695268169 0.13059278844706759 0 0.01268280974215137 0.1335968898396756 0 0.021055945695268169 0.13059278844706759 0 0.02740884046290477 0.13829403405926999 0 0.024557959906582778 0.1207113608662482 0 0.021055945695268169 0.13059278844706759 0 0.034295275469920922 0.1263429534295008 0 0.021055945695268169 0.13059278844706759 0 0.02740884046290477 0.13829403405926999 0 0.034295275469920922 0.1263429534295008 0 0.02740884046290477 0.13829403405926999 0 0.016925905758543101 0.1456651269858702 0 0.0051904508739024149 0.14476521251461599 0 0.03104685685324678 0.15128748971905151 0 0.016925905758543101 0.1456651269858702 0 0.021647757579940329 0.16519529054774279 0 0.02740884046290477 0.13829403405926999 0 0.0051904508739024149 0.14476521251461599 0 0.02740884046290477 0.13829403405926999 0 0.03104685685324678 0.15128748971905151 0 0.016925905758543101 0.1456651269858702 0 -0.001882868246429909 0.16322945810999931 0 0.016925905758543101 0.1456651269858702 0 -0.001882868246429909 0.16322945810999931 0 0.016925905758543101 0.1456651269858702 0 0.0051904508739024149 0.14476521251461599 0 -0.001882868246429909 0.16322945810999931 0 0.016925905758543101 0.1456651269858702 0 0.021647757579940329 0.16519529054774279 0 -0.001882868246429909 0.16322945810999931 0 0.0069528944774667478 0.18020749461745639 0 0.021647757579940329 0.16519529054774279 0 0.0069528944774667478 0.18020749461745639 0 0.037076522541696737 0.1833760582507897 0 0.01346571305733776 0.19820492834305281 0 0.0069528944774667478 0.18020749461745639 0 0.021647757579940329 0.16519529054774279 0 0.037076522541696737 0.1833760582507897 0 0.03104685685324678 0.15128748971905151 0 0.021647757579940329 0.16519529054774279 0 0.041316644011420767 0.16456104136746369 0 0.021647757579940329 0.16519529054774279 0 0.041316644011420767 0.16456104136746369 0 0.037076522541696737 0.1833760582507897 0 0.041316644011420767 0.16456104136746369 0 0.037076522541696737 0.1833760582507897 0 0.060687332026055717 0.1685471881585266 0 0.037076522541696737 0.1833760582507897 0 0.060687332026055717 0.1685471881585266 0 0.037076522541696737 0.1833760582507897 0 0.060687332026055717 0.1685471881585266 0 0.063473464616501191 0.1863005182692779 0 0.041316644011420767 0.16456104136746369 0 0.060687332026055717 0.1685471881585266 0 0.054827891705841098 0.15902558629301039 0 0.041316644011420767 0.16456104136746369 0 0.054827891705841098 0.15902558629301039 0 0.046355936476888251 0.15249324902339209 0 0.060687332026055717 0.1685471881585266 0 0.054827891705841098 0.15902558629301039 0 0.0666205648069845 0.158997900528669 0 0.054827891705841098 0.15902558629301039 0 0.059158981207856211 0.15052855238700069 0 0.0666205648069845 0.158997900528669 0 0.054827891705841098 0.15902558629301039 0 0.059158981207856211 0.15052855238700069 0 0.046355936476888251 0.15249324902339209 0 0.052977132223491513 0.14227727101445431 0 0.046355936476888251 0.15249324902339209 0 0.041483199213687677 0.14323497988401829 0 0.059158981207856211 0.15052855238700069 0 0.052977132223491513 0.14227727101445431 0 0.046355936476888251 0.15249324902339209 0 0.059158981207856211 0.15052855238700069 0 0.052977132223491513 0.14227727101445431 0 0.064216705955324221 0.1413034762135888 0 0.058283682759504379 0.13697813121070121 0 0.064798142731690184 0.13367116159842229 0 0.064216705955324221 0.1413034762135888 0 0.052977132223491513 0.14227727101445431 0 0.058283682759504379 0.13697813121070121 0 0.064216705955324221 0.1413034762135888 0 0.049627230051907098 0.1318228556039239 0 0.071845619640909464 0.12535167714857781 0 0.058283682759504379 0.13697813121070121 0 0.049627230051907098 0.1318228556039239 0 0.064798142731690184 0.13367116159842229 0 0.049627230051907098 0.1318228556039239 0 0.071845619640909464 0.12535167714857781 0 0.064798142731690184 0.13367116159842229 0 0.055424221270671592 0.12520309853075071 0 0.049627230051907098 0.1318228556039239 0 0.071845619640909464 0.12535167714857781 0 0.044990336119378888 0.1215935382934524 0 0.055424221270671592 0.12520309853075071 0 0.049627230051907098 0.1318228556039239 0 0.052977132223491513 0.14227727101445431 0 0.049627230051907098 0.1318228556039239 0 0.041483199213687677 0.14323497988401829 0 0.052977132223491513 0.14227727101445431 0 0.058283682759504379 0.13697813121070121 0 0.049627230051907098 0.1318228556039239 0 0.02740884046290477 0.13829403405926999 0 0.049627230051907098 0.1318228556039239 0 0.034295275469920922 0.1263429534295008 0 0.02740884046290477 0.13829403405926999 0 0.049627230051907098 0.1318228556039239 0 0.02740884046290477 0.13829403405926999 0 0.049627230051907098 0.1318228556039239 0 0.041483199213687677 0.14323497988401829 0 0.044990336119378888 0.1215935382934524 0 0.049627230051907098 0.1318228556039239 0 0.034295275469920922 0.1263429534295008 0 0.02740884046290477 0.13829403405926999 0 0.03104685685324678 0.15128748971905151 0 0.041483199213687677 0.14323497988401829 0 0.03104685685324678 0.15128748971905151 0 0.046355936476888251 0.15249324902339209 0 0.041483199213687677 0.14323497988401829 0 0.03104685685324678 0.15128748971905151 0 0.041316644011420767 0.16456104136746369 0 0.046355936476888251 0.15249324902339209 0 0.025560123354016671 0.23451145291268399 0 0.040613191062103551 0.24305050687108271 0 0.02096260163955577 0.25463352423389651 0 0.025560123354016671 0.23451145291268399 0 0.0055636717745417936 0.2409115006921535 0 0.02096260163955577 0.25463352423389651 0 -0.0098889277353725498 0.22708279255087011 0 0.013978050440634229 0.2263029165741601 0 0.025560123354016671 0.23451145291268399 0 0.0055636717745417936 0.2409115006921535 0 0.013978050440634229 0.2263029165741601 0 -0.0098889277353725498 0.22708279255087011 0 0.0055636717745417936 0.2409115006921535 0 0.013978050440634229 0.2263029165741601 0 0.025560123354016671 0.23451145291268399 0 0.013978050440634229 0.2263029165741601 0 0.02857039565969027 0.2179844941247345 0 0.013978050440634229 0.2263029165741601 0 0.02857039565969027 0.2179844941247345 0 0.01346571305733776 0.19820492834305281 0 0.02857039565969027 0.2179844941247345 0 0.01346571305733776 0.19820492834305281 0 0.036793552239428338 0.20489479708475269 0 -0.010145096427021071 0.2130337984353157 0 0.01346571305733776 0.19820492834305281 0 -0.010145096427021071 0.2130337984353157 0 0.013978050440634229 0.2263029165741601 0 0.01346571305733776 0.19820492834305281 0 -0.01317752082893355 0.19681828710550109 0 0.0069528944774667478 0.18020749461745639 0 0.01346571305733776 0.19820492834305281 0 0.037076522541696737 0.1833760582507897 0 0.01346571305733776 0.19820492834305281 0 0.036793552239428338 0.20489479708475269 0 0.037076522541696737 0.1833760582507897 0 0.01346571305733776 0.19820492834305281 0 0.037076522541696737 0.1833760582507897 0 0.051236842595612439 0.19718077145128929 0 0.036793552239428338 0.20489479708475269 0 0.037076522541696737 0.1833760582507897 0 0.051236842595612439 0.19718077145128929 0 0.063473464616501191 0.1863005182692779 0 0.051236842595612439 0.19718077145128929 0 0.056910102454718878 0.21254075030406841 0 0.036793552239428338 0.20489479708475269 0 0.051236842595612439 0.19718077145128929 0 0.056910102454718878 0.21254075030406841 0 0.073444308258393307 0.20125128888158389 0 0.02857039565969027 0.2179844941247345 0 0.036793552239428338 0.20489479708475269 0 0.043672829547574399 0.22418577498007691 0 0.056910102454718878 0.21254075030406841 0 0.036793552239428338 0.20489479708475269 0 0.043672829547574399 0.22418577498007691 0 0.025560123354016671 0.23451145291268399 0 0.02857039565969027 0.2179844941247345 0 0.043672829547574399 0.22418577498007691 0 0.025560123354016671 0.23451145291268399 0 0.043672829547574399 0.22418577498007691 0 0.040613191062103551 0.24305050687108271 0 0.043672829547574399 0.22418577498007691 0 0.054029698577675013 0.23362545538757681 0 0.040613191062103551 0.24305050687108271 0 0.056910102454718878 0.21254075030406841 0 0.043672829547574399 0.22418577498007691 0 0.05705039134807046 0.22425137925817731 0 0.05705039134807046 0.22425137925817731 0 0.054029698577675013 0.23362545538757681 0 0.069764555973321235 0.22788985208580531 0 0.056910102454718878 0.21254075030406841 0 0.05705039134807046 0.22425137925817731 0 0.069764555973321235 0.22788985208580531 0 0.043672829547574399 0.22418577498007691 0 0.05705039134807046 0.22425137925817731 0 0.054029698577675013 0.23362545538757681 0 0.054029698577675013 0.23362545538757681 0 0.056657288182935181 0.24952246107075299 0 0.040613191062103551 0.24305050687108271 0 0.054029698577675013 0.23362545538757681 0 0.056657288182935181 0.24952246107075299 0 0.069764555973321235 0.22788985208580531 0 0.078950033264493388 0.23865579005553969 0 0.08433526990837717 0.2299046685213377 0 0.094884398846433154 0.2416421449733272 0 0.078950033264493388 0.23865579005553969 0 0.094884398846433154 0.2416421449733272 0 0.078115913588821362 0.25064488401743651 0 0.056657288182935181 0.24952246107075299 0 0.069764555973321235 0.22788985208580531 0 0.056657288182935181 0.24952246107075299 0 0.067650028005513965 0.2431974006797919 0 0.069764555973321235 0.22788985208580531 0 0.078950033264493388 0.23865579005553969 0 0.067650028005513965 0.2431974006797919 0 0.078115913588821362 0.25064488401743651 0 0.067650028005513965 0.2431974006797919 0 0.069764555973321235 0.22788985208580531 0 0.078950033264493388 0.23865579005553969 0 0.067650028005513965 0.2431974006797919 0 0.069764555973321235 0.22788985208580531 0 0.078950033264493388 0.23865579005553969 0 0.069764555973321235 0.22788985208580531 0 0.08433526990837717 0.2299046685213377 0 0.069764555973321235 0.22788985208580531 0 0.075057881503803187 0.2191535965013279 0 0.08433526990837717 0.2299046685213377 0 0.069764555973321235 0.22788985208580531 0 0.075057881503803187 0.2191535965013279 0 0.08433526990837717 0.2299046685213377 0 0.10136125596052151 0.21910564439826641 0 0.094884398846433154 0.2416421449733272 0 0.08433526990837717 0.2299046685213377 0 0.087244901815277595 0.21895151820343359 0 0.10136125596052151 0.21910564439826641 0 0.075057881503803187 0.2191535965013279 0 0.08433526990837717 0.2299046685213377 0 0.087244901815277595 0.21895151820343359 0 0.075057881503803187 0.2191535965013279 0 0.088225199888408545 0.2076421633928022 0 0.073444308258393307 0.20125128888158389 0 0.087244901815277595 0.21895151820343359 0 0.088225199888408545 0.2076421633928022 0 0.10136125596052151 0.21910564439826641 0 0.075057881503803187 0.2191535965013279 0 0.087244901815277595 0.21895151820343359 0 0.088225199888408545 0.2076421633928022 0 0.069764555973321235 0.22788985208580531 0 0.073444308258393307 0.20125128888158389 0 0.069764555973321235 0.22788985208580531 0 0.075057881503803187 0.2191535965013279 0 0.073444308258393307 0.20125128888158389 0 0.056910102454718878 0.21254075030406841 0 0.069764555973321235 0.22788985208580531 0 0.073444308258393307 0.20125128888158389 0 0.073444308258393307 0.20125128888158389 0 0.077124060543464268 0.1746127256773625 0 0.051236842595612439 0.19718077145128929 0 0.073444308258393307 0.20125128888158389 0 0.063473464616501191 0.1863005182692779 0 0.073444308258393307 0.20125128888158389 0 0.087325802838856242 0.19080075871490959 0 0.077124060543464268 0.1746127256773625 0 0.088225199888408545 0.2076421633928022 0 0.073444308258393307 0.20125128888158389 0 0.087325802838856242 0.19080075871490959 0 0.088225199888408545 0.2076421633928022 0 0.087325802838856242 0.19080075871490959 0 0.1006040938741623 0.19562285691952261 0 0.1006040938741623 0.19562285691952261 0 0.10299718948578999 0.19107462022268379 0 0.097975079283526029 0.18633355379607619 0 0.087325802838856242 0.19080075871490959 0 0.1006040938741623 0.19562285691952261 0 0.097975079283526029 0.18633355379607619 0 0.1006040938741623 0.19562285691952261 0 0.1078381130746098 0.19656914382320559 0 0.1078381130746098 0.19656914382320559 0 0.10299718948578999 0.19107462022268379 0 0.1055714717108618 0.18577292635193091 0 0.1006040938741623 0.19562285691952261 0 0.1078381130746098 0.19656914382320559 0 0.10299718948578999 0.19107462022268379 0 0.10299718948578999 0.19107462022268379 0 0.097975079283526029 0.18633355379607619 0 0.1055714717108618 0.18577292635193091 0 0.1078381130746098 0.19656914382320559 0 0.12390658127257249 0.1986710709257791 0 0.1078381130746098 0.19656914382320559 0 0.11764627623634349 0.18886065848434361 0 0.1132243453514456 0.17782751888596859 0 0.1078381130746098 0.19656914382320559 0 0.12390658127257249 0.1986710709257791 0 0.1191389408960629 0.2103128217680319 0 0.1078381130746098 0.19656914382320559 0 0.11764627623634349 0.18886065848434361 0 0.12390658127257249 0.1986710709257791 0 0.11764627623634349 0.18886065848434361 0 0.12390658127257249 0.1986710709257791 0 0.1315838303092437 0.1869937156485495 0 0.1191389408960629 0.2103128217680319 0 0.10136125596052151 0.21910564439826641 0 0.1202654117308936 0.22559744913124369 0 0.1078381130746098 0.19656914382320559 0 0.1191389408960629 0.2103128217680319 0 0.10136125596052151 0.21910564439826641 0 0.12390658127257249 0.1986710709257791 0 0.1191389408960629 0.2103128217680319 0 0.13047676572567601 0.20750739865493131 0 0.1191389408960629 0.2103128217680319 0 0.1202654117308936 0.22559744913124369 0 0.13017575062084791 0.2172098349300946 0 0.088225199888408545 0.2076421633928022 0 0.1006040938741623 0.19562285691952261 0 0.10136125596052151 0.21910564439826641 0 0.1078381130746098 0.19656914382320559 0 0.10136125596052151 0.21910564439826641 0 0.1006040938741623 0.19562285691952261 0 0.1078381130746098 0.19656914382320559 0 0.10136125596052151 0.21910564439826641 0 0.10136125596052151 0.21910564439826641 0 0.1079508969295441 0.2333838151775702 0 0.094884398846433154 0.2416421449733272 0 0.10136125596052151 0.21910564439826641 0 0.094884398846433154 0.2416421449733272 0 0.10136125596052151 0.21910564439826641 0 0.1079508969295441 0.2333838151775702 0 0.1202654117308936 0.22559744913124369 0 0.1079508969295441 0.2333838151775702 0 0.1202654117308936 0.22559744913124369 0 0.12114789904075859 0.23810251080863259 0 0.1079508969295441 0.2333838151775702 0 0.12114789904075859 0.23810251080863259 0 0.10895274041773891 0.2447373791024183 0 0.12114789904075859 0.23810251080863259 0 0.118467602947705 0.24904918409112489 0 0.10895274041773891 0.2447373791024183 0 0.118467602947705 0.24904918409112489 0 0.10895274041773891 0.2447373791024183 0 0.1094825115753742 0.25419496519862578 0 0.1079508969295441 0.2333838151775702 0 0.10895274041773891 0.2447373791024183 0 0.094884398846433154 0.2416421449733272 0 0.10895274041773891 0.2447373791024183 0 0.094884398846433154 0.2416421449733272 0 0.099659974724104566 0.25447815284378172 0 0.083140342164208417 0.14251932359315311 0 0.080803812828535368 0.14797416247314099 0 0.084808187072853605 0.13335469427271479 0 0.083140342164208417 0.14251932359315311 0 0.080803812828535368 0.14797416247314099 0 0.08785014224654851 0.14574650275247131 0 0.078598290213438171 0.1424044675639099 0 0.080803812828535368 0.14797416247314099 0 0.080803812828535368 0.14797416247314099 0 0.086613278409488278 0.16264503941182959 0 0.080803812828535368 0.14797416247314099 0 0.091555290577842688 0.15270743765646719 0 0.086613278409488278 0.16264503941182959 0 0.080803812828535368 0.14797416247314099 0 0.091555290577842688 0.15270743765646719 0 0.08785014224654851 0.14574650275247131 0 0.091555290577842688 0.15270743765646719 0 0.08785014224654851 0.14574650275247131 0 0.094789943846897179 0.1446069342275105 0 0.083140342164208417 0.14251932359315311 0 0.08785014224654851 0.14574650275247131 0 0.088961321815258954 0.1409246558120848 0 0.088961321815258954 0.1409246558120848 0 0.093384252384933794 0.13872816636909191 0 0.094789943846897179 0.1446069342275105 0 0.08785014224654851 0.14574650275247131 0 0.088961321815258954 0.1409246558120848 0 0.094789943846897179 0.1446069342275105 0 0.088961321815258954 0.1409246558120848 0 0.093384252384933794 0.13872816636909191 0 0.090032441161565502 0.1350291443210436 0 0.084303728920866822 0.122637474345172 0 0.078598290213438171 0.1424044675639099 0 0.084303728920866822 0.122637474345172 0 0.080803812828535368 0.14797416247314099 0 0.084303728920866822 0.122637474345172 0 0.078598290213438171 0.1424044675639099 0 0.080803812828535368 0.14797416247314099 0 0.084303728920866822 0.122637474345172 0 0.080803812828535368 0.14797416247314099 0 0.084808187072853605 0.13335469427271479 0 0.084303728920866822 0.122637474345172 0 0.078598290213438171 0.1424044675639099 0 0.078432759409929387 0.13008832848171209 0 0.093384252384933794 0.13872816636909191 0 0.090032441161565502 0.1350291443210436 0 0.095090873582784813 0.13384702748189201 0 0.090032441161565502 0.1350291443210436 0 0.086735573053471612 0.1379569544997491 0 0.084808187072853605 0.13335469427271479 0 0.083140342164208417 0.14251932359315311 0 0.088961321815258954 0.1409246558120848 0 0.086735573053471612 0.1379569544997491 0 0.088961321815258954 0.1409246558120848 0 0.090032441161565502 0.1350291443210436 0 0.086735573053471612 0.1379569544997491 0 0.092941879234427649 0.12859403705842229 0 0.088218725566381884 0.12897393386393941 0 0.089007391442195868 0.12525431932234421 0 0.091896473568712569 0.1223104214677275 0 0.092941879234427649 0.12859403705842229 0 0.089007391442195868 0.12525431932234421 0 0.090032441161565502 0.1350291443210436 0 0.092941879234427649 0.12859403705842229 0 0.095090873582784813 0.13384702748189201 0 0.090032441161565502 0.1350291443210436 0 0.092941879234427649 0.12859403705842229 0 0.088218725566381884 0.12897393386393941 0 0.090032441161565502 0.1350291443210436 0 0.088218725566381884 0.12897393386393941 0 0.084808187072853605 0.13335469427271479 0 0.084303728920866822 0.122637474345172 0 0.088218725566381884 0.12897393386393941 0 0.089007391442195868 0.12525431932234421 0 0.084303728920866822 0.122637474345172 0 0.088218725566381884 0.12897393386393941 0 0.084808187072853605 0.13335469427271479 0 0.084303728920866822 0.122637474345172 0 0.078432759409929387 0.13008832848171209 0 0.078603530777755976 0.12557981141835409 0 0.083140342164208417 0.14251932359315311 0 0.086735573053471612 0.1379569544997491 0 0.084808187072853605 0.13335469427271479 0 0.078598290213438171 0.1424044675639099 0 0.078432759409929387 0.13008832848171209 0 0.071845619640909464 0.12535167714857781 0 0.078598290213438171 0.1424044675639099 0 0.070328757310217149 0.1393522201272665 0 0.071845619640909464 0.12535167714857781 0 0.078598290213438171 0.1424044675639099 0 0.071845619640909464 0.12535167714857781 0 0.078432759409929387 0.13008832848171209 0 0.078603530777755976 0.12557981141835409 0 0.071845619640909464 0.12535167714857781 0 0.070328757310217149 0.1393522201272665 0 0.071845619640909464 0.12535167714857781 0 0.064798142731690184 0.13367116159842229 0 0.070328757310217149 0.1393522201272665 0 0.064798142731690184 0.13367116159842229 0 0.064216705955324221 0.1413034762135888 0 0.070328757310217149 0.1393522201272665 0 0.064216705955324221 0.1413034762135888 0 0.069979505394626579 0.14846062320260281 0 0.059158981207856211 0.15052855238700069 0 0.064216705955324221 0.1413034762135888 0 0.069979505394626579 0.14846062320260281 0 0.078598290213438171 0.1424044675639099 0 0.080803812828535368 0.14797416247314099 0 0.070328757310217149 0.1393522201272665 0 0.080803812828535368 0.14797416247314099 0 0.070328757310217149 0.1393522201272665 0 0.069979505394626579 0.14846062320260281 0 0.080803812828535368 0.14797416247314099 0 0.069979505394626579 0.14846062320260281 0 0.073631985893402682 0.1575113529704438 0 0.069979505394626579 0.14846062320260281 0 0.0666205648069845 0.158997900528669 0 0.073631985893402682 0.1575113529704438 0 0.059158981207856211 0.15052855238700069 0 0.069979505394626579 0.14846062320260281 0 0.0666205648069845 0.158997900528669 0 0.080803812828535368 0.14797416247314099 0 0.073631985893402682 0.1575113529704438 0 0.077124060543464268 0.1746127256773625 0 0.060687332026055717 0.1685471881585266 0 0.0666205648069845 0.158997900528669 0 0.077124060543464268 0.1746127256773625 0 0.0666205648069845 0.158997900528669 0 0.073631985893402682 0.1575113529704438 0 0.077124060543464268 0.1746127256773625 0 0.073444308258393307 0.20125128888158389 0 0.063473464616501191 0.1863005182692779 0 0.077124060543464268 0.1746127256773625 0 0.060687332026055717 0.1685471881585266 0 0.063473464616501191 0.1863005182692779 0 0.077124060543464268 0.1746127256773625 0 0.087325802838856242 0.19080075871490959 0 0.077124060543464268 0.1746127256773625 0 0.092422743990441036 0.1773159163505181 0 0.087325802838856242 0.19080075871490959 0 0.092422743990441036 0.1773159163505181 0 0.097975079283526029 0.18633355379607619 0 0.080803812828535368 0.14797416247314099 0 0.077124060543464268 0.1746127256773625 0 0.080803812828535368 0.14797416247314099 0 0.077124060543464268 0.1746127256773625 0 0.086613278409488278 0.16264503941182959 0 0.077124060543464268 0.1746127256773625 0 0.092422743990441036 0.1773159163505181 0 0.086613278409488278 0.16264503941182959 0 0.092422743990441036 0.1773159163505181 0 0.086613278409488278 0.16264503941182959 0 0.092422743990441036 0.1773159163505181 0 0.086613278409488278 0.16264503941182959 0 0.097158015812130086 0.1642279996531619 0 0.091555290577842688 0.15270743765646719 0 0.086613278409488278 0.16264503941182959 0 0.097158015812130086 0.1642279996531619 0 0.091555290577842688 0.15270743765646719 0 0.097158015812130086 0.1642279996531619 0 0.1019558387290859 0.15210486691999819 0 0.097158015812130086 0.1642279996531619 0 0.1074763501532815 0.16502949610107259 0 0.1029245930126412 0.175565241479086 0 0.1074763501532815 0.16502949610107259 0 0.1116064443651567 0.15339237123229671 0 0.1019558387290859 0.15210486691999819 0 0.097158015812130086 0.1642279996531619 0 0.1074763501532815 0.16502949610107259 0 0.1019558387290859 0.15210486691999819 0 0.1078381130746098 0.19656914382320559 0 0.1055714717108618 0.18577292635193091 0 0.1132243453514456 0.17782751888596859 0 0.092422743990441036 0.1773159163505181 0 0.097975079283526029 0.18633355379607619 0 0.1029245930126412 0.175565241479086 0 0.092422743990441036 0.1773159163505181 0 0.097158015812130086 0.1642279996531619 0 0.1029245930126412 0.175565241479086 0 0.1074763501532815 0.16502949610107259 0 0.1029245930126412 0.175565241479086 0 0.1132243453514456 0.17782751888596859 0 0.1029245930126412 0.175565241479086 0 0.1055714717108618 0.18577292635193091 0 0.1132243453514456 0.17782751888596859 0 0.097975079283526029 0.18633355379607619 0 0.1029245930126412 0.175565241479086 0 0.1055714717108618 0.18577292635193091 0 0.1078381130746098 0.19656914382320559 0 0.1132243453514456 0.17782751888596859 0 0.1132243453514456 0.17782751888596859 0 0.123192611147953 0.17321443326874361 0 0.1214117657612465 0.18172408157190131 0 0.11764627623634349 0.18886065848434361 0 0.1132243453514456 0.17782751888596859 0 0.1214117657612465 0.18172408157190131 0 0.11764627623634349 0.18886065848434361 0 0.1214117657612465 0.18172408157190131 0 0.1315838303092437 0.1869937156485495 0 0.1132243453514456 0.17782751888596859 0 0.123192611147953 0.17321443326874361 0 0.1186105776282813 0.15908589394873171 0 0.1074763501532815 0.16502949610107259 0 0.1132243453514456 0.17782751888596859 0 0.1186105776282813 0.15908589394873171 0 0.1132243453514456 0.17782751888596859 0 0.1186105776282813 0.15908589394873171 0 0.1074763501532815 0.16502949610107259 0 0.1186105776282813 0.15908589394873171 0 0.1116064443651567 0.15339237123229671 0 0.123192611147953 0.17321443326874361 0 0.1186105776282813 0.15908589394873171 0 0.13204592567716131 0.16909290089691831 0 0.1186105776282813 0.15908589394873171 0 0.1243800309471846 0.15285042776381211 0 0.13046594620468629 0.15877742241715781 0 0.1186105776282813 0.15908589394873171 0 0.1243800309471846 0.15285042776381211 0 0.1182793122419275 0.1469386715592986 0 0.1182793122419275 0.1469386715592986 0 0.1116064443651567 0.15339237123229671 0 0.1093694408559191 0.14479602422594329 0 0.1182793122419275 0.1469386715592986 0 0.1093694408559191 0.14479602422594329 0 0.1161973560538236 0.13727865048767349 0 0.1186105776282813 0.15908589394873171 0 0.1182793122419275 0.1469386715592986 0 0.1116064443651567 0.15339237123229671 0 0.1116064443651567 0.15339237123229671 0 0.1019558387290859 0.15210486691999819 0 0.1093694408559191 0.14479602422594329 0 0.1019558387290859 0.15210486691999819 0 0.1093694408559191 0.14479602422594329 0 0.10245063710078819 0.1427659943383279 0 0.1093694408559191 0.14479602422594329 0 0.10245063710078819 0.1427659943383279 0 0.1074086005575747 0.13482633406766739 0 0.1019558387290859 0.15210486691999819 0 0.10245063710078819 0.1427659943383279 0 0.094789943846897179 0.1446069342275105 0 0.10245063710078819 0.1427659943383279 0 0.094789943846897179 0.1446069342275105 0 0.098729361514463959 0.13749581225052021 0 0.091555290577842688 0.15270743765646719 0 0.1019558387290859 0.15210486691999819 0 0.094789943846897179 0.1446069342275105 0 0.097732113875080517 0.12216187644950841 0 0.092941879234427649 0.12859403705842229 0 0.1003664336185331 0.12938797741038191 0 0.092941879234427649 0.12859403705842229 0 0.1003664336185331 0.12938797741038191 0 0.095090873582784813 0.13384702748189201 0 0.093384252384933794 0.13872816636909191 0 0.095090873582784813 0.13384702748189201 0 0.098729361514463959 0.13749581225052021 0 0.1003664336185331 0.12938797741038191 0 0.095090873582784813 0.13384702748189201 0 0.098729361514463959 0.13749581225052021 0 0.093384252384933794 0.13872816636909191 0 0.094789943846897179 0.1446069342275105 0 0.098729361514463959 0.13749581225052021 0 0.1003664336185331 0.12938797741038191 0 0.098729361514463959 0.13749581225052021 0 0.1074086005575747 0.13482633406766739 0 0.10245063710078819 0.1427659943383279 0 0.098729361514463959 0.13749581225052021 0 0.1074086005575747 0.13482633406766739 0 0.1104450548428248 0.1198156003671198 0 0.1003664336185331 0.12938797741038191 0 0.1074086005575747 0.13482633406766739 0 0.1182793122419275 0.1469386715592986 0 0.1161973560538236 0.13727865048767349 0 0.13190173259588339 0.12673162022164239 0 0.1104450548428248 0.1198156003671198 0 0.1161415659812093 0.12989553680181759 0 0.13190173259588339 0.12673162022164239 0 0.1161415659812093 0.12989553680181759 0 0.1161973560538236 0.13727865048767349 0 0.13190173259588339 0.12673162022164239 0 0.1104450548428248 0.1198156003671198 0 0.1074086005575747 0.13482633406766739 0 0.1161415659812093 0.12989553680181759 0 0.1093694408559191 0.14479602422594329 0 0.1074086005575747 0.13482633406766739 0 0.1161973560538236 0.13727865048767349 0 0.1074086005575747 0.13482633406766739 0 0.1161415659812093 0.12989553680181759 0 0.1161973560538236 0.13727865048767349 0 0.1182793122419275 0.1469386715592986 0 0.13190173259588339 0.12673162022164239 0 0.13190173259588339 0.12673162022164239 0 0.15040551593688459 0.14365968030587239 0 0.1325441095352031 0.14436720386734861 0 0.1182793122419275 0.1469386715592986 0 0.13190173259588339 0.12673162022164239 0 0.1325441095352031 0.14436720386734861 0 0.13190173259588339 0.12673162022164239 0 0.15040551593688459 0.14365968030587239 0 0.15566547781771581 0.1200913342755673 0 0.15040551593688459 0.14365968030587239 0 0.14642666302570551 0.16035564631950441 0 0.17142690398241431 0.15889984410546859 0 0.15040551593688459 0.14365968030587239 0 0.13046594620468629 0.15877742241715781 0 0.14642666302570551 0.16035564631950441 0 0.15040551593688459 0.14365968030587239 0 0.13046594620468629 0.15877742241715781 0 0.15040551593688459 0.14365968030587239 0 0.1325441095352031 0.14436720386734861 0 0.13046594620468629 0.15877742241715781 0 0.1243800309471846 0.15285042776381211 0 0.1182793122419275 0.1469386715592986 0 0.1325441095352031 0.14436720386734861 0 0.1243800309471846 0.15285042776381211 0 0.1325441095352031 0.14436720386734861 0 0.13046594620468629 0.15877742241715781 0 0.1186105776282813 0.15908589394873171 0 0.13046594620468629 0.15877742241715781 0 0.13204592567716131 0.16909290089691831 0 0.13204592567716131 0.16909290089691831 0 0.14199592574709841 0.17613029377882289 0 0.14642666302570551 0.16035564631950441 0 0.13046594620468629 0.15877742241715781 0 0.13204592567716131 0.16909290089691831 0 0.14642666302570551 0.16035564631950441 0 0.13204592567716131 0.16909290089691831 0 0.1315838303092437 0.1869937156485495 0 0.14199592574709841 0.17613029377882289 0 0.123192611147953 0.17321443326874361 0 0.13204592567716131 0.16909290089691831 0 0.1315838303092437 0.1869937156485495 0 0.123192611147953 0.17321443326874361 0 0.1315838303092437 0.1869937156485495 0 0.123192611147953 0.17321443326874361 0 0.1214117657612465 0.18172408157190131 0 0.1315838303092437 0.1869937156485495 0 0.1315838303092437 0.1869937156485495 0 0.1451572530324764 0.1866763704657326 0 0.14199592574709841 0.17613029377882289 0 0.1451572530324764 0.1866763704657326 0 0.14199592574709841 0.17613029377882289 0 0.15887058481460239 0.17714543221290921 0 0.1451572530324764 0.1866763704657326 0 0.15887058481460239 0.17714543221290921 0 0.1533608748209026 0.19233941266002649 0 0.14199592574709841 0.17613029377882289 0 0.14642666302570551 0.16035564631950441 0 0.15887058481460239 0.17714543221290921 0 0.17142690398241431 0.15889984410546859 0 0.15887058481460239 0.17714543221290921 0 0.18251002009012271 0.17807605785514791 0 0.14642666302570551 0.16035564631950441 0 0.17142690398241431 0.15889984410546859 0 0.15887058481460239 0.17714543221290921 0 0.15887058481460239 0.17714543221290921 0 0.18251002009012271 0.17807605785514791 0 0.15887058481460239 0.17714543221290921 0 0.18251002009012271 0.17807605785514791 0 0.17117578552144461 0.1894664661520416 0 0.15887058481460239 0.17714543221290921 0 0.162098489802776 0.19170309745154779 0 0.17117578552144461 0.1894664661520416 0 0.15887058481460239 0.17714543221290921 0 0.1533608748209026 0.19233941266002649 0 0.162098489802776 0.19170309745154779 0 0.17142690398241431 0.15889984410546859 0 0.18251002009012271 0.17807605785514791 0 0.1879622090528916 0.16424354072180611 0 0.17142690398241431 0.15889984410546859 0 0.19008086165683691 0.15059846206783681 0 0.1879622090528916 0.16424354072180611 0 0.17142690398241431 0.15889984410546859 0 0.18087273719760719 0.13996272140628641 0 0.19008086165683691 0.15059846206783681 0 0.17142690398241431 0.15889984410546859 0 0.18087273719760719 0.13996272140628641 0 0.16765519519117089 0.14345397686318789 0 0.18087273719760719 0.13996272140628641 0 0.1874582289227715 0.1273740841456501 0 0.1703450856690828 0.12854193819458701 0 0.18087273719760719 0.13996272140628641 0 0.1703450856690828 0.12854193819458701 0 0.16765519519117089 0.14345397686318789 0 0.15040551593688459 0.14365968030587239 0 0.1703450856690828 0.12854193819458701 0 0.15040551593688459 0.14365968030587239 0 0.1703450856690828 0.12854193819458701 0 0.16765519519117089 0.14345397686318789 0 0.15040551593688459 0.14365968030587239 0 0.1703450856690828 0.12854193819458701 0 0.15566547781771581 0.1200913342755673 0 0.15040551593688459 0.14365968030587239 0 0.17142690398241431 0.15889984410546859 0 0.16765519519117089 0.14345397686318789 0 0.14903520139962251 0.23689281747845681 0 0.1656078887783792 0.24286487100056081 0 0.15172676458886999 0.25280479892033159 0 0.14903520139962251 0.23689281747845681 0 0.13696268387962379 0.24645699857620559 0 0.15172676458886999 0.25280479892033159 0 0.14903520139962251 0.23689281747845681 0 0.13696268387962379 0.24645699857620559 0 0.13455494172050589 0.23025582407442199 0 0.13696268387962379 0.24645699857620559 0 0.13455494172050589 0.23025582407442199 0 0.12114789904075859 0.23810251080863259 0 0.118467602947705 0.24904918409112489 0 0.13696268387962379 0.24645699857620559 0 0.12114789904075859 0.23810251080863259 0 0.13696268387962379 0.24645699857620559 0 0.13455494172050589 0.23025582407442199 0 0.1202654117308936 0.22559744913124369 0 0.12114789904075859 0.23810251080863259 0 0.13455494172050589 0.23025582407442199 0 0.1202654117308936 0.22559744913124369 0 0.13455494172050589 0.23025582407442199 0 0.13017575062084791 0.2172098349300946 0 0.13455494172050589 0.23025582407442199 0 0.14124666174094461 0.22328400113237629 0 0.13017575062084791 0.2172098349300946 0 0.14903520139962251 0.23689281747845681 0 0.15279146912445679 0.221818934514458 0 0.1656078887783792 0.24286487100056081 0 0.14124666174094461 0.22328400113237629 0 0.15279146912445679 0.221818934514458 0 0.13900066720038279 0.21376626628953449 0 0.14903520139962251 0.23689281747845681 0 0.13455494172050589 0.23025582407442199 0 0.14124666174094461 0.22328400113237629 0 0.14903520139962251 0.23689281747845681 0 0.14124666174094461 0.22328400113237629 0 0.15279146912445679 0.221818934514458 0 0.1434547364217762 0.20648701743040651 0 0.16725134579478609 0.2124949378466979 0 0.1434547364217762 0.20648701743040651 0 0.13997504947053499 0.20077299802835491 0 0.1639774133247088 0.20383273609747329 0 0.15279146912445679 0.221818934514458 0 0.1434547364217762 0.20648701743040651 0 0.16725134579478609 0.2124949378466979 0 0.1434547364217762 0.20648701743040651 0 0.13900066720038279 0.21376626628953449 0 0.13997504947053499 0.20077299802835491 0 0.1434547364217762 0.20648701743040651 0 0.13997504947053499 0.20077299802835491 0 0.15279146912445679 0.221818934514458 0 0.1434547364217762 0.20648701743040651 0 0.13900066720038279 0.21376626628953449 0 0.15279146912445679 0.221818934514458 0 0.1434547364217762 0.20648701743040651 0 0.14124666174094461 0.22328400113237629 0 0.13900066720038279 0.21376626628953449 0 0.13017575062084791 0.2172098349300946 0 0.13900066720038279 0.21376626628953449 0 0.13017575062084791 0.2172098349300946 0 0.13047676572567601 0.20750739865493131 0 0.1191389408960629 0.2103128217680319 0 0.13017575062084791 0.2172098349300946 0 0.13047676572567601 0.20750739865493131 0 0.13900066720038279 0.21376626628953449 0 0.13047676572567601 0.20750739865493131 0 0.13997504947053499 0.20077299802835491 0 0.12390658127257249 0.1986710709257791 0 0.1315838303092437 0.1869937156485495 0 0.13997504947053499 0.20077299802835491 0 0.12390658127257249 0.1986710709257791 0 0.13997504947053499 0.20077299802835491 0 0.12390658127257249 0.1986710709257791 0 0.13047676572567601 0.20750739865493131 0 0.13997504947053499 0.20077299802835491 0 0.1315838303092437 0.1869937156485495 0 0.1451572530324764 0.1866763704657326 0 0.13997504947053499 0.20077299802835491 0 0.1315838303092437 0.1869937156485495 0 0.13997504947053499 0.20077299802835491 0 0.1451572530324764 0.1866763704657326 0 0.13997504947053499 0.20077299802835491 0 0.1533608748209026 0.19233941266002649 0 0.13997504947053499 0.20077299802835491 0 0.1639774133247088 0.20383273609747329 0 0.13997504947053499 0.20077299802835491 0 0.1533608748209026 0.19233941266002649 0 0.1639774133247088 0.20383273609747329 0 0.1533608748209026 0.19233941266002649 0 0.162098489802776 0.19170309745154779 0 0.1639774133247088 0.20383273609747329 0 0.162098489802776 0.19170309745154779 0 0.17117578552144461 0.1894664661520416 0 0.1639774133247088 0.20383273609747329 0 0.18251002009012271 0.17807605785514791 0 0.17117578552144461 0.1894664661520416 0 0.1859145724301936 0.1958675937781903 0 0.1859145724301936 0.1958675937781903 0 0.18456069702556921 0.20660527648994559 0 0.1639774133247088 0.20383273609747329 0 0.17117578552144461 0.1894664661520416 0 0.1859145724301936 0.1958675937781903 0 0.1639774133247088 0.20383273609747329 0 0.1859145724301936 0.1958675937781903 0 0.1639774133247088 0.20383273609747329 0 0.16725134579478609 0.2124949378466979 0 0.1908219025480721 0.2186405183400387 0 0.18456069702556921 0.20660527648994559 0 0.16725134579478609 0.2124949378466979 0 0.1639774133247088 0.20383273609747329 0 0.18456069702556921 0.20660527648994559 0 0.16725134579478609 0.2124949378466979 0 0.1908219025480721 0.2186405183400387 0 0.18456069702556921 0.20660527648994559 0 0.1639774133247088 0.20383273609747329 0 0.1434547364217762 0.20648701743040651 0 0.16725134579478609 0.2124949378466979 0 0.1639774133247088 0.20383273609747329 0 0.15279146912445679 0.221818934514458 0 0.1656078887783792 0.24286487100056081 0 0.16546546645365251 0.22644271814046399 0 0.17621116211698801 0.22859212920013941 0 0.1656078887783792 0.24286487100056081 0 0.15279146912445679 0.221818934514458 0 0.16546546645365251 0.22644271814046399 0 0.1656078887783792 0.24286487100056081 0 0.16725134579478609 0.2124949378466979 0 0.16546546645365251 0.22644271814046399 0 0.17621116211698801 0.22859212920013941 0 0.15279146912445679 0.221818934514458 0 0.16725134579478609 0.2124949378466979 0 0.16546546645365251 0.22644271814046399 0 0.16725134579478609 0.2124949378466979 0 0.17621116211698801 0.22859212920013941 0 0.1908219025480721 0.2186405183400387 0 0.17621116211698801 0.22859212920013941 0 0.19409285738638249 0.23185535603457741 0 0.1908219025480721 0.2186405183400387 0 0.17621116211698801 0.22859212920013941 0 0.18515818986685109 0.24523198137830499 0 0.1656078887783792 0.24286487100056081 0 0.17621116211698801 0.22859212920013941 0 0.18515818986685109 0.24523198137830499 0 0.19409285738638249 0.23185535603457741 0 0.20388057309864299 0.2420260524210241 0 0.214392459301358 0.22478609883337949 0 0.22311456895561979 0.24210018387613991 0 0.20388057309864299 0.2420260524210241 0 0.22311456895561979 0.24210018387613991 0 0.21441946711031809 0.25343142140150932 0 0.18515818986685109 0.24523198137830499 0 0.20388057309864299 0.2420260524210241 0 0.19409285738638249 0.23185535603457741 0 0.18515818986685109 0.24523198137830499 0 0.20388057309864299 0.2420260524210241 0 0.2001597603643252 0.25953991024648271 0 0.19409285738638249 0.23185535603457741 0 0.214392459301358 0.22478609883337949 0 0.1908219025480721 0.2186405183400387 0 0.214392459301358 0.22478609883337949 0 0.1908219025480721 0.2186405183400387 0 0.20388057309864299 0.2420260524210241 0 0.19409285738638249 0.23185535603457741 0 0.214392459301358 0.22478609883337949 0 0.2051542730281059 0.2092991359795606 0 0.2257478490306426 0.21199299546917549 0 0.214392459301358 0.22478609883337949 0 0.2051542730281059 0.2092991359795606 0 0.2257478490306426 0.21199299546917549 0 0.214392459301358 0.22478609883337949 0 0.2051542730281059 0.2092991359795606 0 0.1908219025480721 0.2186405183400387 0 0.2051542730281059 0.2092991359795606 0 0.2136444703394772 0.19902406040407949 0 0.2257478490306426 0.21199299546917549 0 0.18456069702556921 0.20660527648994559 0 0.2051542730281059 0.2092991359795606 0 0.18456069702556921 0.20660527648994559 0 0.2051542730281059 0.2092991359795606 0 0.1908219025480721 0.2186405183400387 0 0.18456069702556921 0.20660527648994559 0 0.2051542730281059 0.2092991359795606 0 0.19412176773178141 0.20265036865301361 0 0.2051542730281059 0.2092991359795606 0 0.20085752844325711 0.1988294683643578 0 0.19412176773178141 0.20265036865301361 0 0.1859145724301936 0.1958675937781903 0 0.20085752844325711 0.1988294683643578 0 0.20785173153567851 0.18790245145890719 0 0.1859145724301936 0.1958675937781903 0 0.20785173153567851 0.18790245145890719 0 0.1859145724301936 0.1958675937781903 0 0.20785173153567851 0.18790245145890719 0 0.1946782988782447 0.1858125368520685 0 0.1859145724301936 0.1958675937781903 0 0.20085752844325711 0.1988294683643578 0 0.19412176773178141 0.20265036865301361 0 0.1859145724301936 0.1958675937781903 0 0.18456069702556921 0.20660527648994559 0 0.19412176773178141 0.20265036865301361 0 0.20085752844325711 0.1988294683643578 0 0.20785173153567851 0.18790245145890719 0 0.2136444703394772 0.19902406040407949 0 0.2051542730281059 0.2092991359795606 0 0.20085752844325711 0.1988294683643578 0 0.2136444703394772 0.19902406040407949 0 0.20785173153567851 0.18790245145890719 0 0.2136444703394772 0.19902406040407949 0 0.22057863514703391 0.19004572878947329 0 0.2235572518935548 0.19725204228771459 0 0.22882230825823141 0.18780321980362219 0 0.24670152663981329 0.2095518619195684 0 0.22057863514703391 0.19004572878947329 0 0.2235572518935548 0.19725204228771459 0 0.22882230825823141 0.18780321980362219 0 0.2136444703394772 0.19902406040407949 0 0.22057863514703391 0.19004572878947329 0 0.2235572518935548 0.19725204228771459 0 0.2136444703394772 0.19902406040407949 0 0.2235572518935548 0.19725204228771459 0 0.2257478490306426 0.21199299546917549 0 0.22882230825823141 0.18780321980362219 0 0.24246650748536 0.19450163292084799 0 0.24670152663981329 0.2095518619195684 0 0.22882230825823141 0.18780321980362219 0 0.24670152663981329 0.2095518619195684 0 0.22882230825823141 0.18780321980362219 0 0.24246650748536 0.19450163292084799 0 0.23785895048436051 0.18613779601937941 0 0.24246650748536 0.19450163292084799 0 0.24894719752453329 0.18612638269812559 0 0.25318772352235269 0.19758411353432501 0 0.24246650748536 0.19450163292084799 0 0.23785895048436051 0.18613779601937941 0 0.24894719752453329 0.18612638269812559 0 0.24246650748536 0.19450163292084799 0 0.24670152663981329 0.2095518619195684 0 0.25318772352235269 0.19758411353432501 0 0.2235572518935548 0.19725204228771459 0 0.24670152663981329 0.2095518619195684 0 0.23859066343446639 0.21961930472390831 0 0.2235572518935548 0.19725204228771459 0 0.2257478490306426 0.21199299546917549 0 0.23859066343446639 0.21961930472390831 0 0.2235572518935548 0.19725204228771459 0 0.23859066343446639 0.21961930472390831 0 0.214392459301358 0.22478609883337949 0 0.2379630160546439 0.23093167932672029 0 0.22311456895561979 0.24210018387613991 0 0.214392459301358 0.22478609883337949 0 0.23859066343446639 0.21961930472390831 0 0.2379630160546439 0.23093167932672029 0 0.214392459301358 0.22478609883337949 0 0.2257478490306426 0.21199299546917549 0 0.23859066343446639 0.21961930472390831 0 0.214392459301358 0.22478609883337949 0 0.2379630160546439 0.23093167932672029 0 0.23859066343446639 0.21961930472390831 0 0.24293490430991169 0.2356795922548468 0 0.25362407497537798 0.24198656716010189 0 0.23859066343446639 0.21961930472390831 0 0.2379630160546439 0.23093167932672029 0 0.24293490430991169 0.2356795922548468 0 0.23859066343446639 0.21961930472390831 0 0.25362407497537798 0.24198656716010189 0 0.24670152663981329 0.2095518619195684 0 0.23859066343446639 0.21961930472390831 0 0.26458074502139528 0.23130050403551469 0 0.2379630160546439 0.23093167932672029 0 0.24293490430991169 0.2356795922548468 0 0.23892470514704739 0.24618996043878821 0 0.24293490430991169 0.2356795922548468 0 0.23892470514704739 0.24618996043878821 0 0.25362407497537798 0.24198656716010189 0 0.23892470514704739 0.24618996043878821 0 0.24833316285785609 0.25613966282899547 0 0.25362407497537798 0.24198656716010189 0 0.23892470514704739 0.24618996043878821 0 0.22311456895561979 0.24210018387613991 0 0.23143636026737621 0.25829091581815028 0 0.2379630160546439 0.23093167932672029 0 0.23892470514704739 0.24618996043878821 0 0.22311456895561979 0.24210018387613991 0 0.209482326604984 0.15084602107521439 0 0.2076828374110711 0.13888776945844841 0 0.20102071552370171 0.14666203006011799 0 0.209482326604984 0.15084602107521439 0 0.20102071552370171 0.14666203006011799 0 0.20009079197176449 0.1600822806841096 0 0.209482326604984 0.15084602107521439 0 0.2193209912966799 0.14177448839356799 0 0.2187736252161564 0.15431041952742461 0 0.209482326604984 0.15084602107521439 0 0.21134660345578471 0.1612282897799939 0 0.2187736252161564 0.15431041952742461 0 0.209482326604984 0.15084602107521439 0 0.2076828374110711 0.13888776945844841 0 0.2193209912966799 0.14177448839356799 0 0.21408643943991251 0.1315545836761505 0 0.2076828374110711 0.13888776945844841 0 0.2193209912966799 0.14177448839356799 0 0.21408643943991251 0.1315545836761505 0 0.2243526157798536 0.1281753366943639 0 0.21236962900983361 0.1213060413860667 0 0.21408643943991251 0.1315545836761505 0 0.20598551444134069 0.1293379919129482 0 0.21236962900983361 0.1213060413860667 0 0.21408643943991251 0.1315545836761505 0 0.20598551444134069 0.1293379919129482 0 0.2076828374110711 0.13888776945844841 0 0.20598551444134069 0.1293379919129482 0 0.2076828374110711 0.13888776945844841 0 0.1962182618028441 0.13432337501115221 0 0.2076828374110711 0.13888776945844841 0 0.1962182618028441 0.13432337501115221 0 0.20102071552370171 0.14666203006011799 0 0.20598551444134069 0.1293379919129482 0 0.1962182618028441 0.13432337501115221 0 0.19957040454304231 0.12061819003292321 0 0.1874582289227715 0.1273740841456501 0 0.1962182618028441 0.13432337501115221 0 0.19957040454304231 0.12061819003292321 0 0.18087273719760719 0.13996272140628641 0 0.1874582289227715 0.1273740841456501 0 0.1962182618028441 0.13432337501115221 0 0.1962182618028441 0.13432337501115221 0 0.20102071552370171 0.14666203006011799 0 0.19008086165683691 0.15059846206783681 0 0.18087273719760719 0.13996272140628641 0 0.1962182618028441 0.13432337501115221 0 0.19008086165683691 0.15059846206783681 0 0.20102071552370171 0.14666203006011799 0 0.19008086165683691 0.15059846206783681 0 0.20009079197176449 0.1600822806841096 0 0.19008086165683691 0.15059846206783681 0 0.1879622090528916 0.16424354072180611 0 0.20009079197176449 0.1600822806841096 0 0.1879622090528916 0.16424354072180611 0 0.1964188055605029 0.17043902795973531 0 0.20009079197176449 0.1600822806841096 0 0.18251002009012271 0.17807605785514791 0 0.1879622090528916 0.16424354072180611 0 0.1964188055605029 0.17043902795973531 0 0.1964188055605029 0.17043902795973531 0 0.20009079197176449 0.1600822806841096 0 0.20550087996307809 0.17027529946871631 0 0.18251002009012271 0.17807605785514791 0 0.20614945536564311 0.1790066834973866 0 0.18251002009012271 0.17807605785514791 0 0.1859145724301936 0.1958675937781903 0 0.1946782988782447 0.1858125368520685 0 0.18251002009012271 0.17807605785514791 0 0.1946782988782447 0.1858125368520685 0 0.20614945536564311 0.1790066834973866 0 0.18251002009012271 0.17807605785514791 0 0.1964188055605029 0.17043902795973531 0 0.20614945536564311 0.1790066834973866 0 0.1964188055605029 0.17043902795973531 0 0.20614945536564311 0.1790066834973866 0 0.20550087996307809 0.17027529946871631 0 0.20785173153567851 0.18790245145890719 0 0.1946782988782447 0.1858125368520685 0 0.20614945536564311 0.1790066834973866 0 0.20614945536564311 0.1790066834973866 0 0.22978889064116351 0.17993730913962469 0 0.20614945536564311 0.1790066834973866 0 0.21597111053294041 0.17081635595661279 0 0.22978889064116351 0.17993730913962469 0 0.20785173153567851 0.18790245145890719 0 0.20614945536564311 0.1790066834973866 0 0.22978889064116351 0.17993730913962469 0 0.20614945536564311 0.1790066834973866 0 0.20550087996307809 0.17027529946871631 0 0.21597111053294041 0.17081635595661279 0 0.209482326604984 0.15084602107521439 0 0.20009079197176449 0.1600822806841096 0 0.21134660345578471 0.1612282897799939 0 0.20009079197176449 0.1600822806841096 0 0.20550087996307809 0.17027529946871631 0 0.21134660345578471 0.1612282897799939 0 0.20550087996307809 0.17027529946871631 0 0.21597111053294041 0.17081635595661279 0 0.21134660345578471 0.1612282897799939 0 0.21597111053294041 0.17081635595661279 0 0.21865342512527811 0.16209085720837099 0 0.21134660345578471 0.1612282897799939 0 0.21865342512527811 0.16209085720837099 0 0.21134660345578471 0.1612282897799939 0 0.2187736252161564 0.15431041952742461 0 0.21865342512527811 0.16209085720837099 0 0.22528368302780391 0.16930879134434251 0 0.22694459721967769 0.15914217780054021 0 0.21865342512527811 0.16209085720837099 0 0.22694459721967769 0.15914217780054021 0 0.2187736252161564 0.15431041952742461 0 0.21597111053294041 0.17081635595661279 0 0.21865342512527811 0.16209085720837099 0 0.22528368302780391 0.16930879134434251 0 0.22528368302780391 0.16930879134434251 0 0.2339793796296343 0.16542019843990319 0 0.22694459721967769 0.15914217780054021 0 0.22528368302780391 0.16930879134434251 0 0.23206748755666681 0.17175973890584759 0 0.2339793796296343 0.16542019843990319 0 0.2339793796296343 0.16542019843990319 0 0.22694459721967769 0.15914217780054021 0 0.23786870866578541 0.15398669782836041 0 0.20785173153567851 0.18790245145890719 0 0.22978889064116351 0.17993730913962469 0 0.20785173153567851 0.18790245145890719 0 0.22057863514703391 0.19004572878947329 0 0.22978889064116351 0.17993730913962469 0 0.22057863514703391 0.19004572878947329 0 0.22882230825823141 0.18780321980362219 0 0.22978889064116351 0.17993730913962469 0 0.21597111053294041 0.17081635595661279 0 0.22528368302780391 0.16930879134434251 0 0.22978889064116351 0.17993730913962469 0 0.23206748755666681 0.17175973890584759 0 0.22978889064116351 0.17993730913962469 0 0.23923926915253971 0.1701376690183713 0 0.22528368302780391 0.16930879134434251 0 0.23206748755666681 0.17175973890584759 0 0.22978889064116351 0.17993730913962469 0 0.22882230825823141 0.18780321980362219 0 0.22978889064116351 0.17993730913962469 0 0.23785895048436051 0.18613779601937941 0 0.22978889064116351 0.17993730913962469 0 0.25572559596713329 0.17051997537177971 0 0.22978889064116351 0.17993730913962469 0 0.23923926915253971 0.1701376690183713 0 0.25572559596713329 0.17051997537177971 0 0.22978889064116351 0.17993730913962469 0 0.24213060384150101 0.18042317162489729 0 0.25572559596713329 0.17051997537177971 0 0.22978889064116351 0.17993730913962469 0 0.24213060384150101 0.18042317162489729 0 0.23785895048436051 0.18613779601937941 0 0.22978889064116351 0.17993730913962469 0 0.24213060384150101 0.18042317162489729 0 0.24213060384150101 0.18042317162489729 0 0.24894719752453329 0.18612638269812559 0 0.25572559596713329 0.17051997537177971 0 0.24213060384150101 0.18042317162489729 0 0.23785895048436051 0.18613779601937941 0 0.24894719752453329 0.18612638269812559 0 0.23923926915253971 0.1701376690183713 0 0.2446349919681006 0.16305112323470131 0 0.25572559596713329 0.17051997537177971 0 0.2446349919681006 0.16305112323470131 0 0.23786870866578541 0.15398669782836041 0 0.25543485903957819 0.1544462132424802 0 0.2339793796296343 0.16542019843990319 0 0.2446349919681006 0.16305112323470131 0 0.23786870866578541 0.15398669782836041 0 0.2339793796296343 0.16542019843990319 0 0.23923926915253971 0.1701376690183713 0 0.2446349919681006 0.16305112323470131 0 0.23206748755666681 0.17175973890584759 0 0.2339793796296343 0.16542019843990319 0 0.23923926915253971 0.1701376690183713 0 0.24408405510780229 0.1427207021204579 0 0.23786870866578541 0.15398669782836041 0 0.25543485903957819 0.1544462132424802 0 0.24408405510780229 0.1427207021204579 0 0.23786870866578541 0.15398669782836041 0 0.23248493025238581 0.14022881032103701 0 0.22694459721967769 0.15914217780054021 0 0.23786870866578541 0.15398669782836041 0 0.22710876165340799 0.14973610245483951 0 0.23786870866578541 0.15398669782836041 0 0.22710876165340799 0.14973610245483951 0 0.23248493025238581 0.14022881032103701 0 0.22710876165340799 0.14973610245483951 0 0.2193209912966799 0.14177448839356799 0 0.23248493025238581 0.14022881032103701 0 0.22710876165340799 0.14973610245483951 0 0.2193209912966799 0.14177448839356799 0 0.2187736252161564 0.15431041952742461 0 0.22694459721967769 0.15914217780054021 0 0.22710876165340799 0.14973610245483951 0 0.2187736252161564 0.15431041952742461 0 0.2243526157798536 0.1281753366943639 0 0.23248493025238581 0.14022881032103701 0 0.24033965028705309 0.12757397417549721 0 0.21408643943991251 0.1315545836761505 0 0.2193209912966799 0.14177448839356799 0 0.2243526157798536 0.1281753366943639 0 0.2193209912966799 0.14177448839356799 0 0.2243526157798536 0.1281753366943639 0 0.23248493025238581 0.14022881032103701 0 0.24408405510780229 0.1427207021204579 0 0.23248493025238581 0.14022881032103701 0 0.24033965028705309 0.12757397417549721 0 0.24408405510780229 0.1427207021204579 0 0.24033965028705309 0.12757397417549721 0 0.25429212729420919 0.1373678150349148 0 0.24276875721605651 0.11459409499753551 0 0.2379976633094642 0.1028396245190442 0 0.22503725007466349 0.1137694800966218 0 0.24033965028705309 0.12757397417549721 0 0.24276875721605651 0.11459409499753551 0 0.22503725007466349 0.1137694800966218 0 0.24033965028705309 0.12757397417549721 0 0.24276875721605651 0.11459409499753551 0 0.25585331699957098 0.12272237909345909 0 0.24276875721605651 0.11459409499753551 0 0.2379976633094642 0.1028396245190442 0 0.25461590540953027 0.10606501710305551 0 0.2379976633094642 0.1028396245190442 0 0.24272997527991999 0.091205400909066731 0 0.25461590540953027 0.10606501710305551 0 0.2379976633094642 0.1028396245190442 0 0.22481203278121151 0.087246299868924668 0 0.24272997527991999 0.091205400909066731 0 0.2379976633094642 0.1028396245190442 0 0.2102242251334803 0.098306453972017871 0 0.2379976633094642 0.1028396245190442 0 0.2102242251334803 0.098306453972017871 0 0.22481203278121151 0.087246299868924668 0 0.2379976633094642 0.1028396245190442 0 0.22503725007466349 0.1137694800966218 0 0.2102242251334803 0.098306453972017871 0 0.2243526157798536 0.1281753366943639 0 0.24033965028705309 0.12757397417549721 0 0.22503725007466349 0.1137694800966218 0 0.2243526157798536 0.1281753366943639 0 0.22503725007466349 0.1137694800966218 0 0.21236962900983361 0.1213060413860667 0 0.22503725007466349 0.1137694800966218 0 0.21236962900983361 0.1213060413860667 0 0.20686700075453451 0.1123893393372416 0 0.21236962900983361 0.1213060413860667 0 0.20686700075453451 0.1123893393372416 0 0.19957040454304231 0.12061819003292321 0 0.20598551444134069 0.1293379919129482 0 0.21236962900983361 0.1213060413860667 0 0.19957040454304231 0.12061819003292321 0 0.22503725007466349 0.1137694800966218 0 0.20686700075453451 0.1123893393372416 0 0.2102242251334803 0.098306453972017871 0 0.2102242251334803 0.098306453972017871 0 0.19028465540128089 0.1134241960833017 0 0.2102242251334803 0.098306453972017871 0 0.182396260560336 0.093764383646148503 0 0.20686700075453451 0.1123893393372416 0 0.2102242251334803 0.098306453972017871 0 0.19028465540128089 0.1134241960833017 0 0.2102242251334803 0.098306453972017871 0 0.1883315582798675 0.1036261534992409 0 0.19028465540128089 0.1134241960833017 0 0.2102242251334803 0.098306453972017871 0 0.1883315582798675 0.1036261534992409 0 0.182396260560336 0.093764383646148503 0 0.20686700075453451 0.1123893393372416 0 0.19028465540128089 0.1134241960833017 0 0.19957040454304231 0.12061819003292321 0 0.1874582289227715 0.1273740841456501 0 0.19028465540128089 0.1134241960833017 0 0.19957040454304231 0.12061819003292321 0 0.19746843757066229 0.063390907442872652 0 0.19734936496451841 0.078239839177698417 0 0.21230246936870051 0.062715294709248054 0 0.19746843757066229 0.063390907442872652 0 0.19734936496451841 0.078239839177698417 0 0.185081987029481 0.068060442037255253 0 0.19734936496451841 0.078239839177698417 0 0.18223796886446539 0.079241054866614841 0 0.185081987029481 0.068060442037255253 0 0.2102242251334803 0.098306453972017871 0 0.19734936496451841 0.078239839177698417 0 0.182396260560336 0.093764383646148503 0 0.19734936496451841 0.078239839177698417 0 0.182396260560336 0.093764383646148503 0 0.2102242251334803 0.098306453972017871 0 0.2147190896243964 0.077783971198504734 0 0.22481203278121151 0.087246299868924668 0 0.2102242251334803 0.098306453972017871 0 0.19734936496451841 0.078239839177698417 0 0.2147190896243964 0.077783971198504734 0 0.2102242251334803 0.098306453972017871 0 0.22481203278121151 0.087246299868924668 0 0.19734936496451841 0.078239839177698417 0 0.2147190896243964 0.077783971198504734 0 0.21230246936870051 0.062715294709248054 0 0.19734936496451841 0.078239839177698417 0 0.21230246936870051 0.062715294709248054 0 0.2147190896243964 0.077783971198504734 0 0.21230246936870051 0.062715294709248054 0 0.21922930633447599 0.067954759782312898 0 0.21230246936870051 0.062715294709248054 0 0.21922930633447599 0.067954759782312898 0 0.21922930633447599 0.067954759782312898 0 0.22813775459035671 0.066665546269972009 0 0.21867321183994479 0.05610109125567081 0 0.21922930633447599 0.067954759782312898 0 0.22313545356192679 0.075395768618754327 0 0.22813775459035671 0.066665546269972009 0 0.2147190896243964 0.077783971198504734 0 0.21922930633447599 0.067954759782312898 0 0.22313545356192679 0.075395768618754327 0 0.22877908447919321 0.077328265974057286 0 0.22813775459035671 0.066665546269972009 0 0.23939984042894419 0.076186145765833435 0 0.23321791162326341 0.0682029647760828 0 0.22813775459035671 0.066665546269972009 0 0.23939984042894419 0.076186145765833435 0 0.22313545356192679 0.075395768618754327 0 0.22877908447919321 0.077328265974057286 0 0.22813775459035671 0.066665546269972009 0 0.22813775459035671 0.066665546269972009 0 0.23939984042894419 0.076186145765833435 0 0.23321791162326341 0.0682029647760828 0 0.22813775459035671 0.066665546269972009 0 0.21867321183994479 0.05610109125567081 0 0.22313545356192679 0.075395768618754327 0 0.22877908447919321 0.077328265974057286 0 0.22481203278121151 0.087246299868924668 0 0.2147190896243964 0.077783971198504734 0 0.22313545356192679 0.075395768618754327 0 0.22481203278121151 0.087246299868924668 0 0.22877908447919321 0.077328265974057286 0 0.22481203278121151 0.087246299868924668 0 0.23939984042894419 0.076186145765833435 0 0.22481203278121151 0.087246299868924668 0 0.23939984042894419 0.076186145765833435 0 0.24272997527991999 0.091205400909066731 0 0.23939984042894419 0.076186145765833435 0 0.25667270258804281 0.090788059223164463 0 0.22481203278121151 0.087246299868924668 0 0.24272997527991999 0.091205400909066731 0 0.23939984042894419 0.076186145765833435 0 0.23939984042894419 0.076186145765833435 0 0.25667270258804281 0.090788059223164463 0 0.23939984042894419 0.076186145765833435 0 0.24475928146162321 0.072122735748421596 0 0.25667270258804281 0.090788059223164463 0 0.23321791162326341 0.0682029647760828 0 0.24114624299425449 0.063902367923327347 0 0.23383885887754599 0.05988553872429403 0 0.23321791162326341 0.0682029647760828 0 0.24114624299425449 0.063902367923327347 0 0.23963081912702131 0.070103553553416298 0 0.24114624299425449 0.063902367923327347 0 0.23963081912702131 0.070103553553416298 0 0.24475928146162321 0.072122735748421596 0 0.23321791162326341 0.0682029647760828 0 0.23963081912702131 0.070103553553416298 0 0.23939984042894419 0.076186145765833435 0 0.23939984042894419 0.076186145765833435 0 0.24475928146162321 0.072122735748421596 0 0.23963081912702131 0.070103553553416298 0 0.23939984042894419 0.076186145765833435 0 0.24475928146162321 0.072122735748421596 0 0.24114624299425449 0.063902367923327347 0 0.24475928146162321 0.072122735748421596 0 0.2498958451883965 0.06385198700084381 0 0.24475928146162321 0.072122735748421596 0 0.2498958451883965 0.06385198700084381 0 0.25260649980770278 0.068686253075548681 0 0.24114624299425449 0.063902367923327347 0 0.2498958451883965 0.06385198700084381 0 0.24219402533239179 0.054650131246814337 0 0.2498958451883965 0.06385198700084381 0 0.24219402533239179 0.054650131246814337 0 0.25540203894483232 0.053078758300303452 0 0.24114624299425449 0.063902367923327347 0 0.24219402533239179 0.054650131246814337 0 0.23383885887754599 0.05988553872429403 0 0.24219402533239179 0.054650131246814337 0 0.23383885887754599 0.05988553872429403 0 0.23222961530372871 0.05328671000269708 0 0.24219402533239179 0.054650131246814337 0 0.2333457215179586 0.040867864575570192 0 0.23222961530372871 0.05328671000269708 0 0.24219402533239179 0.054650131246814337 0 0.24931080225938379 0.044873619513579023 0 0.25540203894483232 0.053078758300303452 0 0.24931080225938379 0.044873619513579023 0 0.2333457215179586 0.040867864575570192 0 0.25267133858014368 0.033426358080367632 0 0.2333457215179586 0.040867864575570192 0 0.24606589177604729 0.023412238736487911 0 0.25267133858014368 0.033426358080367632 0 0.24219402533239179 0.054650131246814337 0 0.24931080225938379 0.044873619513579023 0 0.2333457215179586 0.040867864575570192 0 0.2333457215179586 0.040867864575570192 0 0.21867321183994479 0.05610109125567081 0 0.21784305476063359 0.040073467835779392 0 0.2333457215179586 0.040867864575570192 0 0.224387406455446 0.02460240409890389 0 0.21784305476063359 0.040073467835779392 0 0.2333457215179586 0.040867864575570192 0 0.21867321183994479 0.05610109125567081 0 0.23321791162326341 0.0682029647760828 0 0.21867321183994479 0.05610109125567081 0 0.23383885887754599 0.05988553872429403 0 0.23222961530372871 0.05328671000269708 0 0.21867321183994479 0.05610109125567081 0 0.23321791162326341 0.0682029647760828 0 0.23383885887754599 0.05988553872429403 0 0.21867321183994479 0.05610109125567081 0 0.2333457215179586 0.040867864575570192 0 0.23222961530372871 0.05328671000269708 0 0.21867321183994479 0.05610109125567081 0 0.24330934550254571 0.01063109568502886 0 0.22830704903319021 0.009552556987691951 0 0.24454710423508169 -0.0040543885157620588 0 0.24330934550254571 0.01063109568502886 0 0.2600103086440948 0.0077887484030499934 0 0.24454710423508169 -0.0040543885157620588 0 0.24330934550254571 0.01063109568502886 0 0.2352311601260918 0.017984200813824101 0 0.22830704903319021 0.009552556987691951 0 0.2333457215179586 0.040867864575570192 0 0.2352311601260918 0.017984200813824101 0 0.24606589177604729 0.023412238736487911 0 0.24330934550254571 0.01063109568502886 0 0.2352311601260918 0.017984200813824101 0 0.24606589177604729 0.023412238736487911 0 0.24330934550254571 0.01063109568502886 0 0.24606589177604729 0.023412238736487911 0 0.25245314076482023 0.016273305507581552 0 0.224387406455446 0.02460240409890389 0 0.22040854931318621 0.0093777932992746577 0 0.21357971495542391 0.027094896629626091 0 0.2333457215179586 0.040867864575570192 0 0.2352311601260918 0.017984200813824101 0 0.224387406455446 0.02460240409890389 0 0.2352311601260918 0.017984200813824101 0 0.224387406455446 0.02460240409890389 0 0.22830704903319021 0.009552556987691951 0 0.22040854931318621 0.0093777932992746577 0 0.24454710423508169 -0.0040543885157620588 0 0.22830704903319021 0.009552556987691951 0 0.22040854931318621 0.0093777932992746577 0 0.24454710423508169 -0.0040543885157620588 0 0.224387406455446 0.02460240409890389 0 0.22830704903319021 0.009552556987691951 0 0.22040854931318621 0.0093777932992746577 0 0.22830704903319021 0.009552556987691951 0 0.22040854931318621 0.0093777932992746577 0 0.22040854931318621 0.0093777932992746577 0 0.20306361649223731 0.019029584467987581 0 0.193411862040101 0.0087804595257519359 0 0.22040854931318621 0.0093777932992746577 0 0.193411862040101 0.0087804595257519359 0 0.20649695332801041 -0.011123257156358399 0 0.22040854931318621 0.0093777932992746577 0 0.193411862040101 0.0087804595257519359 0 0.22040854931318621 0.0093777932992746577 0 0.20306361649223731 0.019029584467987581 0 0.22040854931318621 0.0093777932992746577 0 0.21357971495542391 0.027094896629626091 0 0.20306361649223731 0.019029584467987581 0 0.21357971495542391 0.027094896629626091 0 0.20306361649223731 0.019029584467987581 0 0.20219594775561611 0.04239123344618418 0 0.224387406455446 0.02460240409890389 0 0.21357971495542391 0.027094896629626091 0 0.21784305476063359 0.040073467835779392 0 0.20306361649223731 0.019029584467987581 0 0.1857186836712871 0.028681375636698089 0 0.20306361649223731 0.019029584467987581 0 0.20219594775561611 0.04239123344618418 0 0.1857186836712871 0.028681375636698089 0 0.19103655183180529 0.01816300107205299 0 0.20306361649223731 0.019029584467987581 0 0.1857186836712871 0.028681375636698089 0 0.19103655183180529 0.01816300107205299 0 0.20306361649223731 0.019029584467987581 0 0.193411862040101 0.0087804595257519359 0 0.19103655183180529 0.01816300107205299 0 0.193411862040101 0.0087804595257519359 0 0.18195204512359561 0.01616058465777492 0 0.21867321183994479 0.05610109125567081 0 0.20219594775561611 0.04239123344618418 0 0.21230246936870051 0.062715294709248054 0 0.19408147390000821 0.048932919026612259 0 0.21230246936870051 0.062715294709248054 0 0.21867321183994479 0.05610109125567081 0 0.20219594775561611 0.04239123344618418 0 0.21230246936870051 0.062715294709248054 0 0.21922930633447599 0.067954759782312898 0 0.21867321183994479 0.05610109125567081 0 0.21230246936870051 0.062715294709248054 0 0.21867321183994479 0.05610109125567081 0 0.21867321183994479 0.05610109125567081 0 0.21784305476063359 0.040073467835779392 0 0.20219594775561611 0.04239123344618418 0 0.21357971495542391 0.027094896629626091 0 0.21784305476063359 0.040073467835779392 0 0.20219594775561611 0.04239123344618418 0 0.20219594775561611 0.04239123344618418 0 0.18857085335167251 0.037606629154794922 0 0.1857186836712871 0.028681375636698089 0 0.20219594775561611 0.04239123344618418 0 0.1857186836712871 0.028681375636698089 0 0.20219594775561611 0.04239123344618418 0 0.18857085335167251 0.037606629154794922 0 0.19408147390000821 0.048932919026612259 0 0.21230246936870051 0.062715294709248054 0 0.20219594775561611 0.04239123344618418 0 0.19408147390000821 0.048932919026612259 0 0.19746843757066229 0.063390907442872652 0 0.21230246936870051 0.062715294709248054 0 0.19408147390000821 0.048932919026612259 0 0.19746843757066229 0.063390907442872652 0 0.19408147390000821 0.048932919026612259 0 0.18077630511812789 0.054232683145736107 0 0.19746843757066229 0.063390907442872652 0 0.18077630511812789 0.054232683145736107 0 0.185081987029481 0.068060442037255253 0 0.18077630511812789 0.054232683145736107 0 0.17586047843131589 0.035150543343976527 0 0.16063154061213489 0.056174381905899212 0 0.19408147390000821 0.048932919026612259 0 0.18077630511812789 0.054232683145736107 0 0.17586047843131589 0.035150543343976527 0 0.18857085335167251 0.037606629154794922 0 0.19408147390000821 0.048932919026612259 0 0.17586047843131589 0.035150543343976527 0 0.19408147390000821 0.048932919026612259 0 0.17586047843131589 0.035150543343976527 0 0.18857085335167251 0.037606629154794922 0 0.1857186836712871 0.028681375636698089 0 0.18293758457948511 0.03022895082368212 0 0.18857085335167251 0.037606629154794922 0 0.17586047843131589 0.035150543343976527 0 0.18293758457948511 0.03022895082368212 0 0.17586047843131589 0.035150543343976527 0 0.16063154061213489 0.056174381905899212 0 0.15563504439580611 0.039588181347732863 0 0.17586047843131589 0.035150543343976527 0 0.1576394829626237 0.02136816766134084 0 0.15563504439580611 0.039588181347732863 0 0.18077630511812789 0.054232683145736107 0 0.16063154061213489 0.056174381905899212 0 0.16885246017312111 0.071920123459970384 0 0.193411862040101 0.0087804595257519359 0 0.1664151747670157 0.0081831257522299462 0 0.193411862040101 0.0087804595257519359 0 0.18195204512359561 0.01616058465777492 0 0.1664151747670157 0.0081831257522299462 0 0.193411862040101 0.0087804595257519359 0 0.1664151747670157 0.0081831257522299462 0 0.17365852882115621 -0.0099512103645301598 0 0.18195204512359561 0.01616058465777492 0 0.1710494689959349 0.016475899876483451 0 0.1664151747670157 0.0081831257522299462 0 0.1857186836712871 0.028681375636698089 0 0.1710494689959349 0.016475899876483451 0 0.18195204512359561 0.01616058465777492 0 0.1857186836712871 0.028681375636698089 0 0.1710494689959349 0.016475899876483451 0 0.19103655183180529 0.01816300107205299 0 0.18195204512359561 0.01616058465777492 0 0.1857186836712871 0.028681375636698089 0 0.1857186836712871 0.028681375636698089 0 0.18293758457948511 0.03022895082368212 0 0.1744403844365871 0.02555935757827961 0 0.1857186836712871 0.028681375636698089 0 0.18293758457948511 0.03022895082368212 0 0.17586047843131589 0.035150543343976527 0 0.18293758457948511 0.03022895082368212 0 0.1744403844365871 0.02555935757827961 0 0.1857186836712871 0.028681375636698089 0 0.1744403844365871 0.02555935757827961 0 0.1710494689959349 0.016475899876483451 0 0.1744403844365871 0.02555935757827961 0 0.1576394829626237 0.02136816766134084 0 0.1710494689959349 0.016475899876483451 0 0.17586047843131589 0.035150543343976527 0 0.1744403844365871 0.02555935757827961 0 0.1576394829626237 0.02136816766134084 0 0.17586047843131589 0.035150543343976527 0 0.1576394829626237 0.02136816766134084 0 0.1576394829626237 0.02136816766134084 0 0.1710494689959349 0.016475899876483451 0 0.1664151747670157 0.0081831257522299462 0 0.1576394829626237 0.02136816766134084 0 0.1664151747670157 0.0081831257522299462 0 0.1394184874939306 0.0075857919787062364 0 0.1664151747670157 0.0081831257522299462 0 0.1394184874939306 0.0075857919787062364 0 0.1576394829626237 0.02136816766134084 0 0.1394184874939306 0.0075857919787062364 0 0.1664151747670157 0.0081831257522299462 0 0.1394184874939306 0.0075857919787062364 0 0.1499659599275856 -0.0028357427761619 0 0.1576394829626237 0.02136816766134084 0 0.13489757955544901 0.022762920038338141 0 0.1394184874939306 0.0075857919787062364 0 0.1576394829626237 0.02136816766134084 0 0.13489757955544901 0.022762920038338141 0 0.14086860608248869 0.035609688409989182 0 0.1192050179883003 0.025289878379008021 0 0.1239353080246805 0.015523316410563801 0 0.13489757955544901 0.022762920038338141 0 0.1192050179883003 0.025289878379008021 0 0.13489757955544901 0.022762920038338141 0 0.12657754096894899 0.033169311984437747 0 0.13489757955544901 0.022762920038338141 0 0.14086860608248869 0.035609688409989182 0 0.12657754096894899 0.033169311984437747 0 0.1112154668307228 0.0069617666460044213 0 0.1394184874939306 0.0075857919787062364 0 0.1239353080246805 0.015523316410563801 0 0.13489757955544901 0.022762920038338141 0 0.1394184874939306 0.0075857919787062364 0 0.16063154061213489 0.056174381905899212 0 0.14405331399684659 0.050771027327864218 0 0.14660636398072779 0.065044930325254532 0 0.16063154061213489 0.056174381905899212 0 0.14405331399684659 0.050771027327864218 0 0.15563504439580611 0.039588181347732863 0 0.14405331399684659 0.050771027327864218 0 0.13133004901314721 0.062710481960249712 0 0.14660636398072779 0.065044930325254532 0 0.1576394829626237 0.02136816766134084 0 0.15563504439580611 0.039588181347732863 0 0.14086860608248869 0.035609688409989182 0 0.14405331399684659 0.050771027327864218 0 0.15563504439580611 0.039588181347732863 0 0.14086860608248869 0.035609688409989182 0 0.14405331399684659 0.050771027327864218 0 0.14086860608248869 0.035609688409989182 0 0.12924827989677509 0.045498500018059863 0 0.14086860608248869 0.035609688409989182 0 0.12657754096894899 0.033169311984437747 0 0.12924827989677509 0.045498500018059863 0 0.1213180390941878 0.039610316036882427 0 0.12657754096894899 0.033169311984437747 0 0.12924827989677509 0.045498500018059863 0 0.14405331399684659 0.050771027327864218 0 0.12924827989677509 0.045498500018059863 0 0.13133004901314721 0.062710481960249712 0 0.1183353402422497 0.057783242689010132 0 0.12924827989677509 0.045498500018059863 0 0.13133004901314721 0.062710481960249712 0 0.11939743099048709 0.067795358029729025 0 0.13133004901314721 0.062710481960249712 0 0.12601201663717829 0.073782779713414431 0 0.13133004901314721 0.062710481960249712 0 0.12601201663717829 0.073782779713414431 0 0.13944808601470179 0.078198726497700696 0 0.13133004901314721 0.062710481960249712 0 0.14660636398072779 0.065044930325254532 0 0.13944808601470179 0.078198726497700696 0 0.14660636398072779 0.065044930325254532 0 0.15547642347051649 0.076013162308598489 0 0.13944808601470179 0.078198726497700696 0 0.16063154061213489 0.056174381905899212 0 0.14660636398072779 0.065044930325254532 0 0.15547642347051649 0.076013162308598489 0 0.15547642347051649 0.076013162308598489 0 0.14977700857270221 0.088440281119146702 0 0.13944808601470179 0.078198726497700696 0 0.14977700857270221 0.088440281119146702 0 0.15692861522811491 0.089607563774205062 0 0.15547642347051649 0.076013162308598489 0 0.14977700857270221 0.088440281119146702 0 0.15692861522811491 0.089607563774205062 0 0.14977700857270221 0.088440281119146702 0 0.1406164045630961 0.088301266881400414 0 0.13944808601470179 0.078198726497700696 0 0.14977700857270221 0.088440281119146702 0 0.1406164045630961 0.088301266881400414 0 0.1415112004627925 0.096038635875734371 0 0.12277357628353951 0.084307659091952911 0 0.12601201663717829 0.073782779713414431 0 0.13944808601470179 0.078198726497700696 0 0.1406164045630961 0.088301266881400414 0 0.13172932320218789 0.090527424033019929 0 0.1415112004627925 0.096038635875734371 0 0.12277357628353951 0.084307659091952911 0 0.13944808601470179 0.078198726497700696 0 0.13172932320218789 0.090527424033019929 0 0.1406164045630961 0.088301266881400414 0 0.13944808601470179 0.078198726497700696 0 0.13172932320218789 0.090527424033019929 0 0.12619853450777779 0.1078330730874123 0 0.14552415294983839 0.10652456888398559 0 0.13172932320218789 0.090527424033019929 0 0.12619853450777779 0.1078330730874123 0 0.1415112004627925 0.096038635875734371 0 0.1196566717525884 0.095935737169380891 0 0.13172932320218789 0.090527424033019929 0 0.12619853450777779 0.1078330730874123 0 0.12619853450777779 0.1078330730874123 0 0.14552415294983839 0.10652456888398559 0 0.1415112004627925 0.096038635875734371 0 0.13190173259588339 0.12673162022164239 0 0.14552415294983839 0.10652456888398559 0 0.13190173259588339 0.12673162022164239 0 0.12619853450777779 0.1078330730874123 0 0.14552415294983839 0.10652456888398559 0 0.13190173259588339 0.12673162022164239 0 0.15566547781771581 0.1200913342755673 0 0.14552415294983839 0.10652456888398559 0 0.14552415294983839 0.10652456888398559 0 0.15692861522811491 0.089607563774205062 0 0.14977700857270221 0.088440281119146702 0 0.14552415294983839 0.10652456888398559 0 0.1415112004627925 0.096038635875734371 0 0.14977700857270221 0.088440281119146702 0 0.14552415294983839 0.10652456888398559 0 0.15692861522811491 0.089607563774205062 0 0.17182071975368271 0.1047440738223813 0 0.182396260560336 0.093764383646148503 0 0.15692861522811491 0.089607563774205062 0 0.14552415294983839 0.10652456888398559 0 0.17182071975368271 0.1047440738223813 0 0.15692861522811491 0.089607563774205062 0 0.14552415294983839 0.10652456888398559 0 0.16810812436087241 0.1085985478306644 0 0.17182071975368271 0.1047440738223813 0 0.14552415294983839 0.10652456888398559 0 0.17182071975368271 0.1047440738223813 0 0.16810812436087241 0.1085985478306644 0 0.17182071975368271 0.1047440738223813 0 0.15566547781771581 0.1200913342755673 0 0.14552415294983839 0.10652456888398559 0 0.16810812436087241 0.1085985478306644 0 0.15566547781771581 0.1200913342755673 0 0.16810812436087241 0.1085985478306644 0 0.16834415181085521 0.1182094382610944 0 0.16810812436087241 0.1085985478306644 0 0.16834415181085521 0.1182094382610944 0 0.17637873106888929 0.11416330178083681 0 0.1703450856690828 0.12854193819458701 0 0.15566547781771581 0.1200913342755673 0 0.16834415181085521 0.1182094382610944 0 0.1703450856690828 0.12854193819458701 0 0.16834415181085521 0.1182094382610944 0 0.17637873106888929 0.11416330178083681 0 0.1703450856690828 0.12854193819458701 0 0.19028465540128089 0.1134241960833017 0 0.1874582289227715 0.1273740841456501 0 0.1703450856690828 0.12854193819458701 0 0.19028465540128089 0.1134241960833017 0 0.1703450856690828 0.12854193819458701 0 0.19028465540128089 0.1134241960833017 0 0.17637873106888929 0.11416330178083681 0 0.19028465540128089 0.1134241960833017 0 0.17637873106888929 0.11416330178083681 0 0.18170391612593009 0.10898943129644 0 0.1883315582798675 0.1036261534992409 0 0.17182071975368271 0.1047440738223813 0 0.182396260560336 0.093764383646148503 0 0.1883315582798675 0.1036261534992409 0 0.17182071975368271 0.1047440738223813 0 0.1883315582798675 0.1036261534992409 0 0.17182071975368271 0.1047440738223813 0 0.18170391612593009 0.10898943129644 0 0.17182071975368271 0.1047440738223813 0 0.182396260560336 0.093764383646148503 0 0.17182071975368271 0.1047440738223813 0 0.17637873106888929 0.11416330178083681 0 0.18170391612593009 0.10898943129644 0 0.16810812436087241 0.1085985478306644 0 0.17182071975368271 0.1047440738223813 0 0.17637873106888929 0.11416330178083681 0 0.1883315582798675 0.1036261534992409 0 0.19028465540128089 0.1134241960833017 0 0.18170391612593009 0.10898943129644 0 0.182396260560336 0.093764383646148503 0 0.17285984043307301 0.083731682631741799 0 0.18223796886446539 0.079241054866614841 0 0.17285984043307301 0.083731682631741799 0 0.18223796886446539 0.079241054866614841 0 0.16885246017312111 0.071920123459970384 0 0.19734936496451841 0.078239839177698417 0 0.182396260560336 0.093764383646148503 0 0.18223796886446539 0.079241054866614841 0 0.18077630511812789 0.054232683145736107 0 0.185081987029481 0.068060442037255253 0 0.16885246017312111 0.071920123459970384 0 0.18077630511812789 0.054232683145736107 0 0.16885246017312111 0.071920123459970384 0 0.18223796886446539 0.079241054866614841 0 0.185081987029481 0.068060442037255253 0 0.16885246017312111 0.071920123459970384 0 0.16063154061213489 0.056174381905899212 0 0.15547642347051649 0.076013162308598489 0 0.16885246017312111 0.071920123459970384 0 0.182396260560336 0.093764383646148503 0 0.15692861522811491 0.089607563774205062 0 0.15547642347051649 0.076013162308598489 0 0.16885246017312111 0.071920123459970384 0 0.15692861522811491 0.089607563774205062 0 0.17285984043307301 0.083731682631741799 0 0.16885246017312111 0.071920123459970384 0 0.15692861522811491 0.089607563774205062 0 0.182396260560336 0.093764383646148503 0 0.17285984043307301 0.083731682631741799 0 0.15692861522811491 0.089607563774205062 0 0.16885246017312111 0.071920123459970384 0 0.15692861522811491 0.089607563774205062 0 0.1044835014096759 0.47734756365600922 0 0.089878094677345824 0.46845281852689552 0 0.087590331635736762 0.48187231733454222 0 0.1044835014096759 0.47734756365600922 0 0.10375911119544989 0.46169208423840707 0 0.089878094677345824 0.46845281852689552 0 0.1044835014096759 0.47734756365600922 0 0.091184291132313577 0.49999999999999878 0 0.1034385873595831 0.49999999999999822 0 0.1120455250558608 0.48045706548225359 0 0.1044835014096759 0.47734756365600922 0 0.1034385873595831 0.49999999999999822 0 0.1120455250558608 0.48045706548225359 0 0.1044835014096759 0.47734756365600922 0 0.087590331635736762 0.48187231733454222 0 0.091184291132313577 0.49999999999999878 0 0.1044835014096759 0.47734756365600922 0 0.1034385873595831 0.49999999999999822 0 0.091184291132313577 0.49999999999999878 0 0.12399992399529371 0.48303337357331672 0 0.1120455250558608 0.48045706548225359 0 0.12915559468890389 0.5 0 0.1034385873595831 0.49999999999999822 0 0.1120455250558608 0.48045706548225359 0 0.12915559468890389 0.5 0 0.12399992399529371 0.48303337357331672 0 0.1120455250558608 0.48045706548225359 0 0.1232568145545315 0.47318152767312721 0 0.1044835014096759 0.47734756365600922 0 0.1120455250558608 0.48045706548225359 0 0.1206524627521391 0.46091413096450928 0 0.1120455250558608 0.48045706548225359 0 0.1206524627521391 0.46091413096450928 0 0.1120455250558608 0.48045706548225359 0 0.1232568145545315 0.47318152767312721 0 0.1206524627521391 0.46091413096450928 0 0.1232568145545315 0.47318152767312721 0 0.1206524627521391 0.46091413096450928 0 0.1303484766562954 0.46586162432778377 0 0.1044835014096759 0.47734756365600922 0 0.1177827116870388 0.45469512731202 0 0.1044835014096759 0.47734756365600922 0 0.1177827116870388 0.45469512731202 0 0.1206524627521391 0.46091413096450928 0 0.1177827116870388 0.45469512731202 0 0.1206524627521391 0.46091413096450928 0 0.1278632788434825 0.45577296128510503 0 0.1177827116870388 0.45469512731202 0 0.1085542672691443 0.45288073103457499 0 0.10375911119544989 0.46169208423840707 0 0.1177827116870388 0.45469512731202 0 0.1310819219644016 0.43204269096803077 0 0.1177827116870388 0.45469512731202 0 0.1193906732136185 0.44081408720424309 0 0.1310819219644016 0.43204269096803077 0 0.1177827116870388 0.45469512731202 0 0.1289094797012322 0.44711971241893372 0 0.1278632788434825 0.45577296128510503 0 0.1177827116870388 0.45469512731202 0 0.1193906732136185 0.44081408720424309 0 0.1133873753874745 0.44711352789891201 0 0.1177827116870388 0.45469512731202 0 0.1133873753874745 0.44711352789891201 0 0.1085542672691443 0.45288073103457499 0 0.1193906732136185 0.44081408720424309 0 0.1133873753874745 0.44711352789891201 0 0.11280312783646219 0.43748516267452098 0 0.1133873753874745 0.44711352789891201 0 0.1055620420874188 0.44634621164118382 0 0.11280312783646219 0.43748516267452098 0 0.1055620420874188 0.44634621164118382 0 0.099337691303681225 0.4374707705946943 0 0.11280312783646219 0.43748516267452098 0 0.1133873753874745 0.44711352789891201 0 0.1055620420874188 0.44634621164118382 0 0.1085542672691443 0.45288073103457499 0 0.1055620420874188 0.44634621164118382 0 0.1085542672691443 0.45288073103457499 0 0.1012109816942646 0.45379336565934708 0 0.1055620420874188 0.44634621164118382 0 0.094088013200529869 0.44889931535774519 0 0.1012109816942646 0.45379336565934708 0 0.1055620420874188 0.44634621164118382 0 0.094088013200529869 0.44889931535774519 0 0.099337691303681225 0.4374707705946943 0 0.1044835014096759 0.47734756365600922 0 0.1177827116870388 0.45469512731202 0 0.10375911119544989 0.46169208423840707 0 0.1085542672691443 0.45288073103457499 0 0.10375911119544989 0.46169208423840707 0 0.1012109816942646 0.45379336565934708 0 0.10375911119544989 0.46169208423840707 0 0.09409147471878021 0.45914848602482411 0 0.1012109816942646 0.45379336565934708 0 0.094088013200529869 0.44889931535774519 0 0.09409147471878021 0.45914848602482411 0 0.1012109816942646 0.45379336565934708 0 0.10375911119544989 0.46169208423840707 0 0.09409147471878021 0.45914848602482411 0 0.089878094677345824 0.46845281852689552 0 0.09409147471878021 0.45914848602482411 0 0.089878094677345824 0.46845281852689552 0 0.080214128666006621 0.45552629217638252 0 0.089878094677345824 0.46845281852689552 0 0.080214128666006621 0.45552629217638252 0 0.074102941378371603 0.47288946850061031 0 0.094088013200529869 0.44889931535774519 0 0.09409147471878021 0.45914848602482411 0 0.080214128666006621 0.45552629217638252 0 0.094088013200529869 0.44889931535774519 0 0.085796496059863905 0.44174499657163302 0 0.099337691303681225 0.4374707705946943 0 0.094088013200529869 0.44889931535774519 0 0.080214128666006621 0.45552629217638252 0 0.085796496059863905 0.44174499657163302 0 0.080214128666006621 0.45552629217638252 0 0.06525684597390341 0.44147936260094622 0 0.058990630125098087 0.45933022751847918 0 0.080214128666006621 0.45552629217638252 0 0.085796496059863905 0.44174499657163302 0 0.06525684597390341 0.44147936260094622 0 0.080214128666006621 0.45552629217638252 0 0.074102941378371603 0.47288946850061031 0 0.058990630125098087 0.45933022751847918 0 0.074102941378371603 0.47288946850061031 0 0.055632374657373099 0.48049688766291121 0 0.058990630125098087 0.45933022751847918 0 0.074102941378371603 0.47288946850061031 0 0.074845676588152429 0.48705173469961283 0 0.055632374657373099 0.48049688766291121 0 0.089878094677345824 0.46845281852689552 0 0.074102941378371603 0.47288946850061031 0 0.087590331635736762 0.48187231733454222 0 0.074102941378371603 0.47288946850061031 0 0.087590331635736762 0.48187231733454222 0 0.074845676588152429 0.48705173469961283 0 0.087590331635736762 0.48187231733454222 0 0.091184291132313577 0.49999999999999878 0 0.074845676588152429 0.48705173469961283 0 0.091184291132313577 0.49999999999999878 0 0.065718444136967091 0.5 0 0.074845676588152429 0.48705173469961283 0 0.065718444136967091 0.5 0 0.074845676588152429 0.48705173469961283 0 0.055632374657373099 0.48049688766291121 0 0.065718444136967091 0.5 0 0.055632374657373099 0.48049688766291121 0 0.04025259714162055 0.5 0 0.034127288248844749 0.48389355689233382 0 0.02042232855942323 0.47553651491327759 0 0.039542390739532807 0.46343438188548008 0 0.055632374657373099 0.48049688766291121 0 0.034127288248844749 0.48389355689233382 0 0.039542390739532807 0.46343438188548008 0 0.055632374657373099 0.48049688766291121 0 0.034127288248844749 0.48389355689233382 0 0.04025259714162055 0.5 0 0.034127288248844749 0.48389355689233382 0 0.04025259714162055 0.5 0 0.01478675014627406 0.5 0 0.034127288248844749 0.48389355689233382 0 0.02042232855942323 0.47553651491327759 0 0.01478675014627406 0.5 0 -0.0076889094467738816 0.46478000118795137 0 0.0017979149220028511 0.48165652148318122 0 0.0079421228958620176 0.46777507337897378 0 0.02042232855942323 0.47553651491327759 0 0.0017979149220028511 0.48165652148318122 0 0.0079421228958620176 0.46777507337897378 0 0.02042232855942323 0.47553651491327759 0 0.0017979149220028511 0.48165652148318122 0 0.01478675014627406 0.5 0 -0.01067909684907253 0.5 0 0.0017979149220028511 0.48165652148318122 0 0.01478675014627406 0.5 0 0.011312768916354391 0.43772440232287579 0 0.0067190561514857416 0.45457892549911538 0 0.023041811005143759 0.45366467292976881 0 -0.0049807791518667174 0.44616128958802082 0 0.011312768916354391 0.43772440232287579 0 0.0067190561514857416 0.45457892549911538 0 0.0067190561514857416 0.45457892549911538 0 0.0079421228958620176 0.46777507337897378 0 0.023041811005143759 0.45366467292976881 0 -0.0076889094467738816 0.46478000118795137 0 0.0067190561514857416 0.45457892549911538 0 0.0079421228958620176 0.46777507337897378 0 0.02042232855942323 0.47553651491327759 0 0.0079421228958620176 0.46777507337897378 0 0.023041811005143759 0.45366467292976881 0 0.02042232855942323 0.47553651491327759 0 0.023041811005143759 0.45366467292976881 0 0.039542390739532807 0.46343438188548008 0 0.011312768916354391 0.43772440232287579 0 0.023041811005143759 0.45366467292976881 0 0.030863212570951249 0.43098769711629731 0 0.023041811005143759 0.45366467292976881 0 0.043918160576270973 0.4455988348402663 0 0.030863212570951249 0.43098769711629731 0 0.023041811005143759 0.45366467292976881 0 0.043918160576270973 0.4455988348402663 0 0.039542390739532807 0.46343438188548008 0 0.055632374657373099 0.48049688766291121 0 0.039542390739532807 0.46343438188548008 0 0.058990630125098087 0.45933022751847918 0 0.043918160576270973 0.4455988348402663 0 0.039542390739532807 0.46343438188548008 0 0.058990630125098087 0.45933022751847918 0 0.06525684597390341 0.44147936260094622 0 0.043918160576270973 0.4455988348402663 0 0.049032727924684757 0.42871516414597882 0 0.06525684597390341 0.44147936260094622 0 0.043918160576270973 0.4455988348402663 0 0.058990630125098087 0.45933022751847918 0 0.06525684597390341 0.44147936260094622 0 0.049032727924684757 0.42871516414597882 0 0.063610358874117465 0.41791495627810887 0 0.049032727924684757 0.42871516414597882 0 0.041515061628180673 0.40759496989427513 0 0.063610358874117465 0.41791495627810887 0 0.041515061628180673 0.40759496989427513 0 0.064716269034845619 0.40131594062684278 0 0.063610358874117465 0.41791495627810887 0 0.043918160576270973 0.4455988348402663 0 0.049032727924684757 0.42871516414597882 0 0.030863212570951249 0.43098769711629731 0 0.049032727924684757 0.42871516414597882 0 0.041515061628180673 0.40759496989427513 0 0.030863212570951249 0.43098769711629731 0 0.011312768916354391 0.43772440232287579 0 0.030863212570951249 0.43098769711629731 0 0.015011072959699071 0.41747729397939609 0 0.041515061628180673 0.40759496989427513 0 0.030863212570951249 0.43098769711629731 0 0.015011072959699071 0.41747729397939609 0 0.041515061628180673 0.40759496989427513 0 0.015011072959699071 0.41747729397939609 0 0.019033898045706241 0.39766682092803818 0 -0.0073143073136647503 0.39745635484607128 0 -0.0040682684714412696 0.42417482241573168 0 0.015011072959699071 0.41747729397939609 0 -0.0040682684714412696 0.42417482241573168 0 0.011312768916354391 0.43772440232287579 0 0.015011072959699071 0.41747729397939609 0 -0.0040682684714412696 0.42417482241573168 0 -0.0049807791518667174 0.44616128958802082 0 0.011312768916354391 0.43772440232287579 0 -0.0045426006561533408 0.37315282105005088 0 -0.0073143073136647503 0.39745635484607128 0 0.014001025567275621 0.37909340418670179 0 -0.0073143073136647503 0.39745635484607128 0 0.015011072959699071 0.41747729397939609 0 0.019033898045706241 0.39766682092803818 0 -0.0073143073136647503 0.39745635484607128 0 0.014001025567275621 0.37909340418670179 0 0.019033898045706241 0.39766682092803818 0 0.014001025567275621 0.37909340418670179 0 0.036124081043280833 0.38477791248574361 0 0.030137676786885371 0.36323561939607268 0 0.014001025567275621 0.37909340418670179 0 0.019033898045706241 0.39766682092803818 0 0.036124081043280833 0.38477791248574361 0 0.041515061628180673 0.40759496989427513 0 0.019033898045706241 0.39766682092803818 0 0.036124081043280833 0.38477791248574361 0 0.041515061628180673 0.40759496989427513 0 0.036124081043280833 0.38477791248574361 0 0.057521362331255939 0.38418237138078187 0 0.041515061628180673 0.40759496989427513 0 0.057521362331255939 0.38418237138078187 0 0.064716269034845619 0.40131594062684278 0 0.036124081043280833 0.38477791248574361 0 0.057521362331255939 0.38418237138078187 0 0.051895898819732562 0.3655483780338773 0 0.057521362331255939 0.38418237138078187 0 0.076442675652300882 0.38951436985395682 0 0.072934867021814037 0.37048482413808809 0 0.076442675652300882 0.38951436985395682 0 0.091344151214667046 0.37861621337884399 0 0.072934867021814037 0.37048482413808809 0 0.076442675652300882 0.38951436985395682 0 0.091344151214667046 0.37861621337884399 0 0.09002638350580125 0.39336069720050493 0 0.09002638350580125 0.39336069720050493 0 0.084491886688373152 0.4073730357270911 0 0.10537341450262901 0.39683111517607372 0 0.076442675652300882 0.38951436985395682 0 0.09002638350580125 0.39336069720050493 0 0.084491886688373152 0.4073730357270911 0 0.076442675652300882 0.38951436985395682 0 0.064716269034845619 0.40131594062684278 0 0.084491886688373152 0.4073730357270911 0 0.057521362331255939 0.38418237138078187 0 0.076442675652300882 0.38951436985395682 0 0.064716269034845619 0.40131594062684278 0 0.064716269034845619 0.40131594062684278 0 0.063610358874117465 0.41791495627810887 0 0.084491886688373152 0.4073730357270911 0 0.063610358874117465 0.41791495627810887 0 0.084491886688373152 0.4073730357270911 0 0.06525684597390341 0.44147936260094622 0 0.063610358874117465 0.41791495627810887 0 0.090085801155198403 0.42534924212839631 0 0.06525684597390341 0.44147936260094622 0 0.090085801155198403 0.42534924212839631 0 0.085796496059863905 0.44174499657163302 0 0.090085801155198403 0.42534924212839631 0 0.099337691303681225 0.4374707705946943 0 0.085796496059863905 0.44174499657163302 0 0.06525684597390341 0.44147936260094622 0 0.090085801155198403 0.42534924212839631 0 0.063610358874117465 0.41791495627810887 0 0.090085801155198403 0.42534924212839631 0 0.084491886688373152 0.4073730357270911 0 0.090085801155198403 0.42534924212839631 0 0.1149147563364927 0.40921912165584551 0 0.090085801155198403 0.42534924212839631 0 0.084491886688373152 0.4073730357270911 0 0.1149147563364927 0.40921912165584551 0 0.090085801155198403 0.42534924212839631 0 0.10647788949289599 0.42820355227591261 0 0.1149147563364927 0.40921912165584551 0 0.090085801155198403 0.42534924212839631 0 0.099337691303681225 0.4374707705946943 0 0.10647788949289599 0.42820355227591261 0 0.099337691303681225 0.4374707705946943 0 0.10647788949289599 0.42820355227591261 0 0.11280312783646219 0.43748516267452098 0 0.11280312783646219 0.43748516267452098 0 0.1154726380132403 0.43008562952921969 0 0.12189822919271549 0.43273392716773151 0 0.10647788949289599 0.42820355227591261 0 0.11280312783646219 0.43748516267452098 0 0.1154726380132403 0.43008562952921969 0 0.10647788949289599 0.42820355227591261 0 0.1154726380132403 0.43008562952921969 0 0.11454012450913161 0.42325854988357298 0 0.1154726380132403 0.43008562952921969 0 0.11454012450913161 0.42325854988357298 0 0.1200445665086587 0.42524675917483989 0 0.1200445665086587 0.42524675917483989 0 0.12189822919271549 0.43273392716773151 0 0.12820989238683431 0.42648086894557052 0 0.1154726380132403 0.43008562952921969 0 0.1200445665086587 0.42524675917483989 0 0.12189822919271549 0.43273392716773151 0 0.1193906732136185 0.44081408720424309 0 0.12189822919271549 0.43273392716773151 0 0.1310819219644016 0.43204269096803077 0 0.1193906732136185 0.44081408720424309 0 0.11280312783646219 0.43748516267452098 0 0.12189822919271549 0.43273392716773151 0 0.1200445665086587 0.42524675917483989 0 0.1149147563364927 0.40921912165584551 0 0.12820989238683431 0.42648086894557052 0 0.11454012450913161 0.42325854988357298 0 0.1200445665086587 0.42524675917483989 0 0.1149147563364927 0.40921912165584551 0 0.1149147563364927 0.40921912165584551 0 0.12820989238683431 0.42648086894557052 0 0.1149147563364927 0.40921912165584551 0 0.13159634717604471 0.39838193306087633 0 0.12785651279979629 0.41300216094147868 0 0.1149147563364927 0.40921912165584551 0 0.12785651279979629 0.41300216094147868 0 0.12820989238683431 0.42648086894557052 0 0.10647788949289599 0.42820355227591261 0 0.11454012450913161 0.42325854988357298 0 0.1149147563364927 0.40921912165584551 0 0.1187340050918187 0.39808465074103683 0 0.1230515023521087 0.38790643307135231 0 0.10537341450262901 0.39683111517607372 0 0.1149147563364927 0.40921912165584551 0 0.1187340050918187 0.39808465074103683 0 0.13159634717604471 0.39838193306087633 0 0.1149147563364927 0.40921912165584551 0 0.13159634717604471 0.39838193306087633 0 0.1230515023521087 0.38790643307135231 0 0.10537341450262901 0.39683111517607372 0 0.1149147563364927 0.40921912165584551 0 0.10537341450262901 0.39683111517607372 0 0.1149147563364927 0.40921912165584551 0 0.1187340050918187 0.39808465074103683 0 0.10537341450262901 0.39683111517607372 0 0.1187340050918187 0.39808465074103683 0 0.1230515023521087 0.38790643307135231 0 0.13159634717604471 0.39838193306087633 0 0.1230515023521087 0.38790643307135231 0 0.1069934566565998 0.38326473010002832 0 0.1082047585569946 0.36970515877384352 0 0.1230515023521087 0.38790643307135231 0 0.1082047585569946 0.36970515877384352 0 0.12259354375719241 0.37413907305387872 0 0.1230515023521087 0.38790643307135231 0 0.1069934566565998 0.38326473010002832 0 0.10537341450262901 0.39683111517607372 0 0.1230515023521087 0.38790643307135231 0 0.1082047585569946 0.36970515877384352 0 0.091344151214667046 0.37861621337884399 0 0.10537341450262901 0.39683111517607372 0 0.091344151214667046 0.37861621337884399 0 0.1069934566565998 0.38326473010002832 0 0.10537341450262901 0.39683111517607372 0 0.091344151214667046 0.37861621337884399 0 0.1069934566565998 0.38326473010002832 0 0.1082047585569946 0.36970515877384352 0 0.091344151214667046 0.37861621337884399 0 0.09002638350580125 0.39336069720050493 0 0.10537341450262901 0.39683111517607372 0 0.084491886688373152 0.4073730357270911 0 0.1149147563364927 0.40921912165584551 0 0.10537341450262901 0.39683111517607372 0 0.084491886688373152 0.4073730357270911 0 0.10537341450262901 0.39683111517607372 0 0.1074919993606331 0.34871795754240809 0 0.093588325277989742 0.3407126276234701 0 0.086254338645664438 0.35655743928289718 0 0.1074919993606331 0.34871795754240809 0 0.1082047585569946 0.36970515877384352 0 0.086254338645664438 0.35655743928289718 0 0.091344151214667046 0.37861621337884399 0 0.1082047585569946 0.36970515877384352 0 0.086254338645664438 0.35655743928289718 0 0.1074919993606331 0.34871795754240809 0 0.1082047585569946 0.36970515877384352 0 0.11912377200784589 0.36127178378947528 0 0.1082047585569946 0.36970515877384352 0 0.12259354375719241 0.37413907305387872 0 0.11912377200784589 0.36127178378947528 0 0.12259354375719241 0.37413907305387872 0 0.11912377200784589 0.36127178378947528 0 0.13106500545686789 0.36818218262621399 0 0.1074919993606331 0.34871795754240809 0 0.11912377200784589 0.36127178378947528 0 0.12684940380070661 0.34811607624412538 0 0.1074919993606331 0.34871795754240809 0 0.11677578538958611 0.32858815155352089 0 0.12684940380070661 0.34811607624412538 0 0.1074919993606331 0.34871795754240809 0 0.11677578538958611 0.32858815155352089 0 0.11677578538958611 0.32858815155352089 0 0.10134673425831529 0.31880463838711542 0 0.1260595714185391 0.30845834556463358 0 0.11677578538958611 0.32858815155352089 0 0.1260595714185391 0.30845834556463358 0 0.1074919993606331 0.34871795754240809 0 0.11677578538958611 0.32858815155352089 0 0.093588325277989742 0.3407126276234701 0 0.11677578538958611 0.32858815155352089 0 0.10134673425831529 0.31880463838711542 0 0.093588325277989742 0.3407126276234701 0 0.093588325277989742 0.3407126276234701 0 0.084690111897916642 0.32750125129326119 0 0.069657064573866889 0.3451348850327845 0 0.10134673425831529 0.31880463838711542 0 0.093588325277989742 0.3407126276234701 0 0.084690111897916642 0.32750125129326119 0 0.10134673425831529 0.31880463838711542 0 0.084690111897916642 0.32750125129326119 0 0.083287383589029415 0.30552314496701782 0 0.084690111897916642 0.32750125129326119 0 0.068084422134792655 0.32410936680732472 0 0.083287383589029415 0.30552314496701782 0 0.068084422134792655 0.32410936680732472 0 0.069657064573866889 0.3451348850327845 0 0.054427660062659422 0.33016284131930868 0 0.084690111897916642 0.32750125129326119 0 0.068084422134792655 0.32410936680732472 0 0.069657064573866889 0.3451348850327845 0 0.069657064573866889 0.3451348850327845 0 0.086254338645664438 0.35655743928289718 0 0.072934867021814037 0.37048482413808809 0 0.093588325277989742 0.3407126276234701 0 0.069657064573866889 0.3451348850327845 0 0.086254338645664438 0.35655743928289718 0 0.091344151214667046 0.37861621337884399 0 0.086254338645664438 0.35655743928289718 0 0.072934867021814037 0.37048482413808809 0 0.069657064573866889 0.3451348850327845 0 0.072934867021814037 0.37048482413808809 0 0.051895898819732562 0.3655483780338773 0 0.057521362331255939 0.38418237138078187 0 0.072934867021814037 0.37048482413808809 0 0.051895898819732562 0.3655483780338773 0 0.069657064573866889 0.3451348850327845 0 0.051895898819732562 0.3655483780338773 0 0.044207655234939171 0.34578099224228481 0 0.051895898819732562 0.3655483780338773 0 0.044207655234939171 0.34578099224228481 0 0.030137676786885371 0.36323561939607268 0 0.044207655234939171 0.34578099224228481 0 0.030137676786885371 0.36323561939607268 0 0.024004318777567289 0.34264140371824309 0 0.036124081043280833 0.38477791248574361 0 0.051895898819732562 0.3655483780338773 0 0.030137676786885371 0.36323561939607268 0 0.014001025567275621 0.37909340418670179 0 0.030137676786885371 0.36323561939607268 0 0.010567405497599351 0.35827089641423382 0 0.030137676786885371 0.36323561939607268 0 0.010567405497599351 0.35827089641423382 0 0.024004318777567289 0.34264140371824309 0 0.010567405497599351 0.35827089641423382 0 0.0045422153079443823 0.33974475314486291 0 0.024004318777567289 0.34264140371824309 0 -0.012589133325050361 0.35629326518858673 0 0.010567405497599351 0.35827089641423382 0 0.0045422153079443823 0.33974475314486291 0 -0.0045426006561533408 0.37315282105005088 0 0.014001025567275621 0.37909340418670179 0 0.010567405497599351 0.35827089641423382 0 0.0055870851428569644 0.32343914427593701 0 0.017944173120133109 0.32535870744741108 0 0.0075209757127229632 0.30476535896382217 0 -0.007659023569372596 0.32388775754765192 0 0.0055870851428569644 0.32343914427593701 0 0.0075209757127229632 0.30476535896382217 0 0.0055870851428569644 0.32343914427593701 0 0.0045422153079443823 0.33974475314486291 0 0.017944173120133109 0.32535870744741108 0 -0.007659023569372596 0.32388775754765192 0 0.0055870851428569644 0.32343914427593701 0 0.0045422153079443823 0.33974475314486291 0 0.0045422153079443823 0.33974475314486291 0 0.024004318777567289 0.34264140371824309 0 0.017944173120133109 0.32535870744741108 0 0.024004318777567289 0.34264140371824309 0 0.017944173120133109 0.32535870744741108 0 0.036982616856123453 0.32701656465478818 0 0.017944173120133109 0.32535870744741108 0 0.030856539192908809 0.30965331467277157 0 0.0075209757127229632 0.30476535896382217 0 0.017944173120133109 0.32535870744741108 0 0.036982616856123453 0.32701656465478818 0 0.030856539192908809 0.30965331467277157 0 0.036982616856123453 0.32701656465478818 0 0.056925150447974658 0.3068798752620937 0 0.030856539192908809 0.30965331467277157 0 0.044207655234939171 0.34578099224228481 0 0.024004318777567289 0.34264140371824309 0 0.036982616856123453 0.32701656465478818 0 0.044207655234939171 0.34578099224228481 0 0.036982616856123453 0.32701656465478818 0 0.054427660062659422 0.33016284131930868 0 0.069657064573866889 0.3451348850327845 0 0.044207655234939171 0.34578099224228481 0 0.054427660062659422 0.33016284131930868 0 0.068084422134792655 0.32410936680732472 0 0.054427660062659422 0.33016284131930868 0 0.056925150447974658 0.3068798752620937 0 0.036982616856123453 0.32701656465478818 0 0.054427660062659422 0.33016284131930868 0 0.056925150447974658 0.3068798752620937 0 0.056925150447974658 0.3068798752620937 0 0.04697788762358112 0.29093226150359208 0 0.060994388039847643 0.27964924890532172 0 0.04697788762358112 0.29093226150359208 0 0.030442752602165141 0.29278767904064967 0 0.043550020392550168 0.27115507005570127 0 0.030442752602165141 0.29278767904064967 0 0.043550020392550168 0.27115507005570127 0 0.04697788762358112 0.29093226150359208 0 0.030856539192908809 0.30965331467277157 0 0.030442752602165141 0.29278767904064967 0 0.056925150447974658 0.3068798752620937 0 0.04697788762358112 0.29093226150359208 0 0.030856539192908809 0.30965331467277157 0 0.030856539192908809 0.30965331467277157 0 0.030442752602165141 0.29278767904064967 0 0.0075209757127229632 0.30476535896382217 0 0.030442752602165141 0.29278767904064967 0 0.0059730323149553791 0.28997367436947741 0 0.01235737625438715 0.27566787937973941 0 -0.0091796179168699803 0.28065720455182208 0 0.0059730323149553791 0.28997367436947741 0 0.01235737625438715 0.27566787937973941 0 0.030442752602165141 0.29278767904064967 0 0.0059730323149553791 0.28997367436947741 0 0.0075209757127229632 0.30476535896382217 0 -0.01127632507762838 0.29599024991135331 0 0.0059730323149553791 0.28997367436947741 0 0.0075209757127229632 0.30476535896382217 0 -0.0034903985393868221 0.25853639811177698 0 0.02096260163955577 0.25463352423389651 0 -0.0034903985393868221 0.25853639811177698 0 0.01235737625438715 0.27566787937973941 0 0.02096260163955577 0.25463352423389651 0 -0.0034903985393868221 0.25853639811177698 0 0.0055636717745417936 0.2409115006921535 0 0.02096260163955577 0.25463352423389651 0 0.01235737625438715 0.27566787937973941 0 0.02096260163955577 0.25463352423389651 0 0.043550020392550168 0.27115507005570127 0 0.030442752602165141 0.29278767904064967 0 0.01235737625438715 0.27566787937973941 0 0.043550020392550168 0.27115507005570127 0 0.040613191062103551 0.24305050687108271 0 0.02096260163955577 0.25463352423389651 0 0.043550020392550168 0.27115507005570127 0 0.04697788762358112 0.29093226150359208 0 0.043550020392550168 0.27115507005570127 0 0.060994388039847643 0.27964924890532172 0 0.043550020392550168 0.27115507005570127 0 0.060994388039847643 0.27964924890532172 0 0.065535500037705613 0.25850494927377837 0 0.056657288182935181 0.24952246107075299 0 0.043550020392550168 0.27115507005570127 0 0.065535500037705613 0.25850494927377837 0 0.056657288182935181 0.24952246107075299 0 0.043550020392550168 0.27115507005570127 0 0.056657288182935181 0.24952246107075299 0 0.040613191062103551 0.24305050687108271 0 0.043550020392550168 0.27115507005570127 0 0.056657288182935181 0.24952246107075299 0 0.067650028005513965 0.2431974006797919 0 0.065535500037705613 0.25850494927377837 0 0.065535500037705613 0.25850494927377837 0 0.078115913588821362 0.25064488401743651 0 0.075898142593205445 0.26809310849946899 0 0.067650028005513965 0.2431974006797919 0 0.065535500037705613 0.25850494927377837 0 0.067650028005513965 0.2431974006797919 0 0.065535500037705613 0.25850494927377837 0 0.078115913588821362 0.25064488401743651 0 0.078115913588821362 0.25064488401743651 0 0.088490737566981031 0.25902975098640618 0 0.075898142593205445 0.26809310849946899 0 0.094884398846433154 0.2416421449733272 0 0.078115913588821362 0.25064488401743651 0 0.088490737566981031 0.25902975098640618 0 0.085977061812165967 0.27459433841328568 0 0.075898142593205445 0.26809310849946899 0 0.075599292219866304 0.28740018272195927 0 0.088490737566981031 0.25902975098640618 0 0.085977061812165967 0.27459433841328568 0 0.095609492428275183 0.26879135164110268 0 0.088490737566981031 0.25902975098640618 0 0.085977061812165967 0.27459433841328568 0 0.075898142593205445 0.26809310849946899 0 0.060994388039847643 0.27964924890532172 0 0.075898142593205445 0.26809310849946899 0 0.075599292219866304 0.28740018272195927 0 0.060994388039847643 0.27964924890532172 0 0.065535500037705613 0.25850494927377837 0 0.075898142593205445 0.26809310849946899 0 0.056925150447974658 0.3068798752620937 0 0.060994388039847643 0.27964924890532172 0 0.075599292219866304 0.28740018272195927 0 0.068084422134792655 0.32410936680732472 0 0.056925150447974658 0.3068798752620937 0 0.083287383589029415 0.30552314496701782 0 0.056925150447974658 0.3068798752620937 0 0.075599292219866304 0.28740018272195927 0 0.083287383589029415 0.30552314496701782 0 0.083287383589029415 0.30552314496701782 0 0.090513626836974795 0.28966138028456839 0 0.1041270569579129 0.30023128918997549 0 0.085977061812165967 0.27459433841328568 0 0.090513626836974795 0.28966138028456839 0 0.10290137731205461 0.28182264945197738 0 0.075599292219866304 0.28740018272195927 0 0.083287383589029415 0.30552314496701782 0 0.090513626836974795 0.28966138028456839 0 0.085977061812165967 0.27459433841328568 0 0.075599292219866304 0.28740018272195927 0 0.090513626836974795 0.28966138028456839 0 0.090513626836974795 0.28966138028456839 0 0.10290137731205461 0.28182264945197738 0 0.1041270569579129 0.30023128918997549 0 0.10290137731205461 0.28182264945197738 0 0.1041270569579129 0.30023128918997549 0 0.11783084426913561 0.29079745392212059 0 0.10134673425831529 0.31880463838711542 0 0.083287383589029415 0.30552314496701782 0 0.1041270569579129 0.30023128918997549 0 0.10134673425831529 0.31880463838711542 0 0.1041270569579129 0.30023128918997549 0 0.1260595714185391 0.30845834556463358 0 0.1041270569579129 0.30023128918997549 0 0.11783084426913561 0.29079745392212059 0 0.1260595714185391 0.30845834556463358 0 0.10290137731205461 0.28182264945197738 0 0.11783084426913561 0.29079745392212059 0 0.1207228582096794 0.27514644582827008 0 0.11783084426913561 0.29079745392212059 0 0.1207228582096794 0.27514644582827008 0 0.13534335744749229 0.28832853957574661 0 0.10290137731205461 0.28182264945197738 0 0.1207228582096794 0.27514644582827008 0 0.1063340217304687 0.27193119975053609 0 0.1207228582096794 0.27514644582827008 0 0.1155036305604184 0.26143449438416938 0 0.10610235897186571 0.26196435208079449 0 0.1207228582096794 0.27514644582827008 0 0.10610235897186571 0.26196435208079449 0 0.1063340217304687 0.27193119975053609 0 0.1207228582096794 0.27514644582827008 0 0.10610235897186571 0.26196435208079449 0 0.1207228582096794 0.27514644582827008 0 0.12442646880705829 0.25842656913830703 0 0.1155036305604184 0.26143449438416938 0 0.118467602947705 0.24904918409112489 0 0.12442646880705829 0.25842656913830703 0 0.1094825115753742 0.25419496519862578 0 0.12442646880705829 0.25842656913830703 0 0.1094825115753742 0.25419496519862578 0 0.1094825115753742 0.25419496519862578 0 0.1155036305604184 0.26143449438416938 0 0.10610235897186571 0.26196435208079449 0 0.12442646880705829 0.25842656913830703 0 0.1094825115753742 0.25419496519862578 0 0.1155036305604184 0.26143449438416938 0 0.094884398846433154 0.2416421449733272 0 0.088490737566981031 0.25902975098640618 0 0.099659974724104566 0.25447815284378172 0 0.1094825115753742 0.25419496519862578 0 0.10610235897186571 0.26196435208079449 0 0.099659974724104566 0.25447815284378172 0 0.10895274041773891 0.2447373791024183 0 0.1094825115753742 0.25419496519862578 0 0.099659974724104566 0.25447815284378172 0 0.10610235897186571 0.26196435208079449 0 0.099659974724104566 0.25447815284378172 0 0.095609492428275183 0.26879135164110268 0 0.088490737566981031 0.25902975098640618 0 0.099659974724104566 0.25447815284378172 0 0.095609492428275183 0.26879135164110268 0 0.085977061812165967 0.27459433841328568 0 0.10290137731205461 0.28182264945197738 0 0.095609492428275183 0.26879135164110268 0 0.10290137731205461 0.28182264945197738 0 0.095609492428275183 0.26879135164110268 0 0.1063340217304687 0.27193119975053609 0 0.10610235897186571 0.26196435208079449 0 0.095609492428275183 0.26879135164110268 0 0.1063340217304687 0.27193119975053609 0 0.1548543748536344 0.27383275120343131 0 0.14628006667464999 0.26461474067807977 0 0.16629324626033401 0.2702817703856325 0 0.14764912719116979 0.27304601650075339 0 0.1412742656296975 0.27546869654690292 0 0.14628006667464999 0.26461474067807977 0 0.1412742656296975 0.27546869654690292 0 0.14628006667464999 0.26461474067807977 0 0.1412742656296975 0.27546869654690292 0 0.14628006667464999 0.26461474067807977 0 0.1393704260387422 0.26265817307798911 0 0.14764912719116979 0.27304601650075339 0 0.1412742656296975 0.27546869654690292 0 0.14881011566982741 0.28057677743968762 0 0.14881011566982741 0.28057677743968762 0 0.1548543748536344 0.27383275120343131 0 0.1558739982941251 0.28404332934978971 0 0.14764912719116979 0.27304601650075339 0 0.14881011566982741 0.28057677743968762 0 0.1548543748536344 0.27383275120343131 0 0.14764912719116979 0.27304601650075339 0 0.1548543748536344 0.27383275120343131 0 0.14628006667464999 0.26461474067807977 0 0.15172676458886999 0.25280479892033159 0 0.14628006667464999 0.26461474067807977 0 0.15172676458886999 0.25280479892033159 0 0.14628006667464999 0.26461474067807977 0 0.15814103351836811 0.26175019231237301 0 0.13696268387962379 0.24645699857620559 0 0.15172676458886999 0.25280479892033159 0 0.1447728055966479 0.25675862936796578 0 0.15172676458886999 0.25280479892033159 0 0.1447728055966479 0.25675862936796578 0 0.14628006667464999 0.26461474067807977 0 0.1447728055966479 0.25675862936796578 0 0.14628006667464999 0.26461474067807977 0 0.1393704260387422 0.26265817307798911 0 0.14628006667464999 0.26461474067807977 0 0.1393704260387422 0.26265817307798911 0 0.13696268387962379 0.24645699857620559 0 0.1447728055966479 0.25675862936796578 0 0.1393704260387422 0.26265817307798911 0 0.13696268387962379 0.24645699857620559 0 0.1393704260387422 0.26265817307798911 0 0.13696268387962379 0.24645699857620559 0 0.12442646880705829 0.25842656913830703 0 0.1393704260387422 0.26265817307798911 0 0.118467602947705 0.24904918409112489 0 0.13696268387962379 0.24645699857620559 0 0.12442646880705829 0.25842656913830703 0 0.12442646880705829 0.25842656913830703 0 0.1393704260387422 0.26265817307798911 0 0.13189817428241701 0.2715577015521099 0 0.12442646880705829 0.25842656913830703 0 0.1393704260387422 0.26265817307798911 0 0.1412742656296975 0.27546869654690292 0 0.13189817428241701 0.2715577015521099 0 0.13534335744749229 0.28832853957574661 0 0.1207228582096794 0.27514644582827008 0 0.13189817428241701 0.2715577015521099 0 0.13534335744749229 0.28832853957574661 0 0.1207228582096794 0.27514644582827008 0 0.12442646880705829 0.25842656913830703 0 0.13189817428241701 0.2715577015521099 0 0.1412742656296975 0.27546869654690292 0 0.1393704260387422 0.26265817307798911 0 0.1412742656296975 0.27546869654690292 0 0.1393704260387422 0.26265817307798911 0 0.13189817428241701 0.2715577015521099 0 0.1207228582096794 0.27514644582827008 0 0.13534335744749229 0.28832853957574661 0 0.1412742656296975 0.27546869654690292 0 0.13534335744749229 0.28832853957574661 0 0.1443988123805095 0.29649309359756082 0 0.11783084426913561 0.29079745392212059 0 0.13534335744749229 0.28832853957574661 0 0.1260595714185391 0.30845834556463358 0 0.13534335744749229 0.28832853957574661 0 0.1443988123805095 0.29649309359756082 0 0.1412742656296975 0.27546869654690292 0 0.13534335744749229 0.28832853957574661 0 0.13534335744749229 0.28832853957574661 0 0.1260595714185391 0.30845834556463358 0 0.13534335744749229 0.28832853957574661 0 0.13849423625557111 0.30748008015468442 0 0.1443988123805095 0.29649309359756082 0 0.13534335744749229 0.28832853957574661 0 0.13849423625557111 0.30748008015468442 0 0.1260595714185391 0.30845834556463358 0 0.1443988123805095 0.29649309359756082 0 0.16054514941712481 0.29462370488206902 0 0.15666093554675081 0.30754883488869622 0 0.1443988123805095 0.29649309359756082 0 0.14733872537721801 0.31627513018289288 0 0.1443988123805095 0.29649309359756082 0 0.15666093554675081 0.30754883488869622 0 0.14733872537721801 0.31627513018289288 0 0.13849423625557111 0.30748008015468442 0 0.1443988123805095 0.29649309359756082 0 0.14733872537721801 0.31627513018289288 0 0.1443988123805095 0.29649309359756082 0 0.15666093554675081 0.30754883488869622 0 0.1412742656296975 0.27546869654690292 0 0.1443988123805095 0.29649309359756082 0 0.1443988123805095 0.29649309359756082 0 0.1558739982941251 0.28404332934978971 0 0.16054514941712481 0.29462370488206902 0 0.1412742656296975 0.27546869654690292 0 0.14881011566982741 0.28057677743968762 0 0.1443988123805095 0.29649309359756082 0 0.14881011566982741 0.28057677743968762 0 0.1443988123805095 0.29649309359756082 0 0.1558739982941251 0.28404332934978971 0 0.1558739982941251 0.28404332934978971 0 0.16054514941712481 0.29462370488206902 0 0.16472720905392171 0.27992120782293523 0 0.1711200679077283 0.29140769510077319 0 0.17470757171250159 0.28145018559341328 0 0.16472720905392171 0.27992120782293523 0 0.16054514941712481 0.29462370488206902 0 0.1711200679077283 0.29140769510077319 0 0.16472720905392171 0.27992120782293523 0 0.15666093554675081 0.30754883488869622 0 0.1726299962791647 0.30578642283112872 0 0.1689230587129929 0.31860457617983051 0 0.16054514941712481 0.29462370488206902 0 0.15666093554675081 0.30754883488869622 0 0.1726299962791647 0.30578642283112872 0 0.16054514941712481 0.29462370488206902 0 0.1711200679077283 0.29140769510077319 0 0.1726299962791647 0.30578642283112872 0 0.179661353888142 0.29837245047558852 0 0.1850909094945056 0.28969145456454171 0 0.18980444187116949 0.3066042294059102 0 0.1726299962791647 0.30578642283112872 0 0.18980444187116949 0.3066042294059102 0 0.18267204274410481 0.32160349766379798 0 0.1726299962791647 0.30578642283112872 0 0.179661353888142 0.29837245047558852 0 0.18980444187116949 0.3066042294059102 0 0.1711200679077283 0.29140769510077319 0 0.1726299962791647 0.30578642283112872 0 0.179661353888142 0.29837245047558852 0 0.1711200679077283 0.29140769510077319 0 0.17470757171250159 0.28145018559341328 0 0.1850909094945056 0.28969145456454171 0 0.1711200679077283 0.29140769510077319 0 0.179661353888142 0.29837245047558852 0 0.1850909094945056 0.28969145456454171 0 0.17470757171250159 0.28145018559341328 0 0.1850909094945056 0.28969145456454171 0 0.18630642584601839 0.27594880009318379 0 0.18630642584601839 0.27594880009318379 0 0.16629324626033401 0.2702817703856325 0 0.17470757171250159 0.28145018559341328 0 0.18630642584601839 0.27594880009318379 0 0.16629324626033401 0.2702817703856325 0 0.18630642584601839 0.27594880009318379 0 0.16629324626033401 0.2702817703856325 0 0.1784243084323017 0.26391080748666362 0 0.14628006667464999 0.26461474067807977 0 0.16629324626033401 0.2702817703856325 0 0.17470757171250159 0.28145018559341328 0 0.16472720905392171 0.27992120782293523 0 0.16629324626033401 0.2702817703856325 0 0.1548543748536344 0.27383275120343131 0 0.1558739982941251 0.28404332934978971 0 0.16472720905392171 0.27992120782293523 0 0.1548543748536344 0.27383275120343131 0 0.16472720905392171 0.27992120782293523 0 0.16629324626033401 0.2702817703856325 0 0.14628006667464999 0.26461474067807977 0 0.16629324626033401 0.2702817703856325 0 0.15814103351836811 0.26175019231237301 0 0.1656078887783792 0.24286487100056081 0 0.1652459078110701 0.25860162266235109 0 0.1784243084323017 0.26391080748666362 0 0.1656078887783792 0.24286487100056081 0 0.15172676458886999 0.25280479892033159 0 0.1652459078110701 0.25860162266235109 0 0.15172676458886999 0.25280479892033159 0 0.15814103351836811 0.26175019231237301 0 0.1652459078110701 0.25860162266235109 0 0.16629324626033401 0.2702817703856325 0 0.15814103351836811 0.26175019231237301 0 0.1652459078110701 0.25860162266235109 0 0.16629324626033401 0.2702817703856325 0 0.1652459078110701 0.25860162266235109 0 0.1784243084323017 0.26391080748666362 0 0.1656078887783792 0.24286487100056081 0 0.1784243084323017 0.26391080748666362 0 0.18515818986685109 0.24523198137830499 0 0.1656078887783792 0.24286487100056081 0 0.1784243084323017 0.26391080748666362 0 0.18515818986685109 0.24523198137830499 0 0.1784243084323017 0.26391080748666362 0 0.2001597603643252 0.25953991024648271 0 0.18630642584601839 0.27594880009318379 0 0.20631960543170261 0.28161582980073652 0 0.18630642584601839 0.27594880009318379 0 0.2001597603643252 0.25953991024648271 0 0.20631960543170261 0.28161582980073652 0 0.18630642584601839 0.27594880009318379 0 0.1784243084323017 0.26391080748666362 0 0.2001597603643252 0.25953991024648271 0 0.2001597603643252 0.25953991024648271 0 0.20631960543170261 0.28161582980073652 0 0.2001597603643252 0.25953991024648271 0 0.21743518236273929 0.26827176205905862 0 0.20631960543170261 0.28161582980073652 0 0.21743518236273929 0.26827176205905862 0 0.22625310063890561 0.28726029569037098 0 0.20631960543170261 0.28161582980073652 0 0.2001597603643252 0.25953991024648271 0 0.21743518236273929 0.26827176205905862 0 0.21441946711031809 0.25343142140150932 0 0.20388057309864299 0.2420260524210241 0 0.2001597603643252 0.25953991024648271 0 0.21441946711031809 0.25343142140150932 0 0.21743518236273929 0.26827176205905862 0 0.21441946711031809 0.25343142140150932 0 0.23143636026737621 0.25829091581815028 0 0.22311456895561979 0.24210018387613991 0 0.21441946711031809 0.25343142140150932 0 0.23143636026737621 0.25829091581815028 0 0.21743518236273929 0.26827176205905862 0 0.23143636026737621 0.25829091581815028 0 0.23691269892240399 0.27649675811381591 0 0.21743518236273929 0.26827176205905862 0 0.23691269892240399 0.27649675811381591 0 0.22625310063890561 0.28726029569037098 0 0.23143636026737621 0.25829091581815028 0 0.23691269892240399 0.27649675811381591 0 0.2490231873831896 0.26987704113164152 0 0.23691269892240399 0.27649675811381591 0 0.2490231873831896 0.26987704113164152 0 0.25239385184284652 0.28364063616437057 0 0.23143636026737621 0.25829091581815028 0 0.2490231873831896 0.26987704113164152 0 0.24833316285785609 0.25613966282899547 0 0.23892470514704739 0.24618996043878821 0 0.23143636026737621 0.25829091581815028 0 0.24833316285785609 0.25613966282899547 0 0.23335302439001659 0.30239607188981099 0 0.22979332921272569 0.3183598782236674 0 0.24096053071102699 0.31548588195579419 0 0.23335302439001659 0.30239607188981099 0 0.24096053071102699 0.31548588195579419 0 0.25354031088216911 0.30701755471271791 0 0.24618659584610841 0.29290476158000678 0 0.23335302439001659 0.30239607188981099 0 0.25354031088216911 0.30701755471271791 0 0.24096053071102699 0.31548588195579419 0 0.25354031088216911 0.30701755471271791 0 0.23691269892240399 0.27649675811381591 0 0.24618659584610841 0.29290476158000678 0 0.22625310063890561 0.28726029569037098 0 0.24618659584610841 0.29290476158000678 0 0.22625310063890561 0.28726029569037098 0 0.23335302439001659 0.30239607188981099 0 0.23691269892240399 0.27649675811381591 0 0.24618659584610841 0.29290476158000678 0 0.25239385184284652 0.28364063616437057 0 0.24618659584610841 0.29290476158000678 0 0.22625310063890561 0.28726029569037098 0 0.22625310063890561 0.28726029569037098 0 0.23335302439001659 0.30239607188981099 0 0.21381535808511951 0.3084794328241004 0 0.23335302439001659 0.30239607188981099 0 0.21381535808511951 0.3084794328241004 0 0.22979332921272569 0.3183598782236674 0 0.21381535808511951 0.3084794328241004 0 0.20631960543170261 0.28161582980073652 0 0.18980444187116949 0.3066042294059102 0 0.22625310063890561 0.28726029569037098 0 0.20631960543170261 0.28161582980073652 0 0.22625310063890561 0.28726029569037098 0 0.21381535808511951 0.3084794328241004 0 0.20631960543170261 0.28161582980073652 0 0.21381535808511951 0.3084794328241004 0 0.20631960543170261 0.28161582980073652 0 0.1850909094945056 0.28969145456454171 0 0.18630642584601839 0.27594880009318379 0 0.20631960543170261 0.28161582980073652 0 0.1850909094945056 0.28969145456454171 0 0.20631960543170261 0.28161582980073652 0 0.18980444187116949 0.3066042294059102 0 0.18980444187116949 0.3066042294059102 0 0.19811683110691561 0.32355197243010148 0 0.18267204274410481 0.32160349766379798 0 0.21381535808511951 0.3084794328241004 0 0.18980444187116949 0.3066042294059102 0 0.19811683110691561 0.32355197243010148 0 0.19811683110691561 0.32355197243010148 0 0.18647608270984681 0.33663245738680009 0 0.18267204274410481 0.32160349766379798 0 0.19811683110691561 0.32355197243010148 0 0.20201013790873629 0.3422882781513561 0 0.18647608270984681 0.33663245738680009 0 0.20201013790873629 0.3422882781513561 0 0.1896181102713666 0.34763024771210649 0 0.18647608270984681 0.33663245738680009 0 0.19811683110691561 0.32355197243010148 0 0.20201013790873629 0.3422882781513561 0 0.2213111107385371 0.33534303584746422 0 0.21381535808511951 0.3084794328241004 0 0.2213111107385371 0.33534303584746422 0 0.21381535808511951 0.3084794328241004 0 0.19811683110691561 0.32355197243010148 0 0.2213111107385371 0.33534303584746422 0 0.21381535808511951 0.3084794328241004 0 0.22979332921272569 0.3183598782236674 0 0.2213111107385371 0.33534303584746422 0 0.22979332921272569 0.3183598782236674 0 0.2213111107385371 0.33534303584746422 0 0.23952662213892831 0.33009496860116722 0 0.2213111107385371 0.33534303584746422 0 0.23952662213892831 0.33009496860116722 0 0.23834910845387339 0.34472695301636741 0 0.23952662213892831 0.33009496860116722 0 0.23834910845387339 0.34472695301636741 0 0.25374534734518489 0.33498022951000839 0 0.23952662213892831 0.33009496860116722 0 0.24096053071102699 0.31548588195579419 0 0.25720481198535439 0.32113418170008962 0 0.22979332921272569 0.3183598782236674 0 0.23952662213892831 0.33009496860116722 0 0.24096053071102699 0.31548588195579419 0 0.2409177267930851 0.36400786241940369 0 0.2366965334705492 0.38251935774357498 0 0.25990332666269178 0.37613588478237919 0 0.2409177267930851 0.36400786241940369 0 0.23834910845387339 0.34472695301636741 0 0.26254243031922792 0.35308660851405449 0 0.2213111107385371 0.33534303584746422 0 0.23834910845387339 0.34472695301636741 0 0.2138210520610625 0.35733750059482949 0 0.2409177267930851 0.36400786241940369 0 0.23834910845387339 0.34472695301636741 0 0.2138210520610625 0.35733750059482949 0 0.2409177267930851 0.36400786241940369 0 0.21929302326694231 0.37492911632475301 0 0.2138210520610625 0.35733750059482949 0 0.2409177267930851 0.36400786241940369 0 0.21929302326694231 0.37492911632475301 0 0.2366965334705492 0.38251935774357498 0 0.2409177267930851 0.36400786241940369 0 0.21929302326694231 0.37492911632475301 0 0.21929302326694231 0.37492911632475301 0 0.2138210520610625 0.35733750059482949 0 0.2027666737773991 0.37057750211341361 0 0.2138210520610625 0.35733750059482949 0 0.2027666737773991 0.37057750211341361 0 0.19401471704427961 0.36011119324617991 0 0.20201013790873629 0.3422882781513561 0 0.2213111107385371 0.33534303584746422 0 0.2138210520610625 0.35733750059482949 0 0.20201013790873629 0.3422882781513561 0 0.2138210520610625 0.35733750059482949 0 0.19401471704427961 0.36011119324617991 0 0.20201013790873629 0.3422882781513561 0 0.1896181102713666 0.34763024771210649 0 0.19401471704427961 0.36011119324617991 0 0.1896181102713666 0.34763024771210649 0 0.19401471704427961 0.36011119324617991 0 0.18275074910594699 0.3578930892992106 0 0.2027666737773991 0.37057750211341361 0 0.19401471704427961 0.36011119324617991 0 0.1936135702509654 0.37378639617068948 0 0.19401471704427961 0.36011119324617991 0 0.1936135702509654 0.37378639617068948 0 0.1829798169385233 0.36953791966168409 0 0.16943657420624769 0.36228686356366457 0 0.19063832375382569 0.38285499560206743 0 0.1829798169385233 0.36953791966168409 0 0.16943657420624769 0.36228686356366457 0 0.19063832375382569 0.38285499560206743 0 0.1829798169385233 0.36953791966168409 0 0.17756212911578281 0.36185711801639298 0 0.18275074910594699 0.3578930892992106 0 0.19401471704427961 0.36011119324617991 0 0.1829798169385233 0.36953791966168409 0 0.18275074910594699 0.3578930892992106 0 0.1829798169385233 0.36953791966168409 0 0.17756212911578281 0.36185711801639298 0 0.16943657420624769 0.36228686356366457 0 0.17756212911578281 0.36185711801639298 0 0.16943657420624769 0.36228686356366457 0 0.17508137621241321 0.35771059954101292 0 0.16943657420624769 0.36228686356366457 0 0.16956030108160311 0.38679440391486619 0 0.16943657420624769 0.36228686356366457 0 0.16021666677770491 0.37480778059607978 0 0.16956030108160311 0.38679440391486619 0 0.16943657420624769 0.36228686356366457 0 0.15962139215004409 0.36473330110984159 0 0.161174109070954 0.35427132345533319 0 0.15962139215004409 0.36473330110984159 0 0.161174109070954 0.35427132345533319 0 0.1512868580121898 0.360944777063198 0 0.15962139215004409 0.36473330110984159 0 0.16021666677770491 0.37480778059607978 0 0.15138650798922951 0.37262670779345008 0 0.16943657420624769 0.36228686356366457 0 0.15962139215004409 0.36473330110984159 0 0.16021666677770491 0.37480778059607978 0 0.161174109070954 0.35427132345533319 0 0.1659322857367673 0.34715081841908552 0 0.1538918133135645 0.34746626170015532 0 0.16943657420624769 0.36228686356366457 0 0.161174109070954 0.35427132345533319 0 0.16939969270313029 0.3549814586281585 0 0.16943657420624769 0.36228686356366457 0 0.161174109070954 0.35427132345533319 0 0.161174109070954 0.35427132345533319 0 0.16939969270313029 0.3549814586281585 0 0.1659322857367673 0.34715081841908552 0 0.16943657420624769 0.36228686356366457 0 0.16939969270313029 0.3549814586281585 0 0.16943657420624769 0.36228686356366457 0 0.16939969270313029 0.3549814586281585 0 0.17508137621241321 0.35771059954101292 0 0.16939969270313029 0.3549814586281585 0 0.1659322857367673 0.34715081841908552 0 0.1766428345670637 0.34819509673548599 0 0.16939969270313029 0.3549814586281585 0 0.1766428345670637 0.34819509673548599 0 0.17508137621241321 0.35771059954101292 0 0.1766428345670637 0.34819509673548599 0 0.17508137621241321 0.35771059954101292 0 0.18275074910594699 0.3578930892992106 0 0.17756212911578281 0.36185711801639298 0 0.17508137621241321 0.35771059954101292 0 0.18275074910594699 0.3578930892992106 0 0.1896181102713666 0.34763024771210649 0 0.1766428345670637 0.34819509673548599 0 0.18275074910594699 0.3578930892992106 0 0.1896181102713666 0.34763024771210649 0 0.1766428345670637 0.34819509673548599 0 0.18647608270984681 0.33663245738680009 0 0.1766428345670637 0.34819509673548599 0 0.18647608270984681 0.33663245738680009 0 0.16773334685767191 0.3349578407141392 0 0.18647608270984681 0.33663245738680009 0 0.18267204274410481 0.32160349766379798 0 0.16773334685767191 0.3349578407141392 0 0.1726299962791647 0.30578642283112872 0 0.18267204274410481 0.32160349766379798 0 0.1689230587129929 0.31860457617983051 0 0.18267204274410481 0.32160349766379798 0 0.1689230587129929 0.31860457617983051 0 0.16773334685767191 0.3349578407141392 0 0.15732572906392889 0.32490038508387747 0 0.1689230587129929 0.31860457617983051 0 0.16773334685767191 0.3349578407141392 0 0.15666093554675081 0.30754883488869622 0 0.15732572906392889 0.32490038508387747 0 0.1689230587129929 0.31860457617983051 0 0.15666093554675081 0.30754883488869622 0 0.1689230587129929 0.31860457617983051 0 0.16773334685767191 0.3349578407141392 0 0.15027863837392541 0.33605716676822522 0 0.1538918133135645 0.34746626170015532 0 0.15732572906392889 0.32490038508387747 0 0.16773334685767191 0.3349578407141392 0 0.15027863837392541 0.33605716676822522 0 0.1659322857367673 0.34715081841908552 0 0.1766428345670637 0.34819509673548599 0 0.16773334685767191 0.3349578407141392 0 0.1659322857367673 0.34715081841908552 0 0.16773334685767191 0.3349578407141392 0 0.1538918133135645 0.34746626170015532 0 0.15027863837392541 0.33605716676822522 0 0.13455516697234191 0.32801023536261231 0 0.140479697680892 0.34380717161338592 0 0.15027863837392541 0.33605716676822522 0 0.140479697680892 0.34380717161338592 0 0.1538918133135645 0.34746626170015532 0 0.15666093554675081 0.30754883488869622 0 0.15732572906392889 0.32490038508387747 0 0.14733872537721801 0.31627513018289288 0 0.15027863837392541 0.33605716676822522 0 0.14733872537721801 0.31627513018289288 0 0.15732572906392889 0.32490038508387747 0 0.15027863837392541 0.33605716676822522 0 0.14733872537721801 0.31627513018289288 0 0.15027863837392541 0.33605716676822522 0 0.14733872537721801 0.31627513018289288 0 0.13455516697234191 0.32801023536261231 0 0.13849423625557111 0.30748008015468442 0 0.1260595714185391 0.30845834556463358 0 0.13455516697234191 0.32801023536261231 0 0.11677578538958611 0.32858815155352089 0 0.1260595714185391 0.30845834556463358 0 0.13455516697234191 0.32801023536261231 0 0.13849423625557111 0.30748008015468442 0 0.14733872537721801 0.31627513018289288 0 0.13455516697234191 0.32801023536261231 0 0.11677578538958611 0.32858815155352089 0 0.13455516697234191 0.32801023536261231 0 0.12684940380070661 0.34811607624412538 0 0.13455516697234191 0.32801023536261231 0 0.12684940380070661 0.34811607624412538 0 0.140479697680892 0.34380717161338592 0 0.11912377200784589 0.36127178378947528 0 0.12684940380070661 0.34811607624412538 0 0.13106500545686789 0.36818218262621399 0 0.12684940380070661 0.34811607624412538 0 0.14034945963988329 0.35649632470055198 0 0.13106500545686789 0.36818218262621399 0 0.12684940380070661 0.34811607624412538 0 0.140479697680892 0.34380717161338592 0 0.14034945963988329 0.35649632470055198 0 0.13106500545686789 0.36818218262621399 0 0.14318139983983311 0.36741407581057151 0 0.14181916810099479 0.37882038686944353 0 0.14034945963988329 0.35649632470055198 0 0.13106500545686789 0.36818218262621399 0 0.14318139983983311 0.36741407581057151 0 0.14034945963988329 0.35649632470055198 0 0.14318139983983311 0.36741407581057151 0 0.1512868580121898 0.360944777063198 0 0.14318139983983311 0.36741407581057151 0 0.15138650798922951 0.37262670779345008 0 0.14181916810099479 0.37882038686944353 0 0.15962139215004409 0.36473330110984159 0 0.15138650798922951 0.37262670779345008 0 0.1512868580121898 0.360944777063198 0 0.14318139983983311 0.36741407581057151 0 0.15138650798922951 0.37262670779345008 0 0.1512868580121898 0.360944777063198 0 0.161174109070954 0.35427132345533319 0 0.1512868580121898 0.360944777063198 0 0.1538918133135645 0.34746626170015532 0 0.14034945963988329 0.35649632470055198 0 0.1512868580121898 0.360944777063198 0 0.1538918133135645 0.34746626170015532 0 0.140479697680892 0.34380717161338592 0 0.14034945963988329 0.35649632470055198 0 0.1538918133135645 0.34746626170015532 0 0.14696051354150619 0.4010571848091018 0 0.15107855846140009 0.38759762659857672 0 0.13742663768774349 0.39459428723941581 0 0.14696051354150619 0.4010571848091018 0 0.13742663768774349 0.39459428723941581 0 0.1409726081133148 0.40987670252409319 0 0.14696051354150619 0.4010571848091018 0 0.15514379307366311 0.41430656902749702 0 0.15756555711544329 0.40035211846116892 0 0.14696051354150619 0.4010571848091018 0 0.15107855846140009 0.38759762659857672 0 0.15756555711544329 0.40035211846116892 0 0.15107855846140009 0.38759762659857672 0 0.14181916810099479 0.37882038686944353 0 0.13742663768774349 0.39459428723941581 0 0.16021666677770491 0.37480778059607978 0 0.15138650798922951 0.37262670779345008 0 0.15107855846140009 0.38759762659857672 0 0.15138650798922951 0.37262670779345008 0 0.15107855846140009 0.38759762659857672 0 0.14181916810099479 0.37882038686944353 0 0.13152268041214521 0.38362980700850879 0 0.13087364563641449 0.391009295011368 0 0.13742663768774349 0.39459428723941581 0 0.13106500545686789 0.36818218262621399 0 0.14181916810099479 0.37882038686944353 0 0.13742663768774349 0.39459428723941581 0 0.13106500545686789 0.36818218262621399 0 0.13152268041214521 0.38362980700850879 0 0.13742663768774349 0.39459428723941581 0 0.13106500545686789 0.36818218262621399 0 0.13742663768774349 0.39459428723941581 0 0.12259354375719241 0.37413907305387872 0 0.13106500545686789 0.36818218262621399 0 0.13152268041214521 0.38362980700850879 0 0.1230515023521087 0.38790643307135231 0 0.12259354375719241 0.37413907305387872 0 0.13152268041214521 0.38362980700850879 0 0.1230515023521087 0.38790643307135231 0 0.13152268041214521 0.38362980700850879 0 0.13087364563641449 0.391009295011368 0 0.1230515023521087 0.38790643307135231 0 0.13152268041214521 0.38362980700850879 0 0.1230515023521087 0.38790643307135231 0 0.13159634717604471 0.39838193306087633 0 0.13087364563641449 0.391009295011368 0 0.1230515023521087 0.38790643307135231 0 0.13159634717604471 0.39838193306087633 0 0.13159634717604471 0.39838193306087633 0 0.13742663768774349 0.39459428723941581 0 0.13159634717604471 0.39838193306087633 0 0.13087364563641449 0.391009295011368 0 0.13742663768774349 0.39459428723941581 0 0.13159634717604471 0.39838193306087633 0 0.13742663768774349 0.39459428723941581 0 0.1409726081133148 0.40987670252409319 0 0.13742663768774349 0.39459428723941581 0 0.1409726081133148 0.40987670252409319 0 0.13159634717604471 0.39838193306087633 0 0.1409726081133148 0.40987670252409319 0 0.12785651279979629 0.41300216094147868 0 0.1320170161155424 0.41978085101881102 0 0.12820989238683431 0.42648086894557052 0 0.12785651279979629 0.41300216094147868 0 0.1320170161155424 0.41978085101881102 0 0.1409726081133148 0.40987670252409319 0 0.1320170161155424 0.41978085101881102 0 0.13845622872016419 0.42114958356054633 0 0.1409726081133148 0.40987670252409319 0 0.13159634717604471 0.39838193306087633 0 0.12785651279979629 0.41300216094147868 0 0.1409726081133148 0.40987670252409319 0 0.12820989238683431 0.42648086894557052 0 0.13661482233365571 0.43012252975247361 0 0.1415050284371758 0.44374261623529548 0 0.12820989238683431 0.42648086894557052 0 0.1415050284371758 0.44374261623529548 0 0.1310819219644016 0.43204269096803077 0 0.12820989238683431 0.42648086894557052 0 0.1415050284371758 0.44374261623529548 0 0.12189822919271549 0.43273392716773151 0 0.1310819219644016 0.43204269096803077 0 0.12820989238683431 0.42648086894557052 0 0.1320170161155424 0.41978085101881102 0 0.12820989238683431 0.42648086894557052 0 0.13661482233365571 0.43012252975247361 0 0.13845622872016419 0.42114958356054633 0 0.13661482233365571 0.43012252975247361 0 0.14577468956715989 0.43008547427962202 0 0.1320170161155424 0.41978085101881102 0 0.13845622872016419 0.42114958356054633 0 0.13661482233365571 0.43012252975247361 0 0.13661482233365571 0.43012252975247361 0 0.14244301126070141 0.43738377985683652 0 0.1415050284371758 0.44374261623529548 0 0.14577468956715989 0.43008547427962202 0 0.1409726081133148 0.40987670252409319 0 0.15663576075635949 0.42907884823052428 0 0.13661482233365571 0.43012252975247361 0 0.14577468956715989 0.43008547427962202 0 0.14244301126070141 0.43738377985683652 0 0.14577468956715989 0.43008547427962202 0 0.15663576075635949 0.42907884823052428 0 0.1574192125709406 0.44220836653073031 0 0.13845622872016419 0.42114958356054633 0 0.14577468956715989 0.43008547427962202 0 0.1409726081133148 0.40987670252409319 0 0.1409726081133148 0.40987670252409319 0 0.15663576075635949 0.42907884823052428 0 0.1409726081133148 0.40987670252409319 0 0.15514379307366311 0.41430656902749702 0 0.15663576075635949 0.42907884823052428 0 0.14577468956715989 0.43008547427962202 0 0.1409726081133148 0.40987670252409319 0 0.14696051354150619 0.4010571848091018 0 0.1409726081133148 0.40987670252409319 0 0.15514379307366311 0.41430656902749702 0 0.15514379307366311 0.41430656902749702 0 0.16968402795695811 0.41130194426606781 0 0.15756555711544329 0.40035211846116892 0 0.15514379307366311 0.41430656902749702 0 0.16968402795695811 0.41130194426606781 0 0.15663576075635949 0.42907884823052428 0 0.16968402795695811 0.41130194426606781 0 0.15663576075635949 0.42907884823052428 0 0.16980775483231311 0.43580948461726943 0 0.16968402795695811 0.41130194426606781 0 0.16980775483231311 0.43580948461726943 0 0.16968402795695811 0.41130194426606781 0 0.16980775483231311 0.43580948461726943 0 0.1800483564617418 0.42619736273269559 0 0.16980775483231311 0.43580948461726943 0 0.1800483564617418 0.42619736273269559 0 0.1825722018012306 0.43974436893479618 0 0.1800483564617418 0.42619736273269559 0 0.18866715979851839 0.41508535217895548 0 0.19087746318714899 0.42895707148877488 0 0.1800483564617418 0.42619736273269559 0 0.19087746318714899 0.42895707148877488 0 0.1825722018012306 0.43974436893479618 0 0.16968402795695811 0.41130194426606781 0 0.1800483564617418 0.42619736273269559 0 0.18866715979851839 0.41508535217895548 0 0.16968402795695811 0.41130194426606781 0 0.1827417349136998 0.39903029382955812 0 0.18866715979851839 0.41508535217895548 0 0.16968402795695811 0.41130194426606781 0 0.1827417349136998 0.39903029382955812 0 0.16956030108160311 0.38679440391486619 0 0.1827417349136998 0.39903029382955812 0 0.18083529634214829 0.38876262256662247 0 0.18782447772175001 0.39270790261049698 0 0.1827417349136998 0.39903029382955812 0 0.16956030108160311 0.38679440391486619 0 0.18083529634214829 0.38876262256662247 0 0.16968402795695811 0.41130194426606781 0 0.15756555711544329 0.40035211846116892 0 0.16956030108160311 0.38679440391486619 0 0.16968402795695811 0.41130194426606781 0 0.16956030108160311 0.38679440391486619 0 0.15107855846140009 0.38759762659857672 0 0.15756555711544329 0.40035211846116892 0 0.16956030108160311 0.38679440391486619 0 0.16021666677770491 0.37480778059607978 0 0.15107855846140009 0.38759762659857672 0 0.16956030108160311 0.38679440391486619 0 0.16943657420624769 0.36228686356366457 0 0.18083529634214829 0.38876262256662247 0 0.19063832375382569 0.38285499560206743 0 0.16943657420624769 0.36228686356366457 0 0.16956030108160311 0.38679440391486619 0 0.18083529634214829 0.38876262256662247 0 0.18083529634214829 0.38876262256662247 0 0.19063832375382569 0.38285499560206743 0 0.18782447772175001 0.39270790261049698 0 0.1936135702509654 0.37378639617068948 0 0.1829798169385233 0.36953791966168409 0 0.19063832375382569 0.38285499560206743 0 0.1936135702509654 0.37378639617068948 0 0.19063832375382569 0.38285499560206743 0 0.19766831974079949 0.38585037023010232 0 0.2027666737773991 0.37057750211341361 0 0.1936135702509654 0.37378639617068948 0 0.19766831974079949 0.38585037023010232 0 0.1827417349136998 0.39903029382955812 0 0.19708255587732609 0.40018369844374041 0 0.18866715979851839 0.41508535217895548 0 0.19063832375382569 0.38285499560206743 0 0.19708255587732609 0.40018369844374041 0 0.21184007330140389 0.40342312764046989 0 0.19063832375382569 0.38285499560206743 0 0.18782447772175001 0.39270790261049698 0 0.19708255587732609 0.40018369844374041 0 0.19063832375382569 0.38285499560206743 0 0.19766831974079949 0.38585037023010232 0 0.21184007330140389 0.40342312764046989 0 0.19063832375382569 0.38285499560206743 0 0.21184007330140389 0.40342312764046989 0 0.1827417349136998 0.39903029382955812 0 0.18782447772175001 0.39270790261049698 0 0.19708255587732609 0.40018369844374041 0 0.19766831974079949 0.38585037023010232 0 0.21184007330140389 0.40342312764046989 0 0.2191281480346321 0.38951242746100873 0 0.19708255587732609 0.40018369844374041 0 0.21184007330140389 0.40342312764046989 0 0.2022355846961276 0.4123682309018718 0 0.21929302326694231 0.37492911632475301 0 0.19766831974079949 0.38585037023010232 0 0.2191281480346321 0.38951242746100873 0 0.21929302326694231 0.37492911632475301 0 0.19766831974079949 0.38585037023010232 0 0.21929302326694231 0.37492911632475301 0 0.2027666737773991 0.37057750211341361 0 0.19766831974079949 0.38585037023010232 0 0.21929302326694231 0.37492911632475301 0 0.2191281480346321 0.38951242746100873 0 0.2366965334705492 0.38251935774357498 0 0.21184007330140389 0.40342312764046989 0 0.2191281480346321 0.38951242746100873 0 0.23014279039346569 0.40084016536614292 0 0.2191281480346321 0.38951242746100873 0 0.23014279039346569 0.40084016536614292 0 0.2366965334705492 0.38251935774357498 0 0.23014279039346569 0.40084016536614292 0 0.2366965334705492 0.38251935774357498 0 0.25662051655349949 0.40588912727565313 0 0.2330418228489822 0.42399125967887258 0 0.2325547373500236 0.43471448961401971 0 0.25248675094361039 0.44285507314058958 0 0.2330418228489822 0.42399125967887258 0 0.25248675094361039 0.44285507314058958 0 0.2330418228489822 0.42399125967887258 0 0.25248675094361039 0.44285507314058958 0 0.2545560161662293 0.4247162672585425 0 0.2330418228489822 0.42399125967887258 0 0.2545560161662293 0.4247162672585425 0 0.25662051655349949 0.40588912727565313 0 0.23014279039346569 0.40084016536614292 0 0.2330418228489822 0.42399125967887258 0 0.25662051655349949 0.40588912727565313 0 0.2330418228489822 0.42399125967887258 0 0.25662051655349949 0.40588912727565313 0 0.21184007330140389 0.40342312764046989 0 0.23014279039346569 0.40084016536614292 0 0.2330418228489822 0.42399125967887258 0 0.21184007330140389 0.40342312764046989 0 0.2330418228489822 0.42399125967887258 0 0.21184007330140389 0.40342312764046989 0 0.2330418228489822 0.42399125967887258 0 0.21205925849395429 0.42023600460402399 0 0.2330418228489822 0.42399125967887258 0 0.21651939840817411 0.4264615115224662 0 0.21205925849395429 0.42023600460402399 0 0.22021502326739339 0.42948765036661313 0 0.2330418228489822 0.42399125967887258 0 0.22368621925718701 0.43117386177944078 0 0.22021502326739339 0.42948765036661313 0 0.2330418228489822 0.42399125967887258 0 0.21651939840817411 0.4264615115224662 0 0.2330418228489822 0.42399125967887258 0 0.22368621925718701 0.43117386177944078 0 0.2325547373500236 0.43471448961401971 0 0.2213213262176795 0.43356862453258033 0 0.232237567482659 0.44198362893861542 0 0.2330418228489822 0.42399125967887258 0 0.2325547373500236 0.43471448961401971 0 0.22368621925718701 0.43117386177944078 0 0.2325547373500236 0.43471448961401971 0 0.22368621925718701 0.43117386177944078 0 0.2213213262176795 0.43356862453258033 0 0.22021502326739339 0.42948765036661313 0 0.2213213262176795 0.43356862453258033 0 0.21479883295488689 0.43157491050234009 0 0.22021502326739339 0.42948765036661313 0 0.22368621925718701 0.43117386177944078 0 0.2213213262176795 0.43356862453258033 0 0.2213213262176795 0.43356862453258033 0 0.21294528949129629 0.43733461572514332 0 0.21479883295488689 0.43157491050234009 0 0.21294528949129629 0.43733461572514332 0 0.21479883295488689 0.43157491050234009 0 0.2083222157070605 0.4337358440723883 0 0.22021502326739339 0.42948765036661313 0 0.21479883295488689 0.43157491050234009 0 0.21651939840817411 0.4264615115224662 0 0.21651939840817411 0.4264615115224662 0 0.20888108539909439 0.42789716848918041 0 0.21205925849395429 0.42023600460402399 0 0.21479883295488689 0.43157491050234009 0 0.21651939840817411 0.4264615115224662 0 0.20888108539909439 0.42789716848918041 0 0.20888108539909439 0.42789716848918041 0 0.20119780753115671 0.43223516017375291 0 0.20054745651145789 0.42314435130880101 0 0.20888108539909439 0.42789716848918041 0 0.21205925849395429 0.42023600460402399 0 0.20054745651145789 0.42314435130880101 0 0.2083222157070605 0.4337358440723883 0 0.20119780753115671 0.43223516017375291 0 0.2038007030511956 0.44257602444976041 0 0.20888108539909439 0.42789716848918041 0 0.2083222157070605 0.4337358440723883 0 0.20119780753115671 0.43223516017375291 0 0.21479883295488689 0.43157491050234009 0 0.20888108539909439 0.42789716848918041 0 0.2083222157070605 0.4337358440723883 0 0.21184007330140389 0.40342312764046989 0 0.21205925849395429 0.42023600460402399 0 0.2022355846961276 0.4123682309018718 0 0.21205925849395429 0.42023600460402399 0 0.2022355846961276 0.4123682309018718 0 0.20054745651145789 0.42314435130880101 0 0.19708255587732609 0.40018369844374041 0 0.2022355846961276 0.4123682309018718 0 0.18866715979851839 0.41508535217895548 0 0.2022355846961276 0.4123682309018718 0 0.18866715979851839 0.41508535217895548 0 0.20054745651145789 0.42314435130880101 0 0.19567063487281791 0.43712798362606348 0 0.20119780753115671 0.43223516017375291 0 0.2038007030511956 0.44257602444976041 0 0.19567063487281791 0.43712798362606348 0 0.20119780753115671 0.43223516017375291 0 0.19087746318714899 0.42895707148877488 0 0.20119780753115671 0.43223516017375291 0 0.20054745651145789 0.42314435130880101 0 0.19087746318714899 0.42895707148877488 0 0.18866715979851839 0.41508535217895548 0 0.20054745651145789 0.42314435130880101 0 0.19087746318714899 0.42895707148877488 0 0.19567063487281791 0.43712798362606348 0 0.19087746318714899 0.42895707148877488 0 0.1825722018012306 0.43974436893479618 0 0.19185286162135129 0.44326506572919788 0 0.19184167252806941 0.45205460906254907 0 0.1825722018012306 0.43974436893479618 0 0.19567063487281791 0.43712798362606348 0 0.19185286162135129 0.44326506572919788 0 0.1825722018012306 0.43974436893479618 0 0.19184167252806941 0.45205460906254907 0 0.2114921813364736 0.4561269406614431 0 0.2038007030511956 0.44257602444976041 0 0.19185286162135129 0.44326506572919788 0 0.19184167252806941 0.45205460906254907 0 0.2038007030511956 0.44257602444976041 0 0.19567063487281791 0.43712798362606348 0 0.19185286162135129 0.44326506572919788 0 0.2038007030511956 0.44257602444976041 0 0.19184167252806941 0.45205460906254907 0 0.2114921813364736 0.4561269406614431 0 0.20425922449366779 0.47017885373425983 0 0.19184167252806941 0.45205460906254907 0 0.187962066042448 0.46748313964338689 0 0.20425922449366779 0.47017885373425983 0 0.2114921813364736 0.4561269406614431 0 0.2196006170683914 0.47284047090027281 0 0.20425922449366779 0.47017885373425983 0 0.21294528949129629 0.43733461572514332 0 0.2083222157070605 0.4337358440723883 0 0.2038007030511956 0.44257602444976041 0 0.2114921813364736 0.4561269406614431 0 0.2038007030511956 0.44257602444976041 0 0.21648336952565911 0.44521767506864779 0 0.21294528949129629 0.43733461572514332 0 0.2038007030511956 0.44257602444976041 0 0.21648336952565911 0.44521767506864779 0 0.2213213262176795 0.43356862453258033 0 0.21294528949129629 0.43733461572514332 0 0.21648336952565911 0.44521767506864779 0 0.2114921813364736 0.4561269406614431 0 0.21648336952565911 0.44521767506864779 0 0.23346109459028919 0.45571241635505322 0 0.2213213262176795 0.43356862453258033 0 0.232237567482659 0.44198362893861542 0 0.23346109459028919 0.45571241635505322 0 0.2213213262176795 0.43356862453258033 0 0.23346109459028919 0.45571241635505322 0 0.2213213262176795 0.43356862453258033 0 0.21648336952565911 0.44521767506864779 0 0.23346109459028919 0.45571241635505322 0 0.2114921813364736 0.4561269406614431 0 0.23346109459028919 0.45571241635505322 0 0.2196006170683914 0.47284047090027281 0 0.23346109459028919 0.45571241635505322 0 0.25248675094361039 0.44285507314058958 0 0.25888779467650253 0.46200971677157049 0 0.23346109459028919 0.45571241635505322 0 0.2456008629628989 0.47785620817752622 0 0.25888779467650253 0.46200971677157049 0 0.23346109459028919 0.45571241635505322 0 0.2456008629628989 0.47785620817752622 0 0.232237567482659 0.44198362893861542 0 0.23346109459028919 0.45571241635505322 0 0.25248675094361039 0.44285507314058958 0 0.2325547373500236 0.43471448961401971 0 0.232237567482659 0.44198362893861542 0 0.25248675094361039 0.44285507314058958 0 0.2456008629628989 0.47785620817752622 0 0.2320236240061874 0.5 0 0.25774063133550817 0.49999999999999922 0 0.23346109459028919 0.45571241635505322 0 0.2456008629628989 0.47785620817752622 0 0.2196006170683914 0.47284047090027281 0 0.2456008629628989 0.47785620817752622 0 0.2196006170683914 0.47284047090027281 0 0.22032137928971079 0.48894907610414201 0 0.22032137928971079 0.48894907610414201 0 0.2320236240061874 0.5 0 0.20630661667686659 0.5 0 0.2456008629628989 0.47785620817752622 0 0.22032137928971079 0.48894907610414201 0 0.2320236240061874 0.5 0 0.22032137928971079 0.48894907610414201 0 0.20362521868549219 0.48668528534981809 0 0.20630661667686659 0.5 0 0.2196006170683914 0.47284047090027281 0 0.20362521868549219 0.48668528534981809 0 0.20425922449366779 0.47017885373425983 0 0.2196006170683914 0.47284047090027281 0 0.22032137928971079 0.48894907610414201 0 0.20362521868549219 0.48668528534981809 0 0.187962066042448 0.46748313964338689 0 0.20362521868549219 0.48668528534981809 0 0.187962066042448 0.46748313964338689 0 0.20362521868549219 0.48668528534981809 0 0.18876198478167661 0.4863488263478718 0 0.187962066042448 0.46748313964338689 0 0.20362521868549219 0.48668528534981809 0 0.20425922449366779 0.47017885373425983 0 0.20630661667686659 0.5 0 0.18876198478167661 0.4863488263478718 0 0.1805896093475457 0.5 0 0.20362521868549219 0.48668528534981809 0 0.20630661667686659 0.5 0 0.18876198478167661 0.4863488263478718 0 0.18876198478167661 0.4863488263478718 0 0.1805896093475457 0.5 0 0.1685279909132999 0.48202199510768562 0 0.1805896093475457 0.5 0 0.1685279909132999 0.48202199510768562 0 0.15487260201822481 0.5 0 0.1685279909132999 0.48202199510768562 0 0.14553969593460611 0.48534968774448001 0 0.15487260201822481 0.5 0 0.1685279909132999 0.48202199510768562 0 0.16958815421915241 0.46486203978031798 0 0.15537885247485089 0.47050301779067938 0 0.1685279909132999 0.48202199510768562 0 0.14553969593460611 0.48534968774448001 0 0.15537885247485089 0.47050301779067938 0 0.187962066042448 0.46748313964338689 0 0.18876198478167661 0.4863488263478718 0 0.1685279909132999 0.48202199510768562 0 0.187962066042448 0.46748313964338689 0 0.1685279909132999 0.48202199510768562 0 0.16958815421915241 0.46486203978031798 0 0.187962066042448 0.46748313964338689 0 0.17229891339940381 0.44828099393695559 0 0.16958815421915241 0.46486203978031798 0 0.187962066042448 0.46748313964338689 0 0.17229891339940381 0.44828099393695559 0 0.19184167252806941 0.45205460906254907 0 0.187962066042448 0.46748313964338689 0 0.17229891339940381 0.44828099393695559 0 0.19184167252806941 0.45205460906254907 0 0.1825722018012306 0.43974436893479618 0 0.17229891339940381 0.44828099393695559 0 0.16980775483231311 0.43580948461726943 0 0.1825722018012306 0.43974436893479618 0 0.17229891339940381 0.44828099393695559 0 0.15663576075635949 0.42907884823052428 0 0.17229891339940381 0.44828099393695559 0 0.15663576075635949 0.42907884823052428 0 0.16980775483231311 0.43580948461726943 0 0.17229891339940381 0.44828099393695559 0 0.15663576075635949 0.42907884823052428 0 0.17229891339940381 0.44828099393695559 0 0.1574192125709406 0.44220836653073031 0 0.1574192125709406 0.44220836653073031 0 0.16176828227095999 0.45496965122179761 0 0.15057677102100539 0.45029424603515072 0 0.17229891339940381 0.44828099393695559 0 0.1574192125709406 0.44220836653073031 0 0.16176828227095999 0.45496965122179761 0 0.17229891339940381 0.44828099393695559 0 0.16958815421915241 0.46486203978031798 0 0.16176828227095999 0.45496965122179761 0 0.16958815421915241 0.46486203978031798 0 0.16176828227095999 0.45496965122179761 0 0.15537885247485089 0.47050301779067938 0 0.16176828227095999 0.45496965122179761 0 0.15057677102100539 0.45029424603515072 0 0.15537885247485089 0.47050301779067938 0 0.15057677102100539 0.45029424603515072 0 0.15537885247485089 0.47050301779067938 0 0.1451956909017281 0.46177972422515612 0 0.15057677102100539 0.45029424603515072 0 0.15537885247485089 0.47050301779067938 0 0.1451956909017281 0.46177972422515612 0 0.14185353071546769 0.45299154734665331 0 0.13665083275859011 0.45878346622317789 0 0.1451956909017281 0.46177972422515612 0 0.15057677102100539 0.45029424603515072 0 0.14185353071546769 0.45299154734665331 0 0.1451956909017281 0.46177972422515612 0 0.15537885247485089 0.47050301779067938 0 0.1418037136198764 0.47053511633433082 0 0.1451956909017281 0.46177972422515612 0 0.13665083275859011 0.45878346622317789 0 0.1418037136198764 0.47053511633433082 0 0.14577468956715989 0.43008547427962202 0 0.15057677102100539 0.45029424603515072 0 0.14577468956715989 0.43008547427962202 0 0.1574192125709406 0.44220836653073031 0 0.15057677102100539 0.45029424603515072 0 0.14577468956715989 0.43008547427962202 0 0.14244301126070141 0.43738377985683652 0 0.15057677102100539 0.45029424603515072 0 0.15057677102100539 0.45029424603515072 0 0.14185353071546769 0.45299154734665331 0 0.1415050284371758 0.44374261623529548 0 0.14244301126070141 0.43738377985683652 0 0.15057677102100539 0.45029424603515072 0 0.1415050284371758 0.44374261623529548 0 0.1177827116870388 0.45469512731202 0 0.1310819219644016 0.43204269096803077 0 0.1289094797012322 0.44711971241893372 0 0.1310819219644016 0.43204269096803077 0 0.1415050284371758 0.44374261623529548 0 0.13460064240520381 0.44382145305305998 0 0.14185353071546769 0.45299154734665331 0 0.1415050284371758 0.44374261623529548 0 0.1353393304588392 0.45035768401448589 0 0.13460064240520381 0.44382145305305998 0 0.1353393304588392 0.45035768401448589 0 0.1289094797012322 0.44711971241893372 0 0.1415050284371758 0.44374261623529548 0 0.13460064240520381 0.44382145305305998 0 0.1353393304588392 0.45035768401448589 0 0.1353393304588392 0.45035768401448589 0 0.1289094797012322 0.44711971241893372 0 0.1278632788434825 0.45577296128510503 0 0.1310819219644016 0.43204269096803077 0 0.13460064240520381 0.44382145305305998 0 0.1289094797012322 0.44711971241893372 0 0.13665083275859011 0.45878346622317789 0 0.1303484766562954 0.46586162432778377 0 0.1418037136198764 0.47053511633433082 0 0.14185353071546769 0.45299154734665331 0 0.1353393304588392 0.45035768401448589 0 0.13665083275859011 0.45878346622317789 0 0.1353393304588392 0.45035768401448589 0 0.13665083275859011 0.45878346622317789 0 0.1278632788434825 0.45577296128510503 0 0.1206524627521391 0.46091413096450928 0 0.1278632788434825 0.45577296128510503 0 0.1303484766562954 0.46586162432778377 0 0.13665083275859011 0.45878346622317789 0 0.1278632788434825 0.45577296128510503 0 0.1303484766562954 0.46586162432778377 0 0.1232568145545315 0.47318152767312721 0 0.1303484766562954 0.46586162432778377 0 0.13154176168187859 0.47849490113788568 0 0.1303484766562954 0.46586162432778377 0 0.13154176168187859 0.47849490113788568 0 0.1418037136198764 0.47053511633433082 0 0.13154176168187859 0.47849490113788568 0 0.14553969593460611 0.48534968774448001 0 0.1418037136198764 0.47053511633433082 0 0.12399992399529371 0.48303337357331672 0 0.1232568145545315 0.47318152767312721 0 0.13154176168187859 0.47849490113788568 0 0.12399992399529371 0.48303337357331672 0 0.13154176168187859 0.47849490113788568 0 0.12915559468890389 0.5 0 0.13154176168187859 0.47849490113788568 0 0.12915559468890389 0.5 0 0.14553969593460611 0.48534968774448001 0 0.12915559468890389 0.5 0 0.14553969593460611 0.48534968774448001 0 0.15487260201822481 0.5 0 0.14553969593460611 0.48534968774448001 0 0.15537885247485089 0.47050301779067938 0 0.1418037136198764 0.47053511633433082 0 0.37140767887233378 0.4678189721668945 0 0.34017712450639898 0.5 0 0.40698052407234181 0.5 0 0.37140767887233378 0.4678189721668945 0 0.33870138069491529 0.44783345474697678 0 0.34017712450639898 0.5 0 0.37140767887233378 0.4678189721668945 0 0.36309873048063318 0.44470524342430268 0 0.33870138069491529 0.44783345474697678 0 0.37140767887233378 0.4678189721668945 0 0.36309873048063318 0.44470524342430268 0 0.38273982735140999 0.44187078628995502 0 0.36309873048063318 0.44470524342430268 0 0.33870138069491529 0.44783345474697678 0 0.35954603500387389 0.42129776049338469 0 0.33870138069491529 0.44783345474697678 0 0.31189158865263977 0.47253855364956249 0 0.30101076996119791 0.44067716493098691 0 0.34017712450639898 0.5 0 0.31189158865263977 0.47253855364956249 0 0.29219929140461393 0.5 0 0.33870138069491529 0.44783345474697678 0 0.34017712450639898 0.5 0 0.31189158865263977 0.47253855364956249 0 0.31189158865263977 0.47253855364956249 0 0.29219929140461393 0.5 0 0.28380171857469633 0.46742895806275941 0 0.29219929140461393 0.5 0 0.26764605979084399 0.48145897660237119 0 0.28380171857469633 0.46742895806275941 0 0.29219929140461393 0.5 0 0.26764605979084399 0.48145897660237119 0 0.25774063133550817 0.49999999999999922 0 0.26764605979084399 0.48145897660237119 0 0.25888779467650253 0.46200971677157049 0 0.28380171857469633 0.46742895806275941 0 0.2456008629628989 0.47785620817752622 0 0.26764605979084399 0.48145897660237119 0 0.25888779467650253 0.46200971677157049 0 0.2456008629628989 0.47785620817752622 0 0.25774063133550817 0.49999999999999922 0 0.2456008629628989 0.47785620817752622 0 0.26764605979084399 0.48145897660237119 0 0.25774063133550817 0.49999999999999922 0 0.25248675094361039 0.44285507314058958 0 0.25888779467650253 0.46200971677157049 0 0.27359697404942912 0.4472877546465629 0 0.25888779467650253 0.46200971677157049 0 0.27359697404942912 0.4472877546465629 0 0.28380171857469633 0.46742895806275941 0 0.25248675094361039 0.44285507314058958 0 0.27359697404942912 0.4472877546465629 0 0.27607497431882527 0.42612960893905483 0 0.31189158865263977 0.47253855364956249 0 0.28380171857469633 0.46742895806275941 0 0.30101076996119791 0.44067716493098691 0 0.27359697404942912 0.4472877546465629 0 0.28380171857469633 0.46742895806275941 0 0.30101076996119791 0.44067716493098691 0 0.27359697404942912 0.4472877546465629 0 0.30101076996119791 0.44067716493098691 0 0.27607497431882527 0.42612960893905483 0 0.30101076996119791 0.44067716493098691 0 0.30290764054280722 0.40965476357556418 0 0.32982119997677611 0.41920325813381309 0 0.30290764054280722 0.40965476357556418 0 0.27607497431882527 0.42612960893905483 0 0.28051479305636751 0.406548723826547 0 0.30101076996119791 0.44067716493098691 0 0.30290764054280722 0.40965476357556418 0 0.27607497431882527 0.42612960893905483 0 0.27607497431882527 0.42612960893905483 0 0.28051479305636751 0.406548723826547 0 0.25662051655349949 0.40588912727565313 0 0.27607497431882527 0.42612960893905483 0 0.2545560161662293 0.4247162672585425 0 0.25662051655349949 0.40588912727565313 0 0.25248675094361039 0.44285507314058958 0 0.27607497431882527 0.42612960893905483 0 0.2545560161662293 0.4247162672585425 0 0.2366965334705492 0.38251935774357498 0 0.25990332666269178 0.37613588478237919 0 0.25662051655349949 0.40588912727565313 0 0.25990332666269178 0.37613588478237919 0 0.25662051655349949 0.40588912727565313 0 0.28019921025801658 0.38778699487243351 0 0.28051479305636751 0.406548723826547 0 0.25662051655349949 0.40588912727565313 0 0.28019921025801658 0.38778699487243351 0 0.25662051655349949 0.40588912727565313 0 0.28019921025801658 0.38778699487243351 0 0.25990332666269178 0.37613588478237919 0 0.28019921025801658 0.38778699487243351 0 0.28244354258177229 0.36352535786915602 0 0.28019921025801658 0.38778699487243351 0 0.29824703326904711 0.39054571441728991 0 0.30377790396253368 0.36968486246921378 0 0.28019921025801658 0.38778699487243351 0 0.30377790396253368 0.36968486246921378 0 0.28051479305636751 0.406548723826547 0 0.28019921025801658 0.38778699487243351 0 0.29824703326904711 0.39054571441728991 0 0.30290764054280722 0.40965476357556418 0 0.28051479305636751 0.406548723826547 0 0.29824703326904711 0.39054571441728991 0 0.30290764054280722 0.40965476357556418 0 0.29824703326904711 0.39054571441728991 0 0.31617478422655793 0.38709170304351959 0 0.29824703326904711 0.39054571441728991 0 0.31617478422655793 0.38709170304351959 0 0.30377790396253368 0.36968486246921378 0 0.31617478422655793 0.38709170304351959 0 0.33828311085495688 0.38365150975364681 0 0.32733238658797448 0.39997530256722508 0 0.31617478422655793 0.38709170304351959 0 0.33828311085495688 0.38365150975364681 0 0.33268215028962311 0.36198950899366972 0 0.33828311085495688 0.38365150975364681 0 0.32733238658797448 0.39997530256722508 0 0.34947519733877402 0.40027527832958171 0 0.30290764054280722 0.40965476357556418 0 0.31617478422655793 0.38709170304351959 0 0.32733238658797448 0.39997530256722508 0 0.33870138069491529 0.44783345474697678 0 0.30101076996119791 0.44067716493098691 0 0.32982119997677611 0.41920325813381309 0 0.30290764054280722 0.40965476357556418 0 0.32733238658797448 0.39997530256722508 0 0.32982119997677611 0.41920325813381309 0 0.33870138069491529 0.44783345474697678 0 0.32982119997677611 0.41920325813381309 0 0.35954603500387389 0.42129776049338469 0 0.32733238658797448 0.39997530256722508 0 0.32982119997677611 0.41920325813381309 0 0.34947519733877402 0.40027527832958171 0 0.32982119997677611 0.41920325813381309 0 0.35954603500387389 0.42129776049338469 0 0.34947519733877402 0.40027527832958171 0 0.36309873048063318 0.44470524342430268 0 0.35954603500387389 0.42129776049338469 0 0.38273982735140999 0.44187078628995502 0 0.35954603500387389 0.42129776049338469 0 0.37463909598514877 0.4003032861346042 0 0.38985399368029139 0.41738848607403761 0 0.35954603500387389 0.42129776049338469 0 0.37463909598514877 0.4003032861346042 0 0.34947519733877402 0.40027527832958171 0 0.37463909598514877 0.4003032861346042 0 0.36113088264334731 0.38040034102844728 0 0.34947519733877402 0.40027527832958171 0 0.36113088264334731 0.38040034102844728 0 0.37542620182073411 0.36441149642875542 0 0.37979488271611062 0.38194681550263959 0 0.37463909598514877 0.4003032861346042 0 0.36113088264334731 0.38040034102844728 0 0.37979488271611062 0.38194681550263959 0 0.33828311085495688 0.38365150975364681 0 0.36113088264334731 0.38040034102844728 0 0.34568327512434921 0.37018301487302879 0 0.33828311085495688 0.38365150975364681 0 0.36113088264334731 0.38040034102844728 0 0.34947519733877402 0.40027527832958171 0 0.35114724236986239 0.35495345382494609 0 0.34467554603413081 0.35600332315886613 0 0.34918951635268819 0.33688731494381968 0 0.3579077422498943 0.34589988222591461 0 0.35114724236986239 0.35495345382494609 0 0.34918951635268819 0.33688731494381968 0 0.3579077422498943 0.34589988222591461 0 0.35114724236986239 0.35495345382494609 0 0.36227377041986891 0.36017740945169519 0 0.35114724236986239 0.35495345382494609 0 0.34467554603413081 0.35600332315886613 0 0.34568327512434921 0.37018301487302879 0 0.35114724236986239 0.35495345382494609 0 0.34568327512434921 0.37018301487302879 0 0.36227377041986891 0.36017740945169519 0 0.36113088264334731 0.38040034102844728 0 0.34568327512434921 0.37018301487302879 0 0.36227377041986891 0.36017740945169519 0 0.36113088264334731 0.38040034102844728 0 0.36227377041986891 0.36017740945169519 0 0.37542620182073411 0.36441149642875542 0 0.36227377041986891 0.36017740945169519 0 0.37472086759645967 0.35443798927705811 0 0.37542620182073411 0.36441149642875542 0 0.36227377041986891 0.36017740945169519 0 0.37472086759645967 0.35443798927705811 0 0.36716237452420092 0.34807005901943899 0 0.3579077422498943 0.34589988222591461 0 0.36227377041986891 0.36017740945169519 0 0.36716237452420092 0.34807005901943899 0 0.3579077422498943 0.34589988222591461 0 0.36716237452420092 0.34807005901943899 0 0.36809563518312871 0.33924815598321029 0 0.36716237452420092 0.34807005901943899 0 0.36809563518312871 0.33924815598321029 0 0.37690348633093412 0.3403058453498084 0 0.36809563518312871 0.33924815598321029 0 0.37269425213457158 0.33345783606452611 0 0.37690348633093412 0.3403058453498084 0 0.37269425213457158 0.33345783606452611 0 0.36654990342609561 0.32723645120163408 0 0.37922798359812843 0.32704089172345152 0 0.36809563518312871 0.33924815598321029 0 0.37269425213457158 0.33345783606452611 0 0.36654990342609561 0.32723645120163408 0 0.36809563518312871 0.33924815598321029 0 0.36043569930295172 0.33731795108864471 0 0.36654990342609561 0.32723645120163408 0 0.3579077422498943 0.34589988222591461 0 0.36809563518312871 0.33924815598321029 0 0.36043569930295172 0.33731795108864471 0 0.36654990342609561 0.32723645120163408 0 0.35128050809384431 0.33370761442451202 0 0.36569688241575388 0.31178512089397031 0 0.37385616417817402 0.31823241320891321 0 0.36654990342609561 0.32723645120163408 0 0.36569688241575388 0.31178512089397031 0 0.37385616417817402 0.31823241320891321 0 0.36569688241575388 0.31178512089397031 0 0.3747307118871962 0.31007092728642682 0 0.37385616417817402 0.31823241320891321 0 0.36654990342609561 0.32723645120163408 0 0.37922798359812843 0.32704089172345152 0 0.36654990342609561 0.32723645120163408 0 0.36569688241575388 0.31178512089397031 0 0.35225630932364449 0.31724576517309849 0 0.35128050809384431 0.33370761442451202 0 0.36569688241575388 0.31178512089397031 0 0.35225630932364449 0.31724576517309849 0 0.34117342460695732 0.32246180659744739 0 0.34246709834719702 0.30518107207717871 0 0.35225630932364449 0.31724576517309849 0 0.34636463110412358 0.32579844890658177 0 0.35128050809384431 0.33370761442451202 0 0.35128050809384431 0.33370761442451202 0 0.36569688241575388 0.31178512089397031 0 0.35225630932364449 0.31724576517309849 0 0.34636463110412358 0.32579844890658177 0 0.34117342460695732 0.32246180659744739 0 0.36654990342609561 0.32723645120163408 0 0.35128050809384431 0.33370761442451202 0 0.34918951635268819 0.33688731494381968 0 0.36043569930295172 0.33731795108864471 0 0.36654990342609561 0.32723645120163408 0 0.34918951635268819 0.33688731494381968 0 0.3579077422498943 0.34589988222591461 0 0.36043569930295172 0.33731795108864471 0 0.34918951635268819 0.33688731494381968 0 0.35128050809384431 0.33370761442451202 0 0.34918951635268819 0.33688731494381968 0 0.34636463110412358 0.32579844890658177 0 0.35128050809384431 0.33370761442451202 0 0.34109349911432441 0.33000562619300711 0 0.35128050809384431 0.33370761442451202 0 0.33596622269653548 0.33762045363156501 0 0.32735659766705089 0.35158273006599411 0 0.35128050809384431 0.33370761442451202 0 0.34918951635268819 0.33688731494381968 0 0.32735659766705089 0.35158273006599411 0 0.35128050809384431 0.33370761442451202 0 0.32735659766705089 0.35158273006599411 0 0.35128050809384431 0.33370761442451202 0 0.33596622269653548 0.33762045363156501 0 0.34109349911432441 0.33000562619300711 0 0.33596622269653548 0.33762045363156501 0 0.32921282414963943 0.32959340899420658 0 0.32780486508305218 0.33975673570926651 0 0.33596622269653548 0.33762045363156501 0 0.34109349911432441 0.33000562619300711 0 0.32921282414963943 0.32959340899420658 0 0.33596622269653548 0.33762045363156501 0 0.32780486508305218 0.33975673570926651 0 0.32735659766705089 0.35158273006599411 0 0.34117342460695732 0.32246180659744739 0 0.33264306588191361 0.31662950225249731 0 0.34246709834719702 0.30518107207717871 0 0.34109349911432441 0.33000562619300711 0 0.32921282414963943 0.32959340899420658 0 0.34117342460695732 0.32246180659744739 0 0.34636463110412358 0.32579844890658177 0 0.34109349911432441 0.33000562619300711 0 0.34117342460695732 0.32246180659744739 0 0.32921282414963943 0.32959340899420658 0 0.34117342460695732 0.32246180659744739 0 0.33264306588191361 0.31662950225249731 0 0.32921282414963943 0.32959340899420658 0 0.3057918373715135 0.33124410070335608 0 0.31984653327915108 0.30961220749674317 0 0.32921282414963943 0.32959340899420658 0 0.33264306588191361 0.31662950225249731 0 0.31984653327915108 0.30961220749674317 0 0.32921282414963943 0.32959340899420658 0 0.31868381581898331 0.34023035014530018 0 0.3057918373715135 0.33124410070335608 0 0.32921282414963943 0.32959340899420658 0 0.32780486508305218 0.33975673570926651 0 0.31868381581898331 0.34023035014530018 0 0.31868381581898331 0.34023035014530018 0 0.32735659766705089 0.35158273006599411 0 0.30477245840268319 0.35005350039644589 0 0.32780486508305218 0.33975673570926651 0 0.31868381581898331 0.34023035014530018 0 0.32735659766705089 0.35158273006599411 0 0.34918951635268819 0.33688731494381968 0 0.33268215028962311 0.36198950899366972 0 0.34467554603413081 0.35600332315886613 0 0.34918951635268819 0.33688731494381968 0 0.33268215028962311 0.36198950899366972 0 0.34918951635268819 0.33688731494381968 0 0.32735659766705089 0.35158273006599411 0 0.33268215028962311 0.36198950899366972 0 0.33828311085495688 0.38365150975364681 0 0.34568327512434921 0.37018301487302879 0 0.33268215028962311 0.36198950899366972 0 0.34467554603413081 0.35600332315886613 0 0.34568327512434921 0.37018301487302879 0 0.33268215028962311 0.36198950899366972 0 0.31617478422655793 0.38709170304351959 0 0.33268215028962311 0.36198950899366972 0 0.32735659766705089 0.35158273006599411 0 0.30377790396253368 0.36968486246921378 0 0.32735659766705089 0.35158273006599411 0 0.33268215028962311 0.36198950899366972 0 0.30377790396253368 0.36968486246921378 0 0.31617478422655793 0.38709170304351959 0 0.33268215028962311 0.36198950899366972 0 0.30377790396253368 0.36968486246921378 0 0.30377790396253368 0.36968486246921378 0 0.30477245840268319 0.35005350039644589 0 0.28244354258177229 0.36352535786915602 0 0.32735659766705089 0.35158273006599411 0 0.30377790396253368 0.36968486246921378 0 0.30477245840268319 0.35005350039644589 0 0.30477245840268319 0.35005350039644589 0 0.28244354258177229 0.36352535786915602 0 0.28416713384537068 0.34216535460870529 0 0.28019921025801658 0.38778699487243351 0 0.30377790396253368 0.36968486246921378 0 0.28244354258177229 0.36352535786915602 0 0.25990332666269178 0.37613588478237919 0 0.28244354258177229 0.36352535786915602 0 0.26254243031922792 0.35308660851405449 0 0.26254243031922792 0.35308660851405449 0 0.26943446094499091 0.33628572972844761 0 0.28416713384537068 0.34216535460870529 0 0.28244354258177229 0.36352535786915602 0 0.26254243031922792 0.35308660851405449 0 0.28416713384537068 0.34216535460870529 0 0.26254243031922792 0.35308660851405449 0 0.28416713384537068 0.34216535460870529 0 0.23834910845387339 0.34472695301636741 0 0.26254243031922792 0.35308660851405449 0 0.25374534734518489 0.33498022951000839 0 0.2409177267930851 0.36400786241940369 0 0.26254243031922792 0.35308660851405449 0 0.2409177267930851 0.36400786241940369 0 0.25990332666269178 0.37613588478237919 0 0.26254243031922792 0.35308660851405449 0 0.24096053071102699 0.31548588195579419 0 0.25720481198535439 0.32113418170008962 0 0.25354031088216911 0.30701755471271791 0 0.25720481198535439 0.32113418170008962 0 0.27277621843843719 0.32231759939912852 0 0.26439558201671598 0.30956530779622649 0 0.25720481198535439 0.32113418170008962 0 0.25354031088216911 0.30701755471271791 0 0.26439558201671598 0.30956530779622649 0 0.26254243031922792 0.35308660851405449 0 0.25374534734518489 0.33498022951000839 0 0.26943446094499091 0.33628572972844761 0 0.23952662213892831 0.33009496860116722 0 0.25720481198535439 0.32113418170008962 0 0.25374534734518489 0.33498022951000839 0 0.25720481198535439 0.32113418170008962 0 0.25374534734518489 0.33498022951000839 0 0.26943446094499091 0.33628572972844761 0 0.26943446094499091 0.33628572972844761 0 0.27277621843843719 0.32231759939912852 0 0.28416713384537068 0.34216535460870529 0 0.27277621843843719 0.32231759939912852 0 0.28605411928036528 0.31833020051890742 0 0.28416713384537068 0.34216535460870529 0 0.25720481198535439 0.32113418170008962 0 0.26943446094499091 0.33628572972844761 0 0.27277621843843719 0.32231759939912852 0 0.27277621843843719 0.32231759939912852 0 0.27551918185798202 0.31071558940949778 0 0.26439558201671598 0.30956530779622649 0 0.27277621843843719 0.32231759939912852 0 0.28605411928036528 0.31833020051890742 0 0.27551918185798202 0.31071558940949778 0 0.28605411928036528 0.31833020051890742 0 0.29963270931922881 0.31642581994941421 0 0.29467487969737061 0.30983224745181193 0 0.28605411928036528 0.31833020051890742 0 0.28416713384537068 0.34216535460870529 0 0.3057918373715135 0.33124410070335608 0 0.28416713384537068 0.34216535460870529 0 0.3057918373715135 0.33124410070335608 0 0.31868381581898331 0.34023035014530018 0 0.30477245840268319 0.35005350039644589 0 0.3057918373715135 0.33124410070335608 0 0.30477245840268319 0.35005350039644589 0 0.28416713384537068 0.34216535460870529 0 0.3057918373715135 0.33124410070335608 0 0.28605411928036528 0.31833020051890742 0 0.3057918373715135 0.33124410070335608 0 0.29963270931922881 0.31642581994941421 0 0.3057918373715135 0.33124410070335608 0 0.29963270931922881 0.31642581994941421 0 0.31984653327915108 0.30961220749674317 0 0.30671939620164562 0.30597954553287599 0 0.3106920420600161 0.29233443947487192 0 0.29377873867569237 0.30173015221249178 0 0.29963270931922881 0.31642581994941421 0 0.30671939620164562 0.30597954553287599 0 0.31984653327915108 0.30961220749674317 0 0.30671939620164562 0.30597954553287599 0 0.3106920420600161 0.29233443947487192 0 0.31984653327915108 0.30961220749674317 0 0.30671939620164562 0.30597954553287599 0 0.29467487969737061 0.30983224745181193 0 0.29377873867569237 0.30173015221249178 0 0.29963270931922881 0.31642581994941421 0 0.30671939620164562 0.30597954553287599 0 0.29467487969737061 0.30983224745181193 0 0.3106920420600161 0.29233443947487192 0 0.29753984166867631 0.28879579973930358 0 0.30199768788179682 0.27439751523736111 0 0.3106920420600161 0.29233443947487192 0 0.30199768788179682 0.27439751523736111 0 0.32015314000251788 0.28049612034490712 0 0.3106920420600161 0.29233443947487192 0 0.29753984166867631 0.28879579973930358 0 0.29377873867569237 0.30173015221249178 0 0.29753984166867631 0.28879579973930358 0 0.28369089805719983 0.28672109203248969 0 0.30199768788179682 0.27439751523736111 0 0.29753984166867631 0.28879579973930358 0 0.28369089805719983 0.28672109203248969 0 0.29377873867569237 0.30173015221249178 0 0.28369089805719983 0.28672109203248969 0 0.29377873867569237 0.30173015221249178 0 0.28369089805719983 0.28672109203248969 0 0.29377873867569237 0.30173015221249178 0 0.2882498985010804 0.30481561186358491 0 0.28605411928036528 0.31833020051890742 0 0.29467487969737061 0.30983224745181193 0 0.2882498985010804 0.30481561186358491 0 0.29467487969737061 0.30983224745181193 0 0.29377873867569237 0.30173015221249178 0 0.2882498985010804 0.30481561186358491 0 0.28605411928036528 0.31833020051890742 0 0.2882498985010804 0.30481561186358491 0 0.27551918185798202 0.31071558940949778 0 0.2882498985010804 0.30481561186358491 0 0.26612009105331152 0.29854922746964191 0 0.2882498985010804 0.30481561186358491 0 0.27551918185798202 0.31071558940949778 0 0.26612009105331152 0.29854922746964191 0 0.27551918185798202 0.31071558940949778 0 0.26612009105331152 0.29854922746964191 0 0.26439558201671598 0.30956530779622649 0 0.28369089805719983 0.28672109203248969 0 0.2882498985010804 0.30481561186358491 0 0.26612009105331152 0.29854922746964191 0 0.28369089805719983 0.28672109203248969 0 0.26612009105331152 0.29854922746964191 0 0.26372668600921911 0.2803753925267472 0 0.28369089805719983 0.28672109203248969 0 0.26612009105331152 0.29854922746964191 0 0.24618659584610841 0.29290476158000678 0 0.26612009105331152 0.29854922746964191 0 0.25239385184284652 0.28364063616437057 0 0.24618659584610841 0.29290476158000678 0 0.26612009105331152 0.29854922746964191 0 0.26612009105331152 0.29854922746964191 0 0.25239385184284652 0.28364063616437057 0 0.26372668600921911 0.2803753925267472 0 0.24618659584610841 0.29290476158000678 0 0.26612009105331152 0.29854922746964191 0 0.25354031088216911 0.30701755471271791 0 0.26612009105331152 0.29854922746964191 0 0.25354031088216911 0.30701755471271791 0 0.26439558201671598 0.30956530779622649 0 0.26612009105331152 0.29854922746964191 0 0.25354031088216911 0.30701755471271791 0 0.24833316285785609 0.25613966282899547 0 0.26865748651628951 0.26435382959629539 0 0.25362407497537798 0.24198656716010189 0 0.26865748651628951 0.26435382959629539 0 0.26751790208001708 0.24888402836805171 0 0.25362407497537798 0.24198656716010189 0 0.26865748651628951 0.26435382959629539 0 0.25362407497537798 0.24198656716010189 0 0.2490231873831896 0.26987704113164152 0 0.24833316285785609 0.25613966282899547 0 0.26865748651628951 0.26435382959629539 0 0.2490231873831896 0.26987704113164152 0 0.26372668600921911 0.2803753925267472 0 0.26865748651628951 0.26435382959629539 0 0.2490231873831896 0.26987704113164152 0 0.25239385184284652 0.28364063616437057 0 0.26372668600921911 0.2803753925267472 0 0.28369089805719983 0.28672109203248969 0 0.26372668600921911 0.2803753925267472 0 0.26865748651628951 0.26435382959629539 0 0.28369089805719983 0.28672109203248969 0 0.26865748651628951 0.26435382959629539 0 0.28369089805719983 0.28672109203248969 0 0.26865748651628951 0.26435382959629539 0 0.28659601773002719 0.26765962618185329 0 0.26865748651628951 0.26435382959629539 0 0.28245996340297719 0.25304914615146101 0 0.28659601773002719 0.26765962618185329 0 0.26865748651628951 0.26435382959629539 0 0.28245996340297719 0.25304914615146101 0 0.26751790208001708 0.24888402836805171 0 0.28245996340297719 0.25304914615146101 0 0.28659601773002719 0.26765962618185329 0 0.29866360681950233 0.26056392980329079 0 0.28245996340297719 0.25304914615146101 0 0.29866360681950233 0.26056392980329079 0 0.30195988737631652 0.24563942300354619 0 0.28369089805719983 0.28672109203248969 0 0.30199768788179682 0.27439751523736111 0 0.28369089805719983 0.28672109203248969 0 0.28659601773002719 0.26765962618185329 0 0.30199768788179682 0.27439751523736111 0 0.28659601773002719 0.26765962618185329 0 0.30199768788179682 0.27439751523736111 0 0.29866360681950233 0.26056392980329079 0 0.30199768788179682 0.27439751523736111 0 0.32030447770639381 0.26207393844223242 0 0.30199768788179682 0.27439751523736111 0 0.29866360681950233 0.26056392980329079 0 0.32030447770639381 0.26207393844223242 0 0.29866360681950233 0.26056392980329079 0 0.32030447770639381 0.26207393844223242 0 0.30195988737631652 0.24563942300354619 0 0.32030447770639381 0.26207393844223242 0 0.33861126753099069 0.24975036164710371 0 0.31719882278570838 0.23891526540108851 0 0.32030447770639381 0.26207393844223242 0 0.35011037640450471 0.26366625953798178 0 0.33861126753099069 0.24975036164710371 0 0.32030447770639381 0.26207393844223242 0 0.33861126753099069 0.24975036164710371 0 0.32030447770639381 0.26207393844223242 0 0.33854163499105328 0.27994847795588301 0 0.35011037640450471 0.26366625953798178 0 0.30199768788179682 0.27439751523736111 0 0.32030447770639381 0.26207393844223242 0 0.32015314000251788 0.28049612034490712 0 0.32030447770639381 0.26207393844223242 0 0.33854163499105328 0.27994847795588301 0 0.32015314000251788 0.28049612034490712 0 0.3106920420600161 0.29233443947487192 0 0.32015314000251788 0.28049612034490712 0 0.3292298573733291 0.29372623061418701 0 0.3106920420600161 0.29233443947487192 0 0.31984653327915108 0.30961220749674317 0 0.3292298573733291 0.29372623061418701 0 0.33264306588191361 0.31662950225249731 0 0.31984653327915108 0.30961220749674317 0 0.34246709834719702 0.30518107207717871 0 0.31984653327915108 0.30961220749674317 0 0.34246709834719702 0.30518107207717871 0 0.3292298573733291 0.29372623061418701 0 0.31984653327915108 0.30961220749674317 0 0.34246709834719702 0.30518107207717871 0 0.34246709834719702 0.30518107207717871 0 0.3292298573733291 0.29372623061418701 0 0.3514077083073372 0.29086852976110572 0 0.33854163499105328 0.27994847795588301 0 0.3292298573733291 0.29372623061418701 0 0.3514077083073372 0.29086852976110572 0 0.33854163499105328 0.27994847795588301 0 0.32015314000251788 0.28049612034490712 0 0.3292298573733291 0.29372623061418701 0 0.33854163499105328 0.27994847795588301 0 0.3514077083073372 0.29086852976110572 0 0.36369661966943051 0.27555304686427518 0 0.34246709834719702 0.30518107207717871 0 0.36508766341524351 0.30074993665761629 0 0.34246709834719702 0.30518107207717871 0 0.3514077083073372 0.29086852976110572 0 0.36508766341524351 0.30074993665761629 0 0.35225630932364449 0.31724576517309849 0 0.34246709834719702 0.30518107207717871 0 0.36508766341524351 0.30074993665761629 0 0.36508766341524351 0.30074993665761629 0 0.38237199884401968 0.29736411359388037 0 0.36508766341524351 0.30074993665761629 0 0.37321167364270152 0.3003576316808339 0 0.38237199884401968 0.29736411359388037 0 0.35225630932364449 0.31724576517309849 0 0.36569688241575388 0.31178512089397031 0 0.36508766341524351 0.30074993665761629 0 0.36569688241575388 0.31178512089397031 0 0.36508766341524351 0.30074993665761629 0 0.36569688241575388 0.31178512089397031 0 0.36508766341524351 0.30074993665761629 0 0.37321167364270152 0.3003576316808339 0 0.36569688241575388 0.31178512089397031 0 0.37321167364270152 0.3003576316808339 0 0.36569688241575388 0.31178512089397031 0 0.37321167364270152 0.3003576316808339 0 0.3747307118871962 0.31007092728642682 0 0.36508766341524351 0.30074993665761629 0 0.37558339054310558 0.28715513877437437 0 0.38237199884401968 0.29736411359388037 0 0.3514077083073372 0.29086852976110572 0 0.36508766341524351 0.30074993665761629 0 0.36369661966943051 0.27555304686427518 0 0.36508766341524351 0.30074993665761629 0 0.36369661966943051 0.27555304686427518 0 0.37558339054310558 0.28715513877437437 0 0.36508766341524351 0.30074993665761629 0 0.36369661966943051 0.27555304686427518 0 0.36369661966943051 0.27555304686427518 0 0.37103327202197922 0.26251117002766122 0 0.38052372977493981 0.27570756151612791 0 0.36369661966943051 0.27555304686427518 0 0.38052372977493981 0.27570756151612791 0 0.37558339054310558 0.28715513877437437 0 0.37103327202197922 0.26251117002766122 0 0.36230557592361717 0.250356157070934 0 0.3709836007202828 0.23729508748735409 0 0.36369661966943051 0.27555304686427518 0 0.36230557592361717 0.250356157070934 0 0.36369661966943051 0.27555304686427518 0 0.37103327202197922 0.26251117002766122 0 0.36230557592361717 0.250356157070934 0 0.35011037640450471 0.26366625953798178 0 0.33861126753099069 0.24975036164710371 0 0.35062680961752463 0.24346715051183601 0 0.36369661966943051 0.27555304686427518 0 0.36230557592361717 0.250356157070934 0 0.35011037640450471 0.26366625953798178 0 0.36230557592361717 0.250356157070934 0 0.35011037640450471 0.26366625953798178 0 0.35062680961752463 0.24346715051183601 0 0.33854163499105328 0.27994847795588301 0 0.36369661966943051 0.27555304686427518 0 0.35011037640450471 0.26366625953798178 0 0.40441355270960472 0.26761773357626151 0 0.38619176983072928 0.26047575165399511 0 0.40139993894117582 0.28365641582063622 0 0.40441355270960472 0.26761773357626151 0 0.40139993894117582 0.28365641582063622 0 0.41280579251651262 0.27878674758567712 0 0.38619176983072928 0.26047575165399511 0 0.40139993894117582 0.28365641582063622 0 0.40441355270960472 0.26761773357626151 0 0.38619176983072928 0.26047575165399511 0 0.40681097746815043 0.24944788258450881 0 0.38619176983072928 0.26047575165399511 0 0.38805339756136181 0.24091082639879571 0 0.40681097746815043 0.24944788258450881 0 0.37103327202197922 0.26251117002766122 0 0.38619176983072928 0.26047575165399511 0 0.3709836007202828 0.23729508748735409 0 0.37103327202197922 0.26251117002766122 0 0.38619176983072928 0.26047575165399511 0 0.38052372977493981 0.27570756151612791 0 0.38619176983072928 0.26047575165399511 0 0.38052372977493981 0.27570756151612791 0 0.40139993894117582 0.28365641582063622 0 0.38052372977493981 0.27570756151612791 0 0.3869509077038058 0.28747759901436271 0 0.40139993894117582 0.28365641582063622 0 0.3869509077038058 0.28747759901436271 0 0.38237199884401968 0.29736411359388037 0 0.39965633427279618 0.2939782905301464 0 0.38052372977493981 0.27570756151612791 0 0.37558339054310558 0.28715513877437437 0 0.3869509077038058 0.28747759901436271 0 0.37558339054310558 0.28715513877437437 0 0.3869509077038058 0.28747759901436271 0 0.38237199884401968 0.29736411359388037 0 0.3747307118871962 0.31007092728642682 0 0.38118859000119681 0.305856901547644 0 0.38307533956369538 0.31502867493908338 0 0.37321167364270152 0.3003576316808339 0 0.3747307118871962 0.31007092728642682 0 0.38118859000119681 0.305856901547644 0 0.37321167364270152 0.3003576316808339 0 0.38118859000119681 0.305856901547644 0 0.38237199884401968 0.29736411359388037 0 0.38118859000119681 0.305856901547644 0 0.38237199884401968 0.29736411359388037 0 0.39255322606837117 0.30646316023799558 0 0.38118859000119681 0.305856901547644 0 0.39255322606837117 0.30646316023799558 0 0.38307533956369538 0.31502867493908338 0 0.38237199884401968 0.29736411359388037 0 0.39255322606837117 0.30646316023799558 0 0.39965633427279618 0.2939782905301464 0 0.39255322606837117 0.30646316023799558 0 0.40439469230525998 0.30574836003509509 0 0.39965633427279618 0.2939782905301464 0 0.39965633427279618 0.2939782905301464 0 0.40139993894117582 0.28365641582063622 0 0.41660810805162241 0.30683707998727727 0 0.38237199884401968 0.29736411359388037 0 0.39965633427279618 0.2939782905301464 0 0.3869509077038058 0.28747759901436271 0 0.39965633427279618 0.2939782905301464 0 0.40139993894117582 0.28365641582063622 0 0.40139993894117582 0.28365641582063622 0 0.41464087202507938 0.29028068493103498 0 0.41280579251651262 0.27878674758567712 0 0.40139993894117582 0.28365641582063622 0 0.41464087202507938 0.29028068493103498 0 0.41660810805162241 0.30683707998727727 0 0.40139993894117582 0.28365641582063622 0 0.41660810805162241 0.30683707998727727 0 0.41464087202507938 0.29028068493103498 0 0.42043798511647629 0.29525520944793682 0 0.42195253549960959 0.28686797181364782 0 0.41464087202507938 0.29028068493103498 0 0.42195253549960959 0.28686797181364782 0 0.41280579251651262 0.27878674758567712 0 0.40439469230525998 0.30574836003509509 0 0.39965633427279618 0.2939782905301464 0 0.41660810805162241 0.30683707998727727 0 0.41464087202507938 0.29028068493103498 0 0.42043798511647629 0.29525520944793682 0 0.41660810805162241 0.30683707998727727 0 0.41660810805162241 0.30683707998727727 0 0.43116992368473539 0.29763207065728697 0 0.42973467267887527 0.31487202105601769 0 0.42043798511647629 0.29525520944793682 0 0.41660810805162241 0.30683707998727727 0 0.43116992368473539 0.29763207065728697 0 0.43116992368473539 0.29763207065728697 0 0.42195253549960959 0.28686797181364782 0 0.43325721770093989 0.28163781796365162 0 0.43116992368473539 0.29763207065728697 0 0.43325721770093989 0.28163781796365162 0 0.44385931827711211 0.2888039680942458 0 0.42043798511647629 0.29525520944793682 0 0.43116992368473539 0.29763207065728697 0 0.42195253549960959 0.28686797181364782 0 0.43521126246971009 0.27008715467975902 0 0.42413874710495247 0.27327829716177238 0 0.42682444425688543 0.2568086017734223 0 0.43325721770093989 0.28163781796365162 0 0.43521126246971009 0.27008715467975902 0 0.42413874710495247 0.27327829716177238 0 0.42195253549960959 0.28686797181364782 0 0.43325721770093989 0.28163781796365162 0 0.42413874710495247 0.27327829716177238 0 0.42195253549960959 0.28686797181364782 0 0.42413874710495247 0.27327829716177238 0 0.41280579251651262 0.27878674758567712 0 0.42413874710495247 0.27327829716177238 0 0.41485928479145512 0.26572187023649008 0 0.41280579251651262 0.27878674758567712 0 0.40441355270960472 0.26761773357626151 0 0.41485928479145512 0.26572187023649008 0 0.41280579251651262 0.27878674758567712 0 0.41485928479145512 0.26572187023649008 0 0.42682444425688543 0.2568086017734223 0 0.40681097746815043 0.24944788258450881 0 0.40441355270960472 0.26761773357626151 0 0.41485928479145512 0.26572187023649008 0 0.40681097746815043 0.24944788258450881 0 0.42682444425688543 0.2568086017734223 0 0.44144799578287552 0.25063407380050812 0 0.42551448812707099 0.2427765896032141 0 0.42413874710495247 0.27327829716177238 0 0.41485928479145512 0.26572187023649008 0 0.42682444425688543 0.2568086017734223 0 0.43521126246971009 0.27008715467975902 0 0.42682444425688543 0.2568086017734223 0 0.43660547741770611 0.26004515013266138 0 0.42682444425688543 0.2568086017734223 0 0.43660547741770611 0.26004515013266138 0 0.44144799578287552 0.25063407380050812 0 0.43521126246971009 0.27008715467975902 0 0.43660547741770611 0.26004515013266138 0 0.44531054430199107 0.26489027758499728 0 0.43660547741770611 0.26004515013266138 0 0.44144799578287552 0.25063407380050812 0 0.44531054430199107 0.26489027758499728 0 0.44531054430199107 0.26489027758499728 0 0.45381995667613301 0.27241310458770751 0 0.45318009078529609 0.25750025464848258 0 0.44144799578287552 0.25063407380050812 0 0.44531054430199107 0.26489027758499728 0 0.45318009078529609 0.25750025464848258 0 0.44144799578287552 0.25063407380050812 0 0.45318009078529609 0.25750025464848258 0 0.45233578662085638 0.24345101764042529 0 0.43325721770093989 0.28163781796365162 0 0.43521126246971009 0.27008715467975902 0 0.44454231896971419 0.27725584667109537 0 0.43521126246971009 0.27008715467975902 0 0.44531054430199107 0.26489027758499728 0 0.44454231896971419 0.27725584667109537 0 0.44531054430199107 0.26489027758499728 0 0.44454231896971419 0.27725584667109537 0 0.45381995667613301 0.27241310458770751 0 0.44454231896971419 0.27725584667109537 0 0.45381995667613301 0.27241310458770751 0 0.45587366899779719 0.28594313819822459 0 0.46226671923173979 0.27441678407397702 0 0.47140070530682121 0.26588540816193718 0 0.46925309592816628 0.28306729418006071 0 0.45381995667613301 0.27241310458770751 0 0.46226671923173979 0.27441678407397702 0 0.45587366899779719 0.28594313819822459 0 0.45381995667613301 0.27241310458770751 0 0.46226671923173979 0.27441678407397702 0 0.46104061765968662 0.26336652099148539 0 0.46226671923173979 0.27441678407397702 0 0.46104061765968662 0.26336652099148539 0 0.47140070530682121 0.26588540816193718 0 0.46226671923173979 0.27441678407397702 0 0.46925309592816628 0.28306729418006071 0 0.45587366899779719 0.28594313819822459 0 0.45318009078529609 0.25750025464848258 0 0.46104061765968662 0.26336652099148539 0 0.46453561629844292 0.24661705348532301 0 0.46104061765968662 0.26336652099148539 0 0.47140070530682121 0.26588540816193718 0 0.46453561629844292 0.24661705348532301 0 0.47140070530682121 0.26588540816193718 0 0.46453561629844292 0.24661705348532301 0 0.45381995667613301 0.27241310458770751 0 0.45318009078529609 0.25750025464848258 0 0.46104061765968662 0.26336652099148539 0 0.47140070530682121 0.26588540816193718 0 0.46453561629844292 0.24661705348532301 0 0.47400380033395922 0.24505942253569801 0 0.47140070530682121 0.26588540816193718 0 0.48432671999912003 0.27074297083439619 0 0.48722746125550248 0.25680108687804298 0 0.47140070530682121 0.26588540816193718 0 0.47400380033395922 0.24505942253569801 0 0.47140070530682121 0.26588540816193718 0 0.48722746125550248 0.25680108687804298 0 0.47400380033395922 0.24505942253569801 0 0.47140070530682121 0.26588540816193718 0 0.47738422579558121 0.28267945043167297 0 0.46925309592816628 0.28306729418006071 0 0.47140070530682121 0.26588540816193718 0 0.47738422579558121 0.28267945043167297 0 0.47140070530682121 0.26588540816193718 0 0.46925309592816628 0.28306729418006071 0 0.47140070530682121 0.26588540816193718 0 0.48432671999912003 0.27074297083439619 0 0.47738422579558121 0.28267945043167297 0 0.48432671999912003 0.27074297083439619 0 0.48824932686768302 0.27788652692554627 0 0.47738422579558121 0.28267945043167297 0 0.5 0.27093445387433468 0 0.48824932686768302 0.27788652692554627 0 0.49128636167603063 0.28718923256178158 0 0.48432671999912003 0.27074297083439619 0 0.5 0.27093445387433468 0 0.48824932686768302 0.27788652692554627 0 0.48432671999912003 0.27074297083439619 0 0.5 0.27093445387433468 0 0.48722746125550248 0.25680108687804298 0 0.5 0.27093445387433468 0 0.48722746125550248 0.25680108687804298 0 0.5 0.2429459620465986 0 0.5 0.29892294570207067 0 0.48336774628434093 0.29947349270140883 0 0.48572280556457909 0.31674877684638503 0 0.5 0.27093445387433468 0 0.5 0.29892294570207067 0 0.49128636167603063 0.28718923256178158 0 0.5 0.29892294570207067 0 0.49128636167603063 0.28718923256178158 0 0.48336774628434093 0.29947349270140883 0 0.48824932686768302 0.27788652692554627 0 0.49128636167603063 0.28718923256178158 0 0.47738422579558121 0.28267945043167297 0 0.47738422579558121 0.28267945043167297 0 0.48336774628434093 0.29947349270140883 0 0.49128636167603063 0.28718923256178158 0 0.47738422579558121 0.28267945043167297 0 0.48336774628434093 0.29947349270140883 0 0.47738422579558121 0.28267945043167297 0 0.47366304688259409 0.29009341251698623 0 0.48336774628434093 0.29947349270140883 0 0.47738422579558121 0.28267945043167297 0 0.46925309592816628 0.28306729418006071 0 0.47366304688259409 0.29009341251698623 0 0.47366304688259409 0.29009341251698623 0 0.46924741423809552 0.29666607615803448 0 0.48336774628434093 0.29947349270140883 0 0.46925309592816628 0.28306729418006071 0 0.47366304688259409 0.29009341251698623 0 0.46924741423809552 0.29666607615803448 0 0.48336774628434093 0.29947349270140883 0 0.46942884594068313 0.31081165325195081 0 0.48572280556457909 0.31674877684638503 0 0.46924741423809552 0.29666607615803448 0 0.48336774628434093 0.29947349270140883 0 0.46942884594068313 0.31081165325195081 0 0.46942884594068313 0.31081165325195081 0 0.4561502658528459 0.30215510890912239 0 0.4507753780588396 0.32421278417098742 0 0.46924741423809552 0.29666607615803448 0 0.46942884594068313 0.31081165325195081 0 0.4561502658528459 0.30215510890912239 0 0.46924741423809552 0.29666607615803448 0 0.4561502658528459 0.30215510890912239 0 0.45587366899779719 0.28594313819822459 0 0.46925309592816628 0.28306729418006071 0 0.46924741423809552 0.29666607615803448 0 0.45587366899779719 0.28594313819822459 0 0.43116992368473539 0.29763207065728697 0 0.4561502658528459 0.30215510890912239 0 0.44385931827711211 0.2888039680942458 0 0.4561502658528459 0.30215510890912239 0 0.45587366899779719 0.28594313819822459 0 0.44385931827711211 0.2888039680942458 0 0.44454231896971419 0.27725584667109537 0 0.45587366899779719 0.28594313819822459 0 0.44385931827711211 0.2888039680942458 0 0.43325721770093989 0.28163781796365162 0 0.44454231896971419 0.27725584667109537 0 0.44385931827711211 0.2888039680942458 0 0.4561502658528459 0.30215510890912239 0 0.42973467267887527 0.31487202105601769 0 0.43116992368473539 0.29763207065728697 0 0.4561502658528459 0.30215510890912239 0 0.42973467267887527 0.31487202105601769 0 0.4561502658528459 0.30215510890912239 0 0.4507753780588396 0.32421278417098742 0 0.42973467267887527 0.31487202105601769 0 0.4507753780588396 0.32421278417098742 0 0.46113793839215989 0.33891326342542871 0 0.44266120926801639 0.35195184514841588 0 0.4507753780588396 0.32421278417098742 0 0.44266120926801639 0.35195184514841588 0 0.42911489360418081 0.33588118081906881 0 0.4507753780588396 0.32421278417098742 0 0.46113793839215989 0.33891326342542871 0 0.47130946564539788 0.3256136807257668 0 0.46942884594068313 0.31081165325195081 0 0.4507753780588396 0.32421278417098742 0 0.47130946564539788 0.3256136807257668 0 0.47130946564539788 0.3256136807257668 0 0.48515430038063212 0.33961612908598438 0 0.48572280556457909 0.31674877684638503 0 0.46942884594068313 0.31081165325195081 0 0.47130946564539788 0.3256136807257668 0 0.48572280556457909 0.31674877684638503 0 0.46113793839215989 0.33891326342542871 0 0.47130946564539788 0.3256136807257668 0 0.48515430038063212 0.33961612908598438 0 0.48515430038063212 0.33961612908598438 0 0.5 0.32691143752980678 0 0.50000000000000011 0.35489992935754278 0 0.5 0.29892294570207067 0 0.48572280556457909 0.31674877684638503 0 0.5 0.32691143752980678 0 0.48515430038063212 0.33961612908598438 0 0.48572280556457909 0.31674877684638503 0 0.5 0.32691143752980678 0 0.48515430038063212 0.33961612908598438 0 0.50000000000000011 0.35489992935754278 0 0.47133060463400828 0.3534258872529793 0 0.50000000000000011 0.35489992935754278 0 0.47133060463400828 0.3534258872529793 0 0.46113793839215989 0.33891326342542871 0 0.48515430038063212 0.33961612908598438 0 0.47133060463400828 0.3534258872529793 0 0.50000000000000011 0.35489992935754278 0 0.47133060463400828 0.3534258872529793 0 0.46962228214009721 0.3821705107567076 0 0.47133060463400828 0.3534258872529793 0 0.45077515504990678 0.37217729755309331 0 0.46962228214009721 0.3821705107567076 0 0.46113793839215989 0.33891326342542871 0 0.47133060463400828 0.3534258872529793 0 0.44266120926801639 0.35195184514841588 0 0.47133060463400828 0.3534258872529793 0 0.44266120926801639 0.35195184514841588 0 0.45077515504990678 0.37217729755309331 0 0.47133060463400828 0.3534258872529793 0 0.44266120926801639 0.35195184514841588 0 0.44266120926801639 0.35195184514841588 0 0.45077515504990678 0.37217729755309331 0 0.42558359003088531 0.37622174522676632 0 0.44266120926801639 0.35195184514841588 0 0.41399181390202461 0.35047780304385251 0 0.42558359003088531 0.37622174522676632 0 0.40810779316890422 0.36958752992744393 0 0.41399181390202461 0.35047780304385251 0 0.42558359003088531 0.37622174522676632 0 0.40810779316890422 0.36958752992744393 0 0.41399181390202461 0.35047780304385251 0 0.40025485599907118 0.35986697102707321 0 0.44266120926801639 0.35195184514841588 0 0.41399181390202461 0.35047780304385251 0 0.44266120926801639 0.35195184514841588 0 0.41399181390202461 0.35047780304385251 0 0.42911489360418081 0.33588118081906881 0 0.4507753780588396 0.32421278417098742 0 0.42911489360418081 0.33588118081906881 0 0.42973467267887527 0.31487202105601769 0 0.41660810805162241 0.30683707998727727 0 0.42973467267887527 0.31487202105601769 0 0.4033190795049047 0.32758893320291299 0 0.40439469230525998 0.30574836003509509 0 0.41660810805162241 0.30683707998727727 0 0.4033190795049047 0.32758893320291299 0 0.42911489360418081 0.33588118081906881 0 0.42973467267887527 0.31487202105601769 0 0.4033190795049047 0.32758893320291299 0 0.42973467267887527 0.31487202105601769 0 0.4033190795049047 0.32758893320291299 0 0.41399181390202461 0.35047780304385251 0 0.42911489360418081 0.33588118081906881 0 0.4033190795049047 0.32758893320291299 0 0.41399181390202461 0.35047780304385251 0 0.3966448986950365 0.3430116422991098 0 0.4033190795049047 0.32758893320291299 0 0.3966448986950365 0.3430116422991098 0 0.4033190795049047 0.32758893320291299 0 0.38394628283718418 0.34497607201038472 0 0.39255322606837117 0.30646316023799558 0 0.4033190795049047 0.32758893320291299 0 0.38307533956369538 0.31502867493908338 0 0.39255322606837117 0.30646316023799558 0 0.40439469230525998 0.30574836003509509 0 0.4033190795049047 0.32758893320291299 0 0.4033190795049047 0.32758893320291299 0 0.38307533956369538 0.31502867493908338 0 0.37922798359812843 0.32704089172345152 0 0.37385616417817402 0.31823241320891321 0 0.3747307118871962 0.31007092728642682 0 0.38307533956369538 0.31502867493908338 0 0.37385616417817402 0.31823241320891321 0 0.38307533956369538 0.31502867493908338 0 0.37922798359812843 0.32704089172345152 0 0.4033190795049047 0.32758893320291299 0 0.37922798359812843 0.32704089172345152 0 0.37690348633093412 0.3403058453498084 0 0.4033190795049047 0.32758893320291299 0 0.37690348633093412 0.3403058453498084 0 0.38394628283718418 0.34497607201038472 0 0.4033190795049047 0.32758893320291299 0 0.37690348633093412 0.3403058453498084 0 0.37269425213457158 0.33345783606452611 0 0.37922798359812843 0.32704089172345152 0 0.37690348633093412 0.3403058453498084 0 0.36716237452420092 0.34807005901943899 0 0.38532241853603277 0.34900376093928898 0 0.36716237452420092 0.34807005901943899 0 0.38394628283718418 0.34497607201038472 0 0.38532241853603277 0.34900376093928898 0 0.37472086759645967 0.35443798927705811 0 0.36716237452420092 0.34807005901943899 0 0.38532241853603277 0.34900376093928898 0 0.36716237452420092 0.34807005901943899 0 0.37690348633093412 0.3403058453498084 0 0.38394628283718418 0.34497607201038472 0 0.3966448986950365 0.3430116422991098 0 0.38394628283718418 0.34497607201038472 0 0.38532241853603277 0.34900376093928898 0 0.38394628283718418 0.34497607201038472 0 0.38532241853603277 0.34900376093928898 0 0.37472086759645967 0.35443798927705811 0 0.38532241853603277 0.34900376093928898 0 0.37542620182073411 0.36441149642875542 0 0.38532241853603277 0.34900376093928898 0 0.39268150166194582 0.37054240546244621 0 0.37542620182073411 0.36441149642875542 0 0.39268150166194582 0.37054240546244621 0 0.37979488271611062 0.38194681550263959 0 0.38532241853603277 0.34900376093928898 0 0.37542620182073411 0.36441149642875542 0 0.39268150166194582 0.37054240546244621 0 0.38532241853603277 0.34900376093928898 0 0.39268150166194582 0.37054240546244621 0 0.40025485599907118 0.35986697102707321 0 0.40810779316890422 0.36958752992744393 0 0.39268150166194582 0.37054240546244621 0 0.40025485599907118 0.35986697102707321 0 0.41399181390202461 0.35047780304385251 0 0.3966448986950365 0.3430116422991098 0 0.38532241853603277 0.34900376093928898 0 0.41399181390202461 0.35047780304385251 0 0.38532241853603277 0.34900376093928898 0 0.40025485599907118 0.35986697102707321 0 0.41399181390202461 0.35047780304385251 0 0.38532241853603277 0.34900376093928898 0 0.40004058478785892 0.39208104998560339 0 0.40739966791377191 0.41361969450876063 0 0.40810779316890422 0.36958752992744393 0 0.39268150166194582 0.37054240546244621 0 0.40004058478785892 0.39208104998560339 0 0.39268150166194582 0.37054240546244621 0 0.40004058478785892 0.39208104998560339 0 0.37979488271611062 0.38194681550263959 0 0.39268150166194582 0.37054240546244621 0 0.40004058478785892 0.39208104998560339 0 0.37463909598514877 0.4003032861346042 0 0.40004058478785892 0.39208104998560339 0 0.37979488271611062 0.38194681550263959 0 0.37463909598514877 0.4003032861346042 0 0.40004058478785892 0.39208104998560339 0 0.38985399368029139 0.41738848607403761 0 0.38985399368029139 0.41738848607403761 0 0.4147587510396849 0.43515833903191781 0 0.38273982735140999 0.44187078628995502 0 0.35954603500387389 0.42129776049338469 0 0.38985399368029139 0.41738848607403761 0 0.38273982735140999 0.44187078628995502 0 0.38985399368029139 0.41738848607403761 0 0.40739966791377191 0.41361969450876063 0 0.4147587510396849 0.43515833903191781 0 0.40004058478785892 0.39208104998560339 0 0.38985399368029139 0.41738848607403761 0 0.40739966791377191 0.41361969450876063 0 0.40739966791377191 0.41361969450876063 0 0.43098981447030699 0.41756063158309642 0 0.42240068125390279 0.39931451018979658 0 0.40739966791377191 0.41361969450876063 0 0.4147587510396849 0.43515833903191781 0 0.43098981447030699 0.41756063158309642 0 0.40739966791377191 0.41361969450876063 0 0.4147587510396849 0.43515833903191781 0 0.4147587510396849 0.43515833903191781 0 0.43517982953899748 0.43698210956832301 0 0.43098981447030699 0.41756063158309642 0 0.42240068125390279 0.39931451018979658 0 0.42558359003088531 0.37622174522676632 0 0.44467808917652729 0.3971164993805974 0 0.43098981447030699 0.41756063158309642 0 0.42240068125390279 0.39931451018979658 0 0.44467808917652729 0.3971164993805974 0 0.40004058478785892 0.39208104998560339 0 0.40739966791377191 0.41361969450876063 0 0.42240068125390279 0.39931451018979658 0 0.40810779316890422 0.36958752992744393 0 0.40004058478785892 0.39208104998560339 0 0.42558359003088531 0.37622174522676632 0 0.40004058478785892 0.39208104998560339 0 0.42240068125390279 0.39931451018979658 0 0.42558359003088531 0.37622174522676632 0 0.50000000000000011 0.35489992935754278 0 0.49091572235028907 0.39454473684102742 0 0.5 0.43534704771476829 0 0.45077515504990678 0.37217729755309331 0 0.42558359003088531 0.37622174522676632 0 0.44467808917652729 0.3971164993805974 0 0.44467808917652729 0.3971164993805974 0 0.46962228214009721 0.3821705107567076 0 0.4643576351474219 0.40898138550871538 0 0.45077515504990678 0.37217729755309331 0 0.44467808917652729 0.3971164993805974 0 0.46962228214009721 0.3821705107567076 0 0.50000000000000011 0.35489992935754278 0 0.46962228214009721 0.3821705107567076 0 0.49091572235028907 0.39454473684102742 0 0.46962228214009721 0.3821705107567076 0 0.47989063395239873 0.4063752928604436 0 0.4643576351474219 0.40898138550871538 0 0.46962228214009721 0.3821705107567076 0 0.49091572235028907 0.39454473684102742 0 0.47989063395239873 0.4063752928604436 0 0.49091572235028907 0.39454473684102742 0 0.5 0.43534704771476829 0 0.49084446497230649 0.42240290667806868 0 0.49084446497230649 0.42240290667806868 0 0.47575785709702961 0.43624957780652712 0 0.49077320759432391 0.45026107651510999 0 0.5 0.43534704771476829 0 0.49084446497230649 0.42240290667806868 0 0.49077320759432391 0.45026107651510999 0 0.49084446497230649 0.42240290667806868 0 0.49077320759432391 0.45026107651510999 0 0.49091572235028907 0.39454473684102742 0 0.49084446497230649 0.42240290667806868 0 0.47989063395239873 0.4063752928604436 0 0.49091572235028907 0.39454473684102742 0 0.49084446497230649 0.42240290667806868 0 0.49084446497230649 0.42240290667806868 0 0.47989063395239873 0.4063752928604436 0 0.47527987411704481 0.42048789944690401 0 0.47989063395239873 0.4063752928604436 0 0.47527987411704481 0.42048789944690401 0 0.4643576351474219 0.40898138550871538 0 0.49084446497230649 0.42240290667806868 0 0.47527987411704481 0.42048789944690401 0 0.47575785709702961 0.43624957780652712 0 0.47527987411704481 0.42048789944690401 0 0.47575785709702961 0.43624957780652712 0 0.46449902756008232 0.42654050111804448 0 0.47575785709702961 0.43624957780652712 0 0.46449902756008232 0.42654050111804448 0 0.4569326817410051 0.44263875232240579 0 0.46449902756008232 0.42654050111804448 0 0.45000180411319679 0.42131958752857712 0 0.4569326817410051 0.44263875232240579 0 0.47527987411704481 0.42048789944690401 0 0.46449902756008232 0.42654050111804448 0 0.4643576351474219 0.40898138550871538 0 0.46449902756008232 0.42654050111804448 0 0.4643576351474219 0.40898138550871538 0 0.45000180411319679 0.42131958752857712 0 0.43098981447030699 0.41756063158309642 0 0.44467808917652729 0.3971164993805974 0 0.45000180411319679 0.42131958752857712 0 0.44467808917652729 0.3971164993805974 0 0.4643576351474219 0.40898138550871538 0 0.45000180411319679 0.42131958752857712 0 0.43517982953899748 0.43698210956832301 0 0.45000180411319679 0.42131958752857712 0 0.4569326817410051 0.44263875232240579 0 0.43517982953899748 0.43698210956832301 0 0.43098981447030699 0.41756063158309642 0 0.45000180411319679 0.42131958752857712 0 0.5 0.5 0 0.46055704912556211 0.47210705674341608 0 0.40698052407234181 0.5 0 0.4569326817410051 0.44263875232240579 0 0.46055704912556211 0.47210705674341608 0 0.42920372833319081 0.45884020176861162 0 0.43517982953899748 0.43698210956832301 0 0.4569326817410051 0.44263875232240579 0 0.42920372833319081 0.45884020176861162 0 0.5 0.43534704771476829 0 0.5 0.5 0 0.49070195021634128 0.47811924635215147 0 0.4569326817410051 0.44263875232240579 0 0.47494454915485229 0.45587514194792211 0 0.46055704912556211 0.47210705674341608 0 0.5 0.43534704771476829 0 0.49077320759432391 0.45026107651510999 0 0.49070195021634128 0.47811924635215147 0 0.47575785709702961 0.43624957780652712 0 0.4569326817410051 0.44263875232240579 0 0.47494454915485229 0.45587514194792211 0 0.47575785709702961 0.43624957780652712 0 0.47494454915485229 0.45587514194792211 0 0.49077320759432391 0.45026107651510999 0 0.47494454915485229 0.45587514194792211 0 0.49070195021634128 0.47811924635215147 0 0.46055704912556211 0.47210705674341608 0 0.49077320759432391 0.45026107651510999 0 0.49070195021634128 0.47811924635215147 0 0.47494454915485229 0.45587514194792211 0 0.49077320759432391 0.45026107651510999 0 0.49070195021634128 0.47811924635215147 0 0.5 0.5 0 0.49070195021634128 0.47811924635215147 0 0.46055704912556211 0.47210705674341608 0 0.40698052407234181 0.5 0 0.42920372833319081 0.45884020176861162 0 0.40101810193379228 0.46073765985147591 0 0.46055704912556211 0.47210705674341608 0 0.40698052407234181 0.5 0 0.42920372833319081 0.45884020176861162 0 0.4147587510396849 0.43515833903191781 0 0.43517982953899748 0.43698210956832301 0 0.42920372833319081 0.45884020176861162 0 0.4147587510396849 0.43515833903191781 0 0.42920372833319081 0.45884020176861162 0 0.40101810193379228 0.46073765985147591 0 0.4147587510396849 0.43515833903191781 0 0.40101810193379228 0.46073765985147591 0 0.38273982735140999 0.44187078628995502 0 0.37140767887233378 0.4678189721668945 0 0.40101810193379228 0.46073765985147591 0 0.38273982735140999 0.44187078628995502 0 0.37140767887233378 0.4678189721668945 0 0.40698052407234181 0.5 0 0.40101810193379228 0.46073765985147591 0 0.33045006035331009 0.078691448835017053 0 0.32982883334218988 0.089258981000778143 0 0.33848474441423959 0.083155094931469234 0 0.33045006035331009 0.078691448835017053 0 0.33848474441423959 0.083155094931469234 0 0.33685661047516158 0.072687529884603225 0 0.33848474441423959 0.083155094931469234 0 0.34119351951095578 0.096226331280685987 0 0.34835959161986918 0.084673188682757514 0 0.32982883334218988 0.089258981000778143 0 0.33848474441423959 0.083155094931469234 0 0.34119351951095578 0.096226331280685987 0 0.33848474441423959 0.083155094931469234 0 0.33685661047516158 0.072687529884603225 0 0.34536281903177263 0.076699082704647883 0 0.33685661047516158 0.072687529884603225 0 0.34391902298020371 0.067932157386910996 0 0.34536281903177263 0.076699082704647883 0 0.33685661047516158 0.072687529884603225 0 0.34391902298020371 0.067932157386910996 0 0.33662296950832232 0.060164064639178637 0 0.33685661047516158 0.072687529884603225 0 0.32682774302441669 0.069019416200788677 0 0.33662296950832232 0.060164064639178637 0 0.33045006035331009 0.078691448835017053 0 0.33685661047516158 0.072687529884603225 0 0.32682774302441669 0.069019416200788677 0 0.33045006035331009 0.078691448835017053 0 0.32682774302441669 0.069019416200788677 0 0.32025237051054273 0.079336222157445971 0 0.32682774302441669 0.069019416200788677 0 0.31508517942847492 0.064820201797660695 0 0.32025237051054273 0.079336222157445971 0 0.32682774302441669 0.069019416200788677 0 0.31508517942847492 0.064820201797660695 0 0.32351484960425658 0.055818178810672282 0 0.31508517942847492 0.064820201797660695 0 0.32025237051054273 0.079336222157445971 0 0.30587997590519178 0.074980209488775984 0 0.32025237051054273 0.079336222157445971 0 0.31294491830095822 0.086072842240225267 0 0.30587997590519178 0.074980209488775984 0 0.33045006035331009 0.078691448835017053 0 0.32982883334218988 0.089258981000778143 0 0.32025237051054273 0.079336222157445971 0 0.32982883334218988 0.089258981000778143 0 0.32025237051054273 0.079336222157445971 0 0.31926346223124358 0.094445006620937244 0 0.32025237051054273 0.079336222157445971 0 0.31294491830095822 0.086072842240225267 0 0.31926346223124358 0.094445006620937244 0 0.31294491830095822 0.086072842240225267 0 0.31926346223124358 0.094445006620937244 0 0.30632450721106791 0.09720713675217231 0 0.31926346223124358 0.094445006620937244 0 0.31608678259692408 0.1110028163126368 0 0.3285794455534875 0.10317024490824769 0 0.31926346223124358 0.094445006620937244 0 0.31608678259692408 0.1110028163126368 0 0.30632450721106791 0.09720713675217231 0 0.32982883334218988 0.089258981000778143 0 0.31926346223124358 0.094445006620937244 0 0.3285794455534875 0.10317024490824769 0 0.31608678259692408 0.1110028163126368 0 0.32678166688432908 0.11634076463756909 0 0.31883649747246962 0.1267791566742949 0 0.31608678259692408 0.1110028163126368 0 0.30636543685551509 0.12686377281768879 0 0.31883649747246962 0.1267791566742949 0 0.31608678259692408 0.1110028163126368 0 0.32678166688432908 0.11634076463756909 0 0.3285794455534875 0.10317024490824769 0 0.32678166688432908 0.11634076463756909 0 0.33104275048739362 0.1292100661940139 0 0.31883649747246962 0.1267791566742949 0 0.34817965043660121 0.1079417689784621 0 0.33104275048739362 0.1292100661940139 0 0.32678166688432908 0.11634076463756909 0 0.33515540657455339 0.1105778351997958 0 0.33104275048739362 0.1292100661940139 0 0.33515540657455339 0.1105778351997958 0 0.34817965043660121 0.1079417689784621 0 0.33104275048739362 0.1292100661940139 0 0.34817965043660121 0.1079417689784621 0 0.34577693238427848 0.1237294979255172 0 0.33104275048739362 0.1292100661940139 0 0.32678166688432908 0.11634076463756909 0 0.33515540657455339 0.1105778351997958 0 0.3285794455534875 0.10317024490824769 0 0.32982883334218988 0.089258981000778143 0 0.3285794455534875 0.10317024490824769 0 0.34119351951095578 0.096226331280685987 0 0.33515540657455339 0.1105778351997958 0 0.3285794455534875 0.10317024490824769 0 0.34119351951095578 0.096226331280685987 0 0.33515540657455339 0.1105778351997958 0 0.34119351951095578 0.096226331280685987 0 0.34817965043660121 0.1079417689784621 0 0.34817965043660121 0.1079417689784621 0 0.36531655038580868 0.086673471762910501 0 0.35820472338473969 0.092726284300042705 0 0.34817965043660121 0.1079417689784621 0 0.36332160295925692 0.10222037117131 0 0.36531655038580868 0.086673471762910501 0 0.34119351951095578 0.096226331280685987 0 0.34817965043660121 0.1079417689784621 0 0.34985084696874869 0.092894608368561934 0 0.34817965043660121 0.1079417689784621 0 0.36531655038580868 0.086673471762910501 0 0.34817965043660121 0.1079417689784621 0 0.35820472338473969 0.092726284300042705 0 0.34985084696874869 0.092894608368561934 0 0.34817965043660121 0.1079417689784621 0 0.34577693238427848 0.1237294979255172 0 0.35961963696877319 0.1197714866938895 0 0.34817965043660121 0.1079417689784621 0 0.35961963696877319 0.1197714866938895 0 0.36332160295925692 0.10222037117131 0 0.37497358229320049 0.10154830355207579 0 0.36977539180858737 0.12938051713115239 0 0.35961963696877319 0.1197714866938895 0 0.37497358229320049 0.10154830355207579 0 0.36977539180858737 0.12938051713115239 0 0.35961963696877319 0.1197714866938895 0 0.37497358229320049 0.10154830355207579 0 0.35961963696877319 0.1197714866938895 0 0.36332160295925692 0.10222037117131 0 0.37497358229320049 0.10154830355207579 0 0.36332160295925692 0.10222037117131 0 0.36933037215504722 0.09474598502700303 0 0.36531655038580868 0.086673471762910501 0 0.36332160295925692 0.10222037117131 0 0.37497358229320049 0.10154830355207579 0 0.36933037215504722 0.09474598502700303 0 0.37497358229320049 0.10154830355207579 0 0.36933037215504722 0.09474598502700303 0 0.37684180320149779 0.091545452851138936 0 0.37199198662207139 0.089080455090655153 0 0.36531655038580868 0.086673471762910501 0 0.37647922074593232 0.083356910721568186 0 0.3686285935653984 0.082562954753238868 0 0.36531655038580868 0.086673471762910501 0 0.38800965188138797 0.067359575457755852 0 0.36933037215504722 0.09474598502700303 0 0.37199198662207139 0.089080455090655153 0 0.36531655038580868 0.086673471762910501 0 0.36933037215504722 0.09474598502700303 0 0.37199198662207139 0.089080455090655153 0 0.37684180320149779 0.091545452851138936 0 0.3686285935653984 0.082562954753238868 0 0.36344916698627688 0.0813333739240375 0 0.3664313866567897 0.074083432266429411 0 0.3686285935653984 0.082562954753238868 0 0.36344916698627688 0.0813333739240375 0 0.36531655038580868 0.086673471762910501 0 0.3686285935653984 0.082562954753238868 0 0.36531655038580868 0.086673471762910501 0 0.36344916698627688 0.0813333739240375 0 0.36531655038580868 0.086673471762910501 0 0.35788297275373993 0.085501793090345432 0 0.36344916698627688 0.0813333739240375 0 0.35788297275373993 0.085501793090345432 0 0.35898633156964799 0.077845217747263273 0 0.36531655038580868 0.086673471762910501 0 0.35820472338473969 0.092726284300042705 0 0.36531655038580868 0.086673471762910501 0 0.35820472338473969 0.092726284300042705 0 0.35788297275373993 0.085501793090345432 0 0.35820472338473969 0.092726284300042705 0 0.35788297275373993 0.085501793090345432 0 0.34985084696874869 0.092894608368561934 0 0.35788297275373993 0.085501793090345432 0 0.34835959161986918 0.084673188682757514 0 0.34985084696874869 0.092894608368561934 0 0.35788297275373993 0.085501793090345432 0 0.35268958346742479 0.079299313954674461 0 0.34835959161986918 0.084673188682757514 0 0.35788297275373993 0.085501793090345432 0 0.35268958346742479 0.079299313954674461 0 0.35898633156964799 0.077845217747263273 0 0.35268958346742479 0.079299313954674461 0 0.34835959161986918 0.084673188682757514 0 0.34536281903177263 0.076699082704647883 0 0.33848474441423959 0.083155094931469234 0 0.34835959161986918 0.084673188682757514 0 0.34536281903177263 0.076699082704647883 0 0.34119351951095578 0.096226331280685987 0 0.34835959161986918 0.084673188682757514 0 0.34985084696874869 0.092894608368561934 0 0.34391902298020371 0.067932157386910996 0 0.35073266194139169 0.06137377874550997 0 0.33662296950832232 0.060164064639178637 0 0.34391902298020371 0.067932157386910996 0 0.35186736123373658 0.072447211387471941 0 0.35073266194139169 0.06137377874550997 0 0.34391902298020371 0.067932157386910996 0 0.34536281903177263 0.076699082704647883 0 0.35186736123373658 0.072447211387471941 0 0.35268958346742479 0.079299313954674461 0 0.34536281903177263 0.076699082704647883 0 0.35186736123373658 0.072447211387471941 0 0.35186736123373658 0.072447211387471941 0 0.35898633156964799 0.077845217747263273 0 0.35996923520747798 0.068093361081839721 0 0.35268958346742479 0.079299313954674461 0 0.35186736123373658 0.072447211387471941 0 0.35898633156964799 0.077845217747263273 0 0.35186736123373658 0.072447211387471941 0 0.35996923520747798 0.068093361081839721 0 0.35073266194139169 0.06137377874550997 0 0.35996923520747798 0.068093361081839721 0 0.36906116384796089 0.065350349372853944 0 0.36273650599534107 0.057460176971509833 0 0.35996923520747798 0.068093361081839721 0 0.3664313866567897 0.074083432266429411 0 0.36906116384796089 0.065350349372853944 0 0.35898633156964799 0.077845217747263273 0 0.35996923520747798 0.068093361081839721 0 0.3664313866567897 0.074083432266429411 0 0.36344916698627688 0.0813333739240375 0 0.35898633156964799 0.077845217747263273 0 0.3664313866567897 0.074083432266429411 0 0.3686285935653984 0.082562954753238868 0 0.3664313866567897 0.074083432266429411 0 0.37368610641380767 0.069298039188229563 0 0.36906116384796089 0.065350349372853944 0 0.37368610641380767 0.069298039188229563 0 0.37629973611750162 0.057133884090869731 0 0.3664313866567897 0.074083432266429411 0 0.36906116384796089 0.065350349372853944 0 0.37368610641380767 0.069298039188229563 0 0.36273650599534107 0.057460176971509833 0 0.37051694284251602 0.045934513972437287 0 0.35116023099583488 0.04635088329888936 0 0.36906116384796089 0.065350349372853944 0 0.36273650599534107 0.057460176971509833 0 0.37629973611750162 0.057133884090869731 0 0.36273650599534107 0.057460176971509833 0 0.37051694284251602 0.045934513972437287 0 0.37629973611750162 0.057133884090869731 0 0.37051694284251602 0.045934513972437287 0 0.36660895407805488 0.032420410302755692 0 0.35116023099583488 0.04635088329888936 0 0.36660895407805488 0.032420410302755692 0 0.35116023099583488 0.04635088329888936 0 0.3452421180709313 0.02876578474876142 0 0.35116023099583488 0.04635088329888936 0 0.35073266194139169 0.06137377874550997 0 0.33662296950832232 0.060164064639178637 0 0.36273650599534107 0.057460176971509833 0 0.35116023099583488 0.04635088329888936 0 0.35073266194139169 0.06137377874550997 0 0.35996923520747798 0.068093361081839721 0 0.36273650599534107 0.057460176971509833 0 0.35073266194139169 0.06137377874550997 0 0.36029791100668068 0.016572440619523982 0 0.38809510434950978 0.014186894499208531 0 0.36528524993471517 -0.00050110304122203656 0 0.36660895407805488 0.032420410302755692 0 0.36029791100668068 0.016572440619523982 0 0.38809510434950978 0.014186894499208531 0 0.36660895407805488 0.032420410302755692 0 0.36029791100668068 0.016572440619523982 0 0.3452421180709313 0.02876578474876142 0 0.36029791100668068 0.016572440619523982 0 0.3452421180709313 0.02876578474876142 0 0.34114019158844411 0.0080730073898155515 0 0.36029791100668068 0.016572440619523982 0 0.34114019158844411 0.0080730073898155515 0 0.36528524993471517 -0.00050110304122203656 0 0.34114019158844411 0.0080730073898155515 0 0.31263439184484548 0.0093702238746103741 0 0.33125961192901288 -0.010090923622196969 0 0.3452421180709313 0.02876578474876142 0 0.34114019158844411 0.0080730073898155515 0 0.32534433912657179 0.025186145237551728 0 0.32534433912657179 0.025186145237551728 0 0.31263439184484548 0.0093702238746103741 0 0.30072048126169421 0.032930185378121341 0 0.34114019158844411 0.0080730073898155515 0 0.32534433912657179 0.025186145237551728 0 0.31263439184484548 0.0093702238746103741 0 0.33662296950832232 0.060164064639178637 0 0.33346096345915788 0.043079032094737429 0 0.32351484960425658 0.055818178810672282 0 0.35116023099583488 0.04635088329888936 0 0.33662296950832232 0.060164064639178637 0 0.33346096345915788 0.043079032094737429 0 0.32682774302441669 0.069019416200788677 0 0.33662296950832232 0.060164064639178637 0 0.32351484960425658 0.055818178810672282 0 0.35116023099583488 0.04635088329888936 0 0.3452421180709313 0.02876578474876142 0 0.33346096345915788 0.043079032094737429 0 0.3452421180709313 0.02876578474876142 0 0.32534433912657179 0.025186145237551728 0 0.33346096345915788 0.043079032094737429 0 0.32534433912657179 0.025186145237551728 0 0.33346096345915788 0.043079032094737429 0 0.3188812734490305 0.042189135833371173 0 0.32534433912657179 0.025186145237551728 0 0.3188812734490305 0.042189135833371173 0 0.30072048126169421 0.032930185378121341 0 0.3188812734490305 0.042189135833371173 0 0.32351484960425658 0.055818178810672282 0 0.30909518155543192 0.051906742889003828 0 0.33346096345915788 0.043079032094737429 0 0.3188812734490305 0.042189135833371173 0 0.32351484960425658 0.055818178810672282 0 0.31508517942847492 0.064820201797660695 0 0.32351484960425658 0.055818178810672282 0 0.30909518155543192 0.051906742889003828 0 0.30316472603848582 0.06244260786721572 0 0.30909518155543192 0.051906742889003828 0 0.29320010016678028 0.053048580535769517 0 0.31508517942847492 0.064820201797660695 0 0.30316472603848582 0.06244260786721572 0 0.30909518155543192 0.051906742889003828 0 0.3188812734490305 0.042189135833371173 0 0.30909518155543192 0.051906742889003828 0 0.30072048126169421 0.032930185378121341 0 0.30909518155543192 0.051906742889003828 0 0.30072048126169421 0.032930185378121341 0 0.29320010016678028 0.053048580535769517 0 0.30072048126169421 0.032930185378121341 0 0.29320010016678028 0.053048580535769517 0 0.27960992045081501 0.03743350510670844 0 0.29320010016678028 0.053048580535769517 0 0.28102878200050152 0.051385871327039298 0 0.27960992045081501 0.03743350510670844 0 0.28139869080602908 0.062047317579015077 0 0.29320010016678028 0.053048580535769517 0 0.28102878200050152 0.051385871327039298 0 0.28139869080602908 0.062047317579015077 0 0.29320010016678028 0.053048580535769517 0 0.29256319313654983 0.067457304624868569 0 0.30316472603848582 0.06244260786721572 0 0.29320010016678028 0.053048580535769517 0 0.29256319313654983 0.067457304624868569 0 0.31263439184484548 0.0093702238746103741 0 0.29523021928075988 0.0065372478438925187 0 0.30634635689462569 -0.0054163935952359233 0 0.31263439184484548 0.0093702238746103741 0 0.30072048126169421 0.032930185378121341 0 0.29523021928075988 0.0065372478438925187 0 0.30072048126169421 0.032930185378121341 0 0.28263521761145799 0.01424596700316768 0 0.30072048126169421 0.032930185378121341 0 0.28263521761145799 0.01424596700316768 0 0.29523021928075988 0.0065372478438925187 0 0.30072048126169421 0.032930185378121341 0 0.28263521761145799 0.01424596700316768 0 0.27960992045081501 0.03743350510670844 0 0.28263521761145799 0.01424596700316768 0 0.29523021928075988 0.0065372478438925187 0 0.28095057553946728 -0.001276924975998437 0 0.28263521761145799 0.01424596700316768 0 0.26454995396122188 -0.0044382513717859551 0 0.28095057553946728 -0.001276924975998437 0 0.28263521761145799 0.01424596700316768 0 0.2600103086440948 0.0077887484030499934 0 0.26454995396122188 -0.0044382513717859551 0 0.28263521761145799 0.01424596700316768 0 0.27547351305310808 0.019631885321861772 0 0.2600103086440948 0.0077887484030499934 0 0.28263521761145799 0.01424596700316768 0 0.26454995396122188 -0.0044382513717859551 0 0.27547351305310808 0.019631885321861772 0 0.2600103086440948 0.0077887484030499934 0 0.27547351305310808 0.019631885321861772 0 0.27960992045081501 0.03743350510670844 0 0.26827388004368552 0.031478346191413077 0 0.28263521761145799 0.01424596700316768 0 0.27547351305310808 0.019631885321861772 0 0.27960992045081501 0.03743350510670844 0 0.27547351305310808 0.019631885321861772 0 0.26042701713659289 0.023261139205759441 0 0.26827388004368552 0.031478346191413077 0 0.26042701713659289 0.023261139205759441 0 0.26827388004368552 0.031478346191413077 0 0.25267133858014368 0.033426358080367632 0 0.24606589177604729 0.023412238736487911 0 0.26042701713659289 0.023261139205759441 0 0.25267133858014368 0.033426358080367632 0 0.25245314076482023 0.016273305507581552 0 0.26042701713659289 0.023261139205759441 0 0.2600103086440948 0.0077887484030499934 0 0.24606589177604729 0.023412238736487911 0 0.25245314076482023 0.016273305507581552 0 0.26042701713659289 0.023261139205759441 0 0.27547351305310808 0.019631885321861772 0 0.26042701713659289 0.023261139205759441 0 0.2600103086440948 0.0077887484030499934 0 0.24330934550254571 0.01063109568502886 0 0.25245314076482023 0.016273305507581552 0 0.2600103086440948 0.0077887484030499934 0 0.2600103086440948 0.0077887484030499934 0 0.24454710423508169 -0.0040543885157620588 0 0.26990641657838182 0.05301408208666418 0 0.25893346694594882 0.064011177639818242 0 0.26926780585961241 0.067694655635386125 0 0.28139869080602908 0.062047317579015077 0 0.26990641657838182 0.05301408208666418 0 0.26926780585961241 0.067694655635386125 0 0.28139869080602908 0.062047317579015077 0 0.26990641657838182 0.05301408208666418 0 0.28102878200050152 0.051385871327039298 0 0.26990641657838182 0.05301408208666418 0 0.28102878200050152 0.051385871327039298 0 0.27960992045081501 0.03743350510670844 0 0.26990641657838182 0.05301408208666418 0 0.27960992045081501 0.03743350510670844 0 0.2629408869215929 0.042344985364839487 0 0.27960992045081501 0.03743350510670844 0 0.26827388004368552 0.031478346191413077 0 0.2629408869215929 0.042344985364839487 0 0.26827388004368552 0.031478346191413077 0 0.2629408869215929 0.042344985364839487 0 0.25267133858014368 0.033426358080367632 0 0.24931080225938379 0.044873619513579023 0 0.2629408869215929 0.042344985364839487 0 0.25267133858014368 0.033426358080367632 0 0.24931080225938379 0.044873619513579023 0 0.2629408869215929 0.042344985364839487 0 0.25540203894483232 0.053078758300303452 0 0.26990641657838182 0.05301408208666418 0 0.2629408869215929 0.042344985364839487 0 0.25540203894483232 0.053078758300303452 0 0.26990641657838182 0.05301408208666418 0 0.25540203894483232 0.053078758300303452 0 0.25893346694594882 0.064011177639818242 0 0.2498958451883965 0.06385198700084381 0 0.25540203894483232 0.053078758300303452 0 0.25893346694594882 0.064011177639818242 0 0.25260649980770278 0.068686253075548681 0 0.25683740563484292 0.074759111913111076 0 0.25893346694594882 0.064011177639818242 0 0.2498958451883965 0.06385198700084381 0 0.25260649980770278 0.068686253075548681 0 0.25893346694594882 0.064011177639818242 0 0.24475928146162321 0.072122735748421596 0 0.25260649980770278 0.068686253075548681 0 0.25683740563484292 0.074759111913111076 0 0.25683740563484292 0.074759111913111076 0 0.26926780585961241 0.067694655635386125 0 0.26991739555729649 0.077215572672218624 0 0.25683740563484292 0.074759111913111076 0 0.25893346694594882 0.064011177639818242 0 0.26926780585961241 0.067694655635386125 0 0.24475928146162321 0.072122735748421596 0 0.25683740563484292 0.074759111913111076 0 0.25667270258804281 0.090788059223164463 0 0.25683740563484292 0.074759111913111076 0 0.25667270258804281 0.090788059223164463 0 0.26588882808572761 0.083319535008861703 0 0.25683740563484292 0.074759111913111076 0 0.26588882808572761 0.083319535008861703 0 0.26991739555729649 0.077215572672218624 0 0.25667270258804281 0.090788059223164463 0 0.27089753873940398 0.090137214046706604 0 0.26588882808572761 0.083319535008861703 0 0.25667270258804281 0.090788059223164463 0 0.27089753873940398 0.090137214046706604 0 0.27377241013019687 0.096695294095733866 0 0.27089753873940398 0.090137214046706604 0 0.26588882808572761 0.083319535008861703 0 0.27511909790905148 0.083697717189107748 0 0.26588882808572761 0.083319535008861703 0 0.27511909790905148 0.083697717189107748 0 0.26991739555729649 0.077215572672218624 0 0.27511909790905148 0.083697717189107748 0 0.2797873655771318 0.074949476474826429 0 0.28323133256771621 0.084665337655090059 0 0.27511909790905148 0.083697717189107748 0 0.26991739555729649 0.077215572672218624 0 0.2797873655771318 0.074949476474826429 0 0.27089753873940398 0.090137214046706604 0 0.27511909790905148 0.083697717189107748 0 0.27886969235272441 0.090924908242748917 0 0.27511909790905148 0.083697717189107748 0 0.27886969235272441 0.090924908242748917 0 0.28323133256771621 0.084665337655090059 0 0.27089753873940398 0.090137214046706604 0 0.27886969235272441 0.090924908242748917 0 0.27377241013019687 0.096695294095733866 0 0.26926780585961241 0.067694655635386125 0 0.26991739555729649 0.077215572672218624 0 0.2797873655771318 0.074949476474826429 0 0.28139869080602908 0.062047317579015077 0 0.26926780585961241 0.067694655635386125 0 0.2797873655771318 0.074949476474826429 0 0.28139869080602908 0.062047317579015077 0 0.2797873655771318 0.074949476474826429 0 0.29256319313654983 0.067457304624868569 0 0.2797873655771318 0.074949476474826429 0 0.29256319313654983 0.067457304624868569 0 0.29280487624479179 0.081332777947157764 0 0.2797873655771318 0.074949476474826429 0 0.28323133256771621 0.084665337655090059 0 0.29280487624479179 0.081332777947157764 0 0.28323133256771621 0.084665337655090059 0 0.28776728620730713 0.091688898810040581 0 0.29280487624479179 0.081332777947157764 0 0.27886969235272441 0.090924908242748917 0 0.28323133256771621 0.084665337655090059 0 0.28776728620730713 0.091688898810040581 0 0.27886969235272441 0.090924908242748917 0 0.28776728620730713 0.091688898810040581 0 0.28226611676058472 0.098046353770736186 0 0.28776728620730713 0.091688898810040581 0 0.2966496991855882 0.09151408767448814 0 0.29280487624479179 0.081332777947157764 0 0.29280487624479179 0.081332777947157764 0 0.3039160785015283 0.085170166807102765 0 0.30587997590519178 0.074980209488775984 0 0.2966496991855882 0.09151408767448814 0 0.29280487624479179 0.081332777947157764 0 0.3039160785015283 0.085170166807102765 0 0.2966496991855882 0.09151408767448814 0 0.3039160785015283 0.085170166807102765 0 0.30632450721106791 0.09720713675217231 0 0.31294491830095822 0.086072842240225267 0 0.3039160785015283 0.085170166807102765 0 0.30632450721106791 0.09720713675217231 0 0.31294491830095822 0.086072842240225267 0 0.3039160785015283 0.085170166807102765 0 0.30587997590519178 0.074980209488775984 0 0.31508517942847492 0.064820201797660695 0 0.30316472603848582 0.06244260786721572 0 0.30587997590519178 0.074980209488775984 0 0.30316472603848582 0.06244260786721572 0 0.29256319313654983 0.067457304624868569 0 0.30587997590519178 0.074980209488775984 0 0.29256319313654983 0.067457304624868569 0 0.29280487624479179 0.081332777947157764 0 0.30587997590519178 0.074980209488775984 0 0.31608678259692408 0.1110028163126368 0 0.30226897586842949 0.11165514509164209 0 0.30636543685551509 0.12686377281768879 0 0.30226897586842949 0.11165514509164209 0 0.29121842690624289 0.1199918861378227 0 0.30636543685551509 0.12686377281768879 0 0.31608678259692408 0.1110028163126368 0 0.30226897586842949 0.11165514509164209 0 0.30632450721106791 0.09720713675217231 0 0.2966496991855882 0.09151408767448814 0 0.30632450721106791 0.09720713675217231 0 0.29238750780743022 0.102165206236234 0 0.30226897586842949 0.11165514509164209 0 0.30632450721106791 0.09720713675217231 0 0.29238750780743022 0.102165206236234 0 0.29238750780743022 0.102165206236234 0 0.28371607822966122 0.1055314772531229 0 0.29121842690624289 0.1199918861378227 0 0.28776728620730713 0.091688898810040581 0 0.2966496991855882 0.09151408767448814 0 0.29238750780743022 0.102165206236234 0 0.28776728620730713 0.091688898810040581 0 0.29238750780743022 0.102165206236234 0 0.28226611676058472 0.098046353770736186 0 0.29238750780743022 0.102165206236234 0 0.28226611676058472 0.098046353770736186 0 0.28371607822966122 0.1055314772531229 0 0.28226611676058472 0.098046353770736186 0 0.28371607822966122 0.1055314772531229 0 0.27842504246689642 0.1014157744500216 0 0.30226897586842949 0.11165514509164209 0 0.29238750780743022 0.102165206236234 0 0.29121842690624289 0.1199918861378227 0 0.28371607822966122 0.1055314772531229 0 0.29121842690624289 0.1199918861378227 0 0.27394556474714288 0.1053899726804936 0 0.29121842690624289 0.1199918861378227 0 0.27394556474714288 0.1053899726804936 0 0.27048261809334728 0.1048230907475068 0 0.26380988298070351 0.116927196367008 0 0.27428769142036519 0.1340982985240107 0 0.27048261809334728 0.1048230907475068 0 0.27428769142036519 0.1340982985240107 0 0.27048261809334728 0.1048230907475068 0 0.27394556474714288 0.1053899726804936 0 0.27428769142036519 0.1340982985240107 0 0.29121842690624289 0.1199918861378227 0 0.27394556474714288 0.1053899726804936 0 0.27428769142036519 0.1340982985240107 0 0.25667270258804281 0.090788059223164463 0 0.27048261809334728 0.1048230907475068 0 0.27394556474714288 0.1053899726804936 0 0.25667270258804281 0.090788059223164463 0 0.27377241013019687 0.096695294095733866 0 0.27394556474714288 0.1053899726804936 0 0.27886969235272441 0.090924908242748917 0 0.28226611676058472 0.098046353770736186 0 0.27377241013019687 0.096695294095733866 0 0.28226611676058472 0.098046353770736186 0 0.27377241013019687 0.096695294095733866 0 0.27842504246689642 0.1014157744500216 0 0.27377241013019687 0.096695294095733866 0 0.27842504246689642 0.1014157744500216 0 0.27394556474714288 0.1053899726804936 0 0.28371607822966122 0.1055314772531229 0 0.27842504246689642 0.1014157744500216 0 0.27394556474714288 0.1053899726804936 0 0.25667270258804281 0.090788059223164463 0 0.27394556474714288 0.1053899726804936 0 0.25667270258804281 0.090788059223164463 0 0.27048261809334728 0.1048230907475068 0 0.25461590540953027 0.10606501710305551 0 0.27048261809334728 0.1048230907475068 0 0.25461590540953027 0.10606501710305551 0 0.26380988298070351 0.116927196367008 0 0.24272997527991999 0.091205400909066731 0 0.25667270258804281 0.090788059223164463 0 0.25461590540953027 0.10606501710305551 0 0.25461590540953027 0.10606501710305551 0 0.26380988298070351 0.116927196367008 0 0.25585331699957098 0.12272237909345909 0 0.24276875721605651 0.11459409499753551 0 0.25461590540953027 0.10606501710305551 0 0.25585331699957098 0.12272237909345909 0 0.26380988298070351 0.116927196367008 0 0.25585331699957098 0.12272237909345909 0 0.27428769142036519 0.1340982985240107 0 0.24033965028705309 0.12757397417549721 0 0.25585331699957098 0.12272237909345909 0 0.25429212729420919 0.1373678150349148 0 0.25585331699957098 0.12272237909345909 0 0.25429212729420919 0.1373678150349148 0 0.27428769142036519 0.1340982985240107 0 0.27428769142036519 0.1340982985240107 0 0.25543485903957819 0.1544462132424802 0 0.27809276474738309 0.16337350630051459 0 0.27428769142036519 0.1340982985240107 0 0.27809276474738309 0.16337350630051459 0 0.24408405510780229 0.1427207021204579 0 0.25429212729420919 0.1373678150349148 0 0.25543485903957819 0.1544462132424802 0 0.25429212729420919 0.1373678150349148 0 0.27428769142036519 0.1340982985240107 0 0.25543485903957819 0.1544462132424802 0 0.25543485903957819 0.1544462132424802 0 0.25572559596713329 0.17051997537177971 0 0.27809276474738309 0.16337350630051459 0 0.2446349919681006 0.16305112323470131 0 0.25543485903957819 0.1544462132424802 0 0.25572559596713329 0.17051997537177971 0 0.25572559596713329 0.17051997537177971 0 0.27809276474738309 0.16337350630051459 0 0.26231380384649222 0.18759160671752401 0 0.24894719752453329 0.18612638269812559 0 0.25572559596713329 0.17051997537177971 0 0.26231380384649222 0.18759160671752401 0 0.27809276474738309 0.16337350630051459 0 0.26231380384649222 0.18759160671752401 0 0.28189783807440111 0.19264871407701831 0 0.27809276474738309 0.16337350630051459 0 0.28189783807440111 0.19264871407701831 0 0.27809276474738309 0.16337350630051459 0 0.29994344191447703 0.18269133817603059 0 0.30231687763786452 0.163307755818417 0 0.27809276474738309 0.16337350630051459 0 0.30231687763786452 0.163307755818417 0 0.2938794932850527 0.14274375592569949 0 0.27809276474738309 0.16337350630051459 0 0.29994344191447703 0.18269133817603059 0 0.28189783807440111 0.19264871407701831 0 0.29994344191447703 0.18269133817603059 0 0.31683025157673023 0.19361267197804941 0 0.31611331061617581 0.175143027450849 0 0.29994344191447703 0.18269133817603059 0 0.30231687763786452 0.163307755818417 0 0.31611331061617581 0.175143027450849 0 0.30231687763786452 0.163307755818417 0 0.31390585053818609 0.15047836340956569 0 0.31915578157318941 0.1620529440382649 0 0.30231687763786452 0.163307755818417 0 0.2938794932850527 0.14274375592569949 0 0.31390585053818609 0.15047836340956569 0 0.29121842690624289 0.1199918861378227 0 0.30636543685551509 0.12686377281768879 0 0.2938794932850527 0.14274375592569949 0 0.30636543685551509 0.12686377281768879 0 0.2938794932850527 0.14274375592569949 0 0.31390585053818609 0.15047836340956569 0 0.29121842690624289 0.1199918861378227 0 0.27428769142036519 0.1340982985240107 0 0.2938794932850527 0.14274375592569949 0 0.27428769142036519 0.1340982985240107 0 0.27809276474738309 0.16337350630051459 0 0.2938794932850527 0.14274375592569949 0 0.28245996340297719 0.25304914615146101 0 0.26751790208001708 0.24888402836805171 0 0.26458074502139528 0.23130050403551469 0 0.28245996340297719 0.25304914615146101 0 0.26458074502139528 0.23130050403551469 0 0.28245996340297719 0.25304914615146101 0 0.26458074502139528 0.23130050403551469 0 0.28628037986651023 0.23273869652766591 0 0.26751790208001708 0.24888402836805171 0 0.25362407497537798 0.24198656716010189 0 0.26458074502139528 0.23130050403551469 0 0.24670152663981329 0.2095518619195684 0 0.26458074502139528 0.23130050403551469 0 0.23859066343446639 0.21961930472390831 0 0.25362407497537798 0.24198656716010189 0 0.26458074502139528 0.23130050403551469 0 0.26458074502139528 0.23130050403551469 0 0.27676906571698401 0.22210582289095929 0 0.28628037986651023 0.23273869652766591 0 0.26458074502139528 0.23130050403551469 0 0.27676906571698401 0.22210582289095929 0 0.26837033744455119 0.20825181950577951 0 0.26837033744455119 0.20825181950577951 0 0.28189783807440111 0.19264871407701831 0 0.29189290525347911 0.21556298540689831 0 0.27676906571698401 0.22210582289095929 0 0.26837033744455119 0.20825181950577951 0 0.29189290525347911 0.21556298540689831 0 0.24670152663981329 0.2095518619195684 0 0.26458074502139528 0.23130050403551469 0 0.26837033744455119 0.20825181950577951 0 0.24670152663981329 0.2095518619195684 0 0.26837033744455119 0.20825181950577951 0 0.25318772352235269 0.19758411353432501 0 0.26837033744455119 0.20825181950577951 0 0.25318772352235269 0.19758411353432501 0 0.26231380384649222 0.18759160671752401 0 0.24894719752453329 0.18612638269812559 0 0.25318772352235269 0.19758411353432501 0 0.26231380384649222 0.18759160671752401 0 0.26837033744455119 0.20825181950577951 0 0.26231380384649222 0.18759160671752401 0 0.28189783807440111 0.19264871407701831 0 0.28189783807440111 0.19264871407701831 0 0.3003848762377721 0.19904239824392181 0 0.29189290525347911 0.21556298540689831 0 0.29994344191447703 0.18269133817603059 0 0.28189783807440111 0.19264871407701831 0 0.3003848762377721 0.19904239824392181 0 0.3003848762377721 0.19904239824392181 0 0.31135994436977299 0.21069628158161249 0 0.31683025157673023 0.19361267197804941 0 0.29994344191447703 0.18269133817603059 0 0.3003848762377721 0.19904239824392181 0 0.31683025157673023 0.19361267197804941 0 0.31135994436977299 0.21069628158161249 0 0.29189290525347911 0.21556298540689831 0 0.30852392428572512 0.22354246128785349 0 0.3003848762377721 0.19904239824392181 0 0.31135994436977299 0.21069628158161249 0 0.29189290525347911 0.21556298540689831 0 0.29189290525347911 0.21556298540689831 0 0.28628037986651023 0.23273869652766591 0 0.29989037345074909 0.23274463385031169 0 0.27676906571698401 0.22210582289095929 0 0.29189290525347911 0.21556298540689831 0 0.28628037986651023 0.23273869652766591 0 0.29189290525347911 0.21556298540689831 0 0.29989037345074909 0.23274463385031169 0 0.30852392428572512 0.22354246128785349 0 0.29989037345074909 0.23274463385031169 0 0.30852392428572512 0.22354246128785349 0 0.31719882278570838 0.23891526540108851 0 0.29989037345074909 0.23274463385031169 0 0.30195988737631652 0.24563942300354619 0 0.31719882278570838 0.23891526540108851 0 0.28628037986651023 0.23273869652766591 0 0.29989037345074909 0.23274463385031169 0 0.30195988737631652 0.24563942300354619 0 0.28245996340297719 0.25304914615146101 0 0.28628037986651023 0.23273869652766591 0 0.30195988737631652 0.24563942300354619 0 0.33861126753099069 0.24975036164710371 0 0.33146184547798141 0.23255971870488401 0 0.34545949465649323 0.23128354637688131 0 0.33861126753099069 0.24975036164710371 0 0.31719882278570838 0.23891526540108851 0 0.33146184547798141 0.23255971870488401 0 0.32030447770639381 0.26207393844223242 0 0.30195988737631652 0.24563942300354619 0 0.31719882278570838 0.23891526540108851 0 0.31719882278570838 0.23891526540108851 0 0.32180788981997582 0.22217354582829071 0 0.33146184547798141 0.23255971870488401 0 0.30852392428572512 0.22354246128785349 0 0.31719882278570838 0.23891526540108851 0 0.32180788981997582 0.22217354582829071 0 0.31135994436977299 0.21069628158161249 0 0.30852392428572512 0.22354246128785349 0 0.32180788981997582 0.22217354582829071 0 0.32180788981997582 0.22217354582829071 0 0.33146184547798141 0.23255971870488401 0 0.33663015242655647 0.21974138276287719 0 0.33146184547798141 0.23255971870488401 0 0.33663015242655647 0.21974138276287719 0 0.34545949465649323 0.23128354637688131 0 0.33663015242655647 0.21974138276287719 0 0.33724265126033698 0.20711678845792111 0 0.34508184181261359 0.21479342956207489 0 0.33724265126033698 0.20711678845792111 0 0.34671954139267919 0.20031121345834399 0 0.34508184181261359 0.21479342956207489 0 0.33663015242655647 0.21974138276287719 0 0.33724265126033698 0.20711678845792111 0 0.3256726495741108 0.2075861652314287 0 0.32180788981997582 0.22217354582829071 0 0.33663015242655647 0.21974138276287719 0 0.3256726495741108 0.2075861652314287 0 0.31135994436977299 0.21069628158161249 0 0.3256726495741108 0.2075861652314287 0 0.31683025157673023 0.19361267197804941 0 0.31135994436977299 0.21069628158161249 0 0.32180788981997582 0.22217354582829071 0 0.3256726495741108 0.2075861652314287 0 0.31683025157673023 0.19361267197804941 0 0.33368194430919179 0.19290643219686379 0 0.32770663971386949 0.18152772759853469 0 0.3256726495741108 0.2075861652314287 0 0.31683025157673023 0.19361267197804941 0 0.33368194430919179 0.19290643219686379 0 0.33724265126033698 0.20711678845792111 0 0.3256726495741108 0.2075861652314287 0 0.33368194430919179 0.19290643219686379 0 0.33724265126033698 0.20711678845792111 0 0.33368194430919179 0.19290643219686379 0 0.34671954139267919 0.20031121345834399 0 0.33368194430919179 0.19290643219686379 0 0.34551353380974631 0.1883981607682633 0 0.34671954139267919 0.20031121345834399 0 0.34551353380974631 0.1883981607682633 0 0.34671954139267919 0.20031121345834399 0 0.35824731445427571 0.19110428659113041 0 0.34671954139267919 0.20031121345834399 0 0.35824731445427571 0.19110428659113041 0 0.35698828248314413 0.20344644674920431 0 0.35824731445427571 0.19110428659113041 0 0.37710264885385569 0.18195160658395659 0 0.37736777437545532 0.19580619808172939 0 0.35824731445427571 0.19110428659113041 0 0.36772040959694341 0.20375978200797679 0 0.37736777437545532 0.19580619808172939 0 0.35824731445427571 0.19110428659113041 0 0.36772040959694341 0.20375978200797679 0 0.35698828248314413 0.20344644674920431 0 0.35577543160983688 0.21411442332071259 0 0.380879142443036 0.21252042386305911 0 0.36772040959694341 0.20375978200797679 0 0.35577543160983688 0.21411442332071259 0 0.35698828248314413 0.20344644674920431 0 0.35577543160983688 0.21411442332071259 0 0.37227916757123858 0.22300749187684549 0 0.380879142443036 0.21252042386305911 0 0.36772040959694341 0.20375978200797679 0 0.35577543160983688 0.21411442332071259 0 0.380879142443036 0.21252042386305911 0 0.34671954139267919 0.20031121345834399 0 0.35577543160983688 0.21411442332071259 0 0.35698828248314413 0.20344644674920431 0 0.34671954139267919 0.20031121345834399 0 0.35577543160983688 0.21411442332071259 0 0.34671954139267919 0.20031121345834399 0 0.35577543160983688 0.21411442332071259 0 0.34508184181261359 0.21479342956207489 0 0.35577543160983688 0.21411442332071259 0 0.34508184181261359 0.21479342956207489 0 0.35093768363265682 0.2224708468078479 0 0.35577543160983688 0.21411442332071259 0 0.34508184181261359 0.21479342956207489 0 0.34545949465649323 0.23128354637688131 0 0.36091453217780389 0.22515926727759289 0 0.35062680961752463 0.24346715051183601 0 0.33663015242655647 0.21974138276287719 0 0.34508184181261359 0.21479342956207489 0 0.35093768363265682 0.2224708468078479 0 0.33663015242655647 0.21974138276287719 0 0.35093768363265682 0.2224708468078479 0 0.34545949465649323 0.23128354637688131 0 0.35093768363265682 0.2224708468078479 0 0.34545949465649323 0.23128354637688131 0 0.36091453217780389 0.22515926727759289 0 0.35577543160983688 0.21411442332071259 0 0.35093768363265682 0.2224708468078479 0 0.36091453217780389 0.22515926727759289 0 0.35577543160983688 0.21411442332071259 0 0.3709836007202828 0.23729508748735409 0 0.35577543160983688 0.21411442332071259 0 0.36091453217780389 0.22515926727759289 0 0.3709836007202828 0.23729508748735409 0 0.35577543160983688 0.21411442332071259 0 0.37227916757123858 0.22300749187684549 0 0.3709836007202828 0.23729508748735409 0 0.37227916757123858 0.22300749187684549 0 0.3709836007202828 0.23729508748735409 0 0.38109556909281761 0.22842225584997369 0 0.36230557592361717 0.250356157070934 0 0.36091453217780389 0.22515926727759289 0 0.3709836007202828 0.23729508748735409 0 0.36230557592361717 0.250356157070934 0 0.36091453217780389 0.22515926727759289 0 0.36230557592361717 0.250356157070934 0 0.36091453217780389 0.22515926727759289 0 0.35062680961752463 0.24346715051183601 0 0.33861126753099069 0.24975036164710371 0 0.34545949465649323 0.23128354637688131 0 0.35062680961752463 0.24346715051183601 0 0.33105460538042181 0.15367455141680961 0 0.34572341344717711 0.14959050594544329 0 0.34426569164434612 0.13799466983570349 0 0.33105460538042181 0.15367455141680961 0 0.33650562593217559 0.1406151001273809 0 0.34426569164434612 0.13799466983570349 0 0.33105460538042181 0.15367455141680961 0 0.34426569164434612 0.13799466983570349 0 0.33105460538042181 0.15367455141680961 0 0.34371433190408601 0.1600555114592698 0 0.34572341344717711 0.14959050594544329 0 0.33650562593217559 0.1406151001273809 0 0.33104275048739362 0.1292100661940139 0 0.34426569164434612 0.13799466983570349 0 0.33650562593217559 0.1406151001273809 0 0.34426569164434612 0.13799466983570349 0 0.34577693238427848 0.1237294979255172 0 0.33104275048739362 0.1292100661940139 0 0.34426569164434612 0.13799466983570349 0 0.33104275048739362 0.1292100661940139 0 0.31883649747246962 0.1267791566742949 0 0.31390585053818609 0.15047836340956569 0 0.33650562593217559 0.1406151001273809 0 0.33104275048739362 0.1292100661940139 0 0.31390585053818609 0.15047836340956569 0 0.33104275048739362 0.1292100661940139 0 0.31390585053818609 0.15047836340956569 0 0.30636543685551509 0.12686377281768879 0 0.31883649747246962 0.1267791566742949 0 0.31390585053818609 0.15047836340956569 0 0.33105460538042181 0.15367455141680961 0 0.33650562593217559 0.1406151001273809 0 0.31390585053818609 0.15047836340956569 0 0.33105460538042181 0.15367455141680961 0 0.31390585053818609 0.15047836340956569 0 0.31915578157318941 0.1620529440382649 0 0.30231687763786452 0.163307755818417 0 0.31915578157318941 0.1620529440382649 0 0.31611331061617581 0.175143027450849 0 0.31915578157318941 0.1620529440382649 0 0.31611331061617581 0.175143027450849 0 0.33238826369329832 0.16766102209568329 0 0.33105460538042181 0.15367455141680961 0 0.31915578157318941 0.1620529440382649 0 0.33238826369329832 0.16766102209568329 0 0.31611331061617581 0.175143027450849 0 0.32770663971386949 0.18152772759853469 0 0.33238826369329832 0.16766102209568329 0 0.31683025157673023 0.19361267197804941 0 0.31611331061617581 0.175143027450849 0 0.32770663971386949 0.18152772759853469 0 0.33368194430919179 0.19290643219686379 0 0.32770663971386949 0.18152772759853469 0 0.33951942837395183 0.1783154842712282 0 0.32770663971386949 0.18152772759853469 0 0.33951942837395183 0.1783154842712282 0 0.33238826369329832 0.16766102209568329 0 0.33951942837395183 0.1783154842712282 0 0.33238826369329832 0.16766102209568329 0 0.34596638474908348 0.16981411757007819 0 0.33368194430919179 0.19290643219686379 0 0.34551353380974631 0.1883981607682633 0 0.33951942837395183 0.1783154842712282 0 0.33105460538042181 0.15367455141680961 0 0.33238826369329832 0.16766102209568329 0 0.34371433190408601 0.1600555114592698 0 0.33238826369329832 0.16766102209568329 0 0.34371433190408601 0.1600555114592698 0 0.34596638474908348 0.16981411757007819 0 0.34371433190408601 0.1600555114592698 0 0.35326334663627812 0.16480768889146191 0 0.3534817694335462 0.15482633235905849 0 0.34371433190408601 0.1600555114592698 0 0.34596638474908348 0.16981411757007819 0 0.35326334663627812 0.16480768889146191 0 0.34596638474908348 0.16981411757007819 0 0.35326334663627812 0.16480768889146191 0 0.35687583822493169 0.17078833866341009 0 0.35326334663627812 0.16480768889146191 0 0.35877811616074262 0.1676701619984915 0 0.36021888800942742 0.1650125334578301 0 0.35326334663627812 0.16480768889146191 0 0.35687583822493169 0.17078833866341009 0 0.35877811616074262 0.1676701619984915 0 0.35326334663627812 0.16480768889146191 0 0.36021888800942742 0.1650125334578301 0 0.3534817694335462 0.15482633235905849 0 0.35824731445427571 0.19110428659113041 0 0.35687583822493169 0.17078833866341009 0 0.36266254664266501 0.16746419767323401 0 0.35824731445427571 0.19110428659113041 0 0.35687583822493169 0.17078833866341009 0 0.3493994405186327 0.17935338732375031 0 0.34551353380974631 0.1883981607682633 0 0.35824731445427571 0.19110428659113041 0 0.3493994405186327 0.17935338732375031 0 0.34551353380974631 0.1883981607682633 0 0.33951942837395183 0.1783154842712282 0 0.3493994405186327 0.17935338732375031 0 0.33951942837395183 0.1783154842712282 0 0.34596638474908348 0.16981411757007819 0 0.3493994405186327 0.17935338732375031 0 0.34596638474908348 0.16981411757007819 0 0.35687583822493169 0.17078833866341009 0 0.3493994405186327 0.17935338732375031 0 0.35824731445427571 0.19110428659113041 0 0.36266254664266501 0.16746419767323401 0 0.37710264885385569 0.18195160658395659 0 0.35824731445427571 0.19110428659113041 0 0.36266254664266501 0.16746419767323401 0 0.36266254664266501 0.16746419767323401 0 0.37710264885385569 0.18195160658395659 0 0.36266254664266501 0.16746419767323401 0 0.37516658400280412 0.16842953842616229 0 0.37710264885385569 0.18195160658395659 0 0.36266254664266501 0.16746419767323401 0 0.36621896922562552 0.14842235740219301 0 0.36266254664266501 0.16746419767323401 0 0.37218955561025707 0.1594579937669085 0 0.36621896922562552 0.14842235740219301 0 0.36021888800942742 0.1650125334578301 0 0.36266254664266501 0.16746419767323401 0 0.36621896922562552 0.14842235740219301 0 0.35877811616074262 0.1676701619984915 0 0.36021888800942742 0.1650125334578301 0 0.36266254664266501 0.16746419767323401 0 0.36021888800942742 0.1650125334578301 0 0.36266254664266501 0.16746419767323401 0 0.35687583822493169 0.17078833866341009 0 0.35877811616074262 0.1676701619984915 0 0.36266254664266501 0.16746419767323401 0 0.36266254664266501 0.16746419767323401 0 0.37218955561025707 0.1594579937669085 0 0.37516658400280412 0.16842953842616229 0 0.37218955561025707 0.1594579937669085 0 0.36621896922562552 0.14842235740219301 0 0.37590656515625159 0.1525836312199606 0 0.36021888800942742 0.1650125334578301 0 0.36621896922562552 0.14842235740219301 0 0.3534817694335462 0.15482633235905849 0 0.3534817694335462 0.15482633235905849 0 0.35589304711185649 0.1440428765347101 0 0.34572341344717711 0.14959050594544329 0 0.36621896922562552 0.14842235740219301 0 0.3534817694335462 0.15482633235905849 0 0.35589304711185649 0.1440428765347101 0 0.35589304711185649 0.1440428765347101 0 0.34572341344717711 0.14959050594544329 0 0.34426569164434612 0.13799466983570349 0 0.34371433190408601 0.1600555114592698 0 0.3534817694335462 0.15482633235905849 0 0.34572341344717711 0.14959050594544329 0 0.34577693238427848 0.1237294979255172 0 0.35961963696877319 0.1197714866938895 0 0.34426569164434612 0.13799466983570349 0 0.35961963696877319 0.1197714866938895 0 0.34426569164434612 0.13799466983570349 0 0.35589304711185649 0.1440428765347101 0 0.34426569164434612 0.13799466983570349 0 0.36977539180858737 0.12938051713115239 0 0.34426569164434612 0.13799466983570349 0 0.36977539180858737 0.12938051713115239 0 0.35961963696877319 0.1197714866938895 0 0.34426569164434612 0.13799466983570349 0 0.36977539180858737 0.12938051713115239 0 0.36621896922562552 0.14842235740219301 0 0.35589304711185649 0.1440428765347101 0 0.36977539180858737 0.12938051713115239 0 0.36621896922562552 0.14842235740219301 0 0.36977539180858737 0.12938051713115239 0 0.36621896922562552 0.14842235740219301 0 0.36977539180858737 0.12938051713115239 0 0.38408249808457839 0.1438677586787106 0 0.36977539180858737 0.12938051713115239 0 0.38408249808457839 0.1438677586787106 0 0.39399621849110639 0.1212015931010629 0 0.36977539180858737 0.12938051713115239 0 0.39399621849110639 0.1212015931010629 0 0.40262835380947959 0.1400517654867543 0 0.38408249808457839 0.1438677586787106 0 0.39399621849110639 0.1212015931010629 0 0.40262835380947959 0.1400517654867543 0 0.42005462278282413 0.1284513351679232 0 0.39399621849110639 0.1212015931010629 0 0.40262835380947959 0.1400517654867543 0 0.39758892080297259 0.15707889797138999 0 0.41741950888591628 0.1496592425146849 0 0.40262835380947959 0.1400517654867543 0 0.38408249808457839 0.1438677586787106 0 0.39758892080297259 0.15707889797138999 0 0.36621896922562552 0.14842235740219301 0 0.38408249808457839 0.1438677586787106 0 0.37590656515625159 0.1525836312199606 0 0.38408249808457839 0.1438677586787106 0 0.38094306912231768 0.16102539519783859 0 0.39758892080297259 0.15707889797138999 0 0.38408249808457839 0.1438677586787106 0 0.37590656515625159 0.1525836312199606 0 0.38094306912231768 0.16102539519783859 0 0.37218955561025707 0.1594579937669085 0 0.37590656515625159 0.1525836312199606 0 0.38094306912231768 0.16102539519783859 0 0.37218955561025707 0.1594579937669085 0 0.38094306912231768 0.16102539519783859 0 0.37516658400280412 0.16842953842616229 0 0.38094306912231768 0.16102539519783859 0 0.38453266138099051 0.17089934015349209 0 0.39758892080297259 0.15707889797138999 0 0.38094306912231768 0.16102539519783859 0 0.37516658400280412 0.16842953842616229 0 0.38453266138099051 0.17089934015349209 0 0.37710264885385569 0.18195160658395659 0 0.39636578081788848 0.1750803629615818 0 0.39154275106504588 0.1964390154946799 0 0.38453266138099051 0.17089934015349209 0 0.37710264885385569 0.18195160658395659 0 0.39636578081788848 0.1750803629615818 0 0.37516658400280412 0.16842953842616229 0 0.38453266138099051 0.17089934015349209 0 0.37710264885385569 0.18195160658395659 0 0.39636578081788848 0.1750803629615818 0 0.41405428663192739 0.1799859333857135 0 0.39154275106504588 0.1964390154946799 0 0.39636578081788848 0.1750803629615818 0 0.39758892080297259 0.15707889797138999 0 0.4133734161725387 0.16412738418025849 0 0.38453266138099051 0.17089934015349209 0 0.39636578081788848 0.1750803629615818 0 0.39758892080297259 0.15707889797138999 0 0.4133734161725387 0.16412738418025849 0 0.43458146272079701 0.164405790237516 0 0.41741950888591628 0.1496592425146849 0 0.39758892080297259 0.15707889797138999 0 0.4133734161725387 0.16412738418025849 0 0.41741950888591628 0.1496592425146849 0 0.4133734161725387 0.16412738418025849 0 0.41405428663192739 0.1799859333857135 0 0.43458146272079701 0.164405790237516 0 0.39636578081788848 0.1750803629615818 0 0.4133734161725387 0.16412738418025849 0 0.41405428663192739 0.1799859333857135 0 0.41405428663192739 0.1799859333857135 0 0.43458146272079701 0.164405790237516 0 0.44179583938944123 0.18279295940366361 0 0.41405428663192739 0.1799859333857135 0 0.41865141384508697 0.19663205850688731 0 0.44179583938944123 0.18279295940366361 0 0.43458146272079701 0.164405790237516 0 0.41741950888591628 0.1496592425146849 0 0.44004096708711732 0.14308074597372439 0 0.42005462278282413 0.1284513351679232 0 0.41741950888591628 0.1496592425146849 0 0.44004096708711732 0.14308074597372439 0 0.42005462278282413 0.1284513351679232 0 0.44004096708711732 0.14308074597372439 0 0.42005462278282413 0.1284513351679232 0 0.44004096708711732 0.14308074597372439 0 0.43023583737169768 0.1199684096028463 0 0.40262835380947959 0.1400517654867543 0 0.42005462278282413 0.1284513351679232 0 0.41741950888591628 0.1496592425146849 0 0.39518507069482911 0.22891315441814669 0 0.41045727945377247 0.23224532373583689 0 0.40681097746815043 0.24944788258450881 0 0.38805339756136181 0.24091082639879571 0 0.39518507069482911 0.22891315441814669 0 0.40681097746815043 0.24944788258450881 0 0.3709836007202828 0.23729508748735409 0 0.38805339756136181 0.24091082639879571 0 0.38109556909281761 0.22842225584997369 0 0.38619176983072928 0.26047575165399511 0 0.3709836007202828 0.23729508748735409 0 0.38619176983072928 0.26047575165399511 0 0.3709836007202828 0.23729508748735409 0 0.38805339756136181 0.24091082639879571 0 0.38805339756136181 0.24091082639879571 0 0.38109556909281761 0.22842225584997369 0 0.39518507069482911 0.22891315441814669 0 0.38109556909281761 0.22842225584997369 0 0.39518507069482911 0.22891315441814669 0 0.380879142443036 0.21252042386305911 0 0.37227916757123858 0.22300749187684549 0 0.38109556909281761 0.22842225584997369 0 0.380879142443036 0.21252042386305911 0 0.39518507069482911 0.22891315441814669 0 0.4059828532762349 0.21092642440540429 0 0.41045727945377247 0.23224532373583689 0 0.39518507069482911 0.22891315441814669 0 0.4059828532762349 0.21092642440540429 0 0.380879142443036 0.21252042386305911 0 0.4059828532762349 0.21092642440540429 0 0.380879142443036 0.21252042386305911 0 0.39154275106504588 0.1964390154946799 0 0.4059828532762349 0.21092642440540429 0 0.380879142443036 0.21252042386305911 0 0.4059828532762349 0.21092642440540429 0 0.39154275106504588 0.1964390154946799 0 0.36772040959694341 0.20375978200797679 0 0.380879142443036 0.21252042386305911 0 0.37736777437545532 0.19580619808172939 0 0.380879142443036 0.21252042386305911 0 0.37736777437545532 0.19580619808172939 0 0.39154275106504588 0.1964390154946799 0 0.37710264885385569 0.18195160658395659 0 0.37736777437545532 0.19580619808172939 0 0.39154275106504588 0.1964390154946799 0 0.37710264885385569 0.18195160658395659 0 0.39154275106504588 0.1964390154946799 0 0.4059828532762349 0.21092642440540429 0 0.39154275106504588 0.1964390154946799 0 0.41865141384508697 0.19663205850688731 0 0.41405428663192739 0.1799859333857135 0 0.39154275106504588 0.1964390154946799 0 0.41865141384508697 0.19663205850688731 0 0.41865141384508697 0.19663205850688731 0 0.43564675486478838 0.1989987418994322 0 0.44179583938944123 0.18279295940366361 0 0.41865141384508697 0.19663205850688731 0 0.43564675486478838 0.1989987418994322 0 0.42839414577896018 0.20950338426875159 0 0.4059828532762349 0.21092642440540429 0 0.42839414577896018 0.20950338426875159 0 0.4059828532762349 0.21092642440540429 0 0.42839414577896018 0.20950338426875159 0 0.42613138493428321 0.23114096394339739 0 0.4059828532762349 0.21092642440540429 0 0.41865141384508697 0.19663205850688731 0 0.42839414577896018 0.20950338426875159 0 0.4059828532762349 0.21092642440540429 0 0.41045727945377247 0.23224532373583689 0 0.42613138493428321 0.23114096394339739 0 0.4059828532762349 0.21092642440540429 0 0.42613138493428321 0.23114096394339739 0 0.42839414577896018 0.20950338426875159 0 0.42613138493428321 0.23114096394339739 0 0.44107831352899007 0.22240315743779901 0 0.42613138493428321 0.23114096394339739 0 0.44141484686645971 0.2363826917816115 0 0.44107831352899007 0.22240315743779901 0 0.44144799578287552 0.25063407380050812 0 0.42551448812707099 0.2427765896032141 0 0.44141484686645971 0.2363826917816115 0 0.42613138493428321 0.23114096394339739 0 0.42551448812707099 0.2427765896032141 0 0.44141484686645971 0.2363826917816115 0 0.41045727945377247 0.23224532373583689 0 0.42551448812707099 0.2427765896032141 0 0.40681097746815043 0.24944788258450881 0 0.41045727945377247 0.23224532373583689 0 0.42613138493428321 0.23114096394339739 0 0.42551448812707099 0.2427765896032141 0 0.42682444425688543 0.2568086017734223 0 0.42551448812707099 0.2427765896032141 0 0.40681097746815043 0.24944788258450881 0 0.46453561629844292 0.24661705348532301 0 0.45233578662085638 0.24345101764042529 0 0.45767052729006419 0.22734869880870889 0 0.46453561629844292 0.24661705348532301 0 0.46744138198431612 0.23472461049082541 0 0.45767052729006419 0.22734869880870889 0 0.46453561629844292 0.24661705348532301 0 0.45767052729006419 0.22734869880870889 0 0.46453561629844292 0.24661705348532301 0 0.46744138198431612 0.23472461049082541 0 0.47400380033395922 0.24505942253569801 0 0.45318009078529609 0.25750025464848258 0 0.46453561629844292 0.24661705348532301 0 0.45233578662085638 0.24345101764042529 0 0.45233578662085638 0.24345101764042529 0 0.44141484686645971 0.2363826917816115 0 0.45767052729006419 0.22734869880870889 0 0.44144799578287552 0.25063407380050812 0 0.45233578662085638 0.24345101764042529 0 0.44141484686645971 0.2363826917816115 0 0.44107831352899007 0.22240315743779901 0 0.45767052729006419 0.22734869880870889 0 0.45080543828168518 0.208080344132095 0 0.44141484686645971 0.2363826917816115 0 0.44107831352899007 0.22240315743779901 0 0.45767052729006419 0.22734869880870889 0 0.45767052729006419 0.22734869880870889 0 0.45948663533737172 0.21724718246994451 0 0.47660689536109763 0.22423343690945899 0 0.46744138198431612 0.23472461049082541 0 0.45767052729006419 0.22734869880870889 0 0.47660689536109763 0.22423343690945899 0 0.45767052729006419 0.22734869880870889 0 0.45948663533737172 0.21724718246994451 0 0.45080543828168518 0.208080344132095 0 0.45767052729006419 0.22734869880870889 0 0.45080543828168518 0.208080344132095 0 0.46733143084421991 0.21056630783729521 0 0.45948663533737172 0.21724718246994451 0 0.47660689536109763 0.22423343690945899 0 0.46733143084421991 0.21056630783729521 0 0.45552062363709628 0.2077809460491119 0 0.46643421116001149 0.19933698748422499 0 0.45552062363709628 0.2077809460491119 0 0.45080543828168518 0.208080344132095 0 0.4542965334241944 0.19533530954417791 0 0.45552062363709628 0.2077809460491119 0 0.45080543828168518 0.208080344132095 0 0.45552062363709628 0.2077809460491119 0 0.45948663533737172 0.21724718246994451 0 0.45080543828168518 0.208080344132095 0 0.46733143084421991 0.21056630783729521 0 0.45552062363709628 0.2077809460491119 0 0.45948663533737172 0.21724718246994451 0 0.43564675486478838 0.1989987418994322 0 0.42839414577896018 0.20950338426875159 0 0.45080543828168518 0.208080344132095 0 0.42839414577896018 0.20950338426875159 0 0.44107831352899007 0.22240315743779901 0 0.45080543828168518 0.208080344132095 0 0.42839414577896018 0.20950338426875159 0 0.45080543828168518 0.208080344132095 0 0.43564675486478838 0.1989987418994322 0 0.45080543828168518 0.208080344132095 0 0.44179583938944123 0.18279295940366361 0 0.45080543828168518 0.208080344132095 0 0.4542965334241944 0.19533530954417791 0 0.44179583938944123 0.18279295940366361 0 0.45080543828168518 0.208080344132095 0 0.44179583938944123 0.18279295940366361 0 0.45552062363709628 0.2077809460491119 0 0.4542965334241944 0.19533530954417791 0 0.46643421116001149 0.19933698748422499 0 0.4542965334241944 0.19533530954417791 0 0.46643421116001149 0.19933698748422499 0 0.46615628348580662 0.18630483239621581 0 0.46643421116001149 0.19933698748422499 0 0.47955332675774759 0.18787199624996051 0 0.46615628348580662 0.18630483239621581 0 0.46643421116001149 0.19933698748422499 0 0.47955332675774759 0.18787199624996051 0 0.47920999038823597 0.20340745128321991 0 0.5 0.21495747021886261 0 0.47920999038823597 0.20340745128321991 0 0.49999999999999772 0.18696897839112661 0 0.47955332675774759 0.18787199624996051 0 0.47920999038823597 0.20340745128321991 0 0.49999999999999772 0.18696897839112661 0 0.5 0.21495747021886261 0 0.47920999038823597 0.20340745128321991 0 0.47660689536109763 0.22423343690945899 0 0.47920999038823597 0.20340745128321991 0 0.47660689536109763 0.22423343690945899 0 0.46733143084421991 0.21056630783729521 0 0.47920999038823597 0.20340745128321991 0 0.47660689536109763 0.22423343690945899 0 0.46733143084421991 0.21056630783729521 0 0.46643421116001149 0.19933698748422499 0 0.47920999038823597 0.20340745128321991 0 0.5 0.21495747021886261 0 0.5 0.2429459620465986 0 0.4863535157909134 0.236027369455687 0 0.5 0.21495747021886261 0 0.47660689536109763 0.22423343690945899 0 0.4863535157909134 0.236027369455687 0 0.48722746125550248 0.25680108687804298 0 0.5 0.2429459620465986 0 0.4863535157909134 0.236027369455687 0 0.46744138198431612 0.23472461049082541 0 0.47660689536109763 0.22423343690945899 0 0.47400380033395922 0.24505942253569801 0 0.47660689536109763 0.22423343690945899 0 0.47400380033395922 0.24505942253569801 0 0.47660689536109763 0.22423343690945899 0 0.4863535157909134 0.236027369455687 0 0.47400380033395922 0.24505942253569801 0 0.48722746125550248 0.25680108687804298 0 0.4863535157909134 0.236027369455687 0 0.47400380033395922 0.24505942253569801 0 0.45716933912721103 0.13370858556600251 0 0.46002731139141051 0.15771015677952541 0 0.47931511875825011 0.1451181435214558 0 0.45716933912721103 0.13370858556600251 0 0.47221165969688461 0.126594440717054 0 0.46016341372968672 0.1163658273432065 0 0.44004096708711732 0.14308074597372439 0 0.44522783739417299 0.1149429434068895 0 0.43023583737169768 0.1199684096028463 0 0.45716933912721103 0.13370858556600251 0 0.44004096708711732 0.14308074597372439 0 0.44522783739417299 0.1149429434068895 0 0.44004096708711732 0.14308074597372439 0 0.46002731139141051 0.15771015677952541 0 0.45716933912721103 0.13370858556600251 0 0.44004096708711732 0.14308074597372439 0 0.46002731139141051 0.15771015677952541 0 0.43458146272079701 0.164405790237516 0 0.44004096708711732 0.14308074597372439 0 0.46002731139141051 0.15771015677952541 0 0.43458146272079701 0.164405790237516 0 0.45564545159023978 0.17457642960216599 0 0.46002731139141051 0.15771015677952541 0 0.4542965334241944 0.19533530954417791 0 0.44179583938944123 0.18279295940366361 0 0.45564545159023978 0.17457642960216599 0 0.43458146272079701 0.164405790237516 0 0.44179583938944123 0.18279295940366361 0 0.45564545159023978 0.17457642960216599 0 0.45564545159023978 0.17457642960216599 0 0.46615628348580662 0.18630483239621581 0 0.4800136556957037 0.17233956758532659 0 0.4542965334241944 0.19533530954417791 0 0.45564545159023978 0.17457642960216599 0 0.46615628348580662 0.18630483239621581 0 0.45564545159023978 0.17457642960216599 0 0.46002731139141051 0.15771015677952541 0 0.4800136556957037 0.17233956758532659 0 0.46002731139141051 0.15771015677952541 0 0.4800136556957037 0.17233956758532659 0 0.46002731139141051 0.15771015677952541 0 0.4800136556957037 0.17233956758532659 0 0.47931511875825011 0.1451181435214558 0 0.47955332675774759 0.18787199624996051 0 0.46615628348580662 0.18630483239621581 0 0.4800136556957037 0.17233956758532659 0 0.47955332675774759 0.18787199624996051 0 0.4800136556957037 0.17233956758532659 0 0.49999999999999772 0.18696897839112661 0 0.4800136556957037 0.17233956758532659 0 0.49999999999999772 0.18696897839112661 0 0.4800136556957037 0.17233956758532659 0 0.49999999999999772 0.18696897839112661 0 0.5 0.16239412046184379 0 0.4800136556957037 0.17233956758532659 0 0.5 0.16239412046184379 0 0.47931511875825011 0.1451181435214558 0 0.5 0.16239412046184379 0 0.47931511875825011 0.1451181435214558 0 0.5 0.1378192625325608 0 0.45716933912721103 0.13370858556600251 0 0.47931511875825011 0.1451181435214558 0 0.47221165969688461 0.126594440717054 0 0.47931511875825011 0.1451181435214558 0 0.47221165969688461 0.126594440717054 0 0.48769762428109181 0.12567083168264331 0 0.47931511875825011 0.1451181435214558 0 0.48769762428109181 0.12567083168264331 0 0.5 0.1378192625325608 0 0.48769762428109181 0.12567083168264331 0 0.5 0.1378192625325608 0 0.5 0.113244404603278 0 0.48769762428109181 0.12567083168264331 0 0.5 0.113244404603278 0 0.47969202172286129 0.10755279225286429 0 0.5 0.113244404603278 0 0.47969202172286129 0.10755279225286429 0 0.5 0.08866954667399507 0 0.47969202172286129 0.10755279225286429 0 0.4785733246148749 0.083062926926930625 0 0.45994878521928068 0.099413419383832857 0 0.47221165969688461 0.126594440717054 0 0.48769762428109181 0.12567083168264331 0 0.47969202172286129 0.10755279225286429 0 0.47221165969688461 0.126594440717054 0 0.47969202172286129 0.10755279225286429 0 0.46016341372968672 0.1163658273432065 0 0.49999999999999922 0.064094688744712261 0 0.4785733246148749 0.083062926926930625 0 0.47843642230431782 0.060569764201273593 0 0.47969202172286129 0.10755279225286429 0 0.5 0.08866954667399507 0 0.4785733246148749 0.083062926926930625 0 0.49999999999999922 0.064094688744712261 0 0.5 0.08866954667399507 0 0.4785733246148749 0.083062926926930625 0 0.4785733246148749 0.083062926926930625 0 0.45716194001537619 0.077603774503307521 0 0.47843642230431782 0.060569764201273593 0 0.45716194001537619 0.077603774503307521 0 0.45687284460863642 0.057044839657834773 0 0.47843642230431782 0.060569764201273593 0 0.45716194001537619 0.077603774503307521 0 0.45994878521928068 0.099413419383832857 0 0.4447284279767767 0.094956887415673166 0 0.4785733246148749 0.083062926926930625 0 0.45716194001537619 0.077603774503307521 0 0.45994878521928068 0.099413419383832857 0 0.45716194001537619 0.077603774503307521 0 0.4377967514900582 0.081529970841515378 0 0.4447284279767767 0.094956887415673166 0 0.45716194001537619 0.077603774503307521 0 0.44346528053295098 0.067375836776747203 0 0.45687284460863642 0.057044839657834773 0 0.45716194001537619 0.077603774503307521 0 0.4377967514900582 0.081529970841515378 0 0.44346528053295098 0.067375836776747203 0 0.45716933912721103 0.13370858556600251 0 0.46016341372968672 0.1163658273432065 0 0.44522783739417299 0.1149429434068895 0 0.46016341372968672 0.1163658273432065 0 0.45994878521928068 0.099413419383832857 0 0.44522783739417299 0.1149429434068895 0 0.47969202172286129 0.10755279225286429 0 0.46016341372968672 0.1163658273432065 0 0.45994878521928068 0.099413419383832857 0 0.45994878521928068 0.099413419383832857 0 0.4447284279767767 0.094956887415673166 0 0.44522783739417299 0.1149429434068895 0 0.4447284279767767 0.094956887415673166 0 0.44522783739417299 0.1149429434068895 0 0.42763871442074808 0.10034435439472079 0 0.44522783739417299 0.1149429434068895 0 0.43023583737169768 0.1199684096028463 0 0.42763871442074808 0.10034435439472079 0 0.43023583737169768 0.1199684096028463 0 0.4182170451736254 0.11302266907097359 0 0.42763871442074808 0.10034435439472079 0 0.42005462278282413 0.1284513351679232 0 0.43023583737169768 0.1199684096028463 0 0.4182170451736254 0.11302266907097359 0 0.42005462278282413 0.1284513351679232 0 0.4182170451736254 0.11302266907097359 0 0.39399621849110639 0.1212015931010629 0 0.4182170451736254 0.11302266907097359 0 0.40766102265843601 0.10376479596222531 0 0.39399621849110639 0.1212015931010629 0 0.4182170451736254 0.11302266907097359 0 0.40766102265843601 0.10376479596222531 0 0.42763871442074808 0.10034435439472079 0 0.40766102265843601 0.10376479596222531 0 0.42763871442074808 0.10034435439472079 0 0.41212267280118409 0.089566440000335756 0 0.40766102265843601 0.10376479596222531 0 0.41212267280118409 0.089566440000335756 0 0.39938615103699437 0.093818713285511349 0 0.4377967514900582 0.081529970841515378 0 0.42763871442074808 0.10034435439472079 0 0.42403865869792601 0.086093439238671798 0 0.4377967514900582 0.081529970841515378 0 0.4447284279767767 0.094956887415673166 0 0.42763871442074808 0.10034435439472079 0 0.4377967514900582 0.081529970841515378 0 0.42403865869792601 0.086093439238671798 0 0.42641479738374982 0.071194279203422042 0 0.4377967514900582 0.081529970841515378 0 0.44346528053295098 0.067375836776747203 0 0.42641479738374982 0.071194279203422042 0 0.44346528053295098 0.067375836776747203 0 0.42641479738374982 0.071194279203422042 0 0.43530926691295491 0.053519915114395938 0 0.42641479738374982 0.071194279203422042 0 0.41408751184818288 0.076274642995838526 0 0.41668109015078048 0.060321018968651587 0 0.41408751184818288 0.076274642995838526 0 0.40288127288982228 0.068425419103723073 0 0.41668109015078048 0.060321018968651587 0 0.42403865869792601 0.086093439238671798 0 0.42641479738374982 0.071194279203422042 0 0.41408751184818288 0.076274642995838526 0 0.41408751184818288 0.076274642995838526 0 0.40238657916563447 0.082047261460226881 0 0.40288127288982228 0.068425419103723073 0 0.42763871442074808 0.10034435439472079 0 0.42403865869792601 0.086093439238671798 0 0.41212267280118409 0.089566440000335756 0 0.42403865869792601 0.086093439238671798 0 0.41408751184818288 0.076274642995838526 0 0.41212267280118409 0.089566440000335756 0 0.41408751184818288 0.076274642995838526 0 0.41212267280118409 0.089566440000335756 0 0.40238657916563447 0.082047261460226881 0 0.41212267280118409 0.089566440000335756 0 0.40238657916563447 0.082047261460226881 0 0.39938615103699437 0.093818713285511349 0 0.40238657916563447 0.082047261460226881 0 0.40288127288982228 0.068425419103723073 0 0.38892742759151128 0.084986861327899371 0 0.40238657916563447 0.082047261460226881 0 0.38892742759151128 0.084986861327899371 0 0.39938615103699437 0.093818713285511349 0 0.38892742759151128 0.084986861327899371 0 0.38826326685636209 0.098652864225125911 0 0.39938615103699437 0.093818713285511349 0 0.40288127288982228 0.068425419103723073 0 0.38800965188138797 0.067359575457755852 0 0.40432212744439028 0.05347617298120954 0 0.40288127288982228 0.068425419103723073 0 0.38892742759151128 0.084986861327899371 0 0.38798879278853271 0.080339117347540331 0 0.40288127288982228 0.068425419103723073 0 0.38892742759151128 0.084986861327899371 0 0.40288127288982228 0.068425419103723073 0 0.38800965188138797 0.067359575457755852 0 0.38798879278853271 0.080339117347540331 0 0.3686285935653984 0.082562954753238868 0 0.37368610641380767 0.069298039188229563 0 0.38800965188138797 0.067359575457755852 0 0.36531655038580868 0.086673471762910501 0 0.38800965188138797 0.067359575457755852 0 0.38800965188138797 0.067359575457755852 0 0.37647922074593232 0.083356910721568186 0 0.38213324459839199 0.081483758981058085 0 0.38800965188138797 0.067359575457755852 0 0.38798879278853271 0.080339117347540331 0 0.38800965188138797 0.067359575457755852 0 0.38798879278853271 0.080339117347540331 0 0.38213324459839199 0.081483758981058085 0 0.37368610641380767 0.069298039188229563 0 0.38800965188138797 0.067359575457755852 0 0.37629973611750162 0.057133884090869731 0 0.37497358229320049 0.10154830355207579 0 0.38892742759151128 0.084986861327899371 0 0.37497358229320049 0.10154830355207579 0 0.38892742759151128 0.084986861327899371 0 0.37684180320149779 0.091545452851138936 0 0.36531655038580868 0.086673471762910501 0 0.38800965188138797 0.067359575457755852 0 0.37647922074593232 0.083356910721568186 0 0.38892742759151128 0.084986861327899371 0 0.3849242374013872 0.08337667236388048 0 0.37684180320149779 0.091545452851138936 0 0.38892742759151128 0.084986861327899371 0 0.38798879278853271 0.080339117347540331 0 0.3849242374013872 0.08337667236388048 0 0.38798879278853271 0.080339117347540331 0 0.3849242374013872 0.08337667236388048 0 0.38213324459839199 0.081483758981058085 0 0.3849242374013872 0.08337667236388048 0 0.38213324459839199 0.081483758981058085 0 0.37684180320149779 0.091545452851138936 0 0.37647922074593232 0.083356910721568186 0 0.38213324459839199 0.081483758981058085 0 0.37684180320149779 0.091545452851138936 0 0.37199198662207139 0.089080455090655153 0 0.37647922074593232 0.083356910721568186 0 0.37684180320149779 0.091545452851138936 0 0.37497358229320049 0.10154830355207579 0 0.38892742759151128 0.084986861327899371 0 0.38826326685636209 0.098652864225125911 0 0.37497358229320049 0.10154830355207579 0 0.37684180320149779 0.091545452851138936 0 0.37497358229320049 0.10154830355207579 0 0.38826326685636209 0.098652864225125911 0 0.38533294109085808 0.11055412036022549 0 0.38826326685636209 0.098652864225125911 0 0.38533294109085808 0.11055412036022549 0 0.39460533402695769 0.10463500592074761 0 0.37497358229320049 0.10154830355207579 0 0.36977539180858737 0.12938051713115239 0 0.38533294109085808 0.11055412036022549 0 0.36977539180858737 0.12938051713115239 0 0.38533294109085808 0.11055412036022549 0 0.39399621849110639 0.1212015931010629 0 0.40766102265843601 0.10376479596222531 0 0.39399621849110639 0.1212015931010629 0 0.39460533402695769 0.10463500592074761 0 0.38533294109085808 0.11055412036022549 0 0.39399621849110639 0.1212015931010629 0 0.39460533402695769 0.10463500592074761 0 0.4182170451736254 0.11302266907097359 0 0.39399621849110639 0.1212015931010629 0 0.40766102265843601 0.10376479596222531 0 0.39938615103699437 0.093818713285511349 0 0.39460533402695769 0.10463500592074761 0 0.38826326685636209 0.098652864225125911 0 0.39938615103699437 0.093818713285511349 0 0.39460533402695769 0.10463500592074761 0 0.38809510434950978 0.014186894499208531 0 0.40227664223542231 0.03346882998773771 0 0.41027899826036868 0.019315076975124329 0 0.38809510434950978 0.014186894499208531 0 0.38805237811544963 0.040773234978482217 0 0.40227664223542231 0.03346882998773771 0 0.38809510434950978 0.014186894499208531 0 0.41027899826036868 0.019315076975124329 0 0.41153685578036397 -0.0019629210903366261 0 0.38809510434950978 0.014186894499208531 0 0.38813783058356999 -0.012399445980065191 0 0.36528524993471517 -0.00050110304122203656 0 0.38809510434950978 0.014186894499208531 0 0.38813783058356999 -0.012399445980065191 0 0.36660895407805488 0.032420410302755692 0 0.38809510434950978 0.014186894499208531 0 0.38805237811544963 0.040773234978482217 0 0.38809510434950978 0.014186894499208531 0 0.38805237811544963 0.040773234978482217 0 0.37051694284251602 0.045934513972437287 0 0.36660895407805488 0.032420410302755692 0 0.38805237811544963 0.040773234978482217 0 0.37051694284251602 0.045934513972437287 0 0.38805237811544963 0.040773234978482217 0 0.37629973611750162 0.057133884090869731 0 0.38800965188138797 0.067359575457755852 0 0.38805237811544963 0.040773234978482217 0 0.38800965188138797 0.067359575457755852 0 0.38805237811544963 0.040773234978482217 0 0.37629973611750162 0.057133884090869731 0 0.38800965188138797 0.067359575457755852 0 0.38805237811544963 0.040773234978482217 0 0.40432212744439028 0.05347617298120954 0 0.38800965188138797 0.067359575457755852 0 0.40432212744439028 0.05347617298120954 0 0.38805237811544963 0.040773234978482217 0 0.40432212744439028 0.05347617298120954 0 0.40227664223542231 0.03346882998773771 0 0.40432212744439028 0.05347617298120954 0 0.40227664223542231 0.03346882998773771 0 0.42063460300739319 0.039592770504663921 0 0.40432212744439028 0.05347617298120954 0 0.42063460300739319 0.039592770504663921 0 0.40432212744439028 0.05347617298120954 0 0.42063460300739319 0.039592770504663921 0 0.41668109015078048 0.060321018968651587 0 0.40288127288982228 0.068425419103723073 0 0.40432212744439028 0.05347617298120954 0 0.41668109015078048 0.060321018968651587 0 0.42063460300739319 0.039592770504663921 0 0.41668109015078048 0.060321018968651587 0 0.43530926691295491 0.053519915114395938 0 0.42641479738374982 0.071194279203422042 0 0.41668109015078048 0.060321018968651587 0 0.43530926691295491 0.053519915114395938 0 0.42063460300739319 0.039592770504663921 0 0.43530926691295491 0.053519915114395938 0 0.44546029297815198 0.036401673327624867 0 0.42063460300739319 0.039592770504663921 0 0.43003026873756373 0.016124490894639638 0 0.44546029297815198 0.036401673327624867 0 0.42063460300739319 0.039592770504663921 0 0.43003026873756373 0.016124490894639638 0 0.41027899826036868 0.019315076975124329 0 0.40227664223542231 0.03346882998773771 0 0.42063460300739319 0.039592770504663921 0 0.41027899826036868 0.019315076975124329 0 0.43003026873756373 0.016124490894639638 0 0.41027899826036868 0.019315076975124329 0 0.41153685578036397 -0.0019629210903366261 0 0.43003026873756373 0.016124490894639638 0 0.41153685578036397 -0.0019629210903366261 0 0.43640101268708648 -0.0046410089372440266 0 0.43003026873756373 0.016124490894639638 0 0.4616163053097625 0.012947415970674491 0 0.44546029297815198 0.036401673327624867 0 0.43003026873756373 0.016124490894639638 0 0.4616163053097625 0.012947415970674491 0 0.43640101268708648 -0.0046410089372440266 0 0.4616163053097625 0.012947415970674491 0 0.44546029297815198 0.036401673327624867 0 0.46829846929260133 0.039180607823540471 0 0.4616163053097625 0.012947415970674491 0 0.46829846929260133 0.039180607823540471 0 0.43530926691295491 0.053519915114395938 0 0.44546029297815198 0.036401673327624867 0 0.45687284460863642 0.057044839657834773 0 0.43530926691295491 0.053519915114395938 0 0.45687284460863642 0.057044839657834773 0 0.44346528053295098 0.067375836776747203 0 0.43530926691295491 0.053519915114395938 0 0.45687284460863642 0.057044839657834773 0 0.44546029297815198 0.036401673327624867 0 0.46829846929260133 0.039180607823540471 0 0.45687284460863642 0.057044839657834773 0 0.45687284460863642 0.057044839657834773 0 0.47843642230431782 0.060569764201273593 0 0.46829846929260133 0.039180607823540471 0 0.45687284460863642 0.057044839657834773 0 0.47843642230431782 0.060569764201273593 0 0.46829846929260133 0.039180607823540471 0 0.47843642230431782 0.060569764201273593 0 0.48441281478572717 0.044639942984937397 0 0.46829846929260133 0.039180607823540471 0 0.48441281478572717 0.044639942984937397 0 0.48216351925400569 0.023912142869640291 0 0.5 0.037819669664003852 0 0.48441281478572717 0.044639942984937397 0 0.48216351925400569 0.023912142869640291 0 0.49999999999999922 0.064094688744712261 0 0.5 0.037819669664003852 0 0.48441281478572717 0.044639942984937397 0 0.49999999999999922 0.064094688744712261 0 0.47843642230431782 0.060569764201273593 0 0.49999999999999922 0.064094688744712261 0 0.47843642230431782 0.060569764201273593 0 0.48441281478572717 0.044639942984937397 0 0.4616163053097625 0.012947415970674491 0 0.48216351925400569 0.023912142869640291 0 0.47865352613594309 -0.0026594298086097842 0 0.4616163053097625 0.012947415970674491 0 0.46829846929260133 0.039180607823540471 0 0.48216351925400569 0.023912142869640291 0 0.5 0.037819669664003852 0 0.48216351925400569 0.023912142869640291 0 0.5 0.01154465058329535 0 0.48216351925400569 0.023912142869640291 0 0.5 0.01154465058329535 0 0.47865352613594309 -0.0026594298086097842 0 0.5 -0.01473036849741316 0 0.47865352613594309 -0.0026594298086097842 0 0.47637292076687249 -0.028438805409210361 0 0.5 0.01154465058329535 0 0.5 -0.01473036849741316 0 0.47865352613594309 -0.0026594298086097842 0 0.47865352613594309 -0.0026594298086097842 0 0.47637292076687249 -0.028438805409210361 0 0.45493414132692372 -0.0132857758821915 0 0.5 -0.01473036849741316 0 0.47637292076687249 -0.028438805409210361 0 0.5 -0.041005387578121673 0 0.47637292076687249 -0.028438805409210361 0 0.5 -0.041005387578121673 0 0.47713553681715642 -0.054702060209816189 0 0.5 -0.041005387578121673 0 0.47713553681715642 -0.054702060209816189 0 0.5 -0.067280406658830172 0 0.47637292076687249 -0.028438805409210361 0 0.47713553681715642 -0.054702060209816189 0 0.44825197734408501 -0.039518967735057448 0 0.47713553681715642 -0.054702060209816189 0 0.44825197734408501 -0.039518967735057448 0 0.45584838815641732 -0.069674586969383084 0 0.44825197734408501 -0.039518967735057448 0 0.45584838815641732 -0.069674586969383084 0 0.42702021602578372 -0.062854792704602702 0 0.44825197734408501 -0.039518967735057448 0 0.43765992936385267 -0.022868423134524252 0 0.45493414132692372 -0.0132857758821915 0 0.44825197734408501 -0.039518967735057448 0 0.45493414132692372 -0.0132857758821915 0 0.4616163053097625 0.012947415970674491 0 0.45493414132692372 -0.0132857758821915 0 0.43640101268708648 -0.0046410089372440266 0 0.43765992936385267 -0.022868423134524252 0 0.45493414132692372 -0.0132857758821915 0 0.43640101268708648 -0.0046410089372440266 0 0.4616163053097625 0.012947415970674491 0 0.45493414132692372 -0.0132857758821915 0 0.4616163053097625 0.012947415970674491 0 0.47865352613594309 -0.0026594298086097842 0 0.45493414132692372 -0.0132857758821915 0 0.47637292076687249 -0.028438805409210361 0 0.44825197734408501 -0.039518967735057448 0 0.45493414132692372 -0.0132857758821915 0 0.47219540412757982 -0.12133300917517389 0 0.48551511635360911 -0.1098011170494502 0 0.46336125576880138 -0.1073076282294157 0 0.47219540412757982 -0.12133300917517389 0 0.48551511635360911 -0.1098011170494502 0 0.50000000000000111 -0.1198304448202472 0 0.47219540412757982 -0.12133300917517389 0 0.50000000000000111 -0.1198304448202472 0 0.48551511635360911 -0.1098011170494502 0 0.47402371149438649 -0.094761193712666822 0 0.5 -0.093555425739538678 0 0.48551511635360911 -0.1098011170494502 0 0.50000000000000111 -0.1198304448202472 0 0.5 -0.093555425739538678 0 0.48551511635360911 -0.1098011170494502 0 0.47402371149438649 -0.094761193712666822 0 0.46336125576880138 -0.1073076282294157 0 0.47402371149438649 -0.094761193712666822 0 0.48140152729359209 -0.075994734658046986 0 0.45584838815641732 -0.069674586969383084 0 0.47402371149438649 -0.094761193712666822 0 0.5 -0.093555425739538678 0 0.48140152729359209 -0.075994734658046986 0 0.5 -0.093555425739538678 0 0.5 -0.067280406658830172 0 0.48140152729359209 -0.075994734658046986 0 0.47713553681715642 -0.054702060209816189 0 0.5 -0.067280406658830172 0 0.48140152729359209 -0.075994734658046986 0 0.47713553681715642 -0.054702060209816189 0 0.48140152729359209 -0.075994734658046986 0 0.45584838815641732 -0.069674586969383084 0 0.45584838815641732 -0.069674586969383084 0 0.43875520968287468 -0.077792743136954376 0 0.42702021602578372 -0.062854792704602702 0 0.45584838815641732 -0.069674586969383084 0 0.42702021602578372 -0.062854792704602702 0 0.45584838815641732 -0.069674586969383084 0 0.43875520968287468 -0.077792743136954376 0 0.44905983508247022 -0.093296283725555457 0 0.43875520968287468 -0.077792743136954376 0 0.44905983508247022 -0.093296283725555457 0 0.42996435585364629 -0.09151025468520603 0 0.47402371149438649 -0.094761193712666822 0 0.45584838815641732 -0.069674586969383084 0 0.44905983508247022 -0.093296283725555457 0 0.47402371149438649 -0.094761193712666822 0 0.44905983508247022 -0.093296283725555457 0 0.46336125576880138 -0.1073076282294157 0 0.44905983508247022 -0.093296283725555457 0 0.46336125576880138 -0.1073076282294157 0 0.4467404477327433 -0.1065753807857043 0 0.44905983508247022 -0.093296283725555457 0 0.43484047071750342 -0.1017266282080657 0 0.42996435585364629 -0.09151025468520603 0 0.44905983508247022 -0.093296283725555457 0 0.4467404477327433 -0.1065753807857043 0 0.43484047071750342 -0.1017266282080657 0 0.4467404477327433 -0.1065753807857043 0 0.43419680927889298 -0.1132191862857576 0 0.43484047071750342 -0.1017266282080657 0 0.45263301982202042 -0.1180787849279437 0 0.44439080825515859 -0.12283557353010061 0 0.4293401992409106 -0.1207018246503703 0 0.45263301982202042 -0.1180787849279437 0 0.4293401992409106 -0.1207018246503703 0 0.43419680927889298 -0.1132191862857576 0 0.45263301982202042 -0.1180787849279437 0 0.4293401992409106 -0.1207018246503703 0 0.4467404477327433 -0.1065753807857043 0 0.45263301982202042 -0.1180787849279437 0 0.43419680927889298 -0.1132191862857576 0 0.47219540412757982 -0.12133300917517389 0 0.45263301982202042 -0.1180787849279437 0 0.44439080825515859 -0.12283557353010061 0 0.47219540412757982 -0.12133300917517389 0 0.44439080825515859 -0.12283557353010061 0 0.45535272626567053 -0.13009024679139411 0 0.46336125576880138 -0.1073076282294157 0 0.4467404477327433 -0.1065753807857043 0 0.45263301982202042 -0.1180787849279437 0 0.47219540412757982 -0.12133300917517389 0 0.46336125576880138 -0.1073076282294157 0 0.45263301982202042 -0.1180787849279437 0 0.47219540412757982 -0.12133300917517389 0 0.44439080825515859 -0.12283557353010061 0 0.4293401992409106 -0.1207018246503703 0 0.40604737865980089 -0.1233248643727969 0 0.41658621238273741 -0.1243381378850273 0 0.4293401992409106 -0.1207018246503703 0 0.40604737865980089 -0.1233248643727969 0 0.41814796911551211 -0.1147169554442739 0 0.4293401992409106 -0.1207018246503703 0 0.40604737865980089 -0.1233248643727969 0 0.40691455275819199 -0.1123068663543399 0 0.41814796911551211 -0.1147169554442739 0 0.41424090563976412 -0.104032035558105 0 0.40691455275819199 -0.1123068663543399 0 0.41814796911551211 -0.1147169554442739 0 0.40604737865980089 -0.1233248643727969 0 0.41814796911551211 -0.1147169554442739 0 0.43419680927889298 -0.1132191862857576 0 0.41424090563976412 -0.104032035558105 0 0.41814796911551211 -0.1147169554442739 0 0.4293401992409106 -0.1207018246503703 0 0.43419680927889298 -0.1132191862857576 0 0.44439080825515859 -0.12283557353010061 0 0.41658621238273741 -0.1243381378850273 0 0.4293401992409106 -0.1207018246503703 0 0.44439080825515859 -0.12283557353010061 0 0.41658621238273741 -0.1243381378850273 0 0.43419680927889298 -0.1132191862857576 0 0.41424090563976412 -0.104032035558105 0 0.43419680927889298 -0.1132191862857576 0 0.43484047071750342 -0.1017266282080657 0 0.41424090563976412 -0.104032035558105 0 0.43484047071750342 -0.1017266282080657 0 0.41424090563976412 -0.104032035558105 0 0.42996435585364629 -0.09151025468520603 0 0.41424090563976412 -0.104032035558105 0 0.41155663905142531 -0.079153950075025181 0 0.39428500200063521 -0.094844884830452503 0 0.41424090563976412 -0.104032035558105 0 0.41155663905142531 -0.079153950075025181 0 0.42996435585364629 -0.09151025468520603 0 0.43875520968287468 -0.077792743136954376 0 0.41155663905142531 -0.079153950075025181 0 0.42996435585364629 -0.09151025468520603 0 0.43875520968287468 -0.077792743136954376 0 0.41155663905142531 -0.079153950075025181 0 0.42702021602578372 -0.062854792704602702 0 0.41155663905142531 -0.079153950075025181 0 0.42702021602578372 -0.062854792704602702 0 0.39819204389515062 -0.056034998439820703 0 0.41155663905142531 -0.079153950075025181 0 0.38626057112832818 -0.070846366271309871 0 0.39819204389515062 -0.056034998439820703 0 0.38626057112832818 -0.070846366271309871 0 0.39819204389515062 -0.056034998439820703 0 0.38626057112832818 -0.070846366271309871 0 0.37516414371306678 -0.059402619742782117 0 0.36930545560665812 -0.067237671203730615 0 0.38626057112832818 -0.070846366271309871 0 0.36930545560665812 -0.067237671203730615 0 0.37432909836150652 -0.085657734102799615 0 0.39428500200063521 -0.094844884830452503 0 0.37432909836150652 -0.085657734102799615 0 0.38626057112832818 -0.070846366271309871 0 0.39428500200063521 -0.094844884830452503 0 0.37432909836150652 -0.085657734102799615 0 0.38626057112832818 -0.070846366271309871 0 0.37432909836150652 -0.085657734102799615 0 0.41155663905142531 -0.079153950075025181 0 0.38626057112832818 -0.070846366271309871 0 0.39428500200063521 -0.094844884830452503 0 0.40691455275819199 -0.1123068663543399 0 0.41424090563976412 -0.104032035558105 0 0.39428500200063521 -0.094844884830452503 0 0.41424090563976412 -0.104032035558105 0 0.39428500200063521 -0.094844884830452503 0 0.40691455275819199 -0.1123068663543399 0 0.39428500200063521 -0.094844884830452503 0 0.39298373892106192 -0.1120512636288724 0 0.39428500200063521 -0.094844884830452503 0 0.37861321738195958 -0.101859948064613 0 0.39298373892106192 -0.1120512636288724 0 0.39428500200063521 -0.094844884830452503 0 0.37861321738195958 -0.101859948064613 0 0.37432909836150652 -0.085657734102799615 0 0.37861321738195958 -0.101859948064613 0 0.39298373892106192 -0.1120512636288724 0 0.36959268086489411 -0.11562868785079231 0 0.39298373892106192 -0.1120512636288724 0 0.36959268086489411 -0.11562868785079231 0 0.38275455807869108 -0.1259479040952235 0 0.39298373892106192 -0.1120512636288724 0 0.40604737865980089 -0.1233248643727969 0 0.38275455807869108 -0.1259479040952235 0 0.40604737865980089 -0.1233248643727969 0 0.38275455807869108 -0.1259479040952235 0 0.40691455275819199 -0.1123068663543399 0 0.39298373892106192 -0.1120512636288724 0 0.40604737865980089 -0.1233248643727969 0 0.41153685578036397 -0.0019629210903366261 0 0.42262857560405298 -0.018800840381725911 0 0.40557789239388009 -0.026714704676441849 0 0.42262857560405298 -0.018800840381725911 0 0.4264756320105984 -0.037284612710550433 0 0.40557789239388009 -0.026714704676441849 0 0.41153685578036397 -0.0019629210903366261 0 0.43640101268708648 -0.0046410089372440266 0 0.42262857560405298 -0.018800840381725911 0 0.43765992936385267 -0.022868423134524252 0 0.43640101268708648 -0.0046410089372440266 0 0.42262857560405298 -0.018800840381725911 0 0.43765992936385267 -0.022868423134524252 0 0.42262857560405298 -0.018800840381725911 0 0.4264756320105984 -0.037284612710550433 0 0.44825197734408501 -0.039518967735057448 0 0.42702021602578372 -0.062854792704602702 0 0.4264756320105984 -0.037284612710550433 0 0.44825197734408501 -0.039518967735057448 0 0.43765992936385267 -0.022868423134524252 0 0.4264756320105984 -0.037284612710550433 0 0.42702021602578372 -0.062854792704602702 0 0.4264756320105984 -0.037284612710550433 0 0.41725077808298677 -0.050368520743631282 0 0.41725077808298677 -0.050368520743631282 0 0.4063532702048423 -0.045903900025463948 0 0.39819204389515062 -0.056034998439820703 0 0.42702021602578372 -0.062854792704602702 0 0.39819204389515062 -0.056034998439820703 0 0.42702021602578372 -0.062854792704602702 0 0.41725077808298677 -0.050368520743631282 0 0.39819204389515062 -0.056034998439820703 0 0.4264756320105984 -0.037284612710550433 0 0.4063532702048423 -0.045903900025463948 0 0.40557789239388009 -0.026714704676441849 0 0.4264756320105984 -0.037284612710550433 0 0.41725077808298677 -0.050368520743631282 0 0.4063532702048423 -0.045903900025463948 0 0.4063532702048423 -0.045903900025463948 0 0.3923965041484711 -0.040681716984608131 0 0.40557789239388009 -0.026714704676441849 0 0.3923965041484711 -0.040681716984608131 0 0.39139418061058789 -0.027619451336121491 0 0.40557789239388009 -0.026714704676441849 0 0.4063532702048423 -0.045903900025463948 0 0.3923965041484711 -0.040681716984608131 0 0.39819204389515062 -0.056034998439820703 0 0.4063532702048423 -0.045903900025463948 0 0.39819204389515062 -0.056034998439820703 0 0.39819204389515062 -0.056034998439820703 0 0.38335104799624842 -0.05252410852781822 0 0.3923965041484711 -0.040681716984608131 0 0.39819204389515062 -0.056034998439820703 0 0.38335104799624842 -0.05252410852781822 0 0.38626057112832818 -0.070846366271309871 0 0.39819204389515062 -0.056034998439820703 0 0.38335104799624842 -0.05252410852781822 0 0.38626057112832818 -0.070846366271309871 0 0.38335104799624842 -0.05252410852781822 0 0.37516414371306678 -0.059402619742782117 0 0.38335104799624842 -0.05252410852781822 0 0.37868257332427158 -0.042721707105043388 0 0.36851005209734689 -0.04901321861581287 0 0.38335104799624842 -0.05252410852781822 0 0.36851005209734689 -0.04901321861581287 0 0.38335104799624842 -0.05252410852781822 0 0.37516414371306678 -0.059402619742782117 0 0.37083519607560811 -0.051442718493276293 0 0.3923965041484711 -0.040681716984608131 0 0.37946449531643051 -0.030681937703370819 0 0.39139418061058789 -0.027619451336121491 0 0.3923965041484711 -0.040681716984608131 0 0.37868257332427158 -0.042721707105043388 0 0.37946449531643051 -0.030681937703370819 0 0.3923965041484711 -0.040681716984608131 0 0.38335104799624842 -0.05252410852781822 0 0.37868257332427158 -0.042721707105043388 0 0.37868257332427158 -0.042721707105043388 0 0.37946449531643051 -0.030681937703370819 0 0.37289325595349287 -0.039056669017988682 0 0.37946449531643051 -0.030681937703370819 0 0.38813783058356999 -0.012399445980065191 0 0.36593433835502842 -0.019955981096618291 0 0.37946449531643051 -0.030681937703370819 0 0.39139418061058789 -0.027619451336121491 0 0.38813783058356999 -0.012399445980065191 0 0.39139418061058789 -0.027619451336121491 0 0.40557789239388009 -0.026714704676441849 0 0.38813783058356999 -0.012399445980065191 0 0.38809510434950978 0.014186894499208531 0 0.41153685578036397 -0.0019629210903366261 0 0.38813783058356999 -0.012399445980065191 0 0.41153685578036397 -0.0019629210903366261 0 0.40557789239388009 -0.026714704676441849 0 0.38813783058356999 -0.012399445980065191 0 0.38813783058356999 -0.012399445980065191 0 0.36528524993471517 -0.00050110304122203656 0 0.36593433835502842 -0.019955981096618291 0 0.36528524993471517 -0.00050110304122203656 0 0.36593433835502842 -0.019955981096618291 0 0.34990566603329781 -0.01108715766655221 0 0.36593433835502842 -0.019955981096618291 0 0.34988483201318038 -0.02955207111900442 0 0.3649159030759227 -0.03380981264772763 0 0.37946449531643051 -0.030681937703370819 0 0.36593433835502842 -0.019955981096618291 0 0.3649159030759227 -0.03380981264772763 0 0.36593433835502842 -0.019955981096618291 0 0.34988483201318038 -0.02955207111900442 0 0.34990566603329781 -0.01108715766655221 0 0.34114019158844411 0.0080730073898155515 0 0.36528524993471517 -0.00050110304122203656 0 0.34990566603329781 -0.01108715766655221 0 0.34114019158844411 0.0080730073898155515 0 0.34990566603329781 -0.01108715766655221 0 0.33125961192901288 -0.010090923622196969 0 0.34988483201318038 -0.02955207111900442 0 0.34990566603329781 -0.01108715766655221 0 0.33125961192901288 -0.010090923622196969 0 0.34988483201318038 -0.02955207111900442 0 0.33125961192901288 -0.010090923622196969 0 0.34988483201318038 -0.02955207111900442 0 0.33125961192901288 -0.010090923622196969 0 0.32820977144403252 -0.030692999978933821 0 0.33125961192901288 -0.010090923622196969 0 0.32820977144403252 -0.030692999978933821 0 0.3070657392947222 -0.02133387501915943 0 0.32820977144403252 -0.030692999978933821 0 0.31259396283228069 -0.036598948287682627 0 0.3070657392947222 -0.02133387501915943 0 0.31263439184484548 0.0093702238746103741 0 0.33125961192901288 -0.010090923622196969 0 0.30634635689462569 -0.0054163935952359233 0 0.31263439184484548 0.0093702238746103741 0 0.33125961192901288 -0.010090923622196969 0 0.33125961192901288 -0.010090923622196969 0 0.30634635689462569 -0.0054163935952359233 0 0.3070657392947222 -0.02133387501915943 0 0.32981028989216699 -0.062414898119164869 0 0.3170933128650803 -0.071328783210542035 0 0.30906793128128213 -0.051696686089317448 0 0.32898940933167931 -0.046477463595267721 0 0.32981028989216699 -0.062414898119164869 0 0.30906793128128213 -0.051696686089317448 0 0.31259396283228069 -0.036598948287682627 0 0.32898940933167931 -0.046477463595267721 0 0.30906793128128213 -0.051696686089317448 0 0.32820977144403252 -0.030692999978933821 0 0.31259396283228069 -0.036598948287682627 0 0.32898940933167931 -0.046477463595267721 0 0.34988483201318038 -0.02955207111900442 0 0.32820977144403252 -0.030692999978933821 0 0.34273421968837581 -0.041392566005333448 0 0.32820977144403252 -0.030692999978933821 0 0.32898940933167931 -0.046477463595267721 0 0.34273421968837581 -0.041392566005333448 0 0.32898940933167931 -0.046477463595267721 0 0.32981028989216699 -0.062414898119164869 0 0.34625423470930577 -0.0558388659184718 0 0.32898940933167931 -0.046477463595267721 0 0.34273421968837581 -0.041392566005333448 0 0.34625423470930577 -0.0558388659184718 0 0.32981028989216699 -0.062414898119164869 0 0.34625423470930577 -0.0558388659184718 0 0.34248634442605969 -0.068923385539796017 0 0.34273421968837581 -0.041392566005333448 0 0.34625423470930577 -0.0558388659184718 0 0.35728557543413209 -0.046357877818413752 0 0.34625423470930577 -0.0558388659184718 0 0.35728557543413209 -0.046357877818413752 0 0.36013757195099422 -0.059353455351591908 0 0.34625423470930577 -0.0558388659184718 0 0.36013757195099422 -0.059353455351591908 0 0.35396856341333638 -0.06811901495295633 0 0.34988483201318038 -0.02955207111900442 0 0.36851005209734689 -0.04901321861581287 0 0.34988483201318038 -0.02955207111900442 0 0.35728557543413209 -0.046357877818413752 0 0.36851005209734689 -0.04901321861581287 0 0.34988483201318038 -0.02955207111900442 0 0.34273421968837581 -0.041392566005333448 0 0.35728557543413209 -0.046357877818413752 0 0.34988483201318038 -0.02955207111900442 0 0.3649159030759227 -0.03380981264772763 0 0.36851005209734689 -0.04901321861581287 0 0.3649159030759227 -0.03380981264772763 0 0.37289325595349287 -0.039056669017988682 0 0.36851005209734689 -0.04901321861581287 0 0.37868257332427158 -0.042721707105043388 0 0.37289325595349287 -0.039056669017988682 0 0.36851005209734689 -0.04901321861581287 0 0.37946449531643051 -0.030681937703370819 0 0.3649159030759227 -0.03380981264772763 0 0.37289325595349287 -0.039056669017988682 0 0.36013757195099422 -0.059353455351591908 0 0.36606844775849129 -0.054962234217775588 0 0.36930545560665812 -0.067237671203730615 0 0.35728557543413209 -0.046357877818413752 0 0.36606844775849129 -0.054962234217775588 0 0.36851005209734689 -0.04901321861581287 0 0.35728557543413209 -0.046357877818413752 0 0.36851005209734689 -0.04901321861581287 0 0.35728557543413209 -0.046357877818413752 0 0.36013757195099422 -0.059353455351591908 0 0.36606844775849129 -0.054962234217775588 0 0.36606844775849129 -0.054962234217775588 0 0.37083519607560811 -0.051442718493276293 0 0.36851005209734689 -0.04901321861581287 0 0.38335104799624842 -0.05252410852781822 0 0.37083519607560811 -0.051442718493276293 0 0.36851005209734689 -0.04901321861581287 0 0.37083519607560811 -0.051442718493276293 0 0.36851005209734689 -0.04901321861581287 0 0.37516414371306678 -0.059402619742782117 0 0.36606844775849129 -0.054962234217775588 0 0.36930545560665812 -0.067237671203730615 0 0.37516414371306678 -0.059402619742782117 0 0.36606844775849129 -0.054962234217775588 0 0.37083519607560811 -0.051442718493276293 0 0.36930545560665812 -0.067237671203730615 0 0.37432909836150652 -0.085657734102799615 0 0.35877510324204942 -0.078497101331481356 0 0.36013757195099422 -0.059353455351591908 0 0.36930545560665812 -0.067237671203730615 0 0.35396856341333638 -0.06811901495295633 0 0.36930545560665812 -0.067237671203730615 0 0.35877510324204942 -0.078497101331481356 0 0.35396856341333638 -0.06811901495295633 0 0.37432909836150652 -0.085657734102799615 0 0.3618755667617003 -0.1011171699101481 0 0.37432909836150652 -0.085657734102799615 0 0.35873054528186049 -0.090025728563237983 0 0.3618755667617003 -0.1011171699101481 0 0.37432909836150652 -0.085657734102799615 0 0.35877510324204942 -0.078497101331481356 0 0.37432909836150652 -0.085657734102799615 0 0.35877510324204942 -0.078497101331481356 0 0.35873054528186049 -0.090025728563237983 0 0.35877510324204942 -0.078497101331481356 0 0.35873054528186049 -0.090025728563237983 0 0.34652491029792148 -0.089165553694581817 0 0.35873054528186049 -0.090025728563237983 0 0.34652491029792148 -0.089165553694581817 0 0.35259789653537388 -0.099787995237162391 0 0.35877510324204942 -0.078497101331481356 0 0.34652491029792148 -0.089165553694581817 0 0.34741949537127992 -0.077668067985721373 0 0.34741949537127992 -0.077668067985721373 0 0.35396856341333638 -0.06811901495295633 0 0.34248634442605969 -0.068923385539796017 0 0.34625423470930577 -0.0558388659184718 0 0.35396856341333638 -0.06811901495295633 0 0.34248634442605969 -0.068923385539796017 0 0.35877510324204942 -0.078497101331481356 0 0.34741949537127992 -0.077668067985721373 0 0.35396856341333638 -0.06811901495295633 0 0.36959268086489411 -0.11562868785079231 0 0.3618755667617003 -0.1011171699101481 0 0.34942203516189407 -0.1165766057174966 0 0.36959268086489411 -0.11562868785079231 0 0.35946173749758142 -0.12857094381765011 0 0.38275455807869108 -0.1259479040952235 0 0.36959268086489411 -0.11562868785079231 0 0.34942203516189407 -0.1165766057174966 0 0.35946173749758142 -0.12857094381765011 0 0.37861321738195958 -0.101859948064613 0 0.36959268086489411 -0.11562868785079231 0 0.3618755667617003 -0.1011171699101481 0 0.37861321738195958 -0.101859948064613 0 0.37432909836150652 -0.085657734102799615 0 0.3618755667617003 -0.1011171699101481 0 0.35873054528186049 -0.090025728563237983 0 0.3618755667617003 -0.1011171699101481 0 0.35259789653537388 -0.099787995237162391 0 0.34652491029792148 -0.089165553694581817 0 0.35259789653537388 -0.099787995237162391 0 0.33752623480883642 -0.093817785157763567 0 0.3618755667617003 -0.1011171699101481 0 0.34942203516189407 -0.1165766057174966 0 0.3618755667617003 -0.1011171699101481 0 0.35259789653537388 -0.099787995237162391 0 0.3467612679658918 -0.10776421542099709 0 0.3618755667617003 -0.1011171699101481 0 0.3467612679658918 -0.10776421542099709 0 0.34942203516189407 -0.1165766057174966 0 0.3467612679658918 -0.10776421542099709 0 0.34942203516189407 -0.1165766057174966 0 0.34039343413178508 -0.1136312809131952 0 0.3467612679658918 -0.10776421542099709 0 0.34039343413178508 -0.1136312809131952 0 0.32951740723870537 -0.107708025326983 0 0.34942203516189407 -0.1165766057174966 0 0.33546973702598631 -0.1227856189256179 0 0.34039343413178508 -0.1136312809131952 0 0.34942203516189407 -0.1165766057174966 0 0.33546973702598631 -0.1227856189256179 0 0.34591842363940589 -0.13209506000560911 0 0.33546973702598631 -0.1227856189256179 0 0.32951740723870537 -0.107708025326983 0 0.32144209600849888 -0.1167487525384607 0 0.33546973702598631 -0.1227856189256179 0 0.34039343413178508 -0.1136312809131952 0 0.32951740723870537 -0.107708025326983 0 0.35259789653537388 -0.099787995237162391 0 0.32951740723870537 -0.107708025326983 0 0.33752623480883642 -0.093817785157763567 0 0.35259789653537388 -0.099787995237162391 0 0.3467612679658918 -0.10776421542099709 0 0.32951740723870537 -0.107708025326983 0 0.35259789653537388 -0.099787995237162391 0 0.32951740723870537 -0.107708025326983 0 0.32951740723870537 -0.107708025326983 0 0.33752623480883642 -0.093817785157763567 0 0.32402045323258583 -0.092203147168496397 0 0.32951740723870537 -0.107708025326983 0 0.31718203989373939 -0.1028549399298524 0 0.30643691794203631 -0.11562805541680229 0 0.31718203989373939 -0.1028549399298524 0 0.32402045323258583 -0.092203147168496397 0 0.30790996519788999 -0.093190488326120174 0 0.32951740723870537 -0.107708025326983 0 0.31718203989373939 -0.1028549399298524 0 0.32402045323258583 -0.092203147168496397 0 0.33546973702598631 -0.1227856189256179 0 0.32144209600849888 -0.1167487525384607 0 0.32378512794698189 -0.13261864383979041 0 0.32951740723870537 -0.107708025326983 0 0.32144209600849888 -0.1167487525384607 0 0.30643691794203631 -0.11562805541680229 0 0.32144209600849888 -0.1167487525384607 0 0.31321410009550821 -0.123016794088877 0 0.32378512794698189 -0.13261864383979041 0 0.32951740723870537 -0.107708025326983 0 0.30643691794203631 -0.11562805541680229 0 0.32144209600849888 -0.1167487525384607 0 0.30643691794203631 -0.11562805541680229 0 0.32144209600849888 -0.1167487525384607 0 0.31321410009550821 -0.123016794088877 0 0.30643691794203631 -0.11562805541680229 0 0.32981028989216699 -0.062414898119164869 0 0.34248634442605969 -0.068923385539796017 0 0.33497050673959522 -0.080224204361594234 0 0.34741949537127992 -0.077668067985721373 0 0.34248634442605969 -0.068923385539796017 0 0.33497050673959522 -0.080224204361594234 0 0.34652491029792148 -0.089165553694581817 0 0.34741949537127992 -0.077668067985721373 0 0.33497050673959522 -0.080224204361594234 0 0.34652491029792148 -0.089165553694581817 0 0.33752623480883642 -0.093817785157763567 0 0.33497050673959522 -0.080224204361594234 0 0.33752623480883642 -0.093817785157763567 0 0.33497050673959522 -0.080224204361594234 0 0.32402045323258583 -0.092203147168496397 0 0.3170933128650803 -0.071328783210542035 0 0.30790996519788999 -0.093190488326120174 0 0.32402045323258583 -0.092203147168496397 0 0.3170933128650803 -0.071328783210542035 0 0.30790996519788999 -0.093190488326120174 0 0.33497050673959522 -0.080224204361594234 0 0.32402045323258583 -0.092203147168496397 0 0.3170933128650803 -0.071328783210542035 0 0.32981028989216699 -0.062414898119164869 0 0.33497050673959522 -0.080224204361594234 0 0.3170933128650803 -0.071328783210542035 0 0.3170933128650803 -0.071328783210542035 0 0.29754087760392461 -0.078779201637065033 0 0.29438300668458722 -0.062161515683952562 0 0.3170933128650803 -0.071328783210542035 0 0.30790996519788999 -0.093190488326120174 0 0.29754087760392461 -0.078779201637065033 0 0.30790996519788999 -0.093190488326120174 0 0.29754087760392461 -0.078779201637065033 0 0.29391308840016561 -0.090684074479765703 0 0.29754087760392461 -0.078779201637065033 0 0.29391308840016561 -0.090684074479765703 0 0.28174900595544911 -0.087933810997892478 0 0.29754087760392461 -0.078779201637065033 0 0.28174900595544911 -0.087933810997892478 0 0.27916346047010532 -0.070215920421169434 0 0.29754087760392461 -0.078779201637065033 0 0.27916346047010532 -0.070215920421169434 0 0.29438300668458722 -0.062161515683952562 0 0.29714539334934209 -0.1188164260535145 0 0.30558087529402661 -0.1215762952184249 0 0.3055270897892205 -0.12884390531450771 0 0.29714539334934209 -0.1188164260535145 0 0.30643691794203631 -0.11562805541680229 0 0.29714539334934209 -0.1188164260535145 0 0.30558087529402661 -0.1215762952184249 0 0.30643691794203631 -0.11562805541680229 0 0.31321410009550821 -0.123016794088877 0 0.30558087529402661 -0.1215762952184249 0 0.3055270897892205 -0.12884390531450771 0 0.31321410009550821 -0.123016794088877 0 0.30558087529402661 -0.1215762952184249 0 0.30643691794203631 -0.11562805541680229 0 0.29714539334934209 -0.1188164260535145 0 0.30643691794203631 -0.11562805541680229 0 0.29872661753069968 -0.1150521934416984 0 0.30643691794203631 -0.11562805541680229 0 0.29872661753069968 -0.1150521934416984 0 0.29714539334934209 -0.1188164260535145 0 0.29872661753069968 -0.1150521934416984 0 0.30790996519788999 -0.093190488326120174 0 0.30643691794203631 -0.11562805541680229 0 0.29872661753069968 -0.1150521934416984 0 0.30790996519788999 -0.093190488326120174 0 0.29872661753069968 -0.1150521934416984 0 0.30790996519788999 -0.093190488326120174 0 0.29872661753069968 -0.1150521934416984 0 0.28845250484339879 -0.1028327969579851 0 0.31718203989373939 -0.1028549399298524 0 0.30790996519788999 -0.093190488326120174 0 0.30643691794203631 -0.11562805541680229 0 0.30790996519788999 -0.093190488326120174 0 0.29391308840016561 -0.090684074479765703 0 0.28845250484339879 -0.1028327969579851 0 0.29391308840016561 -0.090684074479765703 0 0.28174900595544911 -0.087933810997892478 0 0.28845250484339879 -0.1028327969579851 0 0.28174900595544911 -0.087933810997892478 0 0.28845250484339879 -0.1028327969579851 0 0.27689931994893968 -0.1014539882227902 0 0.29714539334934209 -0.1188164260535145 0 0.27647723479369601 -0.1133904458048746 0 0.27248199084697761 -0.12727963007944959 0 0.29714539334934209 -0.1188164260535145 0 0.29208637865099429 -0.1233753125873726 0 0.27248199084697761 -0.12727963007944959 0 0.29714539334934209 -0.1188164260535145 0 0.27248199084697761 -0.12727963007944959 0 0.29714539334934209 -0.1188164260535145 0 0.29872661753069968 -0.1150521934416984 0 0.27647723479369601 -0.1133904458048746 0 0.29872661753069968 -0.1150521934416984 0 0.27647723479369601 -0.1133904458048746 0 0.29872661753069968 -0.1150521934416984 0 0.28845250484339879 -0.1028327969579851 0 0.27647723479369601 -0.1133904458048746 0 0.27647723479369601 -0.1133904458048746 0 0.26207184556310509 -0.123545072290382 0 0.27248199084697761 -0.12727963007944959 0 0.27647723479369601 -0.1133904458048746 0 0.27689931994893968 -0.1014539882227902 0 0.2653759830645146 -0.1010547405684409 0 0.28845250484339879 -0.1028327969579851 0 0.27647723479369601 -0.1133904458048746 0 0.27689931994893968 -0.1014539882227902 0 0.27689931994893968 -0.1014539882227902 0 0.2653759830645146 -0.1010547405684409 0 0.26750621508679662 -0.090918290735669011 0 0.27647723479369601 -0.1133904458048746 0 0.2653759830645146 -0.1010547405684409 0 0.25422785205669218 -0.1117286981680507 0 0.2653759830645146 -0.1010547405684409 0 0.25247124487397088 -0.099797793390608916 0 0.25639012333762312 -0.088392770409926352 0 0.2653759830645146 -0.1010547405684409 0 0.25247124487397088 -0.099797793390608916 0 0.25422785205669218 -0.1117286981680507 0 0.25247124487397088 -0.099797793390608916 0 0.25422785205669218 -0.1117286981680507 0 0.2437523082264893 -0.10812919791445549 0 0.27647723479369601 -0.1133904458048746 0 0.25422785205669218 -0.1117286981680507 0 0.27647723479369601 -0.1133904458048746 0 0.25422785205669218 -0.1117286981680507 0 0.26207184556310509 -0.123545072290382 0 0.25422785205669218 -0.1117286981680507 0 0.2525608327608555 -0.12289103938169629 0 0.26207184556310509 -0.123545072290382 0 0.27916346047010532 -0.070215920421169434 0 0.2692971507020398 -0.080437347047954993 0 0.26320950599453519 -0.065117316592143704 0 0.27916346047010532 -0.070215920421169434 0 0.26320950599453519 -0.065117316592143704 0 0.27526297483459378 -0.053343621769309187 0 0.28174900595544911 -0.087933810997892478 0 0.27916346047010532 -0.070215920421169434 0 0.2692971507020398 -0.080437347047954993 0 0.28174900595544911 -0.087933810997892478 0 0.27689931994893968 -0.1014539882227902 0 0.26750621508679662 -0.090918290735669011 0 0.28174900595544911 -0.087933810997892478 0 0.26750621508679662 -0.090918290735669011 0 0.2692971507020398 -0.080437347047954993 0 0.2692971507020398 -0.080437347047954993 0 0.25639012333762312 -0.088392770409926352 0 0.24957985668624191 -0.073926873436579998 0 0.2653759830645146 -0.1010547405684409 0 0.26750621508679662 -0.090918290735669011 0 0.25639012333762312 -0.088392770409926352 0 0.26750621508679662 -0.090918290735669011 0 0.2692971507020398 -0.080437347047954993 0 0.25639012333762312 -0.088392770409926352 0 0.25247124487397088 -0.099797793390608916 0 0.25639012333762312 -0.088392770409926352 0 0.24464721597715799 -0.088843798637905619 0 0.25639012333762312 -0.088392770409926352 0 0.24957985668624191 -0.073926873436579998 0 0.24464721597715799 -0.088843798637905619 0 0.2692971507020398 -0.080437347047954993 0 0.26320950599453519 -0.065117316592143704 0 0.24957985668624191 -0.073926873436579998 0 0.26320950599453519 -0.065117316592143704 0 0.2489147091691396 -0.061047690623056629 0 0.24957985668624191 -0.073926873436579998 0 0.26320950599453519 -0.065117316592143704 0 0.25726925547570079 -0.051347076797932878 0 0.2489147091691396 -0.061047690623056629 0 0.26320950599453519 -0.065117316592143704 0 0.25726925547570079 -0.051347076797932878 0 0.27526297483459378 -0.053343621769309187 0 0.25726925547570079 -0.051347076797932878 0 0.27526297483459378 -0.053343621769309187 0 0.26524709831337012 -0.040594989694493287 0 0.27526297483459378 -0.053343621769309187 0 0.27838106438739169 -0.034674575141858469 0 0.28865657264910788 -0.048590191740407143 0 0.27526297483459378 -0.053343621769309187 0 0.27838106438739169 -0.034674575141858469 0 0.26524709831337012 -0.040594989694493287 0 0.27838106438739169 -0.034674575141858469 0 0.26524709831337012 -0.040594989694493287 0 0.26307674491673277 -0.02866835137320933 0 0.26524709831337012 -0.040594989694493287 0 0.25104537145499961 -0.037501163253547333 0 0.26307674491673277 -0.02866835137320933 0 0.25726925547570079 -0.051347076797932878 0 0.26524709831337012 -0.040594989694493287 0 0.25104537145499961 -0.037501163253547333 0 0.26473063513614431 -0.01817900462180996 0 0.26307674491673277 -0.02866835137320933 0 0.24646469031098589 -0.02312246974673951 0 0.25104537145499961 -0.037501163253547333 0 0.26307674491673277 -0.02866835137320933 0 0.24646469031098589 -0.02312246974673951 0 0.26454995396122188 -0.0044382513717859551 0 0.24646469031098589 -0.02312246974673951 0 0.26454995396122188 -0.0044382513717859551 0 0.24646469031098589 -0.02312246974673951 0 0.24986078142061541 -0.0070112464674283144 0 0.26473063513614431 -0.01817900462180996 0 0.26454995396122188 -0.0044382513717859551 0 0.24646469031098589 -0.02312246974673951 0 0.2600103086440948 0.0077887484030499934 0 0.24986078142061541 -0.0070112464674283144 0 0.24454710423508169 -0.0040543885157620588 0 0.2600103086440948 0.0077887484030499934 0 0.26454995396122188 -0.0044382513717859551 0 0.24986078142061541 -0.0070112464674283144 0 0.26454995396122188 -0.0044382513717859551 0 0.27670438441294692 -0.01266621844599196 0 0.28095057553946728 -0.001276924975998437 0 0.26473063513614431 -0.01817900462180996 0 0.26454995396122188 -0.0044382513717859551 0 0.27670438441294692 -0.01266621844599196 0 0.27838106438739169 -0.034674575141858469 0 0.26307674491673277 -0.02866835137320933 0 0.27285740207883358 -0.02199973217132304 0 0.26473063513614431 -0.01817900462180996 0 0.26307674491673277 -0.02866835137320933 0 0.27285740207883358 -0.02199973217132304 0 0.26473063513614431 -0.01817900462180996 0 0.27670438441294692 -0.01266621844599196 0 0.27285740207883358 -0.02199973217132304 0 0.27670438441294692 -0.01266621844599196 0 0.27285740207883358 -0.02199973217132304 0 0.28683897538264719 -0.023134584254674968 0 0.27838106438739169 -0.034674575141858469 0 0.27285740207883358 -0.02199973217132304 0 0.28683897538264719 -0.023134584254674968 0 0.28683897538264719 -0.023134584254674968 0 0.3070657392947222 -0.02133387501915943 0 0.29617525565979957 -0.035369412305818138 0 0.27838106438739169 -0.034674575141858469 0 0.28683897538264719 -0.023134584254674968 0 0.29617525565979957 -0.035369412305818138 0 0.28683897538264719 -0.023134584254674968 0 0.29064676294115022 -0.0096945001892937387 0 0.3070657392947222 -0.02133387501915943 0 0.29523021928075988 0.0065372478438925187 0 0.28095057553946728 -0.001276924975998437 0 0.29064676294115022 -0.0096945001892937387 0 0.27670438441294692 -0.01266621844599196 0 0.28095057553946728 -0.001276924975998437 0 0.29064676294115022 -0.0096945001892937387 0 0.27670438441294692 -0.01266621844599196 0 0.28683897538264719 -0.023134584254674968 0 0.29064676294115022 -0.0096945001892937387 0 0.29523021928075988 0.0065372478438925187 0 0.29064676294115022 -0.0096945001892937387 0 0.30634635689462569 -0.0054163935952359233 0 0.29064676294115022 -0.0096945001892937387 0 0.30634635689462569 -0.0054163935952359233 0 0.3070657392947222 -0.02133387501915943 0 0.31259396283228069 -0.036598948287682627 0 0.3070657392947222 -0.02133387501915943 0 0.29617525565979957 -0.035369412305818138 0 0.30906793128128213 -0.051696686089317448 0 0.28865657264910788 -0.048590191740407143 0 0.29617525565979957 -0.035369412305818138 0 0.31259396283228069 -0.036598948287682627 0 0.30906793128128213 -0.051696686089317448 0 0.29617525565979957 -0.035369412305818138 0 0.3170933128650803 -0.071328783210542035 0 0.30906793128128213 -0.051696686089317448 0 0.29438300668458722 -0.062161515683952562 0 0.30906793128128213 -0.051696686089317448 0 0.28865657264910788 -0.048590191740407143 0 0.29438300668458722 -0.062161515683952562 0 0.27916346047010532 -0.070215920421169434 0 0.27526297483459378 -0.053343621769309187 0 0.29438300668458722 -0.062161515683952562 0 0.27526297483459378 -0.053343621769309187 0 0.28865657264910788 -0.048590191740407143 0 0.29438300668458722 -0.062161515683952562 0 0.27838106438739169 -0.034674575141858469 0 0.28865657264910788 -0.048590191740407143 0 0.29617525565979957 -0.035369412305818138 0 0.2819317776496727 -0.21022401048871711 0 0.28945187163189179 -0.20030043613154899 0 0.27333833458215873 -0.20150979381431941 0 0.29266584447977001 -0.21228091551288511 0 0.28945187163189179 -0.20030043613154899 0 0.30299786424224051 -0.20778715529384639 0 0.29266584447977001 -0.21228091551288511 0 0.30118271727185708 -0.22162749785956051 0 0.28562823597899317 -0.2211863599248364 0 0.29266584447977001 -0.21228091551288511 0 0.2819317776496727 -0.21022401048871711 0 0.28562823597899317 -0.2211863599248364 0 0.29266584447977001 -0.21228091551288511 0 0.2819317776496727 -0.21022401048871711 0 0.28945187163189179 -0.20030043613154899 0 0.28945187163189179 -0.20030043613154899 0 0.27736833953052109 -0.18806332318182931 0 0.29170755148716238 -0.18713306148380379 0 0.28945187163189179 -0.20030043613154899 0 0.30341099355347839 -0.19473485263403981 0 0.29170755148716238 -0.18713306148380379 0 0.28945187163189179 -0.20030043613154899 0 0.30341099355347839 -0.19473485263403981 0 0.30299786424224051 -0.20778715529384639 0 0.30341099355347839 -0.19473485263403981 0 0.29170755148716238 -0.18713306148380379 0 0.30398065128611812 -0.18343602661035341 0 0.30341099355347839 -0.19473485263403981 0 0.31559690427448428 -0.20140105732059169 0 0.31604834541304649 -0.18901248646670341 0 0.30341099355347839 -0.19473485263403981 0 0.30398065128611812 -0.18343602661035341 0 0.31604834541304649 -0.18901248646670341 0 0.30341099355347839 -0.19473485263403981 0 0.30299786424224051 -0.20778715529384639 0 0.31559690427448428 -0.20140105732059169 0 0.30299786424224051 -0.20778715529384639 0 0.31291435347682789 -0.2134437666299773 0 0.31559690427448428 -0.20140105732059169 0 0.29266584447977001 -0.21228091551288511 0 0.30299786424224051 -0.20778715529384639 0 0.30118271727185708 -0.22162749785956051 0 0.30299786424224051 -0.20778715529384639 0 0.30118271727185708 -0.22162749785956051 0 0.31291435347682789 -0.2134437666299773 0 0.30118271727185708 -0.22162749785956051 0 0.31291435347682789 -0.2134437666299773 0 0.31768471564404049 -0.22543770841095939 0 0.30118271727185708 -0.22162749785956051 0 0.30686298038310278 -0.23653910699017769 0 0.31768471564404049 -0.22543770841095939 0 0.30118271727185708 -0.22162749785956051 0 0.30686298038310278 -0.23653910699017769 0 0.29201050768480769 -0.23473652826443059 0 0.30686298038310278 -0.23653910699017769 0 0.32146979424958622 -0.24479646355193069 0 0.30196716706522259 -0.25609733686400699 0 0.30686298038310278 -0.23653910699017769 0 0.29201050768480769 -0.23473652826443059 0 0.30196716706522259 -0.25609733686400699 0 0.27793269048731001 -0.24130386905901249 0 0.30196716706522259 -0.25609733686400699 0 0.29201050768480769 -0.23473652826443059 0 0.27793269048731001 -0.24130386905901249 0 0.30196716706522259 -0.25609733686400699 0 0.29201050768480769 -0.23473652826443059 0 0.27570498245888619 -0.22818108189754979 0 0.27793269048731001 -0.24130386905901249 0 0.29201050768480769 -0.23473652826443059 0 0.28562823597899317 -0.2211863599248364 0 0.27570498245888619 -0.22818108189754979 0 0.30118271727185708 -0.22162749785956051 0 0.29201050768480769 -0.23473652826443059 0 0.28562823597899317 -0.2211863599248364 0 0.27793269048731001 -0.24130386905901249 0 0.25389821390939737 -0.22651040125401781 0 0.27570498245888619 -0.22818108189754979 0 0.27793269048731001 -0.24130386905901249 0 0.25389821390939737 -0.22651040125401781 0 0.27570498245888619 -0.22818108189754979 0 0.25389821390939737 -0.22651040125401781 0 0.26905526423392301 -0.21716825098545159 0 0.28562823597899317 -0.2211863599248364 0 0.27570498245888619 -0.22818108189754979 0 0.26905526423392301 -0.21716825098545159 0 0.27793269048731001 -0.24130386905901249 0 0.26158936907359942 -0.24778181586443199 0 0.28255509982556509 -0.25796866242257632 0 0.27793269048731001 -0.24130386905901249 0 0.26158936907359942 -0.24778181586443199 0 0.25389821390939737 -0.22651040125401781 0 0.26158936907359942 -0.24778181586443199 0 0.2444299610463688 -0.25163298647013332 0 0.2473748297805245 -0.23965382761963189 0 0.26158936907359942 -0.24778181586443199 0 0.25389821390939737 -0.22651040125401781 0 0.2473748297805245 -0.23965382761963189 0 0.26158936907359942 -0.24778181586443199 0 0.25389821390939737 -0.22651040125401781 0 0.25389821390939737 -0.22651040125401781 0 0.25830604706402011 -0.2138927707089909 0 0.26905526423392301 -0.21716825098545159 0 0.25389821390939737 -0.22651040125401781 0 0.25830604706402011 -0.2138927707089909 0 0.2482240050903991 -0.21081725168179599 0 0.25389821390939737 -0.22651040125401781 0 0.2482240050903991 -0.21081725168179599 0 0.25830604706402011 -0.2138927707089909 0 0.26012861449852243 -0.20265090864453009 0 0.2482240050903991 -0.21081725168179599 0 0.25830604706402011 -0.2138927707089909 0 0.26905526423392301 -0.21716825098545159 0 0.26012861449852243 -0.20265090864453009 0 0.2819317776496727 -0.21022401048871711 0 0.26905526423392301 -0.21716825098545159 0 0.27333833458215873 -0.20150979381431941 0 0.2819317776496727 -0.21022401048871711 0 0.28562823597899317 -0.2211863599248364 0 0.26905526423392301 -0.21716825098545159 0 0.26905526423392301 -0.21716825098545159 0 0.27333833458215873 -0.20150979381431941 0 0.26012861449852243 -0.20265090864453009 0 0.27736833953052109 -0.18806332318182931 0 0.27333833458215873 -0.20150979381431941 0 0.26069798342982847 -0.18822576730094739 0 0.28945187163189179 -0.20030043613154899 0 0.27736833953052109 -0.18806332318182931 0 0.27333833458215873 -0.20150979381431941 0 0.26069798342982847 -0.18822576730094739 0 0.24968987140106341 -0.18092922336105319 0 0.24254979627140069 -0.19512410210957429 0 0.26069798342982847 -0.18822576730094739 0 0.26012861449852243 -0.20265090864453009 0 0.24254979627140069 -0.19512410210957429 0 0.26012861449852243 -0.20265090864453009 0 0.24254979627140069 -0.19512410210957429 0 0.2482240050903991 -0.21081725168179599 0 0.27333833458215873 -0.20150979381431941 0 0.26069798342982847 -0.18822576730094739 0 0.26012861449852243 -0.20265090864453009 0 0.26069798342982847 -0.18822576730094739 0 0.26031142399630458 -0.17458228913771301 0 0.24968987140106341 -0.18092922336105319 0 0.26031142399630458 -0.17458228913771301 0 0.25191763631458969 -0.1638194710615489 0 0.24968987140106341 -0.18092922336105319 0 0.26069798342982847 -0.18822576730094739 0 0.26031142399630458 -0.17458228913771301 0 0.27394945054791769 -0.1740362521757772 0 0.26031142399630458 -0.17458228913771301 0 0.25191763631458969 -0.1638194710615489 0 0.27049975582364538 -0.16030243163812241 0 0.25191763631458969 -0.1638194710615489 0 0.27049975582364538 -0.16030243163812241 0 0.27394945054791769 -0.1740362521757772 0 0.28554742194862948 -0.1464263391146457 0 0.26031142399630458 -0.17458228913771301 0 0.27049975582364538 -0.16030243163812241 0 0.27394945054791769 -0.1740362521757772 0 0.27049975582364538 -0.16030243163812241 0 0.27394945054791769 -0.1740362521757772 0 0.28554742194862948 -0.1464263391146457 0 0.27736833953052109 -0.18806332318182931 0 0.26069798342982847 -0.18822576730094739 0 0.27394945054791769 -0.1740362521757772 0 0.27736833953052109 -0.18806332318182931 0 0.27394945054791769 -0.1740362521757772 0 0.28504744604677701 -0.1775979481380251 0 0.26207184556310509 -0.123545072290382 0 0.25177330827706301 -0.13290269088953879 0 0.26383842199663587 -0.13449424326911771 0 0.2525608327608555 -0.12289103938169629 0 0.26207184556310509 -0.123545072290382 0 0.25177330827706301 -0.13290269088953879 0 0.25177330827706301 -0.13290269088953879 0 0.26383842199663587 -0.13449424326911771 0 0.25636076162935229 -0.1444542819800981 0 0.25191763631458969 -0.1638194710615489 0 0.25636076162935229 -0.1444542819800981 0 0.27200200748279202 -0.1435973918244608 0 0.25191763631458969 -0.1638194710615489 0 0.27200200748279202 -0.1435973918244608 0 0.25191763631458969 -0.1638194710615489 0 0.27049975582364538 -0.16030243163812241 0 0.27200200748279202 -0.1435973918244608 0 0.26383842199663587 -0.13449424326911771 0 0.25636076162935229 -0.1444542819800981 0 0.27200200748279202 -0.1435973918244608 0 0.25191763631458969 -0.1638194710615489 0 0.25636076162935229 -0.1444542819800981 0 0.24227243407568111 -0.14745761285582429 0 0.25177330827706301 -0.13290269088953879 0 0.25636076162935229 -0.1444542819800981 0 0.24227243407568111 -0.14745761285582429 0 0.27049975582364538 -0.16030243163812241 0 0.27200200748279202 -0.1435973918244608 0 0.28554742194862948 -0.1464263391146457 0 0.29208637865099429 -0.1233753125873726 0 0.27200200748279202 -0.1435973918244608 0 0.27248199084697761 -0.12727963007944959 0 0.26383842199663587 -0.13449424326911771 0 0.27200200748279202 -0.1435973918244608 0 0.27248199084697761 -0.12727963007944959 0 0.26207184556310509 -0.123545072290382 0 0.26383842199663587 -0.13449424326911771 0 0.27248199084697761 -0.12727963007944959 0 0.29208637865099429 -0.1233753125873726 0 0.27200200748279202 -0.1435973918244608 0 0.28554742194862948 -0.1464263391146457 0 0.29714539334934209 -0.1188164260535145 0 0.29208637865099429 -0.1233753125873726 0 0.28554742194862948 -0.1464263391146457 0 0.29714539334934209 -0.1188164260535145 0 0.28554742194862948 -0.1464263391146457 0 0.29714539334934209 -0.1188164260535145 0 0.28554742194862948 -0.1464263391146457 0 0.29976004520341409 -0.13583911174545699 0 0.29208637865099429 -0.1233753125873726 0 0.27200200748279202 -0.1435973918244608 0 0.28554742194862948 -0.1464263391146457 0 0.29409122134016258 -0.15461713558734611 0 0.2881134911778338 -0.1637451664648556 0 0.28554742194862948 -0.1464263391146457 0 0.30009301487739032 -0.14702844055967379 0 0.29976004520341409 -0.13583911174545699 0 0.28554742194862948 -0.1464263391146457 0 0.29409122134016258 -0.15461713558734611 0 0.30009301487739032 -0.14702844055967379 0 0.29409122134016258 -0.15461713558734611 0 0.30233828128556262 -0.1549053640018353 0 0.30009301487739032 -0.14702844055967379 0 0.30233828128556262 -0.1549053640018353 0 0.3103272041312074 -0.15049084711816549 0 0.30009301487739032 -0.14702844055967379 0 0.30233828128556262 -0.1549053640018353 0 0.3103272041312074 -0.15049084711816549 0 0.30921318983907109 -0.1619303015949832 0 0.3103272041312074 -0.15049084711816549 0 0.30009301487739032 -0.14702844055967379 0 0.30849391535536552 -0.13989184579059361 0 0.30009301487739032 -0.14702844055967379 0 0.29976004520341409 -0.13583911174545699 0 0.30849391535536552 -0.13989184579059361 0 0.29714539334934209 -0.1188164260535145 0 0.29976004520341409 -0.13583911174545699 0 0.3055270897892205 -0.12884390531450771 0 0.29976004520341409 -0.13583911174545699 0 0.30849391535536552 -0.13989184579059361 0 0.3055270897892205 -0.12884390531450771 0 0.30849391535536552 -0.13989184579059361 0 0.3055270897892205 -0.12884390531450771 0 0.31434405906126289 -0.13257085261651921 0 0.31321410009550821 -0.123016794088877 0 0.3055270897892205 -0.12884390531450771 0 0.31434405906126289 -0.13257085261651921 0 0.29409839749045019 -0.17501193738385951 0 0.28504744604677701 -0.1775979481380251 0 0.2881134911778338 -0.1637451664648556 0 0.29409839749045019 -0.17501193738385951 0 0.29170755148716238 -0.18713306148380379 0 0.30398065128611812 -0.18343602661035341 0 0.29409839749045019 -0.17501193738385951 0 0.29170755148716238 -0.18713306148380379 0 0.28504744604677701 -0.1775979481380251 0 0.27736833953052109 -0.18806332318182931 0 0.29170755148716238 -0.18713306148380379 0 0.28504744604677701 -0.1775979481380251 0 0.27394945054791769 -0.1740362521757772 0 0.28554742194862948 -0.1464263391146457 0 0.2881134911778338 -0.1637451664648556 0 0.27394945054791769 -0.1740362521757772 0 0.28504744604677701 -0.1775979481380251 0 0.2881134911778338 -0.1637451664648556 0 0.29409122134016258 -0.15461713558734611 0 0.2881134911778338 -0.1637451664648556 0 0.29863286295366082 -0.1636336358658762 0 0.29409839749045019 -0.17501193738385951 0 0.2881134911778338 -0.1637451664648556 0 0.29863286295366082 -0.1636336358658762 0 0.29409839749045019 -0.17501193738385951 0 0.29863286295366082 -0.1636336358658762 0 0.30607506283140151 -0.17260884288067169 0 0.29863286295366082 -0.1636336358658762 0 0.30921318983907109 -0.1619303015949832 0 0.30607506283140151 -0.17260884288067169 0 0.29409122134016258 -0.15461713558734611 0 0.30233828128556262 -0.1549053640018353 0 0.29863286295366082 -0.1636336358658762 0 0.30233828128556262 -0.1549053640018353 0 0.29863286295366082 -0.1636336358658762 0 0.30921318983907109 -0.1619303015949832 0 0.30921318983907109 -0.1619303015949832 0 0.30607506283140151 -0.17260884288067169 0 0.31965280828603237 -0.17293346664446799 0 0.30607506283140151 -0.17260884288067169 0 0.30398065128611812 -0.18343602661035341 0 0.3128488117429486 -0.17985172185067061 0 0.29409839749045019 -0.17501193738385951 0 0.30607506283140151 -0.17260884288067169 0 0.30398065128611812 -0.18343602661035341 0 0.30398065128611812 -0.18343602661035341 0 0.3128488117429486 -0.17985172185067061 0 0.31604834541304649 -0.18901248646670341 0 0.3128488117429486 -0.17985172185067061 0 0.32555222801186973 -0.18269946958701519 0 0.31604834541304649 -0.18901248646670341 0 0.32555222801186973 -0.18269946958701519 0 0.31965280828603237 -0.17293346664446799 0 0.33470628215790038 -0.16920422344781499 0 0.30607506283140151 -0.17260884288067169 0 0.3128488117429486 -0.17985172185067061 0 0.31965280828603237 -0.17293346664446799 0 0.3128488117429486 -0.17985172185067061 0 0.32555222801186973 -0.18269946958701519 0 0.31965280828603237 -0.17293346664446799 0 0.30921318983907109 -0.1619303015949832 0 0.31965280828603237 -0.17293346664446799 0 0.31914144714761072 -0.15743337502483831 0 0.3103272041312074 -0.15049084711816549 0 0.30921318983907109 -0.1619303015949832 0 0.31914144714761072 -0.15743337502483831 0 0.31914144714761072 -0.15743337502483831 0 0.32567026121334841 -0.16497646485239381 0 0.33071460594104202 -0.15659670772028461 0 0.31965280828603237 -0.17293346664446799 0 0.31914144714761072 -0.15743337502483831 0 0.32567026121334841 -0.16497646485239381 0 0.31965280828603237 -0.17293346664446799 0 0.32567026121334841 -0.16497646485239381 0 0.33470628215790038 -0.16920422344781499 0 0.32567026121334841 -0.16497646485239381 0 0.33470628215790038 -0.16920422344781499 0 0.33071460594104202 -0.15659670772028461 0 0.33470628215790038 -0.16920422344781499 0 0.33071460594104202 -0.15659670772028461 0 0.34392153500440198 -0.1566675827275382 0 0.32555222801186973 -0.18269946958701519 0 0.33691181363064993 -0.18163280134194151 0 0.32785030359678269 -0.19560954034647249 0 0.32555222801186973 -0.18269946958701519 0 0.33470628215790038 -0.16920422344781499 0 0.33691181363064993 -0.18163280134194151 0 0.32378512794698189 -0.13261864383979041 0 0.32058743505373111 -0.14450695899510921 0 0.33647935586674249 -0.14242679484300921 0 0.31321410009550821 -0.123016794088877 0 0.32378512794698189 -0.13261864383979041 0 0.31434405906126289 -0.13257085261651921 0 0.32378512794698189 -0.13261864383979041 0 0.31434405906126289 -0.13257085261651921 0 0.32058743505373111 -0.14450695899510921 0 0.30849391535536552 -0.13989184579059361 0 0.31434405906126289 -0.13257085261651921 0 0.32058743505373111 -0.14450695899510921 0 0.3103272041312074 -0.15049084711816549 0 0.30849391535536552 -0.13989184579059361 0 0.32058743505373111 -0.14450695899510921 0 0.3103272041312074 -0.15049084711816549 0 0.31914144714761072 -0.15743337502483831 0 0.32058743505373111 -0.14450695899510921 0 0.31914144714761072 -0.15743337502483831 0 0.33071460594104202 -0.15659670772028461 0 0.32058743505373111 -0.14450695899510921 0 0.33071460594104202 -0.15659670772028461 0 0.32058743505373111 -0.14450695899510921 0 0.33647935586674249 -0.14242679484300921 0 0.33071460594104202 -0.15659670772028461 0 0.33647935586674249 -0.14242679484300921 0 0.34392153500440198 -0.1566675827275382 0 0.32378512794698189 -0.13261864383979041 0 0.33647935586674249 -0.14242679484300921 0 0.33541316111977909 -0.1324815294035066 0 0.33647935586674249 -0.14242679484300921 0 0.33541316111977909 -0.1324815294035066 0 0.34591842363940589 -0.13209506000560911 0 0.33546973702598631 -0.1227856189256179 0 0.33541316111977909 -0.1324815294035066 0 0.34591842363940589 -0.13209506000560911 0 0.33546973702598631 -0.1227856189256179 0 0.32378512794698189 -0.13261864383979041 0 0.33541316111977909 -0.1324815294035066 0 0.33647935586674249 -0.14242679484300921 0 0.34591842363940589 -0.13209506000560911 0 0.35519418424247201 -0.14716408388195751 0 0.34591842363940589 -0.13209506000560911 0 0.35519418424247201 -0.14716408388195751 0 0.35946173749758142 -0.12857094381765011 0 0.34942203516189407 -0.1165766057174966 0 0.34591842363940589 -0.13209506000560911 0 0.35946173749758142 -0.12857094381765011 0 0.33647935586674249 -0.14242679484300921 0 0.35519418424247201 -0.14716408388195751 0 0.34392153500440198 -0.1566675827275382 0 0.35519418424247201 -0.14716408388195751 0 0.36251324681385289 -0.1679461037446246 0 0.37682003422194138 -0.14695723973624911 0 0.35519418424247201 -0.14716408388195751 0 0.35946173749758142 -0.12857094381765011 0 0.37682003422194138 -0.14695723973624911 0 0.35946173749758142 -0.12857094381765011 0 0.38275455807869108 -0.1259479040952235 0 0.37682003422194138 -0.14695723973624911 0 0.35946173749758142 -0.12857094381765011 0 0.38275455807869108 -0.1259479040952235 0 0.33691181363064993 -0.18163280134194151 0 0.36251324681385289 -0.1679461037446246 0 0.35997513491540112 -0.19073992405883769 0 0.33470628215790038 -0.16920422344781499 0 0.33691181363064993 -0.18163280134194151 0 0.36251324681385289 -0.1679461037446246 0 0.33470628215790038 -0.16920422344781499 0 0.36251324681385289 -0.1679461037446246 0 0.33470628215790038 -0.16920422344781499 0 0.34392153500440198 -0.1566675827275382 0 0.36251324681385289 -0.1679461037446246 0 0.35519418424247201 -0.14716408388195751 0 0.34392153500440198 -0.1566675827275382 0 0.36251324681385289 -0.1679461037446246 0 0.36251324681385289 -0.1679461037446246 0 0.35997513491540112 -0.19073992405883769 0 0.37708848150419372 -0.18216411619502271 0 0.35997513491540112 -0.19073992405883769 0 0.37951786791500408 -0.2016763387904105 0 0.37708848150419372 -0.18216411619502271 0 0.35997513491540112 -0.19073992405883769 0 0.36295230234299031 -0.21163302595727651 0 0.37951786791500408 -0.2016763387904105 0 0.36295230234299031 -0.21163302595727651 0 0.37453142961780778 -0.2235436289861121 0 0.37951786791500408 -0.2016763387904105 0 0.36295230234299031 -0.21163302595727651 0 0.34588296429912951 -0.20794601309765459 0 0.35485411496760888 -0.23425922485336759 0 0.35997513491540112 -0.19073992405883769 0 0.36295230234299031 -0.21163302595727651 0 0.34588296429912951 -0.20794601309765459 0 0.33691181363064993 -0.18163280134194151 0 0.35997513491540112 -0.19073992405883769 0 0.34588296429912951 -0.20794601309765459 0 0.33691181363064993 -0.18163280134194151 0 0.34588296429912951 -0.20794601309765459 0 0.33691181363064993 -0.18163280134194151 0 0.34588296429912951 -0.20794601309765459 0 0.32785030359678269 -0.19560954034647249 0 0.34588296429912951 -0.20794601309765459 0 0.32642679296558957 -0.21162652176753749 0 0.33674719048650759 -0.2257466425420348 0 0.34588296429912951 -0.20794601309765459 0 0.32642679296558957 -0.21162652176753749 0 0.32785030359678269 -0.19560954034647249 0 0.32642679296558957 -0.21162652176753749 0 0.31291435347682789 -0.2134437666299773 0 0.31768471564404049 -0.22543770841095939 0 0.32642679296558957 -0.21162652176753749 0 0.31291435347682789 -0.2134437666299773 0 0.31559690427448428 -0.20140105732059169 0 0.32642679296558957 -0.21162652176753749 0 0.31559690427448428 -0.20140105732059169 0 0.32785030359678269 -0.19560954034647249 0 0.31559690427448428 -0.20140105732059169 0 0.31604834541304649 -0.18901248646670341 0 0.32785030359678269 -0.19560954034647249 0 0.32555222801186973 -0.18269946958701519 0 0.31604834541304649 -0.18901248646670341 0 0.32785030359678269 -0.19560954034647249 0 0.30686298038310278 -0.23653910699017769 0 0.32146979424958622 -0.24479646355193069 0 0.31768471564404049 -0.22543770841095939 0 0.32146979424958622 -0.24479646355193069 0 0.31768471564404049 -0.22543770841095939 0 0.33674719048650759 -0.2257466425420348 0 0.32642679296558957 -0.21162652176753749 0 0.31768471564404049 -0.22543770841095939 0 0.33674719048650759 -0.2257466425420348 0 0.32146979424958622 -0.24479646355193069 0 0.33674719048650759 -0.2257466425420348 0 0.3426862872816076 -0.2448529739803291 0 0.35485411496760888 -0.23425922485336759 0 0.36382526563608841 -0.26057243660908053 0 0.33674719048650759 -0.2257466425420348 0 0.3426862872816076 -0.2448529739803291 0 0.35485411496760888 -0.23425922485336759 0 0.3426862872816076 -0.2448529739803291 0 0.35485411496760888 -0.23425922485336759 0 0.36382526563608841 -0.26057243660908053 0 0.34588296429912951 -0.20794601309765459 0 0.33674719048650759 -0.2257466425420348 0 0.35485411496760888 -0.23425922485336759 0 0.34588296429912951 -0.20794601309765459 0 0.35485411496760888 -0.23425922485336759 0 0.35485411496760888 -0.23425922485336759 0 0.37453142961780778 -0.2235436289861121 0 0.3728553354896833 -0.24170966668946789 0 0.36295230234299031 -0.21163302595727651 0 0.35485411496760888 -0.23425922485336759 0 0.37453142961780778 -0.2235436289861121 0 0.35485411496760888 -0.23425922485336759 0 0.3728553354896833 -0.24170966668946789 0 0.36382526563608841 -0.26057243660908053 0 0.3728553354896833 -0.24170966668946789 0 0.38660095623609481 -0.23623481095186549 0 0.38323898802897471 -0.25369016854328119 0 0.38660095623609481 -0.23623481095186549 0 0.39533181906631742 -0.2475883596766216 0 0.38323898802897471 -0.25369016854328119 0 0.38660095623609481 -0.23623481095186549 0 0.39533181906631742 -0.2475883596766216 0 0.40470473351129671 -0.23187684708743431 0 0.39533181906631742 -0.2475883596766216 0 0.40470473351129671 -0.23187684708743431 0 0.4099601707076016 -0.25146853119345353 0 0.38660095623609481 -0.23623481095186549 0 0.40470473351129671 -0.23187684708743431 0 0.39417498830075931 -0.21531073547332569 0 0.40470473351129671 -0.23187684708743431 0 0.39417498830075931 -0.21531073547332569 0 0.41671928957882243 -0.20990428530352859 0 0.37453142961780778 -0.2235436289861121 0 0.3728553354896833 -0.24170966668946789 0 0.38660095623609481 -0.23623481095186549 0 0.37453142961780778 -0.2235436289861121 0 0.38660095623609481 -0.23623481095186549 0 0.39417498830075931 -0.21531073547332569 0 0.37453142961780778 -0.2235436289861121 0 0.37951786791500408 -0.2016763387904105 0 0.39417498830075931 -0.21531073547332569 0 0.37951786791500408 -0.2016763387904105 0 0.40297565294553039 -0.1886285017206035 0 0.37708848150419372 -0.18216411619502271 0 0.37951786791500408 -0.2016763387904105 0 0.40297565294553039 -0.1886285017206035 0 0.39417498830075931 -0.21531073547332569 0 0.40297565294553039 -0.1886285017206035 0 0.39417498830075931 -0.21531073547332569 0 0.41671928957882243 -0.20990428530352859 0 0.40297565294553039 -0.1886285017206035 0 0.41671928957882243 -0.20990428530352859 0 0.42972086176690349 -0.19122612890714011 0 0.41671928957882243 -0.20990428530352859 0 0.42972086176690349 -0.19122612890714011 0 0.44083587097413179 -0.213119303041235 0 0.41671928957882243 -0.20990428530352859 0 0.43312976515129792 -0.2267342990419057 0 0.44083587097413179 -0.213119303041235 0 0.41671928957882243 -0.20990428530352859 0 0.43312976515129792 -0.2267342990419057 0 0.42257618002097241 -0.2357129766342545 0 0.43312976515129792 -0.2267342990419057 0 0.4359575627209073 -0.24029889897392279 0 0.42257618002097241 -0.2357129766342545 0 0.4359575627209073 -0.24029889897392279 0 0.42257618002097241 -0.2357129766342545 0 0.42843307046312168 -0.26152166796498072 0 0.42257618002097241 -0.2357129766342545 0 0.42843307046312168 -0.26152166796498072 0 0.42257618002097241 -0.2357129766342545 0 0.4099601707076016 -0.25146853119345353 0 0.42843307046312168 -0.26152166796498072 0 0.40470473351129671 -0.23187684708743431 0 0.42257618002097241 -0.2357129766342545 0 0.4099601707076016 -0.25146853119345353 0 0.40470473351129671 -0.23187684708743431 0 0.41671928957882243 -0.20990428530352859 0 0.42257618002097241 -0.2357129766342545 0 0.41671928957882243 -0.20990428530352859 0 0.42257618002097241 -0.2357129766342545 0 0.40604737865980089 -0.1233248643727969 0 0.3956826072182752 -0.1360174485408103 0 0.38275455807869108 -0.1259479040952235 0 0.40604737865980089 -0.1233248643727969 0 0.3956826072182752 -0.1360174485408103 0 0.40977480719282472 -0.1334225837494743 0 0.3956826072182752 -0.1360174485408103 0 0.4108033893338191 -0.147102156480934 0 0.40977480719282472 -0.1334225837494743 0 0.3956826072182752 -0.1360174485408103 0 0.38275455807869108 -0.1259479040952235 0 0.37682003422194138 -0.14695723973624911 0 0.3956826072182752 -0.1360174485408103 0 0.37682003422194138 -0.14695723973624911 0 0.39032021146980539 -0.16668798404143431 0 0.3956826072182752 -0.1360174485408103 0 0.39032021146980539 -0.16668798404143431 0 0.4108033893338191 -0.147102156480934 0 0.39032021146980539 -0.16668798404143431 0 0.41812717612575778 -0.165429864338244 0 0.36251324681385289 -0.1679461037446246 0 0.39032021146980539 -0.16668798404143431 0 0.36251324681385289 -0.1679461037446246 0 0.37682003422194138 -0.14695723973624911 0 0.39032021146980539 -0.16668798404143431 0 0.36251324681385289 -0.1679461037446246 0 0.39032021146980539 -0.16668798404143431 0 0.37708848150419372 -0.18216411619502271 0 0.40297565294553039 -0.1886285017206035 0 0.39032021146980539 -0.16668798404143431 0 0.37708848150419372 -0.18216411619502271 0 0.40297565294553039 -0.1886285017206035 0 0.39032021146980539 -0.16668798404143431 0 0.41812717612575778 -0.165429864338244 0 0.40297565294553039 -0.1886285017206035 0 0.42972086176690349 -0.19122612890714011 0 0.41812717612575778 -0.165429864338244 0 0.42972086176690349 -0.19122612890714011 0 0.41812717612575778 -0.165429864338244 0 0.44446831043725987 -0.17443883014544381 0 0.41812717612575778 -0.165429864338244 0 0.44589625631238322 -0.15210811832757709 0 0.44446831043725987 -0.17443883014544381 0 0.39032021146980539 -0.16668798404143431 0 0.41812717612575778 -0.165429864338244 0 0.4108033893338191 -0.147102156480934 0 0.41812717612575778 -0.165429864338244 0 0.4108033893338191 -0.147102156480934 0 0.43020699471623802 -0.14431477047598459 0 0.4108033893338191 -0.147102156480934 0 0.43020699471623802 -0.14431477047598459 0 0.41975444836949111 -0.13633031146780331 0 0.41812717612575778 -0.165429864338244 0 0.43020699471623802 -0.14431477047598459 0 0.44589625631238322 -0.15210811832757709 0 0.44439080825515859 -0.12283557353010061 0 0.41658621238273741 -0.1243381378850273 0 0.43073090512410861 -0.1329949377618819 0 0.43020699471623802 -0.14431477047598459 0 0.43073090512410861 -0.1329949377618819 0 0.41975444836949111 -0.13633031146780331 0 0.43020699471623802 -0.14431477047598459 0 0.43073090512410861 -0.1329949377618819 0 0.44394941909502461 -0.1370247884400089 0 0.41658621238273741 -0.1243381378850273 0 0.43073090512410861 -0.1329949377618819 0 0.41975444836949111 -0.13633031146780331 0 0.41658621238273741 -0.1243381378850273 0 0.41975444836949111 -0.13633031146780331 0 0.40977480719282472 -0.1334225837494743 0 0.4108033893338191 -0.147102156480934 0 0.41975444836949111 -0.13633031146780331 0 0.40977480719282472 -0.1334225837494743 0 0.41658621238273741 -0.1243381378850273 0 0.40604737865980089 -0.1233248643727969 0 0.40977480719282472 -0.1334225837494743 0 0.46087527358491931 -0.13916761602029279 0 0.45535272626567053 -0.13009024679139411 0 0.44394941909502461 -0.1370247884400089 0 0.47219540412757982 -0.12133300917517389 0 0.46087527358491931 -0.13916761602029279 0 0.45535272626567053 -0.13009024679139411 0 0.44439080825515859 -0.12283557353010061 0 0.45535272626567053 -0.13009024679139411 0 0.44394941909502461 -0.1370247884400089 0 0.44439080825515859 -0.12283557353010061 0 0.43073090512410861 -0.1329949377618819 0 0.44394941909502461 -0.1370247884400089 0 0.43020699471623802 -0.14431477047598459 0 0.44394941909502461 -0.1370247884400089 0 0.44589625631238322 -0.15210811832757709 0 0.46087527358491931 -0.13916761602029279 0 0.44394941909502461 -0.1370247884400089 0 0.44589625631238322 -0.15210811832757709 0 0.46087527358491931 -0.13916761602029279 0 0.44589625631238322 -0.15210811832757709 0 0.46063812572462631 -0.15990847021204549 0 0.46087527358491931 -0.13916761602029279 0 0.46063812572462631 -0.15990847021204549 0 0.48104457852073262 -0.15191042169367391 0 0.46063812572462631 -0.15990847021204549 0 0.46228021718085432 -0.1763269472782758 0 0.47871266037648841 -0.17266393857974571 0 0.46063812572462631 -0.15990847021204549 0 0.44446831043725987 -0.17443883014544381 0 0.46228021718085432 -0.1763269472782758 0 0.44589625631238322 -0.15210811832757709 0 0.46063812572462631 -0.15990847021204549 0 0.44446831043725987 -0.17443883014544381 0 0.42972086176690349 -0.19122612890714011 0 0.44446831043725987 -0.17443883014544381 0 0.45519887053991892 -0.19583598889378581 0 0.46228021718085432 -0.1763269472782758 0 0.45519887053991892 -0.19583598889378581 0 0.47322619671005661 -0.18753025527162909 0 0.44446831043725987 -0.17443883014544381 0 0.46228021718085432 -0.1763269472782758 0 0.45519887053991892 -0.19583598889378581 0 0.47871266037648841 -0.17266393857974571 0 0.47322619671005661 -0.18753025527162909 0 0.48904219948170591 -0.19271593688653241 0 0.46228021718085432 -0.1763269472782758 0 0.47871266037648841 -0.17266393857974571 0 0.47322619671005661 -0.18753025527162909 0 0.47871266037648841 -0.17266393857974571 0 0.50000000000000178 -0.16520530693749039 0 0.48904219948170591 -0.19271593688653241 0 0.50000000000000178 -0.16520530693749039 0 0.48904219948170591 -0.19271593688653241 0 0.50000000000000178 -0.16520530693749039 0 0.48904219948170591 -0.19271593688653241 0 0.5 -0.19062189139745289 0 0.47871266037648841 -0.17266393857974571 0 0.50000000000000178 -0.16520530693749039 0 0.48104457852073262 -0.15191042169367391 0 0.46063812572462631 -0.15990847021204549 0 0.47871266037648841 -0.17266393857974571 0 0.48104457852073262 -0.15191042169367391 0 0.46087527358491931 -0.13916761602029279 0 0.48104457852073262 -0.15191042169367391 0 0.48282305124664632 -0.13495187351765131 0 0.48104457852073262 -0.15191042169367391 0 0.5 -0.1425178758788688 0 0.48282305124664632 -0.13495187351765131 0 0.50000000000000178 -0.16520530693749039 0 0.48104457852073262 -0.15191042169367391 0 0.5 -0.1425178758788688 0 0.47219540412757982 -0.12133300917517389 0 0.50000000000000111 -0.1198304448202472 0 0.48282305124664632 -0.13495187351765131 0 0.50000000000000111 -0.1198304448202472 0 0.5 -0.1425178758788688 0 0.48282305124664632 -0.13495187351765131 0 0.47219540412757982 -0.12133300917517389 0 0.46087527358491931 -0.13916761602029279 0 0.48282305124664632 -0.13495187351765131 0 0.46104233815391232 -0.23120133744579621 0 0.45881341533385572 -0.21554190531045411 0 0.47808439896340832 -0.22022656683557379 0 0.46104233815391232 -0.23120133744579621 0 0.44717763098323088 -0.22843218330813819 0 0.45881341533385572 -0.21554190531045411 0 0.46104233815391232 -0.23120133744579621 0 0.45328683356528082 -0.24369735603551579 0 0.47156881064531819 -0.24035642769241741 0 0.45328683356528082 -0.24369735603551579 0 0.47156881064531819 -0.24035642769241741 0 0.46081071523755268 -0.25850548730515632 0 0.46104233815391232 -0.23120133744579621 0 0.45328683356528082 -0.24369735603551579 0 0.44717763098323088 -0.22843218330813819 0 0.4359575627209073 -0.24029889897392279 0 0.45328683356528082 -0.24369735603551579 0 0.44522423344337908 -0.25949473371753262 0 0.4359575627209073 -0.24029889897392279 0 0.45328683356528082 -0.24369735603551579 0 0.44717763098323088 -0.22843218330813819 0 0.44717763098323088 -0.22843218330813819 0 0.44083587097413179 -0.213119303041235 0 0.45881341533385572 -0.21554190531045411 0 0.43312976515129792 -0.2267342990419057 0 0.4359575627209073 -0.24029889897392279 0 0.44717763098323088 -0.22843218330813819 0 0.43312976515129792 -0.2267342990419057 0 0.44717763098323088 -0.22843218330813819 0 0.44083587097413179 -0.213119303041235 0 0.44083587097413179 -0.213119303041235 0 0.45519887053991892 -0.19583598889378581 0 0.45881341533385572 -0.21554190531045411 0 0.42972086176690349 -0.19122612890714011 0 0.44083587097413179 -0.213119303041235 0 0.45519887053991892 -0.19583598889378581 0 0.45519887053991892 -0.19583598889378581 0 0.4716965838582185 -0.20174460256182969 0 0.47322619671005661 -0.18753025527162909 0 0.45519887053991892 -0.19583598889378581 0 0.45881341533385572 -0.21554190531045411 0 0.4716965838582185 -0.20174460256182969 0 0.45881341533385572 -0.21554190531045411 0 0.4716965838582185 -0.20174460256182969 0 0.47808439896340832 -0.22022656683557379 0 0.48904219948170591 -0.19271593688653241 0 0.47808439896340832 -0.22022656683557379 0 0.4716965838582185 -0.20174460256182969 0 0.48904219948170591 -0.19271593688653241 0 0.47808439896340832 -0.22022656683557379 0 0.4716965838582185 -0.20174460256182969 0 0.47322619671005661 -0.18753025527162909 0 0.48904219948170591 -0.19271593688653241 0 0.48904219948170591 -0.19271593688653241 0 0.5 -0.19062189139745289 0 0.5 -0.21603847585741551 0 0.48904219948170591 -0.19271593688653241 0 0.5 -0.21603847585741551 0 0.47808439896340832 -0.22022656683557379 0 0.5 -0.21603847585741551 0 0.48774167448605488 -0.2315533564053667 0 0.47808439896340832 -0.22022656683557379 0 0.5 -0.21603847585741551 0 0.48774167448605488 -0.2315533564053667 0 0.5 -0.2414550603173781 0 0.48774167448605488 -0.2315533564053667 0 0.47808439896340832 -0.22022656683557379 0 0.47156881064531819 -0.24035642769241741 0 0.46104233815391232 -0.23120133744579621 0 0.47808439896340832 -0.22022656683557379 0 0.47156881064531819 -0.24035642769241741 0 0.48774167448605488 -0.2315533564053667 0 0.47156881064531819 -0.24035642769241741 0 0.48414940442378901 -0.24333061499514089 0 0.47156881064531819 -0.24035642769241741 0 0.48414940442378901 -0.24333061499514089 0 0.47586630968723009 -0.25398027482437241 0 0.48414940442378901 -0.24333061499514089 0 0.5 -0.2414550603173781 0 0.48841079277084232 -0.2579972407415701 0 0.48774167448605488 -0.2315533564053667 0 0.48414940442378901 -0.24333061499514089 0 0.5 -0.2414550603173781 0 0.5 -0.2414550603173781 0 0.48841079277084232 -0.2579972407415701 0 0.50000000000000089 -0.2668716447773406 0 0.48841079277084232 -0.2579972407415701 0 0.4926721811178969 -0.2726638664879989 0 0.48414940442378901 -0.24333061499514089 0 0.48841079277084232 -0.2579972407415701 0 0.48841079277084232 -0.2579972407415701 0 0.4926721811178969 -0.2726638664879989 0 0.47505565961346669 -0.26886225523321028 0 0.4926721811178969 -0.2726638664879989 0 0.50000000000000089 -0.2668716447773406 0 0.5 -0.28237800941953312 0 0.48841079277084232 -0.2579972407415701 0 0.4926721811178969 -0.2726638664879989 0 0.50000000000000089 -0.2668716447773406 0 0.4926721811178969 -0.2726638664879989 0 0.50000000000000089 -0.2668716447773406 0 0.4926721811178969 -0.2726638664879989 0 0.47523064094150991 -0.28645040642607078 0 0.4926721811178969 -0.2726638664879989 0 0.47505565961346669 -0.26886225523321028 0 0.47523064094150991 -0.28645040642607078 0 0.47156881064531819 -0.24035642769241741 0 0.47586630968723009 -0.25398027482437241 0 0.46081071523755268 -0.25850548730515632 0 0.48414940442378901 -0.24333061499514089 0 0.48841079277084232 -0.2579972407415701 0 0.47586630968723009 -0.25398027482437241 0 0.48841079277084232 -0.2579972407415701 0 0.47505565961346669 -0.26886225523321028 0 0.47586630968723009 -0.25398027482437241 0 0.47505565961346669 -0.26886225523321028 0 0.47586630968723009 -0.25398027482437241 0 0.46081071523755268 -0.25850548730515632 0 0.47505565961346669 -0.26886225523321028 0 0.453931205761339 -0.2792842800885138 0 0.47523064094150991 -0.28645040642607078 0 0.47505565961346669 -0.26886225523321028 0 0.46081071523755268 -0.25850548730515632 0 0.453931205761339 -0.2792842800885138 0 0.46081071523755268 -0.25850548730515632 0 0.453931205761339 -0.2792842800885138 0 0.44522423344337908 -0.25949473371753262 0 0.453931205761339 -0.2792842800885138 0 0.43950502267553831 -0.27281046432255007 0 0.44522423344337908 -0.25949473371753262 0 0.453931205761339 -0.2792842800885138 0 0.43950502267553831 -0.27281046432255007 0 0.44753388124163762 -0.29129368223099 0 0.43950502267553831 -0.27281046432255007 0 0.44522423344337908 -0.25949473371753262 0 0.42843307046312168 -0.26152166796498072 0 0.45328683356528082 -0.24369735603551579 0 0.46081071523755268 -0.25850548730515632 0 0.44522423344337908 -0.25949473371753262 0 0.44753388124163762 -0.29129368223099 0 0.45778910076512069 -0.30023694636414 0 0.4403475605887312 -0.31402348630220889 0 0.45778910076512069 -0.30023694636414 0 0.4403475605887312 -0.31402348630220889 0 0.45778910076512069 -0.30023694636414 0 0.45976944443815548 -0.32086468239505173 0 0.4403475605887312 -0.31402348630220889 0 0.44753388124163762 -0.29129368223099 0 0.4403475605887312 -0.31402348630220889 0 0.43439031552592677 -0.28777257713359478 0 0.453931205761339 -0.2792842800885138 0 0.44753388124163762 -0.29129368223099 0 0.45778910076512069 -0.30023694636414 0 0.43950502267553831 -0.27281046432255007 0 0.44753388124163762 -0.29129368223099 0 0.43439031552592677 -0.28777257713359478 0 0.45778910076512069 -0.30023694636414 0 0.47523064094150991 -0.28645040642607078 0 0.453931205761339 -0.2792842800885138 0 0.45778910076512069 -0.30023694636414 0 0.47523064094150991 -0.28645040642607078 0 0.45778910076512069 -0.30023694636414 0 0.47949123119256931 -0.30976657285196563 0 0.45976944443815548 -0.32086468239505173 0 0.45778910076512069 -0.30023694636414 0 0.47949123119256931 -0.30976657285196563 0 0.47523064094150991 -0.28645040642607078 0 0.4926721811178969 -0.2726638664879989 0 0.5 -0.28237800941953312 0 0.50000000000000022 -0.29788437406172552 0 0.4926721811178969 -0.2726638664879989 0 0.47523064094150991 -0.28645040642607078 0 0.50000000000000022 -0.29788437406172552 0 0.4926721811178969 -0.2726638664879989 0 0.50000000000000022 -0.29788437406172552 0 0.47949123119256931 -0.30976657285196563 0 0.47523064094150991 -0.28645040642607078 0 0.50000000000000022 -0.29788437406172552 0 0.47949123119256931 -0.30976657285196563 0 0.50000000000000022 -0.29788437406172552 0 0.5 -0.32844310190340381 0 0.47949123119256931 -0.30976657285196563 0 0.5 -0.32844310190340381 0 0.47562337630692819 -0.34314560545225647 0 0.47949123119256931 -0.30976657285196563 0 0.47562337630692819 -0.34314560545225647 0 0.45976944443815548 -0.32086468239505173 0 0.5 -0.32844310190340381 0 0.47562337630692819 -0.34314560545225647 0 0.5 -0.36963244832707232 0 0.47562337630692819 -0.34314560545225647 0 0.5 -0.36963244832707232 0 0.48435239200079799 -0.36958784634849051 0 0.47562337630692819 -0.34314560545225647 0 0.48435239200079799 -0.36958784634849051 0 0.45941279949299141 -0.36583164742583718 0 0.48435239200079799 -0.36958784634849051 0 0.45941279949299141 -0.36583164742583718 0 0.47036004476087862 -0.38072471818378112 0 0.48435239200079799 -0.36958784634849051 0 0.45941279949299141 -0.36583164742583718 0 0.47562337630692819 -0.34314560545225647 0 0.45941279949299141 -0.36583164742583718 0 0.44559595333742802 -0.33715080100468742 0 0.45941279949299141 -0.36583164742583718 0 0.44559595333742802 -0.33715080100468742 0 0.4344732069851846 -0.36207544850318391 0 0.45941279949299141 -0.36583164742583718 0 0.4344732069851846 -0.36207544850318391 0 0.45170203517773871 -0.38181930292096039 0 0.45941279949299141 -0.36583164742583718 0 0.4344732069851846 -0.36207544850318391 0 0.47562337630692819 -0.34314560545225647 0 0.45976944443815548 -0.32086468239505173 0 0.44559595333742802 -0.33715080100468742 0 0.45976944443815548 -0.32086468239505173 0 0.44559595333742802 -0.33715080100468742 0 0.4403475605887312 -0.31402348630220889 0 0.44559595333742802 -0.33715080100468742 0 0.4403475605887312 -0.31402348630220889 0 0.4403475605887312 -0.31402348630220889 0 0.42504923570474729 -0.31404353379283112 0 0.42056284978197861 -0.3296621686056041 0 0.44559595333742802 -0.33715080100468742 0 0.4403475605887312 -0.31402348630220889 0 0.42056284978197861 -0.3296621686056041 0 0.4403475605887312 -0.31402348630220889 0 0.42056284978197861 -0.3296621686056041 0 0.44559595333742802 -0.33715080100468742 0 0.42056284978197861 -0.3296621686056041 0 0.42550991815651218 -0.34642637946689803 0 0.42056284978197861 -0.3296621686056041 0 0.41134827256835949 -0.34319210017733898 0 0.42550991815651218 -0.34642637946689803 0 0.42056284978197861 -0.3296621686056041 0 0.41134827256835949 -0.34319210017733898 0 0.40436622616954332 -0.32940200583864843 0 0.40436622616954332 -0.32940200583864843 0 0.41238850760073592 -0.30677522654742562 0 0.42504923570474729 -0.31404353379283112 0 0.42056284978197861 -0.3296621686056041 0 0.41238850760073592 -0.30677522654742562 0 0.42056284978197861 -0.3296621686056041 0 0.40436622616954332 -0.32940200583864843 0 0.41238850760073592 -0.30677522654742562 0 0.4344732069851846 -0.36207544850318391 0 0.40953361447737779 -0.35831924958053057 0 0.4344732069851846 -0.36207544850318391 0 0.42072642786776149 -0.36890786541532522 0 0.43103049897397838 -0.38666902169532652 0 0.44559595333742802 -0.33715080100468742 0 0.4344732069851846 -0.36207544850318391 0 0.42550991815651218 -0.34642637946689803 0 0.4344732069851846 -0.36207544850318391 0 0.42550991815651218 -0.34642637946689803 0 0.40953361447737779 -0.35831924958053057 0 0.41134827256835949 -0.34319210017733898 0 0.42550991815651218 -0.34642637946689803 0 0.40953361447737779 -0.35831924958053057 0 0.4344732069851846 -0.36207544850318391 0 0.40953361447737779 -0.35831924958053057 0 0.42072642786776149 -0.36890786541532522 0 0.40953361447737779 -0.35831924958053057 0 0.42072642786776149 -0.36890786541532522 0 0.40729054323642377 -0.37504008881755352 0 0.38355058749886922 -0.36341115593978052 0 0.40729054323642377 -0.37504008881755352 0 0.40953361447737779 -0.35831924958053057 0 0.38355058749886922 -0.36341115593978052 0 0.40729054323642377 -0.37504008881755352 0 0.38355058749886922 -0.36341115593978052 0 0.40729054323642377 -0.37504008881755352 0 0.38668732008640389 -0.37524858780357612 0 0.40953361447737779 -0.35831924958053057 0 0.38459402196957099 -0.3545630506578773 0 0.38355058749886922 -0.36341115593978052 0 0.40953361447737779 -0.35831924958053057 0 0.39634394473835077 -0.35202878512987112 0 0.38459402196957099 -0.3545630506578773 0 0.40953361447737779 -0.35831924958053057 0 0.38459402196957099 -0.3545630506578773 0 0.41134827256835949 -0.34319210017733898 0 0.40953361447737779 -0.35831924958053057 0 0.39634394473835077 -0.35202878512987112 0 0.38459402196957099 -0.3545630506578773 0 0.38355058749886922 -0.36341115593978052 0 0.35965442946176429 -0.3508068517352243 0 0.39634394473835077 -0.35202878512987112 0 0.38459402196957099 -0.3545630506578773 0 0.3879969209314143 -0.34004160640555992 0 0.37628950864166949 -0.34495945910718029 0 0.38459402196957099 -0.3545630506578773 0 0.3879969209314143 -0.34004160640555992 0 0.38355058749886922 -0.36341115593978052 0 0.37463334710296131 -0.36884553848220641 0 0.37176887348537391 -0.36070395545778289 0 0.38668732008640389 -0.37524858780357612 0 0.37626242823976058 -0.3787433431615333 0 0.37463334710296131 -0.36884553848220641 0 0.38355058749886922 -0.36341115593978052 0 0.38668732008640389 -0.37524858780357612 0 0.37463334710296131 -0.36884553848220641 0 0.39715182413901617 -0.31265603041162338 0 0.40436622616954332 -0.32940200583864843 0 0.41238850760073592 -0.30677522654742562 0 0.39715182413901617 -0.31265603041162338 0 0.40436622616954332 -0.32940200583864843 0 0.3894465471420554 -0.32532710441348439 0 0.39634394473835077 -0.35202878512987112 0 0.40436622616954332 -0.32940200583864843 0 0.3879969209314143 -0.34004160640555992 0 0.40436622616954332 -0.32940200583864843 0 0.3879969209314143 -0.34004160640555992 0 0.3894465471420554 -0.32532710441348439 0 0.39634394473835077 -0.35202878512987112 0 0.40436622616954332 -0.32940200583864843 0 0.41134827256835949 -0.34319210017733898 0 0.39634394473835077 -0.35202878512987112 0 0.40436622616954332 -0.32940200583864843 0 0.3879969209314143 -0.34004160640555992 0 0.37557283775158551 -0.33323703120686882 0 0.3894465471420554 -0.32532710441348439 0 0.37628950864166949 -0.34495945910718029 0 0.3879969209314143 -0.34004160640555992 0 0.37557283775158551 -0.33323703120686882 0 0.39715182413901617 -0.31265603041162338 0 0.3894465471420554 -0.32532710441348439 0 0.38395872792318492 -0.30770497907920102 0 0.37557283775158551 -0.33323703120686882 0 0.3894465471420554 -0.32532710441348439 0 0.37420493105156011 -0.3199049692679331 0 0.3894465471420554 -0.32532710441348439 0 0.38395872792318492 -0.30770497907920102 0 0.37420493105156011 -0.3199049692679331 0 0.39715182413901617 -0.31265603041162338 0 0.38395872792318492 -0.30770497907920102 0 0.39559911185956109 -0.29407083617935792 0 0.39715182413901617 -0.31265603041162338 0 0.39559911185956109 -0.29407083617935792 0 0.41238850760073592 -0.30677522654742562 0 0.39559911185956109 -0.29407083617935792 0 0.40544580226563681 -0.28216090922799292 0 0.41238850760073592 -0.30677522654742562 0 0.39559911185956109 -0.29407083617935792 0 0.40544580226563681 -0.28216090922799292 0 0.38942631636203923 -0.27917521191837491 0 0.38395872792318492 -0.30770497907920102 0 0.39559911185956109 -0.29407083617935792 0 0.37279641630456778 -0.28688564836479341 0 0.39559911185956109 -0.29407083617935792 0 0.38942631636203923 -0.27917521191837491 0 0.37279641630456778 -0.28688564836479341 0 0.38027422610832318 -0.2692962312407422 0 0.38942631636203923 -0.27917521191837491 0 0.39620926961975339 -0.26417509080476859 0 0.38027422610832318 -0.2692962312407422 0 0.38942631636203923 -0.27917521191837491 0 0.37279641630456778 -0.28688564836479341 0 0.38027422610832318 -0.2692962312407422 0 0.38323898802897471 -0.25369016854328119 0 0.39620926961975339 -0.26417509080476859 0 0.38027422610832318 -0.2692962312407422 0 0.38323898802897471 -0.25369016854328119 0 0.36382526563608841 -0.26057243660908053 0 0.39533181906631742 -0.2475883596766216 0 0.38323898802897471 -0.25369016854328119 0 0.39620926961975339 -0.26417509080476859 0 0.39533181906631742 -0.2475883596766216 0 0.39620926961975339 -0.26417509080476859 0 0.4099601707076016 -0.25146853119345353 0 0.40544580226563681 -0.28216090922799292 0 0.38942631636203923 -0.27917521191837491 0 0.39620926961975339 -0.26417509080476859 0 0.40544580226563681 -0.28216090922799292 0 0.39620926961975339 -0.26417509080476859 0 0.41262375860595341 -0.26838780928976769 0 0.40544580226563681 -0.28216090922799292 0 0.41262375860595341 -0.26838780928976769 0 0.4204107890319283 -0.28414844725620297 0 0.41262375860595341 -0.26838780928976769 0 0.42843307046312168 -0.26152166796498072 0 0.4204107890319283 -0.28414844725620297 0 0.39620926961975339 -0.26417509080476859 0 0.41262375860595341 -0.26838780928976769 0 0.4099601707076016 -0.25146853119345353 0 0.41262375860595341 -0.26838780928976769 0 0.4099601707076016 -0.25146853119345353 0 0.42843307046312168 -0.26152166796498072 0 0.4359575627209073 -0.24029889897392279 0 0.42843307046312168 -0.26152166796498072 0 0.4359575627209073 -0.24029889897392279 0 0.44522423344337908 -0.25949473371753262 0 0.42843307046312168 -0.26152166796498072 0 0.42843307046312168 -0.26152166796498072 0 0.4204107890319283 -0.28414844725620297 0 0.42843307046312168 -0.26152166796498072 0 0.43439031552592677 -0.28777257713359478 0 0.43950502267553831 -0.27281046432255007 0 0.42843307046312168 -0.26152166796498072 0 0.43439031552592677 -0.28777257713359478 0 0.42843307046312168 -0.26152166796498072 0 0.43439031552592677 -0.28777257713359478 0 0.4204107890319283 -0.28414844725620297 0 0.43439031552592677 -0.28777257713359478 0 0.42653613036155891 -0.30156852546930579 0 0.4204107890319283 -0.28414844725620297 0 0.4403475605887312 -0.31402348630220889 0 0.43439031552592677 -0.28777257713359478 0 0.4403475605887312 -0.31402348630220889 0 0.43439031552592677 -0.28777257713359478 0 0.42653613036155891 -0.30156852546930579 0 0.4403475605887312 -0.31402348630220889 0 0.42504923570474729 -0.31404353379283112 0 0.42653613036155891 -0.30156852546930579 0 0.42653613036155891 -0.30156852546930579 0 0.41238850760073592 -0.30677522654742562 0 0.4204107890319283 -0.28414844725620297 0 0.42504923570474729 -0.31404353379283112 0 0.42653613036155891 -0.30156852546930579 0 0.41238850760073592 -0.30677522654742562 0 0.41238850760073592 -0.30677522654742562 0 0.4204107890319283 -0.28414844725620297 0 0.40544580226563681 -0.28216090922799292 0 0.41238850760073592 -0.30677522654742562 0 0.4204107890319283 -0.28414844725620297 0 0.44815189457817961 -0.47897466839496589 0 0.5 -0.5 0 0.43682505941684102 -0.5 0 0.5 -0.5 0 0.47866698692358439 -0.44894013887597212 0 0.5 -0.42515568206566612 0 0.5 -0.5 0 0.47866698692358439 -0.44894013887597212 0 0.46291097608683118 -0.46376643396861472 0 0.44815189457817961 -0.47897466839496589 0 0.5 -0.5 0 0.46291097608683118 -0.46376643396861472 0 0.47866698692358439 -0.44894013887597212 0 0.45675185974336158 -0.44152486373147831 0 0.46291097608683118 -0.46376643396861472 0 0.45675185974336158 -0.44152486373147831 0 0.46291097608683118 -0.46376643396861472 0 0.43958407369326052 -0.45694852357224958 0 0.44815189457817961 -0.47897466839496589 0 0.46291097608683118 -0.46376643396861472 0 0.43958407369326052 -0.45694852357224958 0 0.46291097608683118 -0.46376643396861472 0 0.43958407369326052 -0.45694852357224958 0 0.45675185974336158 -0.44152486373147831 0 0.43958407369326052 -0.45694852357224958 0 0.43592003176943478 -0.43844639190102258 0 0.45675185974336158 -0.44152486373147831 0 0.44002462626034311 -0.41658973607719629 0 0.43592003176943478 -0.43844639190102258 0 0.44002462626034311 -0.41658973607719629 0 0.46454526305878152 -0.41980194897518819 0 0.44657825500971632 -0.39993764674564669 0 0.44002462626034311 -0.41658973607719629 0 0.46454526305878152 -0.41980194897518819 0 0.47866698692358439 -0.44894013887597212 0 0.45675185974336158 -0.44152486373147831 0 0.46454526305878152 -0.41980194897518819 0 0.45675185974336158 -0.44152486373147831 0 0.44002462626034311 -0.41658973607719629 0 0.46454526305878152 -0.41980194897518819 0 0.47866698692358439 -0.44894013887597212 0 0.46454526305878152 -0.41980194897518819 0 0.5 -0.42515568206566612 0 0.46454526305878152 -0.41980194897518819 0 0.5 -0.42515568206566612 0 0.48012348692897872 -0.40740592644678658 0 0.5 -0.42515568206566612 0 0.48012348692897872 -0.40740592644678658 0 0.4849483749842195 -0.39021772521140341 0 0.46454526305878152 -0.41980194897518819 0 0.48012348692897872 -0.40740592644678658 0 0.46835740584368307 -0.3956773349719872 0 0.5 -0.36963244832707232 0 0.5 -0.42515568206566612 0 0.4849483749842195 -0.39021772521140341 0 0.48012348692897872 -0.40740592644678658 0 0.4849483749842195 -0.39021772521140341 0 0.46835740584368307 -0.3956773349719872 0 0.5 -0.36963244832707232 0 0.48435239200079799 -0.36958784634849051 0 0.4849483749842195 -0.39021772521140341 0 0.4849483749842195 -0.39021772521140341 0 0.47036004476087862 -0.38072471818378112 0 0.46835740584368307 -0.3956773349719872 0 0.48435239200079799 -0.36958784634849051 0 0.4849483749842195 -0.39021772521140341 0 0.47036004476087862 -0.38072471818378112 0 0.47036004476087862 -0.38072471818378112 0 0.46835740584368307 -0.3956773349719872 0 0.45170203517773871 -0.38181930292096039 0 0.45941279949299141 -0.36583164742583718 0 0.47036004476087862 -0.38072471818378112 0 0.45170203517773871 -0.38181930292096039 0 0.46835740584368307 -0.3956773349719872 0 0.44657825500971632 -0.39993764674564669 0 0.45170203517773871 -0.38181930292096039 0 0.46454526305878152 -0.41980194897518819 0 0.46835740584368307 -0.3956773349719872 0 0.44657825500971632 -0.39993764674564669 0 0.44657825500971632 -0.39993764674564669 0 0.45170203517773871 -0.38181930292096039 0 0.43103049897397838 -0.38666902169532652 0 0.4344732069851846 -0.36207544850318391 0 0.45170203517773871 -0.38181930292096039 0 0.43103049897397838 -0.38666902169532652 0 0.44657825500971632 -0.39993764674564669 0 0.43103049897397838 -0.38666902169532652 0 0.420782484438811 -0.39857880179299571 0 0.44002462626034311 -0.41658973607719629 0 0.44657825500971632 -0.39993764674564669 0 0.420782484438811 -0.39857880179299571 0 0.420782484438811 -0.39857880179299571 0 0.40331895892906811 -0.39562739050306173 0 0.41550398946190459 -0.4133775231792044 0 0.43103049897397838 -0.38666902169532652 0 0.40729054323642377 -0.37504008881755352 0 0.43103049897397838 -0.38666902169532652 0 0.420782484438811 -0.39857880179299571 0 0.40729054323642377 -0.37504008881755352 0 0.42072642786776149 -0.36890786541532522 0 0.43103049897397838 -0.38666902169532652 0 0.40729054323642377 -0.37504008881755352 0 0.420782484438811 -0.39857880179299571 0 0.40729054323642377 -0.37504008881755352 0 0.40331895892906811 -0.39562739050306173 0 0.40729054323642377 -0.37504008881755352 0 0.39440990619945959 -0.38305723312094841 0 0.40331895892906811 -0.39562739050306173 0 0.40729054323642377 -0.37504008881755352 0 0.39440990619945959 -0.38305723312094841 0 0.38668732008640389 -0.37524858780357612 0 0.39440990619945959 -0.38305723312094841 0 0.39087988444583771 -0.39202290423802888 0 0.40331895892906811 -0.39562739050306173 0 0.39440990619945959 -0.38305723312094841 0 0.38397710824094938 -0.38239416729943448 0 0.38668732008640389 -0.37524858780357612 0 0.38397710824094938 -0.38239416729943448 0 0.38237891125553197 -0.39046642197879411 0 0.39087988444583771 -0.39202290423802888 0 0.39440990619945959 -0.38305723312094841 0 0.38397710824094938 -0.38239416729943448 0 0.39087988444583771 -0.39202290423802888 0 0.38237891125553197 -0.39046642197879411 0 0.37626242823976058 -0.3787433431615333 0 0.36979178268764662 -0.38900638491375827 0 0.38397710824094938 -0.38239416729943448 0 0.38237891125553197 -0.39046642197879411 0 0.37626242823976058 -0.3787433431615333 0 0.38397710824094938 -0.38239416729943448 0 0.38668732008640389 -0.37524858780357612 0 0.37626242823976058 -0.3787433431615333 0 0.3909833526634659 -0.41016531028121528 0 0.36979178268764662 -0.38900638491375827 0 0.3909833526634659 -0.41016531028121528 0 0.37074747153274301 -0.40183141488667828 0 0.36979178268764662 -0.38900638491375827 0 0.38237891125553197 -0.39046642197879411 0 0.39087988444583771 -0.39202290423802888 0 0.3909833526634659 -0.41016531028121528 0 0.38237891125553197 -0.39046642197879411 0 0.3909833526634659 -0.41016531028121528 0 0.36979178268764662 -0.38900638491375827 0 0.39087988444583771 -0.39202290423802888 0 0.40331895892906811 -0.39562739050306173 0 0.3909833526634659 -0.41016531028121528 0 0.3909833526634659 -0.41016531028121528 0 0.40293670035617279 -0.42210024440879579 0 0.41550398946190459 -0.4133775231792044 0 0.40331895892906811 -0.39562739050306173 0 0.3909833526634659 -0.41016531028121528 0 0.41550398946190459 -0.4133775231792044 0 0.3909833526634659 -0.41016531028121528 0 0.41550398946190459 -0.4133775231792044 0 0.3909833526634659 -0.41016531028121528 0 0.39026821169033499 -0.42739196783495609 0 0.40293670035617279 -0.42210024440879579 0 0.3909833526634659 -0.41016531028121528 0 0.40293670035617279 -0.42210024440879579 0 0.3909833526634659 -0.41016531028121528 0 0.37056070548652081 -0.40748993560753732 0 0.3909833526634659 -0.41016531028121528 0 0.38035390908821742 -0.42038550152671589 0 0.37056070548652081 -0.40748993560753732 0 0.3909833526634659 -0.41016531028121528 0 0.38035390908821742 -0.42038550152671589 0 0.39026821169033499 -0.42739196783495609 0 0.3909833526634659 -0.41016531028121528 0 0.37056070548652081 -0.40748993560753732 0 0.37074747153274301 -0.40183141488667828 0 0.38035390908821742 -0.42038550152671589 0 0.39026821169033499 -0.42739196783495609 0 0.36960336651254821 -0.43649479238315469 0 0.39026821169033499 -0.42739196783495609 0 0.39293026890611921 -0.44331270277951951 0 0.36960336651254821 -0.43649479238315469 0 0.39026821169033499 -0.42739196783495609 0 0.40533379715299539 -0.43619738061986402 0 0.39293026890611921 -0.44331270277951951 0 0.39026821169033499 -0.42739196783495609 0 0.40293670035617279 -0.42210024440879579 0 0.40533379715299539 -0.43619738061986402 0 0.40293670035617279 -0.42210024440879579 0 0.41890500440073858 -0.43169208859319419 0 0.41550398946190459 -0.4133775231792044 0 0.40293670035617279 -0.42210024440879579 0 0.40533379715299539 -0.43619738061986402 0 0.41890500440073858 -0.43169208859319419 0 0.44002462626034311 -0.41658973607719629 0 0.41890500440073858 -0.43169208859319419 0 0.41550398946190459 -0.4133775231792044 0 0.44002462626034311 -0.41658973607719629 0 0.41550398946190459 -0.4133775231792044 0 0.44002462626034311 -0.41658973607719629 0 0.420782484438811 -0.39857880179299571 0 0.41550398946190459 -0.4133775231792044 0 0.44002462626034311 -0.41658973607719629 0 0.41890500440073858 -0.43169208859319419 0 0.43592003176943478 -0.43844639190102258 0 0.43958407369326052 -0.45694852357224958 0 0.43592003176943478 -0.43844639190102258 0 0.41625717129968992 -0.45013061317588449 0 0.41890500440073858 -0.43169208859319419 0 0.43592003176943478 -0.43844639190102258 0 0.41625717129968992 -0.45013061317588449 0 0.43958407369326052 -0.45694852357224958 0 0.41625717129968992 -0.45013061317588449 0 0.43958407369326052 -0.45694852357224958 0 0.41625717129968992 -0.45013061317588449 0 0.42186107838808712 -0.47427178480819049 0 0.41625717129968992 -0.45013061317588449 0 0.39525365997433609 -0.46970735804361341 0 0.42186107838808712 -0.47427178480819049 0 0.40533379715299539 -0.43619738061986402 0 0.41890500440073858 -0.43169208859319419 0 0.41625717129968992 -0.45013061317588449 0 0.41625717129968992 -0.45013061317588449 0 0.39293026890611921 -0.44331270277951951 0 0.40533379715299539 -0.43619738061986402 0 0.41625717129968992 -0.45013061317588449 0 0.39293026890611921 -0.44331270277951951 0 0.39293026890611921 -0.44331270277951951 0 0.36866035810575992 -0.46506547060750808 0 0.36960336651254821 -0.43649479238315469 0 0.39293026890611921 -0.44331270277951951 0 0.36960336651254821 -0.43649479238315469 0 0.39293026890611921 -0.44331270277951951 0 0.39525365997433609 -0.46970735804361341 0 0.36866035810575992 -0.46506547060750808 0 0.41625717129968992 -0.45013061317588449 0 0.39293026890611921 -0.44331270277951951 0 0.39525365997433609 -0.46970735804361341 0 0.39525365997433609 -0.46970735804361341 0 0.38881294574813358 -0.5 0 0.42186107838808712 -0.47427178480819049 0 0.39525365997433609 -0.46970735804361341 0 0.37878785095435191 -0.48243907837978661 0 0.36866035810575992 -0.46506547060750808 0 0.39525365997433609 -0.46970735804361341 0 0.37878785095435191 -0.48243907837978661 0 0.38881294574813358 -0.5 0 0.38881294574813358 -0.5 0 0.37537683032205582 -0.49699302334079493 0 0.36754114138392091 -0.49999999999999961 0 0.37878785095435191 -0.48243907837978661 0 0.38881294574813358 -0.5 0 0.37537683032205582 -0.49699302334079493 0 0.38881294574813358 -0.5 0 0.42186107838808712 -0.47427178480819049 0 0.43682505941684102 -0.5 0 0.44815189457817961 -0.47897466839496589 0 0.43958407369326052 -0.45694852357224958 0 0.42186107838808712 -0.47427178480819049 0 0.44815189457817961 -0.47897466839496589 0 0.42186107838808712 -0.47427178480819049 0 0.43682505941684102 -0.5 0 0.32459258262616619 -0.49999999999999889 0 0.32021551158403971 -0.48544974565643068 0 0.32459258262616619 -0.49999999999999889 0 0.32021551158403971 -0.48544974565643068 0 0.30976849059751488 -0.49116256414654652 0 0.32021551158403971 -0.48544974565643068 0 0.31583844054191279 -0.47089949131286268 0 0.31583844054191279 -0.47089949131286268 0 0.34177789512044149 -0.48226782007236302 0 0.32497967038156989 -0.45956714886607558 0 0.32021551158403971 -0.48544974565643068 0 0.31583844054191279 -0.47089949131286268 0 0.34177789512044149 -0.48226782007236302 0 0.32021551158403971 -0.48544974565643068 0 0.31583844054191279 -0.47089949131286268 0 0.30567311538907749 -0.48034718721606717 0 0.31583844054191279 -0.47089949131286268 0 0.34177789512044149 -0.48226782007236302 0 0.32459258262616619 -0.49999999999999889 0 0.32021551158403971 -0.48544974565643068 0 0.34177789512044149 -0.48226782007236302 0 0.34177789512044149 -0.48226782007236302 0 0.36771734969897102 -0.49363614883186169 0 0.34177789512044149 -0.48226782007236302 0 0.36754114138392091 -0.49999999999999961 0 0.36771734969897102 -0.49363614883186169 0 0.32459258262616619 -0.49999999999999889 0 0.34177789512044149 -0.48226782007236302 0 0.36754114138392091 -0.49999999999999961 0 0.37878785095435191 -0.48243907837978661 0 0.37537683032205582 -0.49699302334079493 0 0.36771734969897102 -0.49363614883186169 0 0.37537683032205582 -0.49699302334079493 0 0.36754114138392091 -0.49999999999999961 0 0.36771734969897102 -0.49363614883186169 0 0.37537683032205582 -0.49699302334079493 0 0.36771734969897102 -0.49363614883186169 0 0.36754114138392091 -0.49999999999999961 0 0.36771734969897102 -0.49363614883186169 0 0.36771734969897102 -0.49363614883186169 0 0.36866035810575992 -0.46506547060750808 0 0.36771734969897102 -0.49363614883186169 0 0.35102153251140511 -0.4674326456411424 0 0.36866035810575992 -0.46506547060750808 0 0.37878785095435191 -0.48243907837978661 0 0.36771734969897102 -0.49363614883186169 0 0.36866035810575992 -0.46506547060750808 0 0.34177789512044149 -0.48226782007236302 0 0.36771734969897102 -0.49363614883186169 0 0.35102153251140511 -0.4674326456411424 0 0.35102153251140511 -0.4674326456411424 0 0.35317551966365651 -0.4491030039531288 0 0.33900588213688221 -0.4564685274893977 0 0.34177789512044149 -0.48226782007236302 0 0.35102153251140511 -0.4674326456411424 0 0.33900588213688221 -0.4564685274893977 0 0.35102153251140511 -0.4674326456411424 0 0.36866035810575992 -0.46506547060750808 0 0.35317551966365651 -0.4491030039531288 0 0.36866035810575992 -0.46506547060750808 0 0.36960336651254821 -0.43649479238315469 0 0.36866035810575992 -0.46506547060750808 0 0.35317551966365651 -0.4491030039531288 0 0.36960336651254821 -0.43649479238315469 0 0.35317551966365651 -0.4491030039531288 0 0.35311356312575298 -0.43167520682275717 0 0.36960336651254821 -0.43649479238315469 0 0.35317551966365651 -0.4491030039531288 0 0.33949075973754023 -0.43842873981353131 0 0.33900588213688221 -0.4564685274893977 0 0.35317551966365651 -0.4491030039531288 0 0.33949075973754023 -0.43842873981353131 0 0.35311356312575298 -0.43167520682275717 0 0.33900588213688221 -0.4564685274893977 0 0.32497967038156989 -0.45956714886607558 0 0.32271249700966659 -0.44099567227405478 0 0.33949075973754023 -0.43842873981353131 0 0.33900588213688221 -0.4564685274893977 0 0.32271249700966659 -0.44099567227405478 0 0.34177789512044149 -0.48226782007236302 0 0.33900588213688221 -0.4564685274893977 0 0.32497967038156989 -0.45956714886607558 0 0.31583844054191279 -0.47089949131286268 0 0.3096659691444229 -0.45038096924696569 0 0.31583844054191279 -0.47089949131286268 0 0.32497967038156989 -0.45956714886607558 0 0.3096659691444229 -0.45038096924696569 0 0.32497967038156989 -0.45956714886607558 0 0.32271249700966659 -0.44099567227405478 0 0.3096659691444229 -0.45038096924696569 0 0.32271249700966659 -0.44099567227405478 0 0.31685181742879071 -0.42576990156382671 0 0.30349349774693241 -0.42986244718106881 0 0.31685181742879071 -0.42576990156382671 0 0.32223501153324918 -0.41502896359622338 0 0.3287113133118304 -0.42820580870165359 0 0.32271249700966659 -0.44099567227405478 0 0.31685181742879071 -0.42576990156382671 0 0.3287113133118304 -0.42820580870165359 0 0.31685181742879071 -0.42576990156382671 0 0.32223501153324918 -0.41502896359622338 0 0.30710676754227528 -0.41475661606613268 0 0.32223501153324918 -0.41502896359622338 0 0.3107200373376211 -0.39965078495119749 0 0.30710676754227528 -0.41475661606613268 0 0.32223501153324918 -0.41502896359622338 0 0.34051347165595353 -0.41965230403605469 0 0.3287113133118304 -0.42820580870165359 0 0.32223501153324918 -0.41502896359622338 0 0.34051347165595353 -0.41965230403605469 0 0.33066692672058762 -0.40226383516997771 0 0.34051347165595353 -0.41965230403605469 0 0.35061381610355419 -0.40487688538875771 0 0.33066692672058762 -0.40226383516997771 0 0.33949075973754023 -0.43842873981353131 0 0.32271249700966659 -0.44099567227405478 0 0.3287113133118304 -0.42820580870165359 0 0.33949075973754023 -0.43842873981353131 0 0.34051347165595353 -0.41965230403605469 0 0.3287113133118304 -0.42820580870165359 0 0.34051347165595353 -0.41965230403605469 0 0.35311356312575298 -0.43167520682275717 0 0.35751254381870251 -0.41934182959935312 0 0.33949075973754023 -0.43842873981353131 0 0.34051347165595353 -0.41965230403605469 0 0.35311356312575298 -0.43167520682275717 0 0.35311356312575298 -0.43167520682275717 0 0.36960336651254821 -0.43649479238315469 0 0.35311356312575298 -0.43167520682275717 0 0.36960336651254821 -0.43649479238315469 0 0.35751254381870251 -0.41934182959935312 0 0.36960336651254821 -0.43649479238315469 0 0.37056070548652081 -0.40748993560753732 0 0.36960336651254821 -0.43649479238315469 0 0.37056070548652081 -0.40748993560753732 0 0.35751254381870251 -0.41934182959935312 0 0.37056070548652081 -0.40748993560753732 0 0.35751254381870251 -0.41934182959935312 0 0.35061381610355419 -0.40487688538875771 0 0.38035390908821742 -0.42038550152671589 0 0.36960336651254821 -0.43649479238315469 0 0.37056070548652081 -0.40748993560753732 0 0.34051347165595353 -0.41965230403605469 0 0.35751254381870251 -0.41934182959935312 0 0.35061381610355419 -0.40487688538875771 0 0.35061381610355419 -0.40487688538875771 0 0.35297130308531383 -0.38839509841241082 0 0.3362501089924661 -0.38403083297873553 0 0.35061381610355419 -0.40487688538875771 0 0.36293701577915571 -0.39831994384182862 0 0.35297130308531383 -0.38839509841241082 0 0.37056070548652081 -0.40748993560753732 0 0.35061381610355419 -0.40487688538875771 0 0.37056070548652081 -0.40748993560753732 0 0.35061381610355419 -0.40487688538875771 0 0.36293701577915571 -0.39831994384182862 0 0.36293701577915571 -0.39831994384182862 0 0.36979178268764662 -0.38900638491375827 0 0.35297130308531383 -0.38839509841241082 0 0.36293701577915571 -0.39831994384182862 0 0.37074747153274301 -0.40183141488667828 0 0.36979178268764662 -0.38900638491375827 0 0.37056070548652081 -0.40748993560753732 0 0.36293701577915571 -0.39831994384182862 0 0.37074747153274301 -0.40183141488667828 0 0.37056070548652081 -0.40748993560753732 0 0.37074747153274301 -0.40183141488667828 0 0.37626242823976058 -0.3787433431615333 0 0.36979178268764662 -0.38900638491375827 0 0.3656219544493628 -0.37123733962328997 0 0.36979178268764662 -0.38900638491375827 0 0.3656219544493628 -0.37123733962328997 0 0.34860021271182973 -0.36784745954629883 0 0.36979178268764662 -0.38900638491375827 0 0.34860021271182973 -0.36784745954629883 0 0.36979178268764662 -0.38900638491375827 0 0.35297130308531383 -0.38839509841241082 0 0.34860021271182973 -0.36784745954629883 0 0.35297130308531383 -0.38839509841241082 0 0.3362501089924661 -0.38403083297873553 0 0.34860021271182973 -0.36784745954629883 0 0.3362501089924661 -0.38403083297873553 0 0.33066692672058762 -0.40226383516997771 0 0.32353661612201001 -0.39034823780220018 0 0.35061381610355419 -0.40487688538875771 0 0.33066692672058762 -0.40226383516997771 0 0.35061381610355419 -0.40487688538875771 0 0.3362501089924661 -0.38403083297873553 0 0.33066692672058762 -0.40226383516997771 0 0.33066692672058762 -0.40226383516997771 0 0.3107200373376211 -0.39965078495119749 0 0.33066692672058762 -0.40226383516997771 0 0.32353661612201001 -0.39034823780220018 0 0.3107200373376211 -0.39965078495119749 0 0.32223501153324918 -0.41502896359622338 0 0.33066692672058762 -0.40226383516997771 0 0.3107200373376211 -0.39965078495119749 0 0.31650939143736539 -0.37544749810888978 0 0.3107200373376211 -0.39965078495119749 0 0.3362501089924661 -0.38403083297873553 0 0.31650939143736539 -0.37544749810888978 0 0.32353661612201001 -0.39034823780220018 0 0.31650939143736539 -0.37544749810888978 0 0.32353661612201001 -0.39034823780220018 0 0.3107200373376211 -0.39965078495119749 0 0.31650939143736539 -0.37544749810888978 0 0.29958559234266152 -0.38383072481859448 0 0.3107200373376211 -0.39965078495119749 0 0.31650939143736539 -0.37544749810888978 0 0.29958559234266152 -0.38383072481859448 0 0.29477314436029067 -0.36703377344441313 0 0.29958559234266152 -0.38383072481859448 0 0.3107200373376211 -0.39965078495119749 0 0.29331674329634022 -0.39737094670529582 0 0.3107200373376211 -0.39965078495119749 0 0.29331674329634022 -0.39737094670529582 0 0.3107200373376211 -0.39965078495119749 0 0.3009602634216485 -0.4061583850489387 0 0.29331674329634022 -0.39737094670529582 0 0.29331674329634022 -0.39737094670529582 0 0.2759134492550594 -0.39509110845939382 0 0.29331674329634022 -0.39737094670529582 0 0.28321624858717082 -0.38240453824142978 0 0.2759134492550594 -0.39509110845939382 0 0.29331674329634022 -0.39737094670529582 0 0.28473558738891752 -0.40125950798570398 0 0.2759134492550594 -0.39509110845939382 0 0.29331674329634022 -0.39737094670529582 0 0.28473558738891752 -0.40125950798570398 0 0.29043394068700168 -0.40877020165156769 0 0.3009602634216485 -0.4061583850489387 0 0.29331674329634022 -0.39737094670529582 0 0.29043394068700168 -0.40877020165156769 0 0.29958559234266152 -0.38383072481859448 0 0.28321624858717082 -0.38240453824142978 0 0.29477314436029067 -0.36703377344441313 0 0.28321624858717082 -0.38240453824142978 0 0.27485951996904329 -0.37690149579303689 0 0.29477314436029067 -0.36703377344441313 0 0.29958559234266152 -0.38383072481859448 0 0.29331674329634022 -0.39737094670529582 0 0.28321624858717082 -0.38240453824142978 0 0.27485951996904329 -0.37690149579303689 0 0.27127690135406851 -0.38702973490080722 0 0.2549458955777959 -0.38676921814166049 0 0.28321624858717082 -0.38240453824142978 0 0.27485951996904329 -0.37690149579303689 0 0.27127690135406851 -0.38702973490080722 0 0.28321624858717082 -0.38240453824142978 0 0.27127690135406851 -0.38702973490080722 0 0.2759134492550594 -0.39509110845939382 0 0.28321624858717082 -0.38240453824142978 0 0.2759134492550594 -0.39509110845939382 0 0.27485951996904329 -0.37690149579303689 0 0.2549458955777959 -0.38676921814166049 0 0.26452868432306459 -0.36584084285285229 0 0.27485951996904329 -0.37690149579303689 0 0.2549458955777959 -0.38676921814166049 0 0.27127690135406851 -0.38702973490080722 0 0.2549458955777959 -0.38676921814166049 0 0.26744939338127388 -0.39398231386851318 0 0.2549458955777959 -0.38676921814166049 0 0.25535676988130329 -0.38889152473607469 0 0.26744939338127388 -0.39398231386851318 0 0.25281898241426859 -0.38782315931002459 0 0.25605331583396862 -0.39248942330515091 0 0.24604741796407301 -0.39117864681684672 0 0.2549458955777959 -0.38676921814166049 0 0.25281898241426859 -0.38782315931002459 0 0.2432684872402181 -0.3747583675775259 0 0.25535676988130329 -0.38889152473607469 0 0.25281898241426859 -0.38782315931002459 0 0.25605331583396862 -0.39248942330515091 0 0.25535676988130329 -0.38889152473607469 0 0.25281898241426859 -0.38782315931002459 0 0.2549458955777959 -0.38676921814166049 0 0.25535676988130329 -0.38889152473607469 0 0.2549458955777959 -0.38676921814166049 0 0.25535676988130329 -0.38889152473607469 0 0.25281898241426859 -0.38782315931002459 0 0.2549458955777959 -0.38676921814166049 0 0.25281898241426859 -0.38782315931002459 0 0.25605331583396862 -0.39248942330515091 0 0.26744939338127388 -0.39398231386851318 0 0.26142858150278558 -0.42025451272125158 0 0.25605331583396862 -0.39248942330515091 0 0.26142858150278558 -0.42025451272125158 0 0.24831737856470751 -0.40523923600381329 0 0.25605331583396862 -0.39248942330515091 0 0.2465226742300004 -0.39707615409081343 0 0.24831737856470751 -0.40523923600381329 0 0.25605331583396862 -0.39248942330515091 0 0.24604741796407301 -0.39117864681684672 0 0.25535676988130329 -0.38889152473607469 0 0.25605331583396862 -0.39248942330515091 0 0.25605331583396862 -0.39248942330515091 0 0.26744939338127388 -0.39398231386851318 0 0.25535676988130329 -0.38889152473607469 0 0.26744939338127388 -0.39398231386851318 0 0.25535676988130329 -0.38889152473607469 0 0.25605331583396862 -0.39248942330515091 0 0.26744939338127388 -0.39398231386851318 0 0.26744939338127388 -0.39398231386851318 0 0.27477619340311421 -0.39706677225149872 0 0.26142858150278558 -0.42025451272125158 0 0.26744939338127388 -0.39398231386851318 0 0.2759134492550594 -0.39509110845939382 0 0.27477619340311421 -0.39706677225149872 0 0.26744939338127388 -0.39398231386851318 0 0.2759134492550594 -0.39509110845939382 0 0.27127690135406851 -0.38702973490080722 0 0.26744939338127388 -0.39398231386851318 0 0.2759134492550594 -0.39509110845939382 0 0.26744939338127388 -0.39398231386851318 0 0.27477619340311421 -0.39706677225149872 0 0.28473558738891752 -0.40125950798570398 0 0.2759134492550594 -0.39509110845939382 0 0.27477619340311421 -0.39706677225149872 0 0.2759134492550594 -0.39509110845939382 0 0.27477619340311421 -0.39706677225149872 0 0.28473558738891752 -0.40125950798570398 0 0.27477619340311421 -0.39706677225149872 0 0.28473558738891752 -0.40125950798570398 0 0.27477619340311421 -0.39706677225149872 0 0.2759890261709203 -0.41032067796572769 0 0.27477619340311421 -0.39706677225149872 0 0.2759890261709203 -0.41032067796572769 0 0.26142858150278558 -0.42025451272125158 0 0.28473558738891752 -0.40125950798570398 0 0.2759890261709203 -0.41032067796572769 0 0.28298450315203982 -0.41148535739810488 0 0.27477619340311421 -0.39706677225149872 0 0.26142858150278558 -0.42025451272125158 0 0.2759890261709203 -0.41032067796572769 0 0.27630119728801739 -0.42103303769310518 0 0.28298450315203982 -0.41148535739810488 0 0.2759890261709203 -0.41032067796572769 0 0.27630119728801739 -0.42103303769310518 0 0.26142858150278558 -0.42025451272125158 0 0.26142858150278558 -0.42025451272125158 0 0.24180144569219239 -0.41908298329008992 0 0.24831737856470751 -0.40523923600381329 0 0.25605331583396862 -0.39248942330515091 0 0.26142858150278558 -0.42025451272125158 0 0.26142858150278558 -0.42025451272125158 0 0.2491098997289003 -0.44165477503298112 0 0.26142858150278558 -0.42025451272125158 0 0.2491098997289003 -0.44165477503298112 0 0.24180144569219239 -0.41908298329008992 0 0.26142858150278558 -0.42025451272125158 0 0.26450511920284631 -0.43614588434771329 0 0.26142858150278558 -0.42025451272125158 0 0.26450511920284631 -0.43614588434771329 0 0.2491098997289003 -0.44165477503298112 0 0.26142858150278558 -0.42025451272125158 0 0.26450511920284631 -0.43614588434771329 0 0.27374479194183132 -0.43182151395847229 0 0.26450511920284631 -0.43614588434771329 0 0.27374479194183132 -0.43182151395847229 0 0.26450511920284631 -0.43614588434771329 0 0.27374479194183132 -0.43182151395847229 0 0.27341225790176321 -0.4401020755830784 0 0.27630119728801739 -0.42103303769310518 0 0.26142858150278558 -0.42025451272125158 0 0.27374479194183132 -0.43182151395847229 0 0.27630119728801739 -0.42103303769310518 0 0.27374479194183132 -0.43182151395847229 0 0.28219113069509988 -0.42465511642152909 0 0.27374479194183132 -0.43182151395847229 0 0.28519049113919148 -0.43114097083854452 0 0.28219113069509988 -0.42465511642152909 0 0.27374479194183132 -0.43182151395847229 0 0.28037775412961319 -0.43770877630923383 0 0.27341225790176321 -0.4401020755830784 0 0.27374479194183132 -0.43182151395847229 0 0.28519049113919148 -0.43114097083854452 0 0.28037775412961319 -0.43770877630923383 0 0.28519049113919148 -0.43114097083854452 0 0.28797069511212592 -0.43992753172288479 0 0.28037775412961319 -0.43770877630923383 0 0.28519049113919148 -0.43114097083854452 0 0.29056750592695968 -0.4321796430756415 0 0.28797069511212592 -0.43992753172288479 0 0.28519049113919148 -0.43114097083854452 0 0.29056750592695968 -0.4321796430756415 0 0.29100833849322638 -0.42577546336771849 0 0.29056750592695968 -0.4321796430756415 0 0.29684214765718492 -0.43346383174603031 0 0.28797069511212592 -0.43992753172288479 0 0.29056750592695968 -0.4321796430756415 0 0.29684214765718492 -0.43346383174603031 0 0.29100833849322638 -0.42577546336771849 0 0.29684214765718492 -0.43346383174603031 0 0.29100833849322638 -0.42577546336771849 0 0.29310072334207882 -0.41864649817140093 0 0.29100833849322638 -0.42577546336771849 0 0.28219113069509988 -0.42465511642152909 0 0.28625892645133261 -0.41906460904274928 0 0.28519049113919148 -0.43114097083854452 0 0.29100833849322638 -0.42577546336771849 0 0.28219113069509988 -0.42465511642152909 0 0.27630119728801739 -0.42103303769310518 0 0.28219113069509988 -0.42465511642152909 0 0.28625892645133261 -0.41906460904274928 0 0.27630119728801739 -0.42103303769310518 0 0.28625892645133261 -0.41906460904274928 0 0.28298450315203982 -0.41148535739810488 0 0.28625892645133261 -0.41906460904274928 0 0.28298450315203982 -0.41148535739810488 0 0.29043394068700168 -0.40877020165156769 0 0.28473558738891752 -0.40125950798570398 0 0.28298450315203982 -0.41148535739810488 0 0.29043394068700168 -0.40877020165156769 0 0.3009602634216485 -0.4061583850489387 0 0.29043394068700168 -0.40877020165156769 0 0.29310072334207882 -0.41864649817140093 0 0.28625892645133261 -0.41906460904274928 0 0.29043394068700168 -0.40877020165156769 0 0.29310072334207882 -0.41864649817140093 0 0.29100833849322638 -0.42577546336771849 0 0.28625892645133261 -0.41906460904274928 0 0.29310072334207882 -0.41864649817140093 0 0.3009602634216485 -0.4061583850489387 0 0.29684214765718492 -0.43346383174603031 0 0.3009602634216485 -0.4061583850489387 0 0.29684214765718492 -0.43346383174603031 0 0.29310072334207882 -0.41864649817140093 0 0.3009602634216485 -0.4061583850489387 0 0.29684214765718492 -0.43346383174603031 0 0.30103601380156653 -0.42169328197763101 0 0.3009602634216485 -0.4061583850489387 0 0.30103601380156653 -0.42169328197763101 0 0.30710676754227528 -0.41475661606613268 0 0.3107200373376211 -0.39965078495119749 0 0.3009602634216485 -0.4061583850489387 0 0.30710676754227528 -0.41475661606613268 0 0.3107200373376211 -0.39965078495119749 0 0.30710676754227528 -0.41475661606613268 0 0.31685181742879071 -0.42576990156382671 0 0.30710676754227528 -0.41475661606613268 0 0.30349349774693241 -0.42986244718106881 0 0.30710676754227528 -0.41475661606613268 0 0.30349349774693241 -0.42986244718106881 0 0.29684214765718492 -0.43346383174603031 0 0.30349349774693241 -0.42986244718106881 0 0.29975911835358893 -0.44547459563110681 0 0.30103601380156653 -0.42169328197763101 0 0.30349349774693241 -0.42986244718106881 0 0.30103601380156653 -0.42169328197763101 0 0.30710676754227528 -0.41475661606613268 0 0.30349349774693241 -0.42986244718106881 0 0.29684214765718492 -0.43346383174603031 0 0.30103601380156653 -0.42169328197763101 0 0.30349349774693241 -0.42986244718106881 0 0.30349349774693241 -0.42986244718106881 0 0.3096659691444229 -0.45038096924696569 0 0.29975911835358893 -0.44547459563110681 0 0.32271249700966659 -0.44099567227405478 0 0.30349349774693241 -0.42986244718106881 0 0.3096659691444229 -0.45038096924696569 0 0.3096659691444229 -0.45038096924696569 0 0.29975911835358893 -0.44547459563110681 0 0.292724031892721 -0.46076927844312188 0 0.30349349774693241 -0.42986244718106881 0 0.3096659691444229 -0.45038096924696569 0 0.30349349774693241 -0.42986244718106881 0 0.29975911835358893 -0.44547459563110681 0 0.31583844054191279 -0.47089949131286268 0 0.3096659691444229 -0.45038096924696569 0 0.292724031892721 -0.46076927844312188 0 0.31583844054191279 -0.47089949131286268 0 0.292724031892721 -0.46076927844312188 0 0.29684214765718492 -0.43346383174603031 0 0.29975911835358893 -0.44547459563110681 0 0.292724031892721 -0.46076927844312188 0 0.29684214765718492 -0.43346383174603031 0 0.292724031892721 -0.46076927844312188 0 0.28797069511212592 -0.43992753172288479 0 0.29684214765718492 -0.43346383174603031 0 0.292724031892721 -0.46076927844312188 0 0.292724031892721 -0.46076927844312188 0 0.28157053455315417 -0.44555178944318907 0 0.28797069511212592 -0.43992753172288479 0 0.28157053455315417 -0.44555178944318907 0 0.28797069511212592 -0.43992753172288479 0 0.28037775412961319 -0.43770877630923383 0 0.292724031892721 -0.46076927844312188 0 0.28157053455315417 -0.44555178944318907 0 0.26709785387375878 -0.44953824751735388 0 0.28157053455315417 -0.44555178944318907 0 0.28037775412961319 -0.43770877630923383 0 0.27341225790176321 -0.4401020755830784 0 0.28157053455315417 -0.44555178944318907 0 0.26709785387375878 -0.44953824751735388 0 0.27341225790176321 -0.4401020755830784 0 0.26450511920284631 -0.43614588434771329 0 0.26709785387375878 -0.44953824751735388 0 0.26450511920284631 -0.43614588434771329 0 0.26709785387375878 -0.44953824751735388 0 0.27341225790176321 -0.4401020755830784 0 0.26709785387375878 -0.44953824751735388 0 0.25098172733231872 -0.44247512965964592 0 0.25499664281726431 -0.45523205940263262 0 0.26709785387375878 -0.44953824751735388 0 0.25098172733231872 -0.44247512965964592 0 0.26450511920284631 -0.43614588434771329 0 0.26709785387375878 -0.44953824751735388 0 0.25098172733231872 -0.44247512965964592 0 0.25098172733231872 -0.44247512965964592 0 0.25499664281726431 -0.45523205940263262 0 0.2477732989716441 -0.44397674481321819 0 0.26450511920284631 -0.43614588434771329 0 0.25098172733231872 -0.44247512965964592 0 0.2491098997289003 -0.44165477503298112 0 0.26450511920284631 -0.43614588434771329 0 0.25098172733231872 -0.44247512965964592 0 0.25098172733231872 -0.44247512965964592 0 0.2491098997289003 -0.44165477503298112 0 0.26709785387375878 -0.44953824751735388 0 0.25499664281726431 -0.45523205940263262 0 0.27263008665488608 -0.47811412586503932 0 0.25499664281726431 -0.45523205940263262 0 0.25474110227093749 -0.47463372904204348 0 0.24159037534215189 -0.45471784438485152 0 0.26709785387375878 -0.44953824751735388 0 0.27263008665488608 -0.47811412586503932 0 0.28285984369831663 -0.46965345727231222 0 0.26709785387375878 -0.44953824751735388 0 0.27263008665488608 -0.47811412586503932 0 0.292724031892721 -0.46076927844312188 0 0.26709785387375878 -0.44953824751735388 0 0.28285984369831663 -0.46965345727231222 0 0.292724031892721 -0.46076927844312188 0 0.26709785387375878 -0.44953824751735388 0 0.27263008665488608 -0.47811412586503932 0 0.28961274378356339 -0.48139888588568142 0 0.25474110227093749 -0.47463372904204348 0 0.26311594748398032 -0.48731686452102307 0 0.2425495168946363 -0.48369843705736948 0 0.27263008665488608 -0.47811412586503932 0 0.25474110227093749 -0.47463372904204348 0 0.26311594748398032 -0.48731686452102307 0 0.27263008665488608 -0.47811412586503932 0 0.25474110227093749 -0.47463372904204348 0 0.25499664281726431 -0.45523205940263262 0 0.27263008665488608 -0.47811412586503932 0 0.25474110227093749 -0.47463372904204348 0 0.25474110227093749 -0.47463372904204348 0 0.26311594748398032 -0.48731686452102307 0 0.26311594748398032 -0.48731686452102307 0 0.27149079269702531 -0.50000000000000133 0 0.24350764879353751 -0.5 0 0.27263008665488608 -0.47811412586503932 0 0.27149079269702531 -0.50000000000000133 0 0.27686714802740958 -0.49999999999999872 0 0.26311594748398032 -0.48731686452102307 0 0.27149079269702531 -0.50000000000000133 0 0.27263008665488608 -0.47811412586503932 0 0.26311594748398032 -0.48731686452102307 0 0.27149079269702531 -0.50000000000000133 0 0.27263008665488608 -0.47811412586503932 0 0.27686714802740958 -0.49999999999999872 0 0.27263008665488608 -0.47811412586503932 0 0.27686714802740958 -0.49999999999999872 0 0.28911405355105602 -0.48470548539402869 0 0.27686714802740958 -0.49999999999999872 0 0.30072986532678792 -0.5 0 0.2976313780615028 -0.49001588786023559 0 0.27686714802740958 -0.49999999999999872 0 0.28911405355105602 -0.48470548539402869 0 0.2976313780615028 -0.49001588786023559 0 0.28911405355105602 -0.48470548539402869 0 0.2962856447235892 -0.47895945972836351 0 0.2976313780615028 -0.49001588786023559 0 0.27263008665488608 -0.47811412586503932 0 0.28911405355105602 -0.48470548539402869 0 0.28961274378356339 -0.48139888588568142 0 0.27263008665488608 -0.47811412586503932 0 0.28285984369831663 -0.46965345727231222 0 0.28961274378356339 -0.48139888588568142 0 0.292724031892721 -0.46076927844312188 0 0.28961274378356339 -0.48139888588568142 0 0.292724031892721 -0.46076927844312188 0 0.28961274378356339 -0.48139888588568142 0 0.2962856447235892 -0.47895945972836351 0 0.292724031892721 -0.46076927844312188 0 0.28285984369831663 -0.46965345727231222 0 0.28961274378356339 -0.48139888588568142 0 0.28911405355105602 -0.48470548539402869 0 0.28961274378356339 -0.48139888588568142 0 0.2962856447235892 -0.47895945972836351 0 0.28911405355105602 -0.48470548539402869 0 0.28961274378356339 -0.48139888588568142 0 0.31583844054191279 -0.47089949131286268 0 0.292724031892721 -0.46076927844312188 0 0.30567311538907749 -0.48034718721606717 0 0.2962856447235892 -0.47895945972836351 0 0.30567311538907749 -0.48034718721606717 0 0.2976313780615028 -0.49001588786023559 0 0.292724031892721 -0.46076927844312188 0 0.2962856447235892 -0.47895945972836351 0 0.30567311538907749 -0.48034718721606717 0 0.32459258262616619 -0.49999999999999889 0 0.30976849059751488 -0.49116256414654652 0 0.30072986532678792 -0.5 0 0.32021551158403971 -0.48544974565643068 0 0.30567311538907749 -0.48034718721606717 0 0.30976849059751488 -0.49116256414654652 0 0.30976849059751488 -0.49116256414654652 0 0.30072986532678792 -0.5 0 0.2976313780615028 -0.49001588786023559 0 0.30567311538907749 -0.48034718721606717 0 0.30976849059751488 -0.49116256414654652 0 0.2976313780615028 -0.49001588786023559 0 0.33306345889097749 -0.29141871038796652 0 0.34692832282664648 -0.27134144341905292 0 0.35117035837168548 -0.29782991285777671 0 0.33306345889097749 -0.29141871038796652 0 0.33268500061009831 -0.30824203579417092 0 0.35117035837168548 -0.29782991285777671 0 0.33306345889097749 -0.29141871038796652 0 0.33268500061009831 -0.30824203579417092 0 0.32201967278620508 -0.30180854637248689 0 0.33268500061009831 -0.30824203579417092 0 0.35117035837168548 -0.29782991285777671 0 0.34282918403525958 -0.31383988266746721 0 0.33268500061009831 -0.30824203579417092 0 0.32086080165998421 -0.31108977066224253 0 0.32567939035855542 -0.31782143600484281 0 0.33268500061009831 -0.30824203579417092 0 0.32201967278620508 -0.30180854637248689 0 0.32086080165998421 -0.31108977066224253 0 0.32086080165998421 -0.31108977066224253 0 0.31378919958273288 -0.31519565594433779 0 0.31220684782225361 -0.30777617908547228 0 0.32201967278620508 -0.30180854637248689 0 0.32086080165998421 -0.31108977066224253 0 0.31220684782225361 -0.30777617908547228 0 0.32201967278620508 -0.30180854637248689 0 0.31908621961328398 -0.29018436075917881 0 0.30938653616528128 -0.29904257800064982 0 0.32201967278620508 -0.30180854637248689 0 0.30938653616528128 -0.29904257800064982 0 0.31220684782225361 -0.30777617908547228 0 0.31908621961328398 -0.29018436075917881 0 0.3252193480620289 -0.2770930151027407 0 0.30574208216192739 -0.28155895393205022 0 0.33306345889097749 -0.29141871038796652 0 0.32201967278620508 -0.30180854637248689 0 0.31908621961328398 -0.29018436075917881 0 0.33306345889097749 -0.29141871038796652 0 0.31908621961328398 -0.29018436075917881 0 0.3252193480620289 -0.2770930151027407 0 0.3252193480620289 -0.2770930151027407 0 0.31712560622696973 -0.26403981267986287 0 0.30574208216192739 -0.28155895393205022 0 0.3252193480620289 -0.2770930151027407 0 0.31712560622696973 -0.26403981267986287 0 0.33122963959608331 -0.26065329394858611 0 0.32146979424958622 -0.24479646355193069 0 0.31712560622696973 -0.26403981267986287 0 0.30196716706522259 -0.25609733686400699 0 0.32146979424958622 -0.24479646355193069 0 0.31712560622696973 -0.26403981267986287 0 0.33122963959608331 -0.26065329394858611 0 0.3426862872816076 -0.2448529739803291 0 0.33122963959608331 -0.26065329394858611 0 0.34692832282664648 -0.27134144341905292 0 0.32146979424958622 -0.24479646355193069 0 0.3426862872816076 -0.2448529739803291 0 0.33122963959608331 -0.26065329394858611 0 0.33306345889097749 -0.29141871038796652 0 0.3252193480620289 -0.2770930151027407 0 0.34692832282664648 -0.27134144341905292 0 0.3252193480620289 -0.2770930151027407 0 0.33122963959608331 -0.26065329394858611 0 0.34692832282664648 -0.27134144341905292 0 0.3426862872816076 -0.2448529739803291 0 0.34692832282664648 -0.27134144341905292 0 0.3426862872816076 -0.2448529739803291 0 0.34692832282664648 -0.27134144341905292 0 0.36382526563608841 -0.26057243660908053 0 0.3728553354896833 -0.24170966668946789 0 0.38323898802897471 -0.25369016854328119 0 0.36382526563608841 -0.26057243660908053 0 0.34692832282664648 -0.27134144341905292 0 0.36382526563608841 -0.26057243660908053 0 0.37279641630456778 -0.28688564836479341 0 0.36382526563608841 -0.26057243660908053 0 0.37279641630456778 -0.28688564836479341 0 0.38027422610832318 -0.2692962312407422 0 0.36382526563608841 -0.26057243660908053 0 0.37279641630456778 -0.28688564836479341 0 0.34692832282664648 -0.27134144341905292 0 0.35117035837168548 -0.29782991285777671 0 0.34692832282664648 -0.27134144341905292 0 0.37279641630456778 -0.28688564836479341 0 0.35117035837168548 -0.29782991285777671 0 0.35117035837168548 -0.29782991285777671 0 0.36663414852424991 -0.30893734934361072 0 0.35541239391672452 -0.32431838229650051 0 0.35117035837168548 -0.29782991285777671 0 0.35541239391672452 -0.32431838229650051 0 0.35117035837168548 -0.29782991285777671 0 0.35541239391672452 -0.32431838229650051 0 0.34282918403525958 -0.31383988266746721 0 0.37279641630456778 -0.28688564836479341 0 0.35117035837168548 -0.29782991285777671 0 0.36663414852424991 -0.30893734934361072 0 0.38395872792318492 -0.30770497907920102 0 0.36663414852424991 -0.30893734934361072 0 0.37420493105156011 -0.3199049692679331 0 0.38395872792318492 -0.30770497907920102 0 0.37279641630456778 -0.28688564836479341 0 0.36663414852424991 -0.30893734934361072 0 0.37557283775158551 -0.33323703120686882 0 0.37420493105156011 -0.3199049692679331 0 0.35541239391672452 -0.32431838229650051 0 0.36663414852424991 -0.30893734934361072 0 0.37420493105156011 -0.3199049692679331 0 0.35541239391672452 -0.32431838229650051 0 0.37557283775158551 -0.33323703120686882 0 0.36682615890226961 -0.33956007521863429 0 0.35541239391672452 -0.32431838229650051 0 0.36682615890226961 -0.33956007521863429 0 0.35541239391672452 -0.32431838229650051 0 0.35965442946176429 -0.3508068517352243 0 0.37628950864166949 -0.34495945910718029 0 0.37557283775158551 -0.33323703120686882 0 0.36682615890226961 -0.33956007521863429 0 0.34776208503349271 -0.3365348209217861 0 0.35700476965528682 -0.35040778148949492 0 0.33161092120774122 -0.33796869515043793 0 0.35541239391672452 -0.32431838229650051 0 0.35965442946176429 -0.3508068517352243 0 0.34776208503349271 -0.3365348209217861 0 0.35541239391672452 -0.32431838229650051 0 0.35965442946176429 -0.3508068517352243 0 0.34776208503349271 -0.3365348209217861 0 0.35541239391672452 -0.32431838229650051 0 0.34324483915199988 -0.32496701384733662 0 0.35541239391672452 -0.32431838229650051 0 0.34282918403525958 -0.31383988266746721 0 0.34324483915199988 -0.32496701384733662 0 0.37626242823976058 -0.3787433431615333 0 0.3656219544493628 -0.37123733962328997 0 0.37463334710296131 -0.36884553848220641 0 0.3656219544493628 -0.37123733962328997 0 0.37463334710296131 -0.36884553848220641 0 0.36877987517388611 -0.36532768364485302 0 0.37463334710296131 -0.36884553848220641 0 0.36877987517388611 -0.36532768364485302 0 0.37176887348537391 -0.36070395545778289 0 0.36877987517388611 -0.36532768364485302 0 0.37176887348537391 -0.36070395545778289 0 0.3648375549895746 -0.36003074361737308 0 0.36877987517388611 -0.36532768364485302 0 0.3648375549895746 -0.36003074361737308 0 0.36434877936547422 -0.36429928576079051 0 0.3648375549895746 -0.36003074361737308 0 0.36434877936547422 -0.36429928576079051 0 0.36187752874089091 -0.36105607989861449 0 0.3656219544493628 -0.37123733962328997 0 0.36434877936547422 -0.36429928576079051 0 0.35772563304639438 -0.3631945958128121 0 0.3656219544493628 -0.37123733962328997 0 0.36877987517388611 -0.36532768364485302 0 0.36434877936547422 -0.36429928576079051 0 0.36187752874089091 -0.36105607989861449 0 0.36059814756212027 -0.35669969440348243 0 0.35772563304639438 -0.3631945958128121 0 0.36434877936547422 -0.36429928576079051 0 0.36187752874089091 -0.36105607989861449 0 0.35772563304639438 -0.3631945958128121 0 0.37628950864166949 -0.34495945910718029 0 0.38459402196957099 -0.3545630506578773 0 0.35965442946176429 -0.3508068517352243 0 0.38355058749886922 -0.36341115593978052 0 0.35965442946176429 -0.3508068517352243 0 0.38459402196957099 -0.3545630506578773 0 0.35965442946176429 -0.3508068517352243 0 0.37628950864166949 -0.34495945910718029 0 0.36682615890226961 -0.33956007521863429 0 0.35965442946176429 -0.3508068517352243 0 0.38355058749886922 -0.36341115593978052 0 0.37176887348537391 -0.36070395545778289 0 0.35965442946176429 -0.3508068517352243 0 0.37176887348537391 -0.36070395545778289 0 0.3648375549895746 -0.36003074361737308 0 0.35965442946176429 -0.3508068517352243 0 0.3648375549895746 -0.36003074361737308 0 0.36059814756212027 -0.35669969440348243 0 0.35965442946176429 -0.3508068517352243 0 0.3648375549895746 -0.36003074361737308 0 0.36187752874089091 -0.36105607989861449 0 0.36059814756212027 -0.35669969440348243 0 0.36059814756212027 -0.35669969440348243 0 0.35965442946176429 -0.3508068517352243 0 0.35700476965528682 -0.35040778148949492 0 0.33161092120774122 -0.33796869515043793 0 0.35700476965528682 -0.35040778148949492 0 0.3521233670648426 -0.34967258426662379 0 0.33161092120774122 -0.33796869515043793 0 0.34776208503349271 -0.3365348209217861 0 0.35965442946176429 -0.3508068517352243 0 0.35700476965528682 -0.35040778148949492 0 0.35965442946176429 -0.3508068517352243 0 0.35700476965528682 -0.35040778148949492 0 0.35700476965528682 -0.35040778148949492 0 0.3521233670648426 -0.34967258426662379 0 0.35700476965528682 -0.35040778148949492 0 0.3521233670648426 -0.34967258426662379 0 0.35376988810449278 -0.35311683703167562 0 0.3521233670648426 -0.34967258426662379 0 0.34486035117947689 -0.35445252643425662 0 0.3389813593506924 -0.34728844014216131 0 0.3509644976410507 -0.35370271541474568 0 0.34486035117947689 -0.35445252643425662 0 0.3531043842153907 -0.35756891392642709 0 0.3521233670648426 -0.34967258426662379 0 0.3509644976410507 -0.35370271541474568 0 0.34486035117947689 -0.35445252643425662 0 0.3509644976410507 -0.35370271541474568 0 0.3531043842153907 -0.35756891392642709 0 0.35376988810449278 -0.35311683703167562 0 0.3521233670648426 -0.34967258426662379 0 0.3509644976410507 -0.35370271541474568 0 0.35376988810449278 -0.35311683703167562 0 0.3531043842153907 -0.35756891392642709 0 0.35376988810449278 -0.35311683703167562 0 0.35685821075542951 -0.35417222344537858 0 0.36059814756212027 -0.35669969440348243 0 0.35965442946176429 -0.3508068517352243 0 0.35685821075542951 -0.35417222344537858 0 0.35700476965528682 -0.35040778148949492 0 0.35376988810449278 -0.35311683703167562 0 0.35685821075542951 -0.35417222344537858 0 0.35965442946176429 -0.3508068517352243 0 0.35700476965528682 -0.35040778148949492 0 0.35685821075542951 -0.35417222344537858 0 0.36059814756212027 -0.35669969440348243 0 0.3531043842153907 -0.35756891392642709 0 0.35685821075542951 -0.35417222344537858 0 0.36059814756212027 -0.35669969440348243 0 0.3531043842153907 -0.35756891392642709 0 0.35772563304639438 -0.3631945958128121 0 0.3656219544493628 -0.37123733962328997 0 0.35772563304639438 -0.3631945958128121 0 0.34860021271182973 -0.36784745954629883 0 0.3531043842153907 -0.35756891392642709 0 0.35772563304639438 -0.3631945958128121 0 0.34860021271182973 -0.36784745954629883 0 0.34486035117947689 -0.35445252643425662 0 0.3531043842153907 -0.35756891392642709 0 0.34860021271182973 -0.36784745954629883 0 0.34860021271182973 -0.36784745954629883 0 0.33061655772796661 -0.36511412938036542 0 0.32740864273601289 -0.34668853417883932 0 0.3362501089924661 -0.38403083297873553 0 0.34860021271182973 -0.36784745954629883 0 0.33061655772796661 -0.36511412938036542 0 0.34486035117947689 -0.35445252643425662 0 0.34860021271182973 -0.36784745954629883 0 0.32740864273601289 -0.34668853417883932 0 0.3521233670648426 -0.34967258426662379 0 0.3389813593506924 -0.34728844014216131 0 0.33161092120774122 -0.33796869515043793 0 0.34860021271182973 -0.36784745954629883 0 0.32740864273601289 -0.34668853417883932 0 0.34486035117947689 -0.35445252643425662 0 0.3389813593506924 -0.34728844014216131 0 0.32740864273601289 -0.34668853417883932 0 0.3389813593506924 -0.34728844014216131 0 0.32740864273601289 -0.34668853417883932 0 0.33161092120774122 -0.33796869515043793 0 0.33061655772796661 -0.36511412938036542 0 0.32740864273601289 -0.34668853417883932 0 0.32229874553711219 -0.35124421126658278 0 0.32740864273601289 -0.34668853417883932 0 0.32229874553711219 -0.35124421126658278 0 0.31863763732250472 -0.34573157028999812 0 0.32229874553711219 -0.35124421126658278 0 0.31863763732250472 -0.34573157028999812 0 0.31392551393233531 -0.34935120779221041 0 0.31863763732250472 -0.34573157028999812 0 0.31392551393233531 -0.34935120779221041 0 0.31239959155228519 -0.3435970154383986 0 0.32229874553711219 -0.35124421126658278 0 0.31392551393233531 -0.34935120779221041 0 0.314686768751538 -0.35716605109578931 0 0.3362501089924661 -0.38403083297873553 0 0.31650939143736539 -0.37544749810888978 0 0.33061655772796661 -0.36511412938036542 0 0.31650939143736539 -0.37544749810888978 0 0.32229874553711219 -0.35124421126658278 0 0.31650939143736539 -0.37544749810888978 0 0.32229874553711219 -0.35124421126658278 0 0.314686768751538 -0.35716605109578931 0 0.31650939143736539 -0.37544749810888978 0 0.33061655772796661 -0.36511412938036542 0 0.32229874553711219 -0.35124421126658278 0 0.33268500061009831 -0.30824203579417092 0 0.33317213816802099 -0.3238859916064144 0 0.34282918403525958 -0.31383988266746721 0 0.33268500061009831 -0.30824203579417092 0 0.33317213816802099 -0.3238859916064144 0 0.32567939035855542 -0.31782143600484281 0 0.33317213816802099 -0.3238859916064144 0 0.33065179089220548 -0.32991054265534708 0 0.3211108367620375 -0.32726440005723678 0 0.33317213816802099 -0.3238859916064144 0 0.33671326743102248 -0.33052308380729922 0 0.33065179089220548 -0.32991054265534708 0 0.33317213816802099 -0.3238859916064144 0 0.34282918403525958 -0.31383988266746721 0 0.34324483915199988 -0.32496701384733662 0 0.33317213816802099 -0.3238859916064144 0 0.34324483915199988 -0.32496701384733662 0 0.33671326743102248 -0.33052308380729922 0 0.34776208503349271 -0.3365348209217861 0 0.33671326743102248 -0.33052308380729922 0 0.33161092120774122 -0.33796869515043793 0 0.34776208503349271 -0.3365348209217861 0 0.34324483915199988 -0.32496701384733662 0 0.33671326743102248 -0.33052308380729922 0 0.33671326743102248 -0.33052308380729922 0 0.33161092120774122 -0.33796869515043793 0 0.33065179089220548 -0.32991054265534708 0 0.33161092120774122 -0.33796869515043793 0 0.30621707276019577 -0.32552960881137999 0 0.32740864273601289 -0.34668853417883932 0 0.30621707276019577 -0.32552960881137999 0 0.33161092120774122 -0.33796869515043793 0 0.3211108367620375 -0.32726440005723678 0 0.30621707276019577 -0.32552960881137999 0 0.32740864273601289 -0.34668853417883932 0 0.31430668842175818 -0.33778297544235197 0 0.30621707276019577 -0.32552960881137999 0 0.32740864273601289 -0.34668853417883932 0 0.33161092120774122 -0.33796869515043793 0 0.30621707276019577 -0.32552960881137999 0 0.33161092120774122 -0.33796869515043793 0 0.33065179089220548 -0.32991054265534708 0 0.3211108367620375 -0.32726440005723678 0 0.31863763732250472 -0.34573157028999812 0 0.31430668842175818 -0.33778297544235197 0 0.31239959155228519 -0.3435970154383986 0 0.32740864273601289 -0.34668853417883932 0 0.31863763732250472 -0.34573157028999812 0 0.31430668842175818 -0.33778297544235197 0 0.3138701459142102 -0.32420089871241681 0 0.3211108367620375 -0.32726440005723678 0 0.30621707276019577 -0.32552960881137999 0 0.3138701459142102 -0.32420089871241681 0 0.3211108367620375 -0.32726440005723678 0 0.31805481052745621 -0.31936237222494551 0 0.3138701459142102 -0.32420089871241681 0 0.31805481052745621 -0.31936237222494551 0 0.31297074484605969 -0.31993504142882301 0 0.3211108367620375 -0.32726440005723678 0 0.32567939035855542 -0.31782143600484281 0 0.31805481052745621 -0.31936237222494551 0 0.33317213816802099 -0.3238859916064144 0 0.3211108367620375 -0.32726440005723678 0 0.32567939035855542 -0.31782143600484281 0 0.32086080165998421 -0.31108977066224253 0 0.32567939035855542 -0.31782143600484281 0 0.31805481052745621 -0.31936237222494551 0 0.32086080165998421 -0.31108977066224253 0 0.31805481052745621 -0.31936237222494551 0 0.31378919958273288 -0.31519565594433779 0 0.31805481052745621 -0.31936237222494551 0 0.31297074484605969 -0.31993504142882301 0 0.31378919958273288 -0.31519565594433779 0 0.31378919958273288 -0.31519565594433779 0 0.30934891965642669 -0.31874867003899549 0 0.3083794939108695 -0.31372816293909861 0 0.31297074484605969 -0.31993504142882301 0 0.31378919958273288 -0.31519565594433779 0 0.30934891965642669 -0.31874867003899549 0 0.31297074484605969 -0.31993504142882301 0 0.30934891965642669 -0.31874867003899549 0 0.30979064854947241 -0.32216761022341922 0 0.30934891965642669 -0.31874867003899549 0 0.3083794939108695 -0.31372816293909861 0 0.30458934338867799 -0.31763567733507481 0 0.30934891965642669 -0.31874867003899549 0 0.30458934338867799 -0.31763567733507481 0 0.30653712503570107 -0.32153051468203869 0 0.3083794939108695 -0.31372816293909861 0 0.30458934338867799 -0.31763567733507481 0 0.3021174278855534 -0.31042127376148632 0 0.30458934338867799 -0.31763567733507481 0 0.30027869152686287 -0.31596576970508039 0 0.3021174278855534 -0.31042127376148632 0 0.30458934338867799 -0.31763567733507481 0 0.29945210822223711 -0.31938349449346343 0 0.30027869152686287 -0.31596576970508039 0 0.30458934338867799 -0.31763567733507481 0 0.29945210822223711 -0.31938349449346343 0 0.30260786904147752 -0.32192596489979269 0 0.29945210822223711 -0.31938349449346343 0 0.30027869152686287 -0.31596576970508039 0 0.29450948994722681 -0.31628072850878353 0 0.30027869152686287 -0.31596576970508039 0 0.29450948994722681 -0.31628072850878353 0 0.3021174278855534 -0.31042127376148632 0 0.29974510676277522 -0.32564249355136432 0 0.3022183865994747 -0.32825175175260168 0 0.29623050679007179 -0.32856942157508218 0 0.29974510676277522 -0.32564249355136432 0 0.29623050679007179 -0.32856942157508218 0 0.29516961137165498 -0.32204022673295818 0 0.29974510676277522 -0.32564249355136432 0 0.30007268824431299 -0.32258867229013172 0 0.29516961137165498 -0.32204022673295818 0 0.29945210822223711 -0.31938349449346343 0 0.30007268824431299 -0.32258867229013172 0 0.29516961137165498 -0.32204022673295818 0 0.29945210822223711 -0.31938349449346343 0 0.30007268824431299 -0.32258867229013172 0 0.30260786904147752 -0.32192596489979269 0 0.29974510676277522 -0.32564249355136432 0 0.30007268824431299 -0.32258867229013172 0 0.30242730497287362 -0.32367320454052489 0 0.30458934338867799 -0.31763567733507481 0 0.30260786904147752 -0.32192596489979269 0 0.30653712503570107 -0.32153051468203869 0 0.30007268824431299 -0.32258867229013172 0 0.30242730497287362 -0.32367320454052489 0 0.30260786904147752 -0.32192596489979269 0 0.30260786904147752 -0.32192596489979269 0 0.30621707276019577 -0.32552960881137999 0 0.30242730497287362 -0.32367320454052489 0 0.30260786904147752 -0.32192596489979269 0 0.30621707276019577 -0.32552960881137999 0 0.29974510676277522 -0.32564249355136432 0 0.30242730497287362 -0.32367320454052489 0 0.3022183865994747 -0.32825175175260168 0 0.30242730497287362 -0.32367320454052489 0 0.30621707276019577 -0.32552960881137999 0 0.30242730497287362 -0.32367320454052489 0 0.30621707276019577 -0.32552960881137999 0 0.3022183865994747 -0.32825175175260168 0 0.30621707276019577 -0.32552960881137999 0 0.30653712503570107 -0.32153051468203869 0 0.30979064854947241 -0.32216761022341922 0 0.30260786904147752 -0.32192596489979269 0 0.30621707276019577 -0.32552960881137999 0 0.30653712503570107 -0.32153051468203869 0 0.30934891965642669 -0.31874867003899549 0 0.30653712503570107 -0.32153051468203869 0 0.30979064854947241 -0.32216761022341922 0 0.3138701459142102 -0.32420089871241681 0 0.30621707276019577 -0.32552960881137999 0 0.30979064854947241 -0.32216761022341922 0 0.3138701459142102 -0.32420089871241681 0 0.31297074484605969 -0.31993504142882301 0 0.30979064854947241 -0.32216761022341922 0 0.31430668842175818 -0.33778297544235197 0 0.30621707276019577 -0.32552960881137999 0 0.30609075157758547 -0.33151285831728661 0 0.31430668842175818 -0.33778297544235197 0 0.30680496925646072 -0.33576365976457567 0 0.30609075157758547 -0.33151285831728661 0 0.30621707276019577 -0.32552960881137999 0 0.30609075157758547 -0.33151285831728661 0 0.3022183865994747 -0.32825175175260168 0 0.31239959155228519 -0.3435970154383986 0 0.3091127756799944 -0.34000383796817391 0 0.30601534240483341 -0.34511548569925848 0 0.31430668842175818 -0.33778297544235197 0 0.31239959155228519 -0.3435970154383986 0 0.3091127756799944 -0.34000383796817391 0 0.31430668842175818 -0.33778297544235197 0 0.30680496925646072 -0.33576365976457567 0 0.3091127756799944 -0.34000383796817391 0 0.30680496925646072 -0.33576365976457567 0 0.3091127756799944 -0.34000383796817391 0 0.30377598305392789 -0.33893094234456389 0 0.3091127756799944 -0.34000383796817391 0 0.30377598305392789 -0.33893094234456389 0 0.30601534240483341 -0.34511548569925848 0 0.30377598305392789 -0.33893094234456389 0 0.29637045758140251 -0.34236133125580448 0 0.30601534240483341 -0.34511548569925848 0 0.30377598305392789 -0.33893094234456389 0 0.30020530423335268 -0.33378583827907438 0 0.29637045758140251 -0.34236133125580448 0 0.30680496925646072 -0.33576365976457567 0 0.30377598305392789 -0.33893094234456389 0 0.30020530423335268 -0.33378583827907438 0 0.30609075157758547 -0.33151285831728661 0 0.3022183865994747 -0.32825175175260168 0 0.30020530423335268 -0.33378583827907438 0 0.30680496925646072 -0.33576365976457567 0 0.30609075157758547 -0.33151285831728661 0 0.30020530423335268 -0.33378583827907438 0 0.3022183865994747 -0.32825175175260168 0 0.30020530423335268 -0.33378583827907438 0 0.29623050679007179 -0.32856942157508218 0 0.30020530423335268 -0.33378583827907438 0 0.29623050679007179 -0.32856942157508218 0 0.28922950316319979 -0.33466140170908631 0 0.29623050679007179 -0.32856942157508218 0 0.28922950316319979 -0.33466140170908631 0 0.29006498010937048 -0.32693365609037761 0 0.28922950316319979 -0.33466140170908631 0 0.29637045758140251 -0.34236133125580448 0 0.28342728329632982 -0.34680606307381129 0 0.30020530423335268 -0.33378583827907438 0 0.28922950316319979 -0.33466140170908631 0 0.29637045758140251 -0.34236133125580448 0 0.28922950316319979 -0.33466140170908631 0 0.28342728329632982 -0.34680606307381129 0 0.27631064455548299 -0.33709122828061888 0 0.28922950316319979 -0.33466140170908631 0 0.28151704616930479 -0.32823313346620941 0 0.27631064455548299 -0.33709122828061888 0 0.28922950316319979 -0.33466140170908631 0 0.28151704616930479 -0.32823313346620941 0 0.29006498010937048 -0.32693365609037761 0 0.28776988451651159 -0.321275520646641 0 0.27698468793054121 -0.30530701747601491 0 0.29105051352763839 -0.31091806759731289 0 0.28151704616930479 -0.32823313346620941 0 0.28776988451651159 -0.321275520646641 0 0.29006498010937048 -0.32693365609037761 0 0.29450948994722681 -0.31628072850878353 0 0.29105051352763839 -0.31091806759731289 0 0.3021174278855534 -0.31042127376148632 0 0.28776988451651159 -0.321275520646641 0 0.29450948994722681 -0.31628072850878353 0 0.29516961137165498 -0.32204022673295818 0 0.28776988451651159 -0.321275520646641 0 0.29450948994722681 -0.31628072850878353 0 0.29105051352763839 -0.31091806759731289 0 0.29945210822223711 -0.31938349449346343 0 0.29450948994722681 -0.31628072850878353 0 0.29516961137165498 -0.32204022673295818 0 0.29623050679007179 -0.32856942157508218 0 0.29516961137165498 -0.32204022673295818 0 0.29006498010937048 -0.32693365609037761 0 0.28776988451651159 -0.321275520646641 0 0.29516961137165498 -0.32204022673295818 0 0.29006498010937048 -0.32693365609037761 0 0.314686768751538 -0.35716605109578931 0 0.29477314436029067 -0.36703377344441313 0 0.31650939143736539 -0.37544749810888978 0 0.314686768751538 -0.35716605109578931 0 0.29477314436029067 -0.36703377344441313 0 0.314686768751538 -0.35716605109578931 0 0.30515958041948288 -0.35489572044682072 0 0.29477314436029067 -0.36703377344441313 0 0.30515958041948288 -0.35489572044682072 0 0.29416042320229552 -0.35260930043004551 0 0.29477314436029067 -0.36703377344441313 0 0.31392551393233531 -0.34935120779221041 0 0.314686768751538 -0.35716605109578931 0 0.30515958041948288 -0.35489572044682072 0 0.31392551393233531 -0.34935120779221041 0 0.30515958041948288 -0.35489572044682072 0 0.30601534240483341 -0.34511548569925848 0 0.31392551393233531 -0.34935120779221041 0 0.31239959155228519 -0.3435970154383986 0 0.30601534240483341 -0.34511548569925848 0 0.30515958041948288 -0.35489572044682072 0 0.30601534240483341 -0.34511548569925848 0 0.29416042320229552 -0.35260930043004551 0 0.29637045758140251 -0.34236133125580448 0 0.30601534240483341 -0.34511548569925848 0 0.29416042320229552 -0.35260930043004551 0 0.29637045758140251 -0.34236133125580448 0 0.28342728329632982 -0.34680606307381129 0 0.29416042320229552 -0.35260930043004551 0 0.28342728329632982 -0.34680606307381129 0 0.29416042320229552 -0.35260930043004551 0 0.27921673115143392 -0.3594434286601651 0 0.27485951996904329 -0.37690149579303689 0 0.29477314436029067 -0.36703377344441313 0 0.27485951996904329 -0.37690149579303689 0 0.29477314436029067 -0.36703377344441313 0 0.27921673115143392 -0.3594434286601651 0 0.29416042320229552 -0.35260930043004551 0 0.29477314436029067 -0.36703377344441313 0 0.27921673115143392 -0.3594434286601651 0 0.27485951996904329 -0.37690149579303689 0 0.27921673115143392 -0.3594434286601651 0 0.26452868432306459 -0.36584084285285229 0 0.28342728329632982 -0.34680606307381129 0 0.27921673115143392 -0.3594434286601651 0 0.26388135577575123 -0.34621150603928869 0 0.27921673115143392 -0.3594434286601651 0 0.26388135577575123 -0.34621150603928869 0 0.26452868432306459 -0.36584084285285229 0 0.26388135577575123 -0.34621150603928869 0 0.24453394270480289 -0.33298791311855919 0 0.2497399191412992 -0.35987856563010989 0 0.26388135577575123 -0.34621150603928869 0 0.26452868432306459 -0.36584084285285229 0 0.2497399191412992 -0.35987856563010989 0 0.2549458955777959 -0.38676921814166049 0 0.2497399191412992 -0.35987856563010989 0 0.2549458955777959 -0.38676921814166049 0 0.26452868432306459 -0.36584084285285229 0 0.2497399191412992 -0.35987856563010989 0 0.28776988451651159 -0.321275520646641 0 0.27299632907634541 -0.31974878486533481 0 0.27698468793054121 -0.30530701747601491 0 0.28151704616930479 -0.32823313346620941 0 0.28776988451651159 -0.321275520646641 0 0.27299632907634541 -0.31974878486533481 0 0.28151704616930479 -0.32823313346620941 0 0.27299632907634541 -0.31974878486533481 0 0.26590481730078719 -0.33054830552766817 0 0.26388135577575123 -0.34621150603928869 0 0.27631064455548299 -0.33709122828061888 0 0.26590481730078719 -0.33054830552766817 0 0.28151704616930479 -0.32823313346620941 0 0.27631064455548299 -0.33709122828061888 0 0.26590481730078719 -0.33054830552766817 0 0.28342728329632982 -0.34680606307381129 0 0.26388135577575123 -0.34621150603928869 0 0.27631064455548299 -0.33709122828061888 0 0.26388135577575123 -0.34621150603928869 0 0.26590481730078719 -0.33054830552766817 0 0.24453394270480289 -0.33298791311855919 0 0.26590481730078719 -0.33054830552766817 0 0.256189585523036 -0.31901726739599839 0 0.24453394270480289 -0.33298791311855919 0 0.27299632907634541 -0.31974878486533481 0 0.26590481730078719 -0.33054830552766817 0 0.256189585523036 -0.31901726739599839 0 0.27299632907634541 -0.31974878486533481 0 0.256189585523036 -0.31901726739599839 0 0.25996310732351963 -0.3045669253473261 0 0.256189585523036 -0.31901726739599839 0 0.25996310732351963 -0.3045669253473261 0 0.23932796626830671 -0.3060972606070087 0 0.25996310732351963 -0.3045669253473261 0 0.25233594931661252 -0.29378875255554898 0 0.23932796626830671 -0.3060972606070087 0 0.25434575308880369 -0.28186827525585112 0 0.25233594931661252 -0.29378875255554898 0 0.26393020765334269 -0.29007485084114959 0 0.25434575308880369 -0.28186827525585112 0 0.25233594931661252 -0.29378875255554898 0 0.24411271224908981 -0.28633645072640962 0 0.25996310732351963 -0.3045669253473261 0 0.25233594931661252 -0.29378875255554898 0 0.26393020765334269 -0.29007485084114959 0 0.26393020765334269 -0.29007485084114959 0 0.27697167940200301 -0.29032464508526051 0 0.26928052423780119 -0.26905323047484631 0 0.26393020765334269 -0.29007485084114959 0 0.27697167940200301 -0.29032464508526051 0 0.27698468793054121 -0.30530701747601491 0 0.27299632907634541 -0.31974878486533481 0 0.25996310732351963 -0.3045669253473261 0 0.27698468793054121 -0.30530701747601491 0 0.25996310732351963 -0.3045669253473261 0 0.26393020765334269 -0.29007485084114959 0 0.27698468793054121 -0.30530701747601491 0 0.27698468793054121 -0.30530701747601491 0 0.29631422519444561 -0.30043303280041611 0 0.28990707212252981 -0.28913365296232341 0 0.27698468793054121 -0.30530701747601491 0 0.29105051352763839 -0.31091806759731289 0 0.29631422519444561 -0.30043303280041611 0 0.29105051352763839 -0.31091806759731289 0 0.29631422519444561 -0.30043303280041611 0 0.3021174278855534 -0.31042127376148632 0 0.28990707212252981 -0.28913365296232341 0 0.30574208216192739 -0.28155895393205022 0 0.28793141224952912 -0.27382213851929471 0 0.27697167940200301 -0.29032464508526051 0 0.28990707212252981 -0.28913365296232341 0 0.28793141224952912 -0.27382213851929471 0 0.27697167940200301 -0.29032464508526051 0 0.27698468793054121 -0.30530701747601491 0 0.28990707212252981 -0.28913365296232341 0 0.31908621961328398 -0.29018436075917881 0 0.30574208216192739 -0.28155895393205022 0 0.30938653616528128 -0.29904257800064982 0 0.29631422519444561 -0.30043303280041611 0 0.28990707212252981 -0.28913365296232341 0 0.30574208216192739 -0.28155895393205022 0 0.29631422519444561 -0.30043303280041611 0 0.30574208216192739 -0.28155895393205022 0 0.30938653616528128 -0.29904257800064982 0 0.30938653616528128 -0.29904257800064982 0 0.31220684782225361 -0.30777617908547228 0 0.3021174278855534 -0.31042127376148632 0 0.3083794939108695 -0.31372816293909861 0 0.31220684782225361 -0.30777617908547228 0 0.3021174278855534 -0.31042127376148632 0 0.31378919958273288 -0.31519565594433779 0 0.3083794939108695 -0.31372816293909861 0 0.31220684782225361 -0.30777617908547228 0 0.29631422519444561 -0.30043303280041611 0 0.30938653616528128 -0.29904257800064982 0 0.3021174278855534 -0.31042127376148632 0 0.31712560622696973 -0.26403981267986287 0 0.30574208216192739 -0.28155895393205022 0 0.30196716706522259 -0.25609733686400699 0 0.30574208216192739 -0.28155895393205022 0 0.30196716706522259 -0.25609733686400699 0 0.28793141224952912 -0.27382213851929471 0 0.30196716706522259 -0.25609733686400699 0 0.28793141224952912 -0.27382213851929471 0 0.28255509982556509 -0.25796866242257632 0 0.27793269048731001 -0.24130386905901249 0 0.30196716706522259 -0.25609733686400699 0 0.28255509982556509 -0.25796866242257632 0 0.26158936907359942 -0.24778181586443199 0 0.28255509982556509 -0.25796866242257632 0 0.26928052423780119 -0.26905323047484631 0 0.27697167940200301 -0.29032464508526051 0 0.28793141224952912 -0.27382213851929471 0 0.26928052423780119 -0.26905323047484631 0 0.27697167940200301 -0.29032464508526051 0 0.26928052423780119 -0.26905323047484631 0 0.28793141224952912 -0.27382213851929471 0 0.28255509982556509 -0.25796866242257632 0 0.26928052423780119 -0.26905323047484631 0 0.26928052423780119 -0.26905323047484631 0 0.25026433778996959 -0.27108708297656681 0 0.25374592657866613 -0.2610258532533532 0 0.25434575308880369 -0.28186827525585112 0 0.26393020765334269 -0.29007485084114959 0 0.26928052423780119 -0.26905323047484631 0 0.25434575308880369 -0.28186827525585112 0 0.26928052423780119 -0.26905323047484631 0 0.25026433778996959 -0.27108708297656681 0 0.26158936907359942 -0.24778181586443199 0 0.26928052423780119 -0.26905323047484631 0 0.26158936907359942 -0.24778181586443199 0 0.26928052423780119 -0.26905323047484631 0 0.25374592657866613 -0.2610258532533532 0 0.26158936907359942 -0.24778181586443199 0 0.25374592657866613 -0.2610258532533532 0 0.2444299610463688 -0.25163298647013332 0 0.25026433778996959 -0.27108708297656681 0 0.25374592657866613 -0.2610258532533532 0 0.24460471021894761 -0.26375108503658701 0 0.25374592657866613 -0.2610258532533532 0 0.2444299610463688 -0.25163298647013332 0 0.24460471021894761 -0.26375108503658701 0 0.2444299610463688 -0.25163298647013332 0 0.24460471021894761 -0.26375108503658701 0 0.23761229045594809 -0.25898893147014262 0 0.24460471021894761 -0.26375108503658701 0 0.23761229045594809 -0.25898893147014262 0 0.2387537171758139 -0.2698615613798514 0 0.23761229045594809 -0.25898893147014262 0 0.2387537171758139 -0.2698615613798514 0 0.2316896441201188 -0.26348223223831668 0 0.2444299610463688 -0.25163298647013332 0 0.23761229045594809 -0.25898893147014262 0 0.23304858683527799 -0.25051591857851252 0 0.24435262320957149 -0.27741870092687648 0 0.24003390220106269 -0.27994216037685637 0 0.24411271224908981 -0.28633645072640962 0 0.25434575308880369 -0.28186827525585112 0 0.25026433778996959 -0.27108708297656681 0 0.24435262320957149 -0.27741870092687648 0 0.25026433778996959 -0.27108708297656681 0 0.24460471021894761 -0.26375108503658701 0 0.2387537171758139 -0.2698615613798514 0 0.25026433778996959 -0.27108708297656681 0 0.24435262320957149 -0.27741870092687648 0 0.2387537171758139 -0.2698615613798514 0 0.2387537171758139 -0.2698615613798514 0 0.2386053167526897 -0.27541667484572419 0 0.2312301947159936 -0.27806991323981128 0 0.2387537171758139 -0.2698615613798514 0 0.2312301947159936 -0.27806991323981128 0 0.24435262320957149 -0.27741870092687648 0 0.2387537171758139 -0.2698615613798514 0 0.2386053167526897 -0.27541667484572419 0 0.2386053167526897 -0.27541667484572419 0 0.2341219898318129 -0.27920660809545772 0 0.2312301947159936 -0.27806991323981128 0 0.2386053167526897 -0.27541667484572419 0 0.2371348047008241 -0.27837933316190372 0 0.2341219898318129 -0.27920660809545772 0 0.2371348047008241 -0.27837933316190372 0 0.24003390220106269 -0.27994216037685637 0 0.2341219898318129 -0.27920660809545772 0 0.24435262320957149 -0.27741870092687648 0 0.2386053167526897 -0.27541667484572419 0 0.24003390220106269 -0.27994216037685637 0 0.2386053167526897 -0.27541667484572419 0 0.2371348047008241 -0.27837933316190372 0 0.24003390220106269 -0.27994216037685637 0 0.22711240470797031 -0.27645130938605372 0 0.22561516590192349 -0.25919641775455021 0 0.22711240470797031 -0.27645130938605372 0 0.23166505507312729 -0.27091640245370419 0 0.22561516590192349 -0.25919641775455021 0 0.22711240470797031 -0.27645130938605372 0 0.2234206304646858 -0.27500016204592392 0 0.22561516590192349 -0.25919641775455021 0 0.22711240470797031 -0.27645130938605372 0 0.2275968259298968 -0.28203400979067611 0 0.2312301947159936 -0.27806991323981128 0 0.2275968259298968 -0.28203400979067611 0 0.2312301947159936 -0.27806991323981128 0 0.22711240470797031 -0.27645130938605372 0 0.2275968259298968 -0.28203400979067611 0 0.2341219898318129 -0.27920660809545772 0 0.2312301947159936 -0.27806991323981128 0 0.2275968259298968 -0.28203400979067611 0 0.2341219898318129 -0.27920660809545772 0 0.2312301947159936 -0.27806991323981128 0 0.2312301947159936 -0.27806991323981128 0 0.22711240470797031 -0.27645130938605372 0 0.2312301947159936 -0.27806991323981128 0 0.22711240470797031 -0.27645130938605372 0 0.23166505507312729 -0.27091640245370419 0 0.2387537171758139 -0.2698615613798514 0 0.2312301947159936 -0.27806991323981128 0 0.23166505507312729 -0.27091640245370419 0 0.2387537171758139 -0.2698615613798514 0 0.23166505507312729 -0.27091640245370419 0 0.2316896441201188 -0.26348223223831668 0 0.2234206304646858 -0.27500016204592392 0 0.2235499997480864 -0.28644919873891289 0 0.2275968259298968 -0.28203400979067611 0 0.2234206304646858 -0.27500016204592392 0 0.2235499997480864 -0.28644919873891289 0 0.22711240470797031 -0.27645130938605372 0 0.2234206304646858 -0.27500016204592392 0 0.22711240470797031 -0.27645130938605372 0 0.2234206304646858 -0.27500016204592392 0 0.2275968259298968 -0.28203400979067611 0 0.2234206304646858 -0.27500016204592392 0 0.21509827865632861 -0.2519032261317693 0 0.2231035150509792 -0.24693580309054231 0 0.23304858683527799 -0.25051591857851252 0 0.22561516590192349 -0.25919641775455021 0 0.22411792709587619 -0.2419415261230467 0 0.2234206304646858 -0.27500016204592392 0 0.22561516590192349 -0.25919641775455021 0 0.2231035150509792 -0.24693580309054231 0 0.22561516590192349 -0.25919641775455021 0 0.22411792709587619 -0.2419415261230467 0 0.2234206304646858 -0.27500016204592392 0 0.2231035150509792 -0.24693580309054231 0 0.23761229045594809 -0.25898893147014262 0 0.23304858683527799 -0.25051591857851252 0 0.22561516590192349 -0.25919641775455021 0 0.23166505507312729 -0.27091640245370419 0 0.2316896441201188 -0.26348223223831668 0 0.22561516590192349 -0.25919641775455021 0 0.23761229045594809 -0.25898893147014262 0 0.2316896441201188 -0.26348223223831668 0 0.22561516590192349 -0.25919641775455021 0 0.2234206304646858 -0.27500016204592392 0 0.21509827865632861 -0.2519032261317693 0 0.20929987001017111 -0.25901905424158411 0 0.21509827865632861 -0.2519032261317693 0 0.20929987001017111 -0.25901905424158411 0 0.20277084668220299 -0.24586474783829379 0 0.2234206304646858 -0.27500016204592392 0 0.1956044521295526 -0.26406629379079882 0 0.2088039230337464 -0.28403047294445399 0 0.2234206304646858 -0.27500016204592392 0 0.20929987001017111 -0.25901905424158411 0 0.1956044521295526 -0.26406629379079882 0 0.2234206304646858 -0.27500016204592392 0 0.1956044521295526 -0.26406629379079882 0 0.1956044521295526 -0.26406629379079882 0 0.19719199495817241 -0.28713349608976418 0 0.2088039230337464 -0.28403047294445399 0 0.1956044521295526 -0.26406629379079882 0 0.19719199495817241 -0.28713349608976418 0 0.17883234273110279 -0.2792494634842928 0 0.1956044521295526 -0.26406629379079882 0 0.20277084668220299 -0.24586474783829379 0 0.18609532454956099 -0.24561307842886959 0 0.20929987001017111 -0.25901905424158411 0 0.1956044521295526 -0.26406629379079882 0 0.20277084668220299 -0.24586474783829379 0 0.19719199495817241 -0.28713349608976418 0 0.20425253786823391 -0.30750321405687281 0 0.18183910969955819 -0.30277500239991278 0 0.2088039230337464 -0.28403047294445399 0 0.20425253786823391 -0.30750321405687281 0 0.2235499997480864 -0.28644919873891289 0 0.19719199495817241 -0.28713349608976418 0 0.2088039230337464 -0.28403047294445399 0 0.20425253786823391 -0.30750321405687281 0 0.2234206304646858 -0.27500016204592392 0 0.2088039230337464 -0.28403047294445399 0 0.2235499997480864 -0.28644919873891289 0 0.20425253786823391 -0.30750321405687281 0 0.22375989188993009 -0.30502441822098969 0 0.21504156841544 -0.31441172718467991 0 0.20425253786823391 -0.30750321405687281 0 0.2235499997480864 -0.28644919873891289 0 0.20425253786823391 -0.30750321405687281 0 0.22375989188993009 -0.30502441822098969 0 0.2235499997480864 -0.28644919873891289 0 0.2293169535115426 -0.30185757761016718 0 0.22375989188993009 -0.30502441822098969 0 0.2235499997480864 -0.28644919873891289 0 0.2293169535115426 -0.30185757761016718 0 0.22375989188993009 -0.30502441822098969 0 0.2310370810931881 -0.32168114542965842 0 0.2293169535115426 -0.30185757761016718 0 0.2310370810931881 -0.32168114542965842 0 0.2293169535115426 -0.30185757761016718 0 0.23932796626830671 -0.3060972606070087 0 0.2310370810931881 -0.32168114542965842 0 0.2293169535115426 -0.30185757761016718 0 0.2275968259298968 -0.28203400979067611 0 0.2341219898318129 -0.27920660809545772 0 0.2293169535115426 -0.30185757761016718 0 0.23932796626830671 -0.3060972606070087 0 0.22375989188993009 -0.30502441822098969 0 0.2235499997480864 -0.28644919873891289 0 0.2341219898318129 -0.27920660809545772 0 0.2293169535115426 -0.30185757761016718 0 0.2275968259298968 -0.28203400979067611 0 0.2293169535115426 -0.30185757761016718 0 0.2235499997480864 -0.28644919873891289 0 0.2275968259298968 -0.28203400979067611 0 0.2235499997480864 -0.28644919873891289 0 0.2275968259298968 -0.28203400979067611 0 0.2341219898318129 -0.27920660809545772 0 0.24411271224908981 -0.28633645072640962 0 0.23932796626830671 -0.3060972606070087 0 0.25233594931661252 -0.29378875255554898 0 0.24411271224908981 -0.28633645072640962 0 0.23932796626830671 -0.3060972606070087 0 0.2341219898318129 -0.27920660809545772 0 0.23932796626830671 -0.3060972606070087 0 0.24003390220106269 -0.27994216037685637 0 0.2341219898318129 -0.27920660809545772 0 0.24411271224908981 -0.28633645072640962 0 0.25434575308880369 -0.28186827525585112 0 0.24435262320957149 -0.27741870092687648 0 0.24411271224908981 -0.28633645072640962 0 0.256189585523036 -0.31901726739599839 0 0.23932796626830671 -0.3060972606070087 0 0.24453394270480289 -0.33298791311855919 0 0.23932796626830671 -0.3060972606070087 0 0.24453394270480289 -0.33298791311855919 0 0.2310370810931881 -0.32168114542965842 0 0.23932796626830671 -0.3060972606070087 0 0.24453394270480289 -0.33298791311855919 0 0.24453394270480289 -0.33298791311855919 0 0.22946162327872319 -0.32957690747302409 0 0.2310370810931881 -0.32168114542965842 0 0.24453394270480289 -0.33298791311855919 0 0.2301341017298201 -0.33671395573628699 0 0.23433527348343641 -0.34757737383301401 0 0.24453394270480289 -0.33298791311855919 0 0.22946162327872319 -0.32957690747302409 0 0.2301341017298201 -0.33671395573628699 0 0.2301341017298201 -0.33671395573628699 0 0.22419074589108229 -0.3424833323806446 0 0.23433527348343641 -0.34757737383301401 0 0.2301341017298201 -0.33671395573628699 0 0.22419074589108229 -0.3424833323806446 0 0.2183352750248363 -0.33493410508948862 0 0.22946162327872319 -0.32957690747302409 0 0.22396978403177389 -0.32359963770306638 0 0.2183352750248363 -0.33493410508948862 0 0.22946162327872319 -0.32957690747302409 0 0.2301341017298201 -0.33671395573628699 0 0.2183352750248363 -0.33493410508948862 0 0.22375989188993009 -0.30502441822098969 0 0.22396978403177389 -0.32359963770306638 0 0.21504156841544 -0.31441172718467991 0 0.22375989188993009 -0.30502441822098969 0 0.22396978403177389 -0.32359963770306638 0 0.22375989188993009 -0.30502441822098969 0 0.22396978403177389 -0.32359963770306638 0 0.2310370810931881 -0.32168114542965842 0 0.22946162327872319 -0.32957690747302409 0 0.22396978403177389 -0.32359963770306638 0 0.2310370810931881 -0.32168114542965842 0 0.2497399191412992 -0.35987856563010989 0 0.2432684872402181 -0.3747583675775259 0 0.2328955017645935 -0.36281243085586812 0 0.2549458955777959 -0.38676921814166049 0 0.2497399191412992 -0.35987856563010989 0 0.2432684872402181 -0.3747583675775259 0 0.2497399191412992 -0.35987856563010989 0 0.23433527348343641 -0.34757737383301401 0 0.2328955017645935 -0.36281243085586812 0 0.24453394270480289 -0.33298791311855919 0 0.2497399191412992 -0.35987856563010989 0 0.23433527348343641 -0.34757737383301401 0 0.24453394270480289 -0.33298791311855919 0 0.2497399191412992 -0.35987856563010989 0 0.22419074589108229 -0.3424833323806446 0 0.23433527348343641 -0.34757737383301401 0 0.2245174296690208 -0.35058804527661541 0 0.22419074589108229 -0.3424833323806446 0 0.2245174296690208 -0.35058804527661541 0 0.2126433856776031 -0.35011475970320122 0 0.2245174296690208 -0.35058804527661541 0 0.22393163472321179 -0.35959476414373348 0 0.2126433856776031 -0.35011475970320122 0 0.23433527348343641 -0.34757737383301401 0 0.2245174296690208 -0.35058804527661541 0 0.2328955017645935 -0.36281243085586812 0 0.2245174296690208 -0.35058804527661541 0 0.2328955017645935 -0.36281243085586812 0 0.22393163472321179 -0.35959476414373348 0 0.22393163472321179 -0.35959476414373348 0 0.21475144336958141 -0.36299651301327118 0 0.22594213730313251 -0.37650846394996412 0 0.2328955017645935 -0.36281243085586812 0 0.22393163472321179 -0.35959476414373348 0 0.22594213730313251 -0.37650846394996412 0 0.2432684872402181 -0.3747583675775259 0 0.2328955017645935 -0.36281243085586812 0 0.22594213730313251 -0.37650846394996412 0 0.21475144336958141 -0.36299651301327118 0 0.19906529219199581 -0.36519376858990482 0 0.22594213730313251 -0.37650846394996412 0 0.19906529219199581 -0.36519376858990482 0 0.22594213730313251 -0.37650846394996412 0 0.2064308598173506 -0.37873398967689642 0 0.21475144336958141 -0.36299651301327118 0 0.2126433856776031 -0.35011475970320122 0 0.19906529219199581 -0.36519376858990482 0 0.19906529219199581 -0.36519376858990482 0 0.22594213730313251 -0.37650846394996412 0 0.2126433856776031 -0.35011475970320122 0 0.1939095915823994 -0.34753749933420502 0 0.20376212501209481 -0.33762576770544039 0 0.22393163472321179 -0.35959476414373348 0 0.21475144336958141 -0.36299651301327118 0 0.2126433856776031 -0.35011475970320122 0 0.2126433856776031 -0.35011475970320122 0 0.1939095915823994 -0.34753749933420502 0 0.19906529219199581 -0.36519376858990482 0 0.1939095915823994 -0.34753749933420502 0 0.19906529219199581 -0.36519376858990482 0 0.1721884470808592 -0.35387907322984558 0 0.19906529219199581 -0.36519376858990482 0 0.18298842207273869 -0.37091600872815061 0 0.1919795317125487 -0.38409573282028281 0 0.20425253786823391 -0.30750321405687281 0 0.20838606105679339 -0.32443861351906328 0 0.21504156841544 -0.31441172718467991 0 0.22396978403177389 -0.32359963770306638 0 0.20838606105679339 -0.32443861351906328 0 0.21504156841544 -0.31441172718467991 0 0.22396978403177389 -0.32359963770306638 0 0.20838606105679339 -0.32443861351906328 0 0.2183352750248363 -0.33493410508948862 0 0.22419074589108229 -0.3424833323806446 0 0.2126433856776031 -0.35011475970320122 0 0.2183352750248363 -0.33493410508948862 0 0.2126433856776031 -0.35011475970320122 0 0.2183352750248363 -0.33493410508948862 0 0.20376212501209481 -0.33762576770544039 0 0.20838606105679339 -0.32443861351906328 0 0.2183352750248363 -0.33493410508948862 0 0.20376212501209481 -0.33762576770544039 0 0.1939095915823994 -0.34753749933420502 0 0.20376212501209481 -0.33762576770544039 0 0.18495507598838151 -0.32855722937483239 0 0.20838606105679339 -0.32443861351906328 0 0.20376212501209481 -0.33762576770544039 0 0.18495507598838151 -0.32855722937483239 0 0.20425253786823391 -0.30750321405687281 0 0.20838606105679339 -0.32443861351906328 0 0.18495507598838151 -0.32855722937483239 0 0.20425253786823391 -0.30750321405687281 0 0.18495507598838151 -0.32855722937483239 0 0.20425253786823391 -0.30750321405687281 0 0.18495507598838151 -0.32855722937483239 0 0.18183910969955819 -0.30277500239991278 0 0.18495507598838151 -0.32855722937483239 0 0.1593146493950747 -0.31909256460648522 0 0.18183910969955819 -0.30277500239991278 0 0.18495507598838151 -0.32855722937483239 0 0.1593146493950747 -0.31909256460648522 0 0.1721884470808592 -0.35387907322984558 0 0.1593146493950747 -0.31909256460648522 0 0.1721884470808592 -0.35387907322984558 0 0.1453116019697227 -0.34256437786978639 0 0.1939095915823994 -0.34753749933420502 0 0.18495507598838151 -0.32855722937483239 0 0.1721884470808592 -0.35387907322984558 0 0.19906529219199581 -0.36519376858990482 0 0.18298842207273869 -0.37091600872815061 0 0.1721884470808592 -0.35387907322984558 0 0.19906529219199581 -0.36519376858990482 0 0.1721884470808592 -0.35387907322984558 0 0.18298842207273869 -0.37091600872815061 0 0.1721884470808592 -0.35387907322984558 0 0.1687204173055511 -0.38049546027256931 0 0.1721884470808592 -0.35387907322984558 0 0.15353546690445541 -0.36481351693216441 0 0.1453116019697227 -0.34256437786978639 0 0.1721884470808592 -0.35387907322984558 0 0.1453116019697227 -0.34256437786978639 0 0.1721884470808592 -0.35387907322984558 0 0.15353546690445541 -0.36481351693216441 0 0.1687204173055511 -0.38049546027256931 0 0.15353546690445541 -0.36481351693216441 0 0.1334576568725144 -0.36734337666316108 0 0.13761108734286651 -0.39278886107704258 0 0.15353546690445541 -0.36481351693216441 0 0.1334576568725144 -0.36734337666316108 0 0.1453116019697227 -0.34256437786978639 0 0.1334576568725144 -0.36734337666316108 0 0.1453116019697227 -0.34256437786978639 0 0.1151457893227235 -0.35538430830369239 0 0.1593146493950747 -0.31909256460648522 0 0.1453116019697227 -0.34256437786978639 0 0.1327557034794242 -0.31406397942508268 0 0.1453116019697227 -0.34256437786978639 0 0.1148396108404251 -0.33048353453193308 0 0.1151457893227235 -0.35538430830369239 0 0.1453116019697227 -0.34256437786978639 0 0.1327557034794242 -0.31406397942508268 0 0.1148396108404251 -0.33048353453193308 0 0.1327557034794242 -0.31406397942508268 0 0.14440323395559029 -0.29773846118899983 0 0.1214680764032728 -0.28799396244537362 0 0.1593146493950747 -0.31909256460648522 0 0.1327557034794242 -0.31406397942508268 0 0.14440323395559029 -0.29773846118899983 0 0.1593146493950747 -0.31909256460648522 0 0.14440323395559029 -0.29773846118899983 0 0.1632037644333936 -0.29517191086136302 0 0.14440323395559029 -0.29773846118899983 0 0.14844893471109749 -0.27355094929525131 0 0.1632037644333936 -0.29517191086136302 0 0.14440323395559029 -0.29773846118899983 0 0.14844893471109749 -0.27355094929525131 0 0.1214680764032728 -0.28799396244537362 0 0.14844893471109749 -0.27355094929525131 0 0.16778827379441841 -0.25313242553567622 0 0.13997209545928421 -0.24219855728055359 0 0.14844893471109749 -0.27355094929525131 0 0.1208519130951949 -0.25967578265474978 0 0.13997209545928421 -0.24219855728055359 0 0.14844893471109749 -0.27355094929525131 0 0.1208519130951949 -0.25967578265474978 0 0.1214680764032728 -0.28799396244537362 0 0.14844893471109749 -0.27355094929525131 0 0.16778827379441841 -0.25313242553567622 0 0.17883234273110279 -0.2792494634842928 0 0.1956044521295526 -0.26406629379079882 0 0.16778827379441841 -0.25313242553567622 0 0.18609532454956099 -0.24561307842886959 0 0.1956044521295526 -0.26406629379079882 0 0.16778827379441841 -0.25313242553567622 0 0.17883234273110279 -0.2792494634842928 0 0.1956044521295526 -0.26406629379079882 0 0.16778827379441841 -0.25313242553567622 0 0.17883234273110279 -0.2792494634842928 0 0.18183910969955819 -0.30277500239991278 0 0.1632037644333936 -0.29517191086136302 0 0.19719199495817241 -0.28713349608976418 0 0.17883234273110279 -0.2792494634842928 0 0.18183910969955819 -0.30277500239991278 0 0.1593146493950747 -0.31909256460648522 0 0.18183910969955819 -0.30277500239991278 0 0.1632037644333936 -0.29517191086136302 0 0.14844893471109749 -0.27355094929525131 0 0.17883234273110279 -0.2792494634842928 0 0.1632037644333936 -0.29517191086136302 0 0.1928072589024005 -0.5 0 0.20064524300179451 -0.48408413981693582 0 0.21552450489004971 -0.50000000000000389 0 0.1928072589024005 -0.5 0 0.20064524300179451 -0.48408413981693582 0 0.17566152260556811 -0.4787645574572737 0 0.20047489497967641 -0.46924756139533819 0 0.20064524300179451 -0.48408413981693582 0 0.17566152260556811 -0.4787645574572737 0 0.20047489497967641 -0.46924756139533819 0 0.17566152260556811 -0.4787645574572737 0 0.20047489497967641 -0.46924756139533819 0 0.1870570053939955 -0.4614654288925471 0 0.17566152260556811 -0.4787645574572737 0 0.20047489497967641 -0.46924756139533819 0 0.20064524300179451 -0.48408413981693582 0 0.20806373519421659 -0.47559263039731048 0 0.20064524300179451 -0.48408413981693582 0 0.20806373519421659 -0.47559263039731048 0 0.21218654879276419 -0.48315928477010051 0 0.20047489497967641 -0.46924756139533819 0 0.20806373519421659 -0.47559263039731048 0 0.20983110277745959 -0.46589625036785659 0 0.20806373519421659 -0.47559263039731048 0 0.2171808864193884 -0.47557591563632129 0 0.20983110277745959 -0.46589625036785659 0 0.20806373519421659 -0.47559263039731048 0 0.2171808864193884 -0.47557591563632129 0 0.21218654879276419 -0.48315928477010051 0 0.2171808864193884 -0.47557591563632129 0 0.21218654879276419 -0.48315928477010051 0 0.22406485252548761 -0.48516353592158562 0 0.21218654879276419 -0.48315928477010051 0 0.21552450489004971 -0.50000000000000389 0 0.22406485252548761 -0.48516353592158562 0 0.20064524300179451 -0.48408413981693582 0 0.21218654879276419 -0.48315928477010051 0 0.21552450489004971 -0.50000000000000389 0 0.21552450489004971 -0.50000000000000389 0 0.22406485252548761 -0.48516353592158562 0 0.24350764879353751 -0.5 0 0.21552450489004971 -0.50000000000000389 0 0.22406485252548761 -0.48516353592158562 0 0.22406485252548761 -0.48516353592158562 0 0.24350764879353751 -0.5 0 0.2425495168946363 -0.48369843705736948 0 0.26311594748398032 -0.48731686452102307 0 0.24350764879353751 -0.5 0 0.2425495168946363 -0.48369843705736948 0 0.25474110227093749 -0.47463372904204348 0 0.2425495168946363 -0.48369843705736948 0 0.2326052001609237 -0.47032707184316641 0 0.25474110227093749 -0.47463372904204348 0 0.2326052001609237 -0.47032707184316641 0 0.22406485252548761 -0.48516353592158562 0 0.2425495168946363 -0.48369843705736948 0 0.2326052001609237 -0.47032707184316641 0 0.2171808864193884 -0.47557591563632129 0 0.2326052001609237 -0.47032707184316641 0 0.20983110277745959 -0.46589625036785659 0 0.22406485252548761 -0.48516353592158562 0 0.2326052001609237 -0.47032707184316641 0 0.2171808864193884 -0.47557591563632129 0 0.22406485252548761 -0.48516353592158562 0 0.2326052001609237 -0.47032707184316641 0 0.2326052001609237 -0.47032707184316641 0 0.20983110277745959 -0.46589625036785659 0 0.22080344960052009 -0.45659922845711148 0 0.23263699085818279 -0.45747566191745648 0 0.2376319712165364 -0.4487231096132106 0 0.2326052001609237 -0.47032707184316641 0 0.22080344960052009 -0.45659922845711148 0 0.20983110277745959 -0.46589625036785659 0 0.2326052001609237 -0.47032707184316641 0 0.22080344960052009 -0.45659922845711148 0 0.23263699085818279 -0.45747566191745648 0 0.25474110227093749 -0.47463372904204348 0 0.2326052001609237 -0.47032707184316641 0 0.24159037534215189 -0.45471784438485152 0 0.2326052001609237 -0.47032707184316641 0 0.24159037534215189 -0.45471784438485152 0 0.25474110227093749 -0.47463372904204348 0 0.24159037534215189 -0.45471784438485152 0 0.2326052001609237 -0.47032707184316641 0 0.23263699085818279 -0.45747566191745648 0 0.24159037534215189 -0.45471784438485152 0 0.23263699085818279 -0.45747566191745648 0 0.24159037534215189 -0.45471784438485152 0 0.2376319712165364 -0.4487231096132106 0 0.2477732989716441 -0.44397674481321819 0 0.2376319712165364 -0.4487231096132106 0 0.23030703128088109 -0.4376299845206349 0 0.2491098997289003 -0.44165477503298112 0 0.2477732989716441 -0.44397674481321819 0 0.23030703128088109 -0.4376299845206349 0 0.25098172733231872 -0.44247512965964592 0 0.2491098997289003 -0.44165477503298112 0 0.2477732989716441 -0.44397674481321819 0 0.25098172733231872 -0.44247512965964592 0 0.2477732989716441 -0.44397674481321819 0 0.2491098997289003 -0.44165477503298112 0 0.2477732989716441 -0.44397674481321819 0 0.25499664281726431 -0.45523205940263262 0 0.24159037534215189 -0.45471784438485152 0 0.2477732989716441 -0.44397674481321819 0 0.2477732989716441 -0.44397674481321819 0 0.2376319712165364 -0.4487231096132106 0 0.24159037534215189 -0.45471784438485152 0 0.2477732989716441 -0.44397674481321819 0 0.24159037534215189 -0.45471784438485152 0 0.2477732989716441 -0.44397674481321819 0 0.2376319712165364 -0.4487231096132106 0 0.24159037534215189 -0.45471784438485152 0 0.2376319712165364 -0.4487231096132106 0 0.2376319712165364 -0.4487231096132106 0 0.23030703128088109 -0.4376299845206349 0 0.22080344960052009 -0.45659922845711148 0 0.2376319712165364 -0.4487231096132106 0 0.22656537902157489 -0.4471289448821863 0 0.23030703128088109 -0.4376299845206349 0 0.22656537902157489 -0.4471289448821863 0 0.2240758720208659 -0.44031909704670952 0 0.2376319712165364 -0.4487231096132106 0 0.23030703128088109 -0.4376299845206349 0 0.22656537902157489 -0.4471289448821863 0 0.22080344960052009 -0.45659922845711148 0 0.2376319712165364 -0.4487231096132106 0 0.22080344960052009 -0.45659922845711148 0 0.22656537902157489 -0.4471289448821863 0 0.21544219972079559 -0.44204797816988067 0 0.2240758720208659 -0.44031909704670952 0 0.21544219972079559 -0.44204797816988067 0 0.22735566035906909 -0.43212067537331011 0 0.22656537902157489 -0.4471289448821863 0 0.2240758720208659 -0.44031909704670952 0 0.21544219972079559 -0.44204797816988067 0 0.21544219972079559 -0.44204797816988067 0 0.2073329635526972 -0.45176519210924959 0 0.19921671642041461 -0.44081240723241838 0 0.22080344960052009 -0.45659922845711148 0 0.21544219972079559 -0.44204797816988067 0 0.2073329635526972 -0.45176519210924959 0 0.22080344960052009 -0.45659922845711148 0 0.20983110277745959 -0.46589625036785659 0 0.20392214812829379 -0.46474663189054372 0 0.22080344960052009 -0.45659922845711148 0 0.20392214812829379 -0.46474663189054372 0 0.22080344960052009 -0.45659922845711148 0 0.2073329635526972 -0.45176519210924959 0 0.20392214812829379 -0.46474663189054372 0 0.20047489497967641 -0.46924756139533819 0 0.20983110277745959 -0.46589625036785659 0 0.20392214812829379 -0.46474663189054372 0 0.20983110277745959 -0.46589625036785659 0 0.20392214812829379 -0.46474663189054372 0 0.20392214812829379 -0.46474663189054372 0 0.1870570053939955 -0.4614654288925471 0 0.20047489497967641 -0.46924756139533819 0 0.20392214812829379 -0.46474663189054372 0 0.1870570053939955 -0.4614654288925471 0 0.2073329635526972 -0.45176519210924959 0 0.20392214812829379 -0.46474663189054372 0 0.19534549943004051 -0.45235162286799602 0 0.20392214812829379 -0.46474663189054372 0 0.19534549943004051 -0.45235162286799602 0 0.1870570053939955 -0.4614654288925471 0 0.19534549943004051 -0.45235162286799602 0 0.18199733364190479 -0.44489112908693101 0 0.1870570053939955 -0.4614654288925471 0 0.19921671642041461 -0.44081240723241838 0 0.19534549943004051 -0.45235162286799602 0 0.18199733364190479 -0.44489112908693101 0 0.19921671642041461 -0.44081240723241838 0 0.18799461530370251 -0.42986511234237718 0 0.18199733364190479 -0.44489112908693101 0 0.2073329635526972 -0.45176519210924959 0 0.19921671642041461 -0.44081240723241838 0 0.19534549943004051 -0.45235162286799602 0 0.19921671642041461 -0.44081240723241838 0 0.18799461530370251 -0.42986511234237718 0 0.20560142098923681 -0.42258657571364239 0 0.18799461530370251 -0.42986511234237718 0 0.20560142098923681 -0.42258657571364239 0 0.18384718161940369 -0.41305247605397638 0 0.20560142098923681 -0.42258657571364239 0 0.19734602417850311 -0.40124020046404257 0 0.18384718161940369 -0.41305247605397638 0 0.20560142098923681 -0.42258657571364239 0 0.18384718161940369 -0.41305247605397638 0 0.19734602417850311 -0.40124020046404257 0 0.18384718161940369 -0.41305247605397638 0 0.21466182824521801 -0.41314319401294408 0 0.20560142098923681 -0.42258657571364239 0 0.19734602417850311 -0.40124020046404257 0 0.21544219972079559 -0.44204797816988067 0 0.19921671642041461 -0.44081240723241838 0 0.20560142098923681 -0.42258657571364239 0 0.21466182824521801 -0.41314319401294408 0 0.20560142098923681 -0.42258657571364239 0 0.22735566035906909 -0.43212067537331011 0 0.20560142098923681 -0.42258657571364239 0 0.22735566035906909 -0.43212067537331011 0 0.21544219972079559 -0.44204797816988067 0 0.20560142098923681 -0.42258657571364239 0 0.22735566035906909 -0.43212067537331011 0 0.23030703128088109 -0.4376299845206349 0 0.2240758720208659 -0.44031909704670952 0 0.22735566035906909 -0.43212067537331011 0 0.2491098997289003 -0.44165477503298112 0 0.23030703128088109 -0.4376299845206349 0 0.22735566035906909 -0.43212067537331011 0 0.2491098997289003 -0.44165477503298112 0 0.22735566035906909 -0.43212067537331011 0 0.2491098997289003 -0.44165477503298112 0 0.22735566035906909 -0.43212067537331011 0 0.24180144569219239 -0.41908298329008992 0 0.24180144569219239 -0.41908298329008992 0 0.23744688929253671 -0.40489192261241602 0 0.24831737856470751 -0.40523923600381329 0 0.24180144569219239 -0.41908298329008992 0 0.2271502647051567 -0.41033677799676771 0 0.23744688929253671 -0.40489192261241602 0 0.22735566035906909 -0.43212067537331011 0 0.24180144569219239 -0.41908298329008992 0 0.2271502647051567 -0.41033677799676771 0 0.21466182824521801 -0.41314319401294408 0 0.22735566035906909 -0.43212067537331011 0 0.2271502647051567 -0.41033677799676771 0 0.21466182824521801 -0.41314319401294408 0 0.2271502647051567 -0.41033677799676771 0 0.2158557709941244 -0.39943174051695768 0 0.22857798545322969 -0.39672923448798442 0 0.24137203115764749 -0.39349542341018828 0 0.21901347483831091 -0.38763718981856449 0 0.2271502647051567 -0.41033677799676771 0 0.22857798545322969 -0.39672923448798442 0 0.2158557709941244 -0.39943174051695768 0 0.22857798545322969 -0.39672923448798442 0 0.21901347483831091 -0.38763718981856449 0 0.2158557709941244 -0.39943174051695768 0 0.2271502647051567 -0.41033677799676771 0 0.22857798545322969 -0.39672923448798442 0 0.23744688929253671 -0.40489192261241602 0 0.22857798545322969 -0.39672923448798442 0 0.23744688929253671 -0.40489192261241602 0 0.23711830066272591 -0.3985262443751913 0 0.24137203115764749 -0.39349542341018828 0 0.24604741796407301 -0.39117864681684672 0 0.21901347483831091 -0.38763718981856449 0 0.23744688929253671 -0.40489192261241602 0 0.2413572104381482 -0.39921158501295562 0 0.23711830066272591 -0.3985262443751913 0 0.22857798545322969 -0.39672923448798442 0 0.23711830066272591 -0.3985262443751913 0 0.24137203115764749 -0.39349542341018828 0 0.2413572104381482 -0.39921158501295562 0 0.23711830066272591 -0.3985262443751913 0 0.24137203115764749 -0.39349542341018828 0 0.2413572104381482 -0.39921158501295562 0 0.24137203115764749 -0.39349542341018828 0 0.2465226742300004 -0.39707615409081343 0 0.25605331583396862 -0.39248942330515091 0 0.24604741796407301 -0.39117864681684672 0 0.2465226742300004 -0.39707615409081343 0 0.24137203115764749 -0.39349542341018828 0 0.24604741796407301 -0.39117864681684672 0 0.2465226742300004 -0.39707615409081343 0 0.24137203115764749 -0.39349542341018828 0 0.24604741796407301 -0.39117864681684672 0 0.2413572104381482 -0.39921158501295562 0 0.2465226742300004 -0.39707615409081343 0 0.24831737856470751 -0.40523923600381329 0 0.23744688929253671 -0.40489192261241602 0 0.2413572104381482 -0.39921158501295562 0 0.24831737856470751 -0.40523923600381329 0 0.25281898241426859 -0.38782315931002459 0 0.22594213730313251 -0.37650846394996412 0 0.25281898241426859 -0.38782315931002459 0 0.2432684872402181 -0.3747583675775259 0 0.22594213730313251 -0.37650846394996412 0 0.25281898241426859 -0.38782315931002459 0 0.24604741796407301 -0.39117864681684672 0 0.22594213730313251 -0.37650846394996412 0 0.25281898241426859 -0.38782315931002459 0 0.24604741796407301 -0.39117864681684672 0 0.24604741796407301 -0.39117864681684672 0 0.21901347483831091 -0.38763718981856449 0 0.24604741796407301 -0.39117864681684672 0 0.22594213730313251 -0.37650846394996412 0 0.21901347483831091 -0.38763718981856449 0 0.21901347483831091 -0.38763718981856449 0 0.21084486673760211 -0.38942792487410832 0 0.1919795317125487 -0.38409573282028281 0 0.22594213730313251 -0.37650846394996412 0 0.21901347483831091 -0.38763718981856449 0 0.2064308598173506 -0.37873398967689642 0 0.21901347483831091 -0.38763718981856449 0 0.1919795317125487 -0.38409573282028281 0 0.21901347483831091 -0.38763718981856449 0 0.2064308598173506 -0.37873398967689642 0 0.1919795317125487 -0.38409573282028281 0 0.21084486673760211 -0.38942792487410832 0 0.2158557709941244 -0.39943174051695768 0 0.19734602417850311 -0.40124020046404257 0 0.21901347483831091 -0.38763718981856449 0 0.21084486673760211 -0.38942792487410832 0 0.2158557709941244 -0.39943174051695768 0 0.21466182824521801 -0.41314319401294408 0 0.2158557709941244 -0.39943174051695768 0 0.19734602417850311 -0.40124020046404257 0 0.21084486673760211 -0.38942792487410832 0 0.19734602417850311 -0.40124020046404257 0 0.19734602417850311 -0.40124020046404257 0 0.1919795317125487 -0.38409573282028281 0 0.1805244578594285 -0.39636090763527571 0 0.21084486673760211 -0.38942792487410832 0 0.19734602417850311 -0.40124020046404257 0 0.1919795317125487 -0.38409573282028281 0 0.19906529219199581 -0.36519376858990482 0 0.2064308598173506 -0.37873398967689642 0 0.1919795317125487 -0.38409573282028281 0 0.18298842207273869 -0.37091600872815061 0 0.1919795317125487 -0.38409573282028281 0 0.1687204173055511 -0.38049546027256931 0 0.1919795317125487 -0.38409573282028281 0 0.1805244578594285 -0.39636090763527571 0 0.1687204173055511 -0.38049546027256931 0 0.19734602417850311 -0.40124020046404257 0 0.1805244578594285 -0.39636090763527571 0 0.18384718161940369 -0.41305247605397638 0 0.1805244578594285 -0.39636090763527571 0 0.16072913448113541 -0.40292066856550868 0 0.18384718161940369 -0.41305247605397638 0 0.1805244578594285 -0.39636090763527571 0 0.16072913448113541 -0.40292066856550868 0 0.1687204173055511 -0.38049546027256931 0 0.15353546690445541 -0.36481351693216441 0 0.1687204173055511 -0.38049546027256931 0 0.13761108734286651 -0.39278886107704258 0 0.13761108734286651 -0.39278886107704258 0 0.1144930402045975 -0.38265705358857649 0 0.1334576568725144 -0.36734337666316108 0 0.13761108734286651 -0.39278886107704258 0 0.1144930402045975 -0.38265705358857649 0 0.13761108734286651 -0.39278886107704258 0 0.141646280669356 -0.41282192646735122 0 0.1225009137537366 -0.39774160736604708 0 0.16072913448113541 -0.40292066856550868 0 0.13761108734286651 -0.39278886107704258 0 0.16072913448113541 -0.40292066856550868 0 0.1687204173055511 -0.38049546027256931 0 0.13761108734286651 -0.39278886107704258 0 0.16072913448113541 -0.40292066856550868 0 0.13761108734286651 -0.39278886107704258 0 0.141646280669356 -0.41282192646735122 0 0.16072913448113541 -0.40292066856550868 0 0.141646280669356 -0.41282192646735122 0 0.1638742152238559 -0.43052998809842158 0 0.141646280669356 -0.41282192646735122 0 0.1229767033134104 -0.42032274230646832 0 0.1225009137537366 -0.39774160736604708 0 0.141646280669356 -0.41282192646735122 0 0.13820776455017991 -0.43111377026825298 0 0.1229767033134104 -0.42032274230646832 0 0.13820776455017991 -0.43111377026825298 0 0.1234524928730841 -0.44290387724688929 0 0.1229767033134104 -0.42032274230646832 0 0.13820776455017991 -0.43111377026825298 0 0.1638742152238559 -0.43052998809842158 0 0.14390124882830749 -0.44800750014286622 0 0.141646280669356 -0.41282192646735122 0 0.13820776455017991 -0.43111377026825298 0 0.1638742152238559 -0.43052998809842158 0 0.16072913448113541 -0.40292066856550868 0 0.1638742152238559 -0.43052998809842158 0 0.18384718161940369 -0.41305247605397638 0 0.16072913448113541 -0.40292066856550868 0 0.18384718161940369 -0.41305247605397638 0 0.1638742152238559 -0.43052998809842158 0 0.18384718161940369 -0.41305247605397638 0 0.18799461530370251 -0.42986511234237718 0 0.1638742152238559 -0.43052998809842158 0 0.18199733364190479 -0.44489112908693101 0 0.18799461530370251 -0.42986511234237718 0 0.1638742152238559 -0.43052998809842158 0 0.18384718161940369 -0.41305247605397638 0 0.18199733364190479 -0.44489112908693101 0 0.1870570053939955 -0.4614654288925471 0 0.16420688624010271 -0.45881617978036932 0 0.1870570053939955 -0.4614654288925471 0 0.16420688624010271 -0.45881617978036932 0 0.17566152260556811 -0.4787645574572737 0 0.1638742152238559 -0.43052998809842158 0 0.18199733364190479 -0.44489112908693101 0 0.16420688624010271 -0.45881617978036932 0 0.1638742152238559 -0.43052998809842158 0 0.16420688624010271 -0.45881617978036932 0 0.14390124882830749 -0.44800750014286622 0 0.1638742152238559 -0.43052998809842158 0 0.14390124882830749 -0.44800750014286622 0 0.14390124882830749 -0.44800750014286622 0 0.1239282824327588 -0.46548501218731042 0 0.1234524928730841 -0.44290387724688929 0 0.13820776455017991 -0.43111377026825298 0 0.14390124882830749 -0.44800750014286622 0 0.1234524928730841 -0.44290387724688929 0 0.14390124882830749 -0.44800750014286622 0 0.1239282824327588 -0.46548501218731042 0 0.14390124882830749 -0.44800750014286622 0 0.14430180113158239 -0.46839055337666402 0 0.1239282824327588 -0.46548501218731042 0 0.16420688624010271 -0.45881617978036932 0 0.14430180113158239 -0.46839055337666402 0 0.1579837024111293 -0.47439764629431108 0 0.16420688624010271 -0.45881617978036932 0 0.14390124882830749 -0.44800750014286622 0 0.14430180113158239 -0.46839055337666402 0 0.14430180113158239 -0.46839055337666402 0 0.14469107980833881 -0.47883227064168798 0 0.1579837024111293 -0.47439764629431108 0 0.14469107980833881 -0.47883227064168798 0 0.15084815023146 -0.4882815535192091 0 0.1579837024111293 -0.47439764629431108 0 0.14469107980833881 -0.47883227064168798 0 0.13584832944069569 -0.48566368407583238 0 0.15084815023146 -0.4882815535192091 0 0.14430180113158239 -0.46839055337666402 0 0.14469107980833881 -0.47883227064168798 0 0.13447341582682679 -0.47742791594242318 0 0.14430180113158239 -0.46839055337666402 0 0.13447341582682679 -0.47742791594242318 0 0.1239282824327588 -0.46548501218731042 0 0.13447341582682679 -0.47742791594242318 0 0.1242919016861052 -0.48274250609365499 0 0.1239282824327588 -0.46548501218731042 0 0.14469107980833881 -0.47883227064168798 0 0.13447341582682679 -0.47742791594242318 0 0.13584832944069569 -0.48566368407583238 0 0.13447341582682679 -0.47742791594242318 0 0.13584832944069569 -0.48566368407583238 0 0.1242919016861052 -0.48274250609365499 0 0.1260347778573519 -0.49779854958114461 0 0.15084815023146 -0.4882815535192091 0 0.1260347778573519 -0.49779854958114461 0 0.14737276692710191 -0.5 0 0.1246555209394526 -0.49999999999999939 0 0.1260347778573519 -0.49779854958114461 0 0.13584832944069569 -0.48566368407583238 0 0.15084815023146 -0.4882815535192091 0 0.1260347778573519 -0.49779854958114461 0 0.13584832944069569 -0.48566368407583238 0 0.1242919016861052 -0.48274250609365499 0 0.14737276692710191 -0.5 0 0.15084815023146 -0.4882815535192091 0 0.1700900129147512 -0.5 0 0.1260347778573519 -0.49779854958114461 0 0.14737276692710191 -0.5 0 0.15084815023146 -0.4882815535192091 0 0.15084815023146 -0.4882815535192091 0 0.1700900129147512 -0.5 0 0.17566152260556811 -0.4787645574572737 0 0.15084815023146 -0.4882815535192091 0 0.17566152260556811 -0.4787645574572737 0 0.15084815023146 -0.4882815535192091 0 0.1579837024111293 -0.47439764629431108 0 0.17566152260556811 -0.4787645574572737 0 0.16420688624010271 -0.45881617978036932 0 0.1579837024111293 -0.47439764629431108 0 0.17566152260556811 -0.4787645574572737 0 0.1928072589024005 -0.5 0 0.1700900129147512 -0.5 0 0.17566152260556811 -0.4787645574572737 0 0.068241918825496628 -0.48411685640401447 0 0.084485214679597562 -0.50000000000000333 0 0.062080533161057772 -0.5 0 0.068241918825496628 -0.48411685640401447 0 0.082611612746588084 -0.47259146401213048 0 0.059698997509378918 -0.46938169559242082 0 0.068241918825496628 -0.48411685640401447 0 0.082611612746588084 -0.47259146401213048 0 0.084485214679597562 -0.50000000000000333 0 0.082611612746588084 -0.47259146401213048 0 0.084485214679597562 -0.50000000000000333 0 0.1042067485561792 -0.48274250609365799 0 0.1045703678095251 -0.5 0 0.11443113474781549 -0.4913712530468281 0 0.1042067485561792 -0.48274250609365799 0 0.084485214679597562 -0.50000000000000333 0 0.1042067485561792 -0.48274250609365799 0 0.084485214679597562 -0.50000000000000333 0 0.1045703678095251 -0.5 0 0.1042067485561792 -0.48274250609365799 0 0.1246555209394526 -0.49999999999999939 0 0.1242919016861052 -0.48274250609365499 0 0.11443113474781549 -0.4913712530468281 0 0.1242919016861052 -0.48274250609365499 0 0.1042067485561792 -0.48274250609365799 0 0.1260347778573519 -0.49779854958114461 0 0.1246555209394526 -0.49999999999999939 0 0.1242919016861052 -0.48274250609365499 0 0.1045703678095251 -0.5 0 0.11443113474781549 -0.4913712530468281 0 0.1246555209394526 -0.49999999999999939 0 0.11443113474781549 -0.4913712530468281 0 0.1246555209394526 -0.49999999999999939 0 0.1242919016861052 -0.48274250609365499 0 0.1242919016861052 -0.48274250609365499 0 0.1239282824327588 -0.46548501218731042 0 0.1042067485561792 -0.48274250609365799 0 0.1239282824327588 -0.46548501218731042 0 0.1242919016861052 -0.48274250609365499 0 0.1042067485561792 -0.48274250609365799 0 0.1239282824327588 -0.46548501218731042 0 0.082611612746588084 -0.47259146401213048 0 0.1042067485561792 -0.48274250609365799 0 0.1030187111308361 -0.4574206208573286 0 0.1239282824327588 -0.46548501218731042 0 0.1234524928730841 -0.44290387724688929 0 0.1030187111308361 -0.4574206208573286 0 0.1239282824327588 -0.46548501218731042 0 0.1234524928730841 -0.44290387724688929 0 0.1042067485561792 -0.48274250609365799 0 0.1030187111308361 -0.4574206208573286 0 0.1239282824327588 -0.46548501218731042 0 0.1030187111308361 -0.4574206208573286 0 0.1234524928730841 -0.44290387724688929 0 0.1009340411971798 -0.43231724830061302 0 0.1030187111308361 -0.4574206208573286 0 0.082979088979226429 -0.44848361730337022 0 0.1009340411971798 -0.43231724830061302 0 0.082611612746588084 -0.47259146401213048 0 0.082979088979226429 -0.44848361730337022 0 0.069321746217141295 -0.45705807525833142 0 0.082611612746588084 -0.47259146401213048 0 0.1030187111308361 -0.4574206208573286 0 0.082979088979226429 -0.44848361730337022 0 0.082611612746588084 -0.47259146401213048 0 0.069321746217141295 -0.45705807525833142 0 0.059698997509378918 -0.46938169559242082 0 0.069321746217141295 -0.45705807525833142 0 0.067582041204123616 -0.44022503190574003 0 0.053892216630821208 -0.45354442811940449 0 0.082979088979226429 -0.44848361730337022 0 0.067582041204123616 -0.44022503190574003 0 0.082480004830520912 -0.43157518689135771 0 0.082979088979226429 -0.44848361730337022 0 0.069321746217141295 -0.45705807525833142 0 0.067582041204123616 -0.44022503190574003 0 0.067582041204123616 -0.44022503190574003 0 0.0724774966405346 -0.4222573561562149 0 0.082480004830520912 -0.43157518689135771 0 0.067582041204123616 -0.44022503190574003 0 0.0724774966405346 -0.4222573561562149 0 0.060794025943731463 -0.42732489045700239 0 0.0724774966405346 -0.4222573561562149 0 0.060355428887312219 -0.41152099288300509 0 0.060794025943731463 -0.42732489045700239 0 0.0724774966405346 -0.4222573561562149 0 0.074004970814653293 -0.40766809642942198 0 0.060355428887312219 -0.41152099288300509 0 0.0724774966405346 -0.4222573561562149 0 0.074004970814653293 -0.40766809642942198 0 0.088427356131540097 -0.41459268079084999 0 0.082979088979226429 -0.44848361730337022 0 0.082480004830520912 -0.43157518689135771 0 0.1009340411971798 -0.43231724830061302 0 0.088427356131540097 -0.41459268079084999 0 0.082480004830520912 -0.43157518689135771 0 0.1009340411971798 -0.43231724830061302 0 0.0724774966405346 -0.4222573561562149 0 0.088427356131540097 -0.41459268079084999 0 0.082480004830520912 -0.43157518689135771 0 0.1009340411971798 -0.43231724830061302 0 0.1229767033134104 -0.42032274230646832 0 0.10288227790137219 -0.41555923542451989 0 0.1234524928730841 -0.44290387724688929 0 0.1009340411971798 -0.43231724830061302 0 0.1229767033134104 -0.42032274230646832 0 0.1234524928730841 -0.44290387724688929 0 0.1229767033134104 -0.42032274230646832 0 0.11274961362169621 -0.40752858603981712 0 0.1229767033134104 -0.42032274230646832 0 0.10288227790137219 -0.41555923542451989 0 0.1229767033134104 -0.42032274230646832 0 0.1225009137537366 -0.39774160736604708 0 0.11274961362169621 -0.40752858603981712 0 0.1229767033134104 -0.42032274230646832 0 0.1225009137537366 -0.39774160736604708 0 0.088427356131540097 -0.41459268079084999 0 0.1009340411971798 -0.43231724830061302 0 0.10288227790137219 -0.41555923542451989 0 0.11274961362169621 -0.40752858603981712 0 0.10288227790137219 -0.41555923542451989 0 0.1024905652497286 -0.39763065736549641 0 0.088427356131540097 -0.41459268079084999 0 0.10288227790137219 -0.41555923542451989 0 0.1024905652497286 -0.39763065736549641 0 0.11274961362169621 -0.40752858603981712 0 0.1024905652497286 -0.39763065736549641 0 0.1225009137537366 -0.39774160736604708 0 0.13761108734286651 -0.39278886107704258 0 0.1225009137537366 -0.39774160736604708 0 0.1144930402045975 -0.38265705358857649 0 0.1024905652497286 -0.39763065736549641 0 0.1225009137537366 -0.39774160736604708 0 0.1144930402045975 -0.38265705358857649 0 0.1144930402045975 -0.38265705358857649 0 0.091374993066328458 -0.3725252461001104 0 0.1024905652497286 -0.39763065736549641 0 0.1144930402045975 -0.38265705358857649 0 0.091374993066328458 -0.3725252461001104 0 0.1024905652497286 -0.39763065736549641 0 0.083428398059003955 -0.39448806637310951 0 0.091374993066328458 -0.3725252461001104 0 0.083428398059003955 -0.39448806637310951 0 0.074126490528669708 -0.3810357822965933 0 0.091374993066328458 -0.3725252461001104 0 0.074126490528669708 -0.3810357822965933 0 0.091374993066328458 -0.3725252461001104 0 0.070476203138644583 -0.37193989048341669 0 0.088427356131540097 -0.41459268079084999 0 0.1024905652497286 -0.39763065736549641 0 0.083428398059003955 -0.39448806637310951 0 0.074004970814653293 -0.40766809642942198 0 0.088427356131540097 -0.41459268079084999 0 0.083428398059003955 -0.39448806637310951 0 0.074004970814653293 -0.40766809642942198 0 0.066910266128499402 -0.39587498563608903 0 0.060355428887312219 -0.41152099288300509 0 0.074004970814653293 -0.40766809642942198 0 0.083428398059003955 -0.39448806637310951 0 0.066910266128499402 -0.39587498563608903 0 0.083428398059003955 -0.39448806637310951 0 0.066910266128499402 -0.39587498563608903 0 0.074126490528669708 -0.3810357822965933 0 0.066910266128499402 -0.39587498563608903 0 0.074126490528669708 -0.3810357822965933 0 0.056152256193627827 -0.38561788606827802 0 0.074126490528669708 -0.3810357822965933 0 0.056152256193627827 -0.38561788606827802 0 0.060686833499801411 -0.37146230490899262 0 0.056152256193627827 -0.38561788606827802 0 0.043208939861749812 -0.40441648592375279 0 0.044233222027100921 -0.37673647323923198 0 0.056152256193627827 -0.38561788606827802 0 0.044233222027100921 -0.37673647323923198 0 0.060686833499801411 -0.37146230490899262 0 0.056152256193627827 -0.38561788606827802 0 0.056656722767797318 -0.39935758762778117 0 0.043208939861749812 -0.40441648592375279 0 0.066910266128499402 -0.39587498563608903 0 0.056152256193627827 -0.38561788606827802 0 0.056656722767797318 -0.39935758762778117 0 0.066910266128499402 -0.39587498563608903 0 0.056656722767797318 -0.39935758762778117 0 0.060355428887312219 -0.41152099288300509 0 0.056656722767797318 -0.39935758762778117 0 0.043208939861749812 -0.40441648592375279 0 0.060355428887312219 -0.41152099288300509 0 0.043208939861749812 -0.40441648592375279 0 0.044233222027100921 -0.37673647323923198 0 0.03008237540444398 -0.39549577314692858 0 0.043208939861749812 -0.40441648592375279 0 0.03008237540444398 -0.39549577314692858 0 0.031547774565697351 -0.40644807632678898 0 0.044233222027100921 -0.37673647323923198 0 0.02421358875389212 -0.38315372187596553 0 0.03008237540444398 -0.39549577314692858 0 0.044233222027100921 -0.37673647323923198 0 0.02421358875389212 -0.38315372187596553 0 0.043208939861749812 -0.40441648592375279 0 0.044233222027100921 -0.37673647323923198 0 0.044233222027100921 -0.37673647323923198 0 0.040577722158604217 -0.37666825725092068 0 0.02421358875389212 -0.38315372187596553 0 0.040577722158604217 -0.37666825725092068 0 0.02421358875389212 -0.38315372187596553 0 0.029676008360573811 -0.37304877221119881 0 0.02421358875389212 -0.38315372187596553 0 0.0041939554806844116 -0.38957097051270262 0 0.018499833625369319 -0.39321557925230638 0 0.02421358875389212 -0.38315372187596553 0 0.0076842696074928066 -0.37577012380638192 0 0.01540667747605797 -0.37214245514119271 0 0.02421358875389212 -0.38315372187596553 0 0.02260251740774721 -0.36929925179791162 0 0.029676008360573811 -0.37304877221119881 0 0.02421358875389212 -0.38315372187596553 0 0.018499833625369319 -0.39321557925230638 0 0.03008237540444398 -0.39549577314692858 0 0.0027496584346183182 -0.38805443786178262 0 0.0076842696074928066 -0.37577012380638192 0 0.00065337166189073257 -0.37156093050329603 0 0.0027496584346183182 -0.38805443786178262 0 0.00065337166189073257 -0.37156093050329603 0 -0.0018100324986049449 -0.37915965720735212 0 0.0027496584346183182 -0.38805443786178262 0 0.00065337166189073257 -0.37156093050329603 0 0.02421358875389212 -0.38315372187596553 0 0.0041939554806844116 -0.38957097051270262 0 0.0076842696074928066 -0.37577012380638192 0 0.02421358875389212 -0.38315372187596553 0 0.0041939554806844116 -0.38957097051270262 0 0.0041939554806844116 -0.38957097051270262 0 0.0027496584346183182 -0.38805443786178262 0 0.0076842696074928066 -0.37577012380638192 0 0.0041939554806844116 -0.38957097051270262 0 0.0027496584346183182 -0.38805443786178262 0 0.0041939554806844116 -0.38957097051270262 0 0.019031246159093049 -0.40515033891639268 0 0.0061376548268578923 -0.41471106907891653 0 -0.0047464050549406306 -0.40351715614234662 0 0.0041939554806844116 -0.38957097051270262 0 0.0061376548268578923 -0.41471106907891653 0 0.0041939554806844116 -0.38957097051270262 0 0.0061376548268578923 -0.41471106907891653 0 0.0041939554806844116 -0.38957097051270262 0 0.019031246159093049 -0.40515033891639268 0 0.0041939554806844116 -0.38957097051270262 0 0.019031246159093049 -0.40515033891639268 0 0.018499833625369319 -0.39321557925230638 0 0.019031246159093049 -0.40515033891639268 0 0.018499833625369319 -0.39321557925230638 0 0.03008237540444398 -0.39549577314692858 0 0.019031246159093049 -0.40515033891639268 0 0.03008237540444398 -0.39549577314692858 0 0.031547774565697351 -0.40644807632678898 0 0.019031246159093049 -0.40515033891639268 0 0.033868536837502558 -0.42072970732008202 0 0.031547774565697351 -0.40644807632678898 0 0.019031246159093049 -0.40515033891639268 0 0.033868536837502558 -0.42072970732008202 0 0.019031246159093049 -0.40515033891639268 0 0.018711757312224419 -0.42459682780592511 0 0.033868536837502558 -0.42072970732008202 0 0.019031246159093049 -0.40515033891639268 0 0.0061376548268578923 -0.41471106907891653 0 0.018711757312224419 -0.42459682780592511 0 0.0061376548268578923 -0.41471106907891653 0 0.0092839102205797275 -0.43946569099571309 0 -0.0091407789890462932 -0.42347339928148231 0 0.0061376548268578923 -0.41471106907891653 0 0.0092839102205797275 -0.43946569099571309 0 0.0061376548268578923 -0.41471106907891653 0 0.018711757312224419 -0.42459682780592511 0 0.0092839102205797275 -0.43946569099571309 0 0.018711757312224419 -0.42459682780592511 0 0.028414524774147319 -0.43292376902742008 0 0.0092839102205797275 -0.43946569099571309 0 0.018711757312224419 -0.42459682780592511 0 0.028414524774147319 -0.43292376902742008 0 0.033868536837502558 -0.42072970732008202 0 0.042184657696397371 -0.43209649860827359 0 0.050869050522879072 -0.422720575748184 0 0.028414524774147319 -0.43292376902742008 0 0.042184657696397371 -0.43209649860827359 0 0.033868536837502558 -0.42072970732008202 0 0.043208939861749812 -0.40441648592375279 0 0.042184657696397371 -0.43209649860827359 0 0.043208939861749812 -0.40441648592375279 0 0.033868536837502558 -0.42072970732008202 0 0.031547774565697351 -0.40644807632678898 0 0.043208939861749812 -0.40441648592375279 0 0.042184657696397371 -0.43209649860827359 0 0.050869050522879072 -0.422720575748184 0 0.043208939861749812 -0.40441648592375279 0 0.042184657696397371 -0.43209649860827359 0 0.033868536837502558 -0.42072970732008202 0 0.060355428887312219 -0.41152099288300509 0 0.060794025943731463 -0.42732489045700239 0 0.050869050522879072 -0.422720575748184 0 0.043208939861749812 -0.40441648592375279 0 0.060355428887312219 -0.41152099288300509 0 0.050869050522879072 -0.422720575748184 0 0.060794025943731463 -0.42732489045700239 0 0.052834173441298933 -0.43684815007378819 0 0.050869050522879072 -0.422720575748184 0 0.067582041204123616 -0.44022503190574003 0 0.060794025943731463 -0.42732489045700239 0 0.052834173441298933 -0.43684815007378819 0 0.042184657696397371 -0.43209649860827359 0 0.052834173441298933 -0.43684815007378819 0 0.050869050522879072 -0.422720575748184 0 0.052834173441298933 -0.43684815007378819 0 0.053892216630821208 -0.45354442811940449 0 0.041757079138585403 -0.44365130284508453 0 0.067582041204123616 -0.44022503190574003 0 0.052834173441298933 -0.43684815007378819 0 0.053892216630821208 -0.45354442811940449 0 0.046941103239344348 -0.46586409556514019 0 0.053892216630821208 -0.45354442811940449 0 0.059698997509378918 -0.46938169559242082 0 0.069321746217141295 -0.45705807525833142 0 0.053892216630821208 -0.45354442811940449 0 0.059698997509378918 -0.46938169559242082 0 0.046941103239344348 -0.46586409556514019 0 0.053892216630821208 -0.45354442811940449 0 0.040787388908065082 -0.45646246558822567 0 0.040787388908065082 -0.45646246558822567 0 0.034557686038241928 -0.46842939993993787 0 0.02730741165534372 -0.4481584057603889 0 0.046941103239344348 -0.46586409556514019 0 0.040787388908065082 -0.45646246558822567 0 0.034557686038241928 -0.46842939993993787 0 0.040787388908065082 -0.45646246558822567 0 0.041757079138585403 -0.44365130284508453 0 0.02730741165534372 -0.4481584057603889 0 0.028414524774147319 -0.43292376902742008 0 0.042184657696397371 -0.43209649860827359 0 0.02730741165534372 -0.4481584057603889 0 0.042184657696397371 -0.43209649860827359 0 0.02730741165534372 -0.4481584057603889 0 0.042184657696397371 -0.43209649860827359 0 0.041757079138585403 -0.44365130284508453 0 0.02730741165534372 -0.4481584057603889 0 0.053892216630821208 -0.45354442811940449 0 0.040787388908065082 -0.45646246558822567 0 0.041757079138585403 -0.44365130284508453 0 0.042184657696397371 -0.43209649860827359 0 0.052834173441298933 -0.43684815007378819 0 0.041757079138585403 -0.44365130284508453 0 0.042184657696397371 -0.43209649860827359 0 0.041757079138585403 -0.44365130284508453 0 0.02730741165534372 -0.4481584057603889 0 0.0092839102205797275 -0.43946569099571309 0 0.0124301656142967 -0.46422031291251031 0 0.028414524774147319 -0.43292376902742008 0 0.02730741165534372 -0.4481584057603889 0 0.0092839102205797275 -0.43946569099571309 0 -0.0095398701285203391 -0.45199838458689112 0 0.0092839102205797275 -0.43946569099571309 0 0.0124301656142967 -0.46422031291251031 0 0.0092839102205797275 -0.43946569099571309 0 0.0124301656142967 -0.46422031291251031 0 -0.0095398701285203391 -0.45199838458689112 0 0.0124301656142967 -0.46422031291251031 0 0.0079502112514302607 -0.46905700182815052 0 0.0124301656142967 -0.46422031291251031 0 0.0079502112514302607 -0.46905700182815052 0 0.02730741165534372 -0.4481584057603889 0 0.0124301656142967 -0.46422031291251031 0 0.02730741165534372 -0.4481584057603889 0 0.0124301656142967 -0.46422031291251031 0 0.02295638175001485 -0.46858036516352791 0 0.034557686038241928 -0.46842939993993787 0 0.02730741165534372 -0.4481584057603889 0 0.02295638175001485 -0.46858036516352791 0 0.034557686038241928 -0.46842939993993787 0 0.02295638175001485 -0.46858036516352791 0 0.026720832361569871 -0.48736456906826758 0 0.02295638175001485 -0.46858036516352791 0 0.01376581308062028 -0.47472913813653472 0 0.026720832361569871 -0.48736456906826758 0 0.01376581308062028 -0.47472913813653472 0 0.026720832361569871 -0.48736456906826758 0 0.0124301656142967 -0.46422031291251031 0 0.02295638175001485 -0.46858036516352791 0 0.01376581308062028 -0.47472913813653472 0 0.0124301656142967 -0.46422031291251031 0 0.0079502112514302607 -0.46905700182815052 0 0.01376581308062028 -0.47472913813653472 0 -0.0033431163747408531 -0.48124960651246851 0 0.01376581308062028 -0.47472913813653472 0 0.0065593234316104216 -0.48899468616224923 0 0.0124301656142967 -0.46422031291251031 0 0.01376581308062028 -0.47472913813653472 0 -0.0033431163747408531 -0.48124960651246851 0 0.0079502112514302607 -0.46905700182815052 0 0.01376581308062028 -0.47472913813653472 0 0.0079502112514302607 -0.46905700182815052 0 0.01376581308062028 -0.47472913813653472 0 -0.0033431163747408531 -0.48124960651246851 0 0.0079502112514302607 -0.46905700182815052 0 0.01376581308062028 -0.47472913813653472 0 0.016977681381782121 -0.49999999999999312 0 0.01376581308062028 -0.47472913813653472 0 0.0065593234316104216 -0.48899468616224923 0 0.016977681381782121 -0.49999999999999312 0 -0.0011630843612175921 -0.5 0 -0.0033431163747408531 -0.48124960651246851 0 0.0065593234316104216 -0.48899468616224923 0 -0.0011630843612175921 -0.5 0 0.0065593234316104216 -0.48899468616224923 0 0.016977681381782121 -0.49999999999999312 0 0.01376581308062028 -0.47472913813653472 0 0.016977681381782121 -0.49999999999999312 0 0.026720832361569871 -0.48736456906826758 0 0.016977681381782121 -0.49999999999999312 0 0.026720832361569871 -0.48736456906826758 0 0.039675851642517863 -0.50000000000000222 0 0.026720832361569871 -0.48736456906826758 0 0.039675851642517863 -0.50000000000000222 0 0.026720832361569871 -0.48736456906826758 0 0.039675851642517863 -0.50000000000000222 0 0.045769227110214618 -0.4815024885857121 0 0.034557686038241928 -0.46842939993993787 0 0.026720832361569871 -0.48736456906826758 0 0.045769227110214618 -0.4815024885857121 0 0.046941103239344348 -0.46586409556514019 0 0.034557686038241928 -0.46842939993993787 0 0.045769227110214618 -0.4815024885857121 0 0.068241918825496628 -0.48411685640401447 0 0.045769227110214618 -0.4815024885857121 0 0.059698997509378918 -0.46938169559242082 0 0.046941103239344348 -0.46586409556514019 0 0.045769227110214618 -0.4815024885857121 0 0.059698997509378918 -0.46938169559242082 0 0.039675851642517863 -0.50000000000000222 0 0.045769227110214618 -0.4815024885857121 0 0.062080533161057772 -0.5 0 0.068241918825496628 -0.48411685640401447 0 0.045769227110214618 -0.4815024885857121 0 0.062080533161057772 -0.5 0 0.077131942376116147 -0.30204355696079072 0 0.067780811587607057 -0.28372198045081959 0 0.094946381541846148 -0.29155577518610659 0 0.077131942376116147 -0.30204355696079072 0 0.094946381541846148 -0.29155577518610659 0 0.096035701395516482 -0.31903277938797869 0 0.077131942376116147 -0.30204355696079072 0 0.071845440756318601 -0.32091801216652299 0 0.052989109742092907 -0.30120774425928232 0 0.077131942376116147 -0.30204355696079072 0 0.067780811587607057 -0.28372198045081959 0 0.052989109742092907 -0.30120774425928232 0 0.067780811587607057 -0.28372198045081959 0 0.064743005473060042 -0.26615297314853942 0 0.058726578274061067 -0.27673115848829982 0 0.067780811587607057 -0.28372198045081959 0 0.082572513433121358 -0.26623621664235703 0 0.067780811587607057 -0.28372198045081959 0 0.064743005473060042 -0.26615297314853942 0 0.082572513433121358 -0.26623621664235703 0 0.064743005473060042 -0.26615297314853942 0 0.082572513433121358 -0.26623621664235703 0 0.076890590294862421 -0.2411056895388187 0 0.064743005473060042 -0.26615297314853942 0 0.052891795375796517 -0.25211429193864299 0 0.076890590294862421 -0.2411056895388187 0 0.082572513433121358 -0.26623621664235703 0 0.076890590294862421 -0.2411056895388187 0 0.09736421527863566 -0.24875045283389441 0 0.082572513433121358 -0.26623621664235703 0 0.09736421527863566 -0.24875045283389441 0 0.067780811587607057 -0.28372198045081959 0 0.082572513433121358 -0.26623621664235703 0 0.094946381541846148 -0.29155577518610659 0 0.082572513433121358 -0.26623621664235703 0 0.1032627861336944 -0.27200341917754622 0 0.094946381541846148 -0.29155577518610659 0 0.1032627861336944 -0.27200341917754622 0 0.1208519130951949 -0.25967578265474978 0 0.09736421527863566 -0.24875045283389441 0 0.082572513433121358 -0.26623621664235703 0 0.1032627861336944 -0.27200341917754622 0 0.09736421527863566 -0.24875045283389441 0 0.1032627861336944 -0.27200341917754622 0 0.1208519130951949 -0.25967578265474978 0 0.1214680764032728 -0.28799396244537362 0 0.1032627861336944 -0.27200341917754622 0 0.1214680764032728 -0.28799396244537362 0 0.094946381541846148 -0.29155577518610659 0 0.1214680764032728 -0.28799396244537362 0 0.094946381541846148 -0.29155577518610659 0 0.1105547228364564 -0.30599257357122089 0 0.094946381541846148 -0.29155577518610659 0 0.1105547228364564 -0.30599257357122089 0 0.096035701395516482 -0.31903277938797869 0 0.1327557034794242 -0.31406397942508268 0 0.1214680764032728 -0.28799396244537362 0 0.1105547228364564 -0.30599257357122089 0 0.1327557034794242 -0.31406397942508268 0 0.1105547228364564 -0.30599257357122089 0 0.1148396108404251 -0.33048353453193308 0 0.1148396108404251 -0.33048353453193308 0 0.096035701395516482 -0.31903277938797869 0 0.089234146038707524 -0.34586318863383742 0 0.1105547228364564 -0.30599257357122089 0 0.1148396108404251 -0.33048353453193308 0 0.096035701395516482 -0.31903277938797869 0 0.1334576568725144 -0.36734337666316108 0 0.1144930402045975 -0.38265705358857649 0 0.1151457893227235 -0.35538430830369239 0 0.1151457893227235 -0.35538430830369239 0 0.091374993066328458 -0.3725252461001104 0 0.089234146038707524 -0.34586318863383742 0 0.1148396108404251 -0.33048353453193308 0 0.1151457893227235 -0.35538430830369239 0 0.089234146038707524 -0.34586318863383742 0 0.1144930402045975 -0.38265705358857649 0 0.1151457893227235 -0.35538430830369239 0 0.091374993066328458 -0.3725252461001104 0 0.091374993066328458 -0.3725252461001104 0 0.089234146038707524 -0.34586318863383742 0 0.06825694592805942 -0.36239343861164419 0 0.091374993066328458 -0.3725252461001104 0 0.06825694592805942 -0.36239343861164419 0 0.089234146038707524 -0.34586318863383742 0 0.06825694592805942 -0.36239343861164419 0 0.061737014902558403 -0.34250403441755251 0 0.091374993066328458 -0.3725252461001104 0 0.06825694592805942 -0.36239343861164419 0 0.070476203138644583 -0.37193989048341669 0 0.074126490528669708 -0.3810357822965933 0 0.070476203138644583 -0.37193989048341669 0 0.060686833499801411 -0.37146230490899262 0 0.06825694592805942 -0.36239343861164419 0 0.070476203138644583 -0.37193989048341669 0 0.060686833499801411 -0.37146230490899262 0 0.077131942376116147 -0.30204355696079072 0 0.096035701395516482 -0.31903277938797869 0 0.071845440756318601 -0.32091801216652299 0 0.096035701395516482 -0.31903277938797869 0 0.089234146038707524 -0.34586318863383742 0 0.071845440756318601 -0.32091801216652299 0 0.089234146038707524 -0.34586318863383742 0 0.071845440756318601 -0.32091801216652299 0 0.061737014902558403 -0.34250403441755251 0 0.071845440756318601 -0.32091801216652299 0 0.048808944663990529 -0.32662290425339802 0 0.052989109742092907 -0.30120774425928232 0 0.048808944663990529 -0.32662290425339802 0 0.052989109742092907 -0.30120774425928232 0 0.071845440756318601 -0.32091801216652299 0 0.048808944663990529 -0.32662290425339802 0 0.061737014902558403 -0.34250403441755251 0 0.048808944663990529 -0.32662290425339802 0 0.045009790617959913 -0.34972153938337119 0 0.048808944663990529 -0.32662290425339802 0 0.061737014902558403 -0.34250403441755251 0 0.045009790617959913 -0.34972153938337119 0 0.048808944663990529 -0.32662290425339802 0 0.036655626533974632 -0.33699996620385642 0 0.036173989476518807 -0.32108545842939867 0 0.048808944663990529 -0.32662290425339802 0 0.036655626533974632 -0.33699996620385642 0 0.045009790617959913 -0.34972153938337119 0 0.036655626533974632 -0.33699996620385642 0 0.044628779585887443 -0.35203806424751349 0 0.019358869210944801 -0.34096317259951509 0 0.048808944663990529 -0.32662290425339802 0 0.036173989476518807 -0.32108545842939867 0 0.052989109742092907 -0.30120774425928232 0 0.044233222027100921 -0.37673647323923198 0 0.060686833499801411 -0.37146230490899262 0 0.044233222027100921 -0.37673647323923198 0 0.060686833499801411 -0.37146230490899262 0 0.044628779585887443 -0.35203806424751349 0 0.06825694592805942 -0.36239343861164419 0 0.060686833499801411 -0.37146230490899262 0 0.044628779585887443 -0.35203806424751349 0 0.061737014902558403 -0.34250403441755251 0 0.045009790617959913 -0.34972153938337119 0 0.044628779585887443 -0.35203806424751349 0 0.06825694592805942 -0.36239343861164419 0 0.061737014902558403 -0.34250403441755251 0 0.044628779585887443 -0.35203806424751349 0 0.06825694592805942 -0.36239343861164419 0 0.044628779585887443 -0.35203806424751349 0 0.044628779585887443 -0.35203806424751349 0 0.033394165312498579 -0.35957155917320538 0 0.027534951741865179 -0.35361150629561688 0 0.044628779585887443 -0.35203806424751349 0 0.019358869210944801 -0.34096317259951509 0 0.036655626533974632 -0.33699996620385642 0 0.045009790617959913 -0.34972153938337119 0 0.044628779585887443 -0.35203806424751349 0 0.045009790617959913 -0.34972153938337119 0 0.044628779585887443 -0.35203806424751349 0 0.044628779585887443 -0.35203806424751349 0 0.033394165312498579 -0.35957155917320538 0 0.037687369165701402 -0.36453485844688732 0 0.040577722158604217 -0.37666825725092068 0 0.044628779585887443 -0.35203806424751349 0 0.040577722158604217 -0.37666825725092068 0 0.044628779585887443 -0.35203806424751349 0 0.037687369165701402 -0.36453485844688732 0 0.044233222027100921 -0.37673647323923198 0 0.040577722158604217 -0.37666825725092068 0 0.044628779585887443 -0.35203806424751349 0 0.044233222027100921 -0.37673647323923198 0 0.044628779585887443 -0.35203806424751349 0 0.033394165312498579 -0.35957155917320538 0 0.037687369165701402 -0.36453485844688732 0 0.030655854562728489 -0.36629906792779549 0 0.037687369165701402 -0.36453485844688732 0 0.03493509224399069 -0.37022548744946149 0 0.030655854562728489 -0.36629906792779549 0 0.040577722158604217 -0.37666825725092068 0 0.03493509224399069 -0.37022548744946149 0 0.029676008360573811 -0.37304877221119881 0 0.040577722158604217 -0.37666825725092068 0 0.037687369165701402 -0.36453485844688732 0 0.03493509224399069 -0.37022548744946149 0 0.03493509224399069 -0.37022548744946149 0 0.029676008360573811 -0.37304877221119881 0 0.030655854562728489 -0.36629906792779549 0 0.02421358875389212 -0.38315372187596553 0 0.02260251740774721 -0.36929925179791162 0 0.01540667747605797 -0.37214245514119271 0 0.02260251740774721 -0.36929925179791162 0 0.014578483197128079 -0.36420028531043769 0 0.01540667747605797 -0.37214245514119271 0 0.02260251740774721 -0.36929925179791162 0 0.029676008360573811 -0.37304877221119881 0 0.030655854562728489 -0.36629906792779549 0 0.02260251740774721 -0.36929925179791162 0 0.030655854562728489 -0.36629906792779549 0 0.025639974885859271 -0.36111447848810913 0 0.033394165312498579 -0.35957155917320538 0 0.030655854562728489 -0.36629906792779549 0 0.025639974885859271 -0.36111447848810913 0 0.025639974885859271 -0.36111447848810913 0 0.019192682991220129 -0.35566565007111178 0 0.014578483197128079 -0.36420028531043769 0 0.02260251740774721 -0.36929925179791162 0 0.025639974885859271 -0.36111447848810913 0 0.014578483197128079 -0.36420028531043769 0 0.044628779585887443 -0.35203806424751349 0 0.027534951741865179 -0.35361150629561688 0 0.019358869210944801 -0.34096317259951509 0 0.025639974885859271 -0.36111447848810913 0 0.019192682991220129 -0.35566565007111178 0 0.027534951741865179 -0.35361150629561688 0 0.033394165312498579 -0.35957155917320538 0 0.025639974885859271 -0.36111447848810913 0 0.027534951741865179 -0.35361150629561688 0 0.019192682991220129 -0.35566565007111178 0 0.009555857925397232 -0.35255163900730457 0 0.019358869210944801 -0.34096317259951509 0 0.019192682991220129 -0.35566565007111178 0 0.027534951741865179 -0.35361150629561688 0 0.019358869210944801 -0.34096317259951509 0 -0.0045683341259116954 -0.33047674109012498 0 -0.001957481232011143 -0.35101883579671062 0 0.009555857925397232 -0.35255163900730457 0 0.009555857925397232 -0.35255163900730457 0 0.019358869210944801 -0.34096317259951509 0 -0.001957481232011143 -0.35101883579671062 0 0.009555857925397232 -0.35255163900730457 0 0.0061569519932870966 -0.36152411670660323 0 0.019192682991220129 -0.35566565007111178 0 0.009555857925397232 -0.35255163900730457 0 0.014578483197128079 -0.36420028531043769 0 -0.001957481232011143 -0.35101883579671062 0 0.0061569519932870966 -0.36152411670660323 0 0.00065337166189073257 -0.37156093050329603 0 0.014578483197128079 -0.36420028531043769 0 0.0061569519932870966 -0.36152411670660323 0 0.0088959507871715273 -0.3690395822935823 0 0.009555857925397232 -0.35255163900730457 0 0.014578483197128079 -0.36420028531043769 0 0.0061569519932870966 -0.36152411670660323 0 0.0061569519932870966 -0.36152411670660323 0 0.00065337166189073257 -0.37156093050329603 0 0.0088959507871715273 -0.3690395822935823 0 0.0076842696074928066 -0.37577012380638192 0 0.00065337166189073257 -0.37156093050329603 0 0.0088959507871715273 -0.3690395822935823 0 0.0076842696074928066 -0.37577012380638192 0 0.00065337166189073257 -0.37156093050329603 0 0.014578483197128079 -0.36420028531043769 0 0.0088959507871715273 -0.3690395822935823 0 0.01540667747605797 -0.37214245514119271 0 0.0076842696074928066 -0.37577012380638192 0 0.0088959507871715273 -0.3690395822935823 0 0.01540667747605797 -0.37214245514119271 0 0.036173989476518807 -0.32108545842939867 0 0.01744882103837565 -0.31850042884218732 0 0.019358869210944801 -0.34096317259951509 0 0.036173989476518807 -0.32108545842939867 0 0.01744882103837565 -0.31850042884218732 0 0.024116554326934429 -0.30592926499214601 0 0.036655626533974632 -0.33699996620385642 0 0.036173989476518807 -0.32108545842939867 0 0.019358869210944801 -0.34096317259951509 0 0.036173989476518807 -0.32108545842939867 0 0.019358869210944801 -0.34096317259951509 0 -0.0045683341259116954 -0.33047674109012498 0 0.019358869210944801 -0.34096317259951509 0 -0.0045683341259116954 -0.33047674109012498 0 0.009555857925397232 -0.35255163900730457 0 0.019358869210944801 -0.34096317259951509 0 -0.0045683341259116954 -0.33047674109012498 0 0.019358869210944801 -0.34096317259951509 0 0.0040981006955792022 -0.31953741139356839 0 0.01744882103837565 -0.31850042884218732 0 0.019358869210944801 -0.34096317259951509 0 0.0040981006955792022 -0.31953741139356839 0 0.01744882103837565 -0.31850042884218732 0 0.0040981006955792022 -0.31953741139356839 0 0.0089445439175262591 -0.30818744038092027 0 0.0089445439175262591 -0.30818744038092027 0 0.0080387197440938973 -0.29217093039849179 0 0.024116554326934429 -0.30592926499214601 0 -0.0077929770141077753 -0.30510536924497561 0 0.0089445439175262591 -0.30818744038092027 0 0.0080387197440938973 -0.29217093039849179 0 -0.0077929770141077753 -0.30510536924497561 0 0.0040981006955792022 -0.31953741139356839 0 0.0089445439175262591 -0.30818744038092027 0 -0.01101761990230157 -0.27973399739982591 0 0.0080387197440938973 -0.29217093039849179 0 0.0048942055376650917 -0.2741314967382914 0 0.0080387197440938973 -0.29217093039849179 0 0.020877789927600591 -0.27903042670402939 0 0.0048942055376650917 -0.2741314967382914 0 0.0080387197440938973 -0.29217093039849179 0 0.027243186926685009 -0.29104055061929668 0 0.020877789927600591 -0.27903042670402939 0 0.0080387197440938973 -0.29217093039849179 0 0.027243186926685009 -0.29104055061929668 0 0.024116554326934429 -0.30592926499214601 0 0.027243186926685009 -0.29104055061929668 0 0.034101878197347918 -0.27659844990516153 0 0.020877789927600591 -0.27903042670402939 0 0.01744882103837565 -0.31850042884218732 0 0.0089445439175262591 -0.30818744038092027 0 0.024116554326934429 -0.30592926499214601 0 0.027243186926685009 -0.29104055061929668 0 0.024116554326934429 -0.30592926499214601 0 0.038203796810373343 -0.2996991961433092 0 0.036173989476518807 -0.32108545842939867 0 0.038203796810373343 -0.2996991961433092 0 0.052989109742092907 -0.30120774425928232 0 0.036173989476518807 -0.32108545842939867 0 0.024116554326934429 -0.30592926499214601 0 0.038203796810373343 -0.2996991961433092 0 0.036173989476518807 -0.32108545842939867 0 0.052989109742092907 -0.30120774425928232 0 0.038203796810373343 -0.2996991961433092 0 0.047175715537712708 -0.2926969566375287 0 0.052989109742092907 -0.30120774425928232 0 0.027243186926685009 -0.29104055061929668 0 0.038203796810373343 -0.2996991961433092 0 0.040226671751381761 -0.28697197094733279 0 0.027243186926685009 -0.29104055061929668 0 0.040226671751381761 -0.28697197094733279 0 0.034101878197347918 -0.27659844990516153 0 0.040226671751381761 -0.28697197094733279 0 0.047175715537712708 -0.2926969566375287 0 0.050790025639619221 -0.28417862930561599 0 0.038203796810373343 -0.2996991961433092 0 0.040226671751381761 -0.28697197094733279 0 0.047175715537712708 -0.2926969566375287 0 0.067780811587607057 -0.28372198045081959 0 0.050790025639619221 -0.28417862930561599 0 0.058726578274061067 -0.27673115848829982 0 0.067780811587607057 -0.28372198045081959 0 0.054076043948834467 -0.29459924764461048 0 0.050790025639619221 -0.28417862930561599 0 0.047175715537712708 -0.2926969566375287 0 0.054076043948834467 -0.29459924764461048 0 0.050790025639619221 -0.28417862930561599 0 0.067780811587607057 -0.28372198045081959 0 0.052989109742092907 -0.30120774425928232 0 0.047175715537712708 -0.2926969566375287 0 0.054076043948834467 -0.29459924764461048 0 0.052989109742092907 -0.30120774425928232 0 0.067780811587607057 -0.28372198045081959 0 0.054076043948834467 -0.29459924764461048 0 0.052989109742092907 -0.30120774425928232 0 0.054076043948834467 -0.29459924764461048 0 0.052989109742092907 -0.30120774425928232 0 0.064743005473060042 -0.26615297314853942 0 0.052891795375796517 -0.25211429193864299 0 0.047422539802036381 -0.27200491161857782 0 0.064743005473060042 -0.26615297314853942 0 0.058726578274061067 -0.27673115848829982 0 0.047422539802036381 -0.27200491161857782 0 0.050790025639619221 -0.28417862930561599 0 0.058726578274061067 -0.27673115848829982 0 0.047422539802036381 -0.27200491161857782 0 0.047422539802036381 -0.27200491161857782 0 0.034101878197347918 -0.27659844990516153 0 0.028893000456730811 -0.26312289433846719 0 0.040226671751381761 -0.28697197094733279 0 0.047422539802036381 -0.27200491161857782 0 0.034101878197347918 -0.27659844990516153 0 0.040226671751381761 -0.28697197094733279 0 0.050790025639619221 -0.28417862930561599 0 0.047422539802036381 -0.27200491161857782 0 0.052891795375796517 -0.25211429193864299 0 0.047422539802036381 -0.27200491161857782 0 0.028893000456730811 -0.26312289433846719 0 0.052891795375796517 -0.25211429193864299 0 0.028893000456730811 -0.26312289433846719 0 0.037887571345962913 -0.24807643085114139 0 0.052891795375796517 -0.25211429193864299 0 0.028893000456730811 -0.26312289433846719 0 0.028893000456730811 -0.26312289433846719 0 0.012915362636422151 -0.25863433554944881 0 0.025057743262430921 -0.24169993996191749 0 0.028893000456730811 -0.26312289433846719 0 0.025057743262430921 -0.24169993996191749 0 0.037887571345962913 -0.24807643085114139 0 0.034101878197347918 -0.27659844990516153 0 0.028893000456730811 -0.26312289433846719 0 0.020877789927600591 -0.27903042670402939 0 0.028893000456730811 -0.26312289433846719 0 0.0048942055376650917 -0.2741314967382914 0 0.028893000456730811 -0.26312289433846719 0 0.020877789927600591 -0.27903042670402939 0 0.0048942055376650917 -0.2741314967382914 0 0.028893000456730811 -0.26312289433846719 0 0.0048942055376650917 -0.2741314967382914 0 0.012915362636422151 -0.25863433554944881 0 -0.00053764115848484954 -0.26240285167879379 0 0.0048942055376650917 -0.2741314967382914 0 0.012915362636422151 -0.25863433554944881 0 -0.00053764115848484954 -0.26240285167879379 0 0.012915362636422151 -0.25863433554944881 0 0.0054077402359684022 -0.24803128275829681 0 0.0054077402359684022 -0.24803128275829681 0 0.025057743262430921 -0.24169993996191749 0 0.012915362636422151 -0.25863433554944881 0 0.0054077402359684022 -0.24803128275829681 0 0.025057743262430921 -0.24169993996191749 0 0.0054077402359684022 -0.24803128275829681 0 0.01164995217655071 -0.22814433722524691 0 0.025057743262430921 -0.24169993996191749 0 -0.0040268346632878179 -0.23544582594765409 0 0.0054077402359684022 -0.24803128275829681 0 0.01164995217655071 -0.22814433722524691 0 -0.0052717693155240868 -0.21935920381125151 0 0.01164995217655071 -0.22814433722524691 0 0.0086958910760906415 -0.20960854745756699 0 -0.0040268346632878179 -0.23544582594765409 0 -0.0052717693155240868 -0.21935920381125151 0 0.01164995217655071 -0.22814433722524691 0 0.01164995217655071 -0.22814433722524691 0 0.029055143069391099 -0.22732900707652129 0 0.025057743262430921 -0.24169993996191749 0 0.01164995217655071 -0.22814433722524691 0 0.029055143069391099 -0.22732900707652129 0 0.024279592965657772 -0.21336133237912719 0 0.029055143069391099 -0.22732900707652129 0 0.024279592965657772 -0.21336133237912719 0 0.039580680653422677 -0.21807082865077679 0 -0.00037765436845475011 -0.19560370237634589 0 0.0086958910760906415 -0.20960854745756699 0 0.019753345640502538 -0.19174178037020631 0 -0.00037765436845475011 -0.19560370237634589 0 0.019753345640502538 -0.19174178037020631 0 0.01229516926355444 -0.18167223964580559 0 -0.0052717693155240868 -0.21935920381125151 0 -0.00037765436845475011 -0.19560370237634589 0 0.0086958910760906415 -0.20960854745756699 0 0.01164995217655071 -0.22814433722524691 0 0.0086958910760906415 -0.20960854745756699 0 0.024279592965657772 -0.21336133237912719 0 0.0086958910760906415 -0.20960854745756699 0 0.024279592965657772 -0.21336133237912719 0 0.019753345640502538 -0.19174178037020631 0 0.024279592965657772 -0.21336133237912719 0 0.019753345640502538 -0.19174178037020631 0 0.040120483787690293 -0.20242111037550509 0 0.019753345640502538 -0.19174178037020631 0 0.040120483787690293 -0.20242111037550509 0 0.037949984180577177 -0.18230494039148359 0 0.040120483787690293 -0.20242111037550509 0 0.05769121204082208 -0.1954525274858572 0 0.037949984180577177 -0.18230494039148359 0 0.024279592965657772 -0.21336133237912719 0 0.040120483787690293 -0.20242111037550509 0 0.039580680653422677 -0.21807082865077679 0 0.040120483787690293 -0.20242111037550509 0 0.039580680653422677 -0.21807082865077679 0 0.062782130754298143 -0.21185704542607089 0 0.040120483787690293 -0.20242111037550509 0 0.05769121204082208 -0.1954525274858572 0 0.062782130754298143 -0.21185704542607089 0 0.029055143069391099 -0.22732900707652129 0 0.025057743262430921 -0.24169993996191749 0 0.044707746288893388 -0.23536859716553821 0 0.025057743262430921 -0.24169993996191749 0 0.044707746288893388 -0.23536859716553821 0 0.052891795375796517 -0.25211429193864299 0 0.044707746288893388 -0.23536859716553821 0 0.037887571345962913 -0.24807643085114139 0 0.025057743262430921 -0.24169993996191749 0 0.044707746288893388 -0.23536859716553821 0 0.037887571345962913 -0.24807643085114139 0 0.029055143069391099 -0.22732900707652129 0 0.039580680653422677 -0.21807082865077679 0 0.044707746288893388 -0.23536859716553821 0 0.044707746288893388 -0.23536859716553821 0 0.061793252454023888 -0.2332207134355552 0 0.062782130754298143 -0.21185704542607089 0 0.039580680653422677 -0.21807082865077679 0 0.044707746288893388 -0.23536859716553821 0 0.062782130754298143 -0.21185704542607089 0 0.052891795375796517 -0.25211429193864299 0 0.044707746288893388 -0.23536859716553821 0 0.061793252454023888 -0.2332207134355552 0 0.052891795375796517 -0.25211429193864299 0 0.061793252454023888 -0.2332207134355552 0 0.076890590294862421 -0.2411056895388187 0 0.052891795375796517 -0.25211429193864299 0 0.076890590294862421 -0.2411056895388187 0 0.076890590294862421 -0.2411056895388187 0 0.087469023939224094 -0.22156086722575091 0 0.09736421527863566 -0.24875045283389441 0 0.076890590294862421 -0.2411056895388187 0 0.087469023939224094 -0.22156086722575091 0 0.071693999556268984 -0.22565794310870529 0 0.061793252454023888 -0.2332207134355552 0 0.071693999556268984 -0.22565794310870529 0 0.062782130754298143 -0.21185704542607089 0 0.087469023939224094 -0.22156086722575091 0 0.071693999556268984 -0.22565794310870529 0 0.062782130754298143 -0.21185704542607089 0 0.061793252454023888 -0.2332207134355552 0 0.076890590294862421 -0.2411056895388187 0 0.071693999556268984 -0.22565794310870529 0 0.087469023939224094 -0.22156086722575091 0 0.062782130754298143 -0.21185704542607089 0 0.05769121204082208 -0.1954525274858572 0 0.062782130754298143 -0.21185704542607089 0 0.07627374039000763 -0.20371239648550901 0 0.087469023939224094 -0.22156086722575091 0 0.062782130754298143 -0.21185704542607089 0 0.07627374039000763 -0.20371239648550901 0 0.05769121204082208 -0.1954525274858572 0 0.07627374039000763 -0.20371239648550901 0 0.07314042600564688 -0.1882311252049641 0 0.07627374039000763 -0.20371239648550901 0 0.07314042600564688 -0.1882311252049641 0 0.084523948586996384 -0.1971848975526613 0 0.07314042600564688 -0.1882311252049641 0 0.084523948586996384 -0.1971848975526613 0 0.084604223054476541 -0.1862526904276115 0 0.07627374039000763 -0.20371239648550901 0 0.084523948586996384 -0.1971848975526613 0 0.09071066371140718 -0.20602988481688911 0 0.084523948586996384 -0.1971848975526613 0 0.09071066371140718 -0.20602988481688911 0 0.096830247115943194 -0.19504540124113881 0 0.084523948586996384 -0.1971848975526613 0 0.096830247115943194 -0.19504540124113881 0 0.084604223054476541 -0.1862526904276115 0 0.096830247115943194 -0.19504540124113881 0 0.094626556474964832 -0.18144418743899371 0 0.084604223054476541 -0.1862526904276115 0 0.087469023939224094 -0.22156086722575091 0 0.07627374039000763 -0.20371239648550901 0 0.09071066371140718 -0.20602988481688911 0 0.087469023939224094 -0.22156086722575091 0 0.10580628392156249 -0.20872979917766479 0 0.1089647703621341 -0.22000141455042921 0 0.087469023939224094 -0.22156086722575091 0 0.09071066371140718 -0.20602988481688911 0 0.10580628392156249 -0.20872979917766479 0 0.09071066371140718 -0.20602988481688911 0 0.10580628392156249 -0.20872979917766479 0 0.096830247115943194 -0.19504540124113881 0 0.096830247115943194 -0.19504540124113881 0 0.105472011792531 -0.18633735691431011 0 0.094626556474964832 -0.18144418743899371 0 0.10580628392156249 -0.20872979917766479 0 0.096830247115943194 -0.19504540124113881 0 0.110743004968013 -0.19738096115898099 0 0.096830247115943194 -0.19504540124113881 0 0.110743004968013 -0.19738096115898099 0 0.105472011792531 -0.18633735691431011 0 0.110743004968013 -0.19738096115898099 0 0.12231667521256109 -0.1880412671620785 0 0.105472011792531 -0.18633735691431011 0 0.10580628392156249 -0.20872979917766479 0 0.110743004968013 -0.19738096115898099 0 0.1221371923938749 -0.2018438141336171 0 0.110743004968013 -0.19738096115898099 0 0.1221371923938749 -0.2018438141336171 0 0.12231667521256109 -0.1880412671620785 0 0.10580628392156249 -0.20872979917766479 0 0.1221371923938749 -0.2018438141336171 0 0.1212988593254847 -0.2142063591558602 0 0.10580628392156249 -0.20872979917766479 0 0.1212988593254847 -0.2142063591558602 0 0.1089647703621341 -0.22000141455042921 0 0.1212988593254847 -0.2142063591558602 0 0.1180937675002493 -0.22424535816743801 0 0.1262666187287034 -0.22077884528595471 0 0.1180937675002493 -0.22424535816743801 0 0.1262666187287034 -0.22077884528595471 0 0.13025041077718519 -0.2280131466272067 0 0.1180937675002493 -0.22424535816743801 0 0.1121559171241498 -0.23126468902543171 0 0.13025041077718519 -0.2280131466272067 0 0.1212988593254847 -0.2142063591558602 0 0.1180937675002493 -0.22424535816743801 0 0.1089647703621341 -0.22000141455042921 0 0.1180937675002493 -0.22424535816743801 0 0.1121559171241498 -0.23126468902543171 0 0.1089647703621341 -0.22000141455042921 0 0.1180937675002493 -0.22424535816743801 0 0.1121559171241498 -0.23126468902543171 0 0.1208519130951949 -0.25967578265474978 0 0.1121559171241498 -0.23126468902543171 0 0.13997209545928421 -0.24219855728055359 0 0.1208519130951949 -0.25967578265474978 0 0.1121559171241498 -0.23126468902543171 0 0.09736421527863566 -0.24875045283389441 0 0.1121559171241498 -0.23126468902543171 0 0.09736421527863566 -0.24875045283389441 0 0.087469023939224094 -0.22156086722575091 0 0.1121559171241498 -0.23126468902543171 0 0.087469023939224094 -0.22156086722575091 0 0.1121559171241498 -0.23126468902543171 0 0.09736421527863566 -0.24875045283389441 0 0.087469023939224094 -0.22156086722575091 0 0.1121559171241498 -0.23126468902543171 0 0.1089647703621341 -0.22000141455042921 0 0.1017656046099361 -0.14285759524023561 0 0.1035702037753766 -0.16402729888182391 0 0.1017656046099361 -0.14285759524023561 0 0.1035702037753766 -0.16402729888182391 0 0.087666678014282948 -0.1499589337403657 0 0.1017656046099361 -0.14285759524023561 0 0.1139234463076481 -0.153202987128505 0 0.1035702037753766 -0.16402729888182391 0 0.1017656046099361 -0.14285759524023561 0 0.087666678014282948 -0.1499589337403657 0 0.092056255572648737 -0.1406088123182862 0 0.1017656046099361 -0.14285759524023561 0 0.095619837333231955 -0.13491242503267989 0 0.092056255572648737 -0.1406088123182862 0 0.1017656046099361 -0.14285759524023561 0 0.099961005444495502 -0.12168789159864719 0 0.1017656046099361 -0.14285759524023561 0 0.095619837333231955 -0.13491242503267989 0 0.099961005444495502 -0.12168789159864719 0 0.1017656046099361 -0.14285759524023561 0 0.1145263804941028 -0.128967240922847 0 0.099961005444495502 -0.12168789159864719 0 0.095619837333231955 -0.13491242503267989 0 0.093180028052593844 -0.12952414309760249 0 0.099961005444495502 -0.12168789159864719 0 0.1145263804941028 -0.128967240922847 0 0.121251820104277 -0.14271189394047279 0 0.13117736198413379 -0.12665691843031379 0 0.1017656046099361 -0.14285759524023561 0 0.1145263804941028 -0.128967240922847 0 0.121251820104277 -0.14271189394047279 0 0.121251820104277 -0.14271189394047279 0 0.1139234463076481 -0.153202987128505 0 0.12910615674100259 -0.1632151604514876 0 0.1017656046099361 -0.14285759524023561 0 0.121251820104277 -0.14271189394047279 0 0.1139234463076481 -0.153202987128505 0 0.1035702037753766 -0.16402729888182391 0 0.12910615674100259 -0.1632151604514876 0 0.12940385266922641 -0.1667074232744796 0 0.1035702037753766 -0.16402729888182391 0 0.12910615674100259 -0.1632151604514876 0 0.1041655956318242 -0.17101182452780811 0 0.12940385266922641 -0.1667074232744796 0 0.1139234463076481 -0.153202987128505 0 0.1035702037753766 -0.16402729888182391 0 0.12910615674100259 -0.1632151604514876 0 0.1035702037753766 -0.16402729888182391 0 0.1041655956318242 -0.17101182452780811 0 0.12940385266922641 -0.1667074232744796 0 0.12231667521256109 -0.1880412671620785 0 0.1153395338265357 -0.17802446796966889 0 0.105472011792531 -0.18633735691431011 0 0.1153395338265357 -0.17802446796966889 0 0.1041655956318242 -0.17101182452780811 0 0.12940385266922641 -0.1667074232744796 0 0.12231667521256109 -0.1880412671620785 0 0.1153395338265357 -0.17802446796966889 0 0.12940385266922641 -0.1667074232744796 0 0.105472011792531 -0.18633735691431011 0 0.1041655956318242 -0.17101182452780811 0 0.1153395338265357 -0.17802446796966889 0 0.105472011792531 -0.18633735691431011 0 0.1041655956318242 -0.17101182452780811 0 0.105472011792531 -0.18633735691431011 0 0.094626556474964832 -0.18144418743899371 0 0.1041655956318242 -0.17101182452780811 0 0.1035702037753766 -0.16402729888182391 0 0.1041655956318242 -0.17101182452780811 0 0.08209372514807517 -0.1747761964823662 0 0.1035702037753766 -0.16402729888182391 0 0.1041655956318242 -0.17101182452780811 0 0.1035702037753766 -0.16402729888182391 0 0.07894142819540885 -0.1648105856918991 0 0.087666678014282948 -0.1499589337403657 0 0.1035702037753766 -0.16402729888182391 0 0.07894142819540885 -0.1648105856918991 0 0.08209372514807517 -0.1747761964823662 0 0.1035702037753766 -0.16402729888182391 0 0.07894142819540885 -0.1648105856918991 0 0.094626556474964832 -0.18144418743899371 0 0.1041655956318242 -0.17101182452780811 0 0.08209372514807517 -0.1747761964823662 0 0.1041655956318242 -0.17101182452780811 0 0.08209372514807517 -0.1747761964823662 0 0.094626556474964832 -0.18144418743899371 0 0.08209372514807517 -0.1747761964823662 0 0.084604223054476541 -0.1862526904276115 0 0.07314042600564688 -0.1882311252049641 0 0.08209372514807517 -0.1747761964823662 0 0.084604223054476541 -0.1862526904276115 0 0.07894142819540885 -0.1648105856918991 0 0.08209372514807517 -0.1747761964823662 0 0.060021854664326177 -0.1785405684369249 0 0.05769121204082208 -0.1954525274858572 0 0.07314042600564688 -0.1882311252049641 0 0.060021854664326177 -0.1785405684369249 0 0.07314042600564688 -0.1882311252049641 0 0.08209372514807517 -0.1747761964823662 0 0.060021854664326177 -0.1785405684369249 0 0.08209372514807517 -0.1747761964823662 0 0.060021854664326177 -0.1785405684369249 0 0.07894142819540885 -0.1648105856918991 0 0.06628671875511484 -0.154501543929392 0 0.054312652615441097 -0.16559387250197319 0 0.07894142819540885 -0.1648105856918991 0 0.054312652615441097 -0.16559387250197319 0 0.07894142819540885 -0.1648105856918991 0 0.060021854664326177 -0.1785405684369249 0 0.054312652615441097 -0.16559387250197319 0 0.07894142819540885 -0.1648105856918991 0 0.06628671875511484 -0.154501543929392 0 0.076823387883065419 -0.1532012299036685 0 0.06628671875511484 -0.154501543929392 0 0.074398726567455054 -0.14353385625301729 0 0.062375890646362432 -0.14406104381856549 0 0.06628671875511484 -0.154501543929392 0 0.074398726567455054 -0.14353385625301729 0 0.076823387883065419 -0.1532012299036685 0 0.074398726567455054 -0.14353385625301729 0 0.076823387883065419 -0.1532012299036685 0 0.087666678014282948 -0.1499589337403657 0 0.07894142819540885 -0.1648105856918991 0 0.076823387883065419 -0.1532012299036685 0 0.087666678014282948 -0.1499589337403657 0 0.074398726567455054 -0.14353385625301729 0 0.087666678014282948 -0.1499589337403657 0 0.084780926663828221 -0.13871088051695951 0 0.087666678014282948 -0.1499589337403657 0 0.092056255572648737 -0.1406088123182862 0 0.084780926663828221 -0.13871088051695951 0 0.093180028052593844 -0.12952414309760249 0 0.084566277672836851 -0.13274394945208279 0 0.077551670074185175 -0.12697256784210889 0 0.093180028052593844 -0.12952414309760249 0 0.090267162361827469 -0.13574121236449591 0 0.084566277672836851 -0.13274394945208279 0 0.095619837333231955 -0.13491242503267989 0 0.093180028052593844 -0.12952414309760249 0 0.090267162361827469 -0.13574121236449591 0 0.095619837333231955 -0.13491242503267989 0 0.090267162361827469 -0.13574121236449591 0 0.092056255572648737 -0.1406088123182862 0 0.090267162361827469 -0.13574121236449591 0 0.092056255572648737 -0.1406088123182862 0 0.084780926663828221 -0.13871088051695951 0 0.090267162361827469 -0.13574121236449591 0 0.084780926663828221 -0.13871088051695951 0 0.084566277672836851 -0.13274394945208279 0 0.074398726567455054 -0.14353385625301729 0 0.084780926663828221 -0.13871088051695951 0 0.078054939978267804 -0.13452955258579041 0 0.084780926663828221 -0.13871088051695951 0 0.084566277672836851 -0.13274394945208279 0 0.078054939978267804 -0.13452955258579041 0 0.084566277672836851 -0.13274394945208279 0 0.077551670074185175 -0.12697256784210889 0 0.078054939978267804 -0.13452955258579041 0 0.077551670074185175 -0.12697256784210889 0 0.078054939978267804 -0.13452955258579041 0 0.068419627575096092 -0.13369924386383469 0 0.077551670074185175 -0.12697256784210889 0 0.068419627575096092 -0.13369924386383469 0 0.06729473245905529 -0.1182276396448243 0 0.074398726567455054 -0.14353385625301729 0 0.078054939978267804 -0.13452955258579041 0 0.068419627575096092 -0.13369924386383469 0 0.074398726567455054 -0.14353385625301729 0 0.068419627575096092 -0.13369924386383469 0 0.062375890646362432 -0.14406104381856549 0 0.068419627575096092 -0.13369924386383469 0 0.05128039156228005 -0.13590170362993759 0 0.06729473245905529 -0.1182276396448243 0 0.05128039156228005 -0.13590170362993759 0 0.06729473245905529 -0.1182276396448243 0 0.05128039156228005 -0.13590170362993759 0 0.049664052496257063 -0.1229689177336119 0 0.06729473245905529 -0.1182276396448243 0 0.068419627575096092 -0.13369924386383469 0 0.05128039156228005 -0.13590170362993759 0 0.062375890646362432 -0.14406104381856549 0 0.05128039156228005 -0.13590170362993759 0 0.062375890646362432 -0.14406104381856549 0 0.051493988771866027 -0.15266887141664601 0 0.06628671875511484 -0.154501543929392 0 0.062375890646362432 -0.14406104381856549 0 0.051493988771866027 -0.15266887141664601 0 0.05128039156228005 -0.13590170362993759 0 0.051493988771866027 -0.15266887141664601 0 0.035266050665501217 -0.15357576761504771 0 0.05128039156228005 -0.13590170362993759 0 0.035266050665501217 -0.15357576761504771 0 0.05128039156228005 -0.13590170362993759 0 0.035266050665501217 -0.15357576761504771 0 0.030599198566610031 -0.13729073163817521 0 0.05128039156228005 -0.13590170362993759 0 0.030599198566610031 -0.13729073163817521 0 0.049664052496257063 -0.1229689177336119 0 0.030599198566610031 -0.13729073163817521 0 0.049664052496257063 -0.1229689177336119 0 0.035277182687474103 -0.1189573710643667 0 0.05769121204082208 -0.1954525274858572 0 0.060021854664326177 -0.1785405684369249 0 0.037949984180577177 -0.18230494039148359 0 0.060021854664326177 -0.1785405684369249 0 0.037949984180577177 -0.18230494039148359 0 0.060021854664326177 -0.1785405684369249 0 0.054312652615441097 -0.16559387250197319 0 0.040571403361035541 -0.16756584874911079 0 0.06628671875511484 -0.154501543929392 0 0.051493988771866027 -0.15266887141664601 0 0.054312652615441097 -0.16559387250197319 0 0.051493988771866027 -0.15266887141664601 0 0.054312652615441097 -0.16559387250197319 0 0.040571403361035541 -0.16756584874911079 0 0.035266050665501217 -0.15357576761504771 0 0.040571403361035541 -0.16756584874911079 0 0.01925170976872239 -0.17124983160015769 0 0.051493988771866027 -0.15266887141664601 0 0.035266050665501217 -0.15357576761504771 0 0.040571403361035541 -0.16756584874911079 0 0.060021854664326177 -0.1785405684369249 0 0.040571403361035541 -0.16756584874911079 0 0.037949984180577177 -0.18230494039148359 0 0.040571403361035541 -0.16756584874911079 0 0.037949984180577177 -0.18230494039148359 0 0.01925170976872239 -0.17124983160015769 0 0.019753345640502538 -0.19174178037020631 0 0.037949984180577177 -0.18230494039148359 0 0.01925170976872239 -0.17124983160015769 0 0.019753345640502538 -0.19174178037020631 0 0.01925170976872239 -0.17124983160015769 0 0.01229516926355444 -0.18167223964580559 0 0.035266050665501217 -0.15357576761504771 0 0.01925170976872239 -0.17124983160015769 0 0.035266050665501217 -0.15357576761504771 0 0.020742998962235429 -0.15670380672626699 0 0.01925170976872239 -0.17124983160015769 0 0.020742998962235429 -0.15670380672626699 0 0.004516460578614578 -0.17184820094144029 0 0.0094105755256839122 -0.1480926995065347 0 0.020742998962235429 -0.15670380672626699 0 0.01925170976872239 -0.17124983160015769 0 0.004516460578614578 -0.17184820094144029 0 -0.0091268405377329317 -0.15790126591868739 0 0.004516460578614578 -0.17184820094144029 0 0.0094105755256839122 -0.1480926995065347 0 0.004516460578614578 -0.17184820094144029 0 0.0094105755256839122 -0.1480926995065347 0 -0.00037765436845475011 -0.19560370237634589 0 0.004516460578614578 -0.17184820094144029 0 -0.00037765436845475011 -0.19560370237634589 0 0.004516460578614578 -0.17184820094144029 0 0.01229516926355444 -0.18167223964580559 0 0.01925170976872239 -0.17124983160015769 0 0.004516460578614578 -0.17184820094144029 0 0.01229516926355444 -0.18167223964580559 0 0.030599198566610031 -0.13729073163817521 0 0.0094105755256839122 -0.1480926995065347 0 0.01430469047275292 -0.124337198071629 0 0.030599198566610031 -0.13729073163817521 0 0.01430469047275292 -0.124337198071629 0 0.035277182687474103 -0.1189573710643667 0 0.035266050665501217 -0.15357576761504771 0 0.020742998962235429 -0.15670380672626699 0 0.030599198566610031 -0.13729073163817521 0 0.020742998962235429 -0.15670380672626699 0 0.030599198566610031 -0.13729073163817521 0 0.0094105755256839122 -0.1480926995065347 0 -0.006255808653915158 -0.12961134133280849 0 0.0094105755256839122 -0.1480926995065347 0 0.01430469047275292 -0.124337198071629 0 0.0094105755256839122 -0.1480926995065347 0 0.01430469047275292 -0.124337198071629 0 -0.006255808653915158 -0.12961134133280849 0 0.01430469047275292 -0.124337198071629 0 -0.0065521411640195489 -0.1138300235372187 0 -0.006255808653915158 -0.12961134133280849 0 0.01430469047275292 -0.124337198071629 0 0.01430469047275292 -0.124337198071629 0 0.018628621842939459 -0.10334930567844811 0 0.0055003327058907071 -0.1083906823608586 0 -0.0065521411640195489 -0.1138300235372187 0 0.01430469047275292 -0.124337198071629 0 0.0055003327058907071 -0.1083906823608586 0 0.01430469047275292 -0.124337198071629 0 0.018628621842939459 -0.10334930567844811 0 0.035277182687474103 -0.1189573710643667 0 0.018628621842939459 -0.10334930567844811 0 0.035277182687474103 -0.1189573710643667 0 0.037439148372567413 -0.1084634248677761 0 0.01430469047275292 -0.124337198071629 0 0.018628621842939459 -0.10334930567844811 0 0.01430469047275292 -0.124337198071629 0 0.035277182687474103 -0.1189573710643667 0 0.018628621842939459 -0.10334930567844811 0 0.037439148372567413 -0.1084634248677761 0 0.018628621842939459 -0.10334930567844811 0 0.019830795918298321 -0.0975140835226741 0 0.038162929879743908 -0.1055143404192561 0 0.019830795918298321 -0.0975140835226741 0 0.038162929879743908 -0.1055143404192561 0 0.019830795918298321 -0.0975140835226741 0 0.038162929879743908 -0.1055143404192561 0 0.032085159196120802 -0.097374137609831671 0 0.019830795918298321 -0.0975140835226741 0 0.021629825244582679 -0.088781790921400178 0 0.032085159196120802 -0.097374137609831671 0 0.018628621842939459 -0.10334930567844811 0 0.019830795918298321 -0.0975140835226741 0 -0.0032681753368222072 -0.097396105460184401 0 0.018628621842939459 -0.10334930567844811 0 0.0011594143531981141 -0.089365776868953806 0 -0.0032681753368222072 -0.097396105460184401 0 0.018628621842939459 -0.10334930567844811 0 0.0055003327058907071 -0.1083906823608586 0 0.018628621842939459 -0.10334930567844811 0 0.019830795918298321 -0.0975140835226741 0 0.0011594143531981141 -0.089365776868953806 0 -0.0032681753368222072 -0.097396105460184401 0 0.018628621842939459 -0.10334930567844811 0 0.019830795918298321 -0.0975140835226741 0 0.0011594143531981141 -0.089365776868953806 0 0.01099990767544287 -0.089944902516057565 0 0.0011594143531981141 -0.089365776868953806 0 0.0048741855587916411 -0.086163403631125568 0 0.01099990767544287 -0.089944902516057565 0 0.019830795918298321 -0.0975140835226741 0 0.0011594143531981141 -0.089365776868953806 0 -0.0029772157873130208 -0.081715700578056397 0 0.0011594143531981141 -0.089365776868953806 0 0.0048741855587916411 -0.086163403631125568 0 0.0048741855587916411 -0.086163403631125568 0 0.002185648973446259 -0.076653208650150823 0 0.01267901692674215 -0.076305490266640991 0 -0.0029772157873130208 -0.081715700578056397 0 0.0048741855587916411 -0.086163403631125568 0 0.002185648973446259 -0.076653208650150823 0 0.0048741855587916411 -0.086163403631125568 0 0.01267901692674215 -0.076305490266640991 0 0.0048741855587916411 -0.086163403631125568 0 0.01306540098728603 -0.086154284073997223 0 0.01267901692674215 -0.076305490266640991 0 0.0048741855587916411 -0.086163403631125568 0 0.01306540098728603 -0.086154284073997223 0 0.01099990767544287 -0.089944902516057565 0 0.01306540098728603 -0.086154284073997223 0 0.01099990767544287 -0.089944902516057565 0 0.016069741559639909 -0.090526964483537781 0 -0.00013189539463332069 -0.062397079718219763 0 0.01267901692674215 -0.076305490266640991 0 0.01202426097766549 -0.057983746330002521 0 -0.00013189539463332069 -0.062397079718219763 0 0.01267901692674215 -0.076305490266640991 0 -0.00013189539463332069 -0.062397079718219763 0 0.002185648973446259 -0.076653208650150823 0 0.01267901692674215 -0.076305490266640991 0 0.01267901692674215 -0.076305490266640991 0 0.023323171294268041 -0.06286136230967837 0 0.01202426097766549 -0.057983746330002521 0 0.01267901692674215 -0.076305490266640991 0 0.023323171294268041 -0.06286136230967837 0 0.01267901692674215 -0.076305490266640991 0 0.02381433818298051 -0.073291228076092299 0 0.027983053133350429 -0.081680815201347359 0 0.01267901692674215 -0.076305490266640991 0 0.023323171294268041 -0.06286136230967837 0 0.02381433818298051 -0.073291228076092299 0 0.02381433818298051 -0.073291228076092299 0 0.027983053133350429 -0.081680815201347359 0 0.036102484733807207 -0.07871323560585454 0 0.023323171294268041 -0.06286136230967837 0 0.02381433818298051 -0.073291228076092299 0 0.038131932137544497 -0.069027440263210046 0 0.01267901692674215 -0.076305490266640991 0 0.021629825244582679 -0.088781790921400178 0 0.032085159196120802 -0.097374137609831671 0 0.01267901692674215 -0.076305490266640991 0 0.027983053133350429 -0.081680815201347359 0 0.032085159196120802 -0.097374137609831671 0 0.01267901692674215 -0.076305490266640991 0 0.032085159196120802 -0.097374137609831671 0 0.01306540098728603 -0.086154284073997223 0 0.021629825244582679 -0.088781790921400178 0 0.016069741559639909 -0.090526964483537781 0 0.019830795918298321 -0.0975140835226741 0 0.021629825244582679 -0.088781790921400178 0 0.016069741559639909 -0.090526964483537781 0 0.019830795918298321 -0.0975140835226741 0 0.01099990767544287 -0.089944902516057565 0 0.016069741559639909 -0.090526964483537781 0 0.019830795918298321 -0.0975140835226741 0 0.021629825244582679 -0.088781790921400178 0 0.01306540098728603 -0.086154284073997223 0 0.01267901692674215 -0.076305490266640991 0 0.021629825244582679 -0.088781790921400178 0 0.027983053133350429 -0.081680815201347359 0 0.037040548417206158 -0.087865078540872096 0 0.032085159196120802 -0.097374137609831671 0 0.037040548417206158 -0.087865078540872096 0 0.032085159196120802 -0.097374137609831671 0 0.043451495748791889 -0.095537587066828369 0 0.027983053133350429 -0.081680815201347359 0 0.037040548417206158 -0.087865078540872096 0 0.036102484733807207 -0.07871323560585454 0 0.037040548417206158 -0.087865078540872096 0 0.036102484733807207 -0.07871323560585454 0 0.044775877434871533 -0.085067032807546031 0 0.036102484733807207 -0.07871323560585454 0 0.044775877434871533 -0.085067032807546031 0 0.046933045064893313 -0.075441324862944484 0 0.037040548417206158 -0.087865078540872096 0 0.044775877434871533 -0.085067032807546031 0 0.043451495748791889 -0.095537587066828369 0 0.023323171294268041 -0.06286136230967837 0 0.038131932137544497 -0.069027440263210046 0 0.034249836304144438 -0.059571878974144343 0 0.02381433818298051 -0.073291228076092299 0 0.036102484733807207 -0.07871323560585454 0 0.038131932137544497 -0.069027440263210046 0 0.036102484733807207 -0.07871323560585454 0 0.038131932137544497 -0.069027440263210046 0 0.046933045064893313 -0.075441324862944484 0 0.038131932137544497 -0.069027440263210046 0 0.052800373945666723 -0.067280174290593825 0 0.046933045064893313 -0.075441324862944484 0 0.038131932137544497 -0.069027440263210046 0 0.052349274414971322 -0.058273431086664232 0 0.038131932137544497 -0.069027440263210046 0 0.052800373945666723 -0.067280174290593825 0 0.052349274414971322 -0.058273431086664232 0 0.046933045064893313 -0.075441324862944484 0 0.054973643421062951 -0.073108340495940602 0 0.05389409785262194 -0.081257950660414871 0 0.052800373945666723 -0.067280174290593825 0 0.046933045064893313 -0.075441324862944484 0 0.054973643421062951 -0.073108340495940602 0 0.061520594855873578 -0.076347379000701932 0 0.054973643421062951 -0.073108340495940602 0 0.060952774156679101 -0.068343560690115324 0 0.061520594855873578 -0.076347379000701932 0 0.054973643421062951 -0.073108340495940602 0 0.05389409785262194 -0.081257950660414871 0 0.052800373945666723 -0.067280174290593825 0 0.060952774156679101 -0.068343560690115324 0 0.063461574478849148 -0.059486948344688241 0 0.052800373945666723 -0.067280174290593825 0 0.054973643421062951 -0.073108340495940602 0 0.060952774156679101 -0.068343560690115324 0 0.044775877434871533 -0.085067032807546031 0 0.053010584964821902 -0.089959692198109759 0 0.043451495748791889 -0.095537587066828369 0 0.044775877434871533 -0.085067032807546031 0 0.046933045064893313 -0.075441324862944484 0 0.05389409785262194 -0.081257950660414871 0 0.044775877434871533 -0.085067032807546031 0 0.053010584964821902 -0.089959692198109759 0 0.05389409785262194 -0.081257950660414871 0 0.053010584964821902 -0.089959692198109759 0 0.05389409785262194 -0.081257950660414871 0 0.061462901594500637 -0.084888849622130502 0 0.061520594855873578 -0.076347379000701932 0 0.05389409785262194 -0.081257950660414871 0 0.061462901594500637 -0.084888849622130502 0 0.053010584964821902 -0.089959692198109759 0 0.061462901594500637 -0.084888849622130502 0 0.061531053782275927 -0.094251051718790252 0 0.053010584964821902 -0.089959692198109759 0 0.061531053782275927 -0.094251051718790252 0 0.053473899625842952 -0.098674013012410217 0 0.057283134799926749 -0.11385851636726541 0 0.038162929879743908 -0.1055143404192561 0 0.046393925854966843 -0.10338236550415079 0 0.061531053782275927 -0.094251051718790252 0 0.059282401436407513 -0.099492000139506334 0 0.053473899625842952 -0.098674013012410217 0 0.061531053782275927 -0.094251051718790252 0 0.059282401436407513 -0.099492000139506334 0 0.063655448418436691 -0.1031526609834184 0 0.059282401436407513 -0.099492000139506334 0 0.053473899625842952 -0.098674013012410217 0 0.057707628667700031 -0.1059674671212858 0 0.053473899625842952 -0.098674013012410217 0 0.043451495748791889 -0.095537587066828369 0 0.046393925854966843 -0.10338236550415079 0 0.053010584964821902 -0.089959692198109759 0 0.053473899625842952 -0.098674013012410217 0 0.043451495748791889 -0.095537587066828369 0 0.053517629497424751 -0.1053846107384214 0 0.057283134799926749 -0.11385851636726541 0 0.046393925854966843 -0.10338236550415079 0 0.053473899625842952 -0.098674013012410217 0 0.053517629497424751 -0.1053846107384214 0 0.046393925854966843 -0.10338236550415079 0 0.053517629497424751 -0.1053846107384214 0 0.057707628667700031 -0.1059674671212858 0 0.057283134799926749 -0.11385851636726541 0 0.053473899625842952 -0.098674013012410217 0 0.053517629497424751 -0.1053846107384214 0 0.057707628667700031 -0.1059674671212858 0 0.059282401436407513 -0.099492000139506334 0 0.057707628667700031 -0.1059674671212858 0 0.063655448418436691 -0.1031526609834184 0 0.057707628667700031 -0.1059674671212858 0 0.060784225145630782 -0.1092272285126536 0 0.063655448418436691 -0.1031526609834184 0 0.057283134799926749 -0.11385851636726541 0 0.06729473245905529 -0.1182276396448243 0 0.057283134799926749 -0.11385851636726541 0 0.038162929879743908 -0.1055143404192561 0 0.060784225145630782 -0.1092272285126536 0 0.057283134799926749 -0.11385851636726541 0 0.06729473245905529 -0.1182276396448243 0 0.057707628667700031 -0.1059674671212858 0 0.060784225145630782 -0.1092272285126536 0 0.057283134799926749 -0.11385851636726541 0 0.049664052496257063 -0.1229689177336119 0 0.057283134799926749 -0.11385851636726541 0 0.06729473245905529 -0.1182276396448243 0 0.057283134799926749 -0.11385851636726541 0 0.037439148372567413 -0.1084634248677761 0 0.049664052496257063 -0.1229689177336119 0 0.057283134799926749 -0.11385851636726541 0 0.035277182687474103 -0.1189573710643667 0 0.057283134799926749 -0.11385851636726541 0 0.035277182687474103 -0.1189573710643667 0 0.057283134799926749 -0.11385851636726541 0 0.035277182687474103 -0.1189573710643667 0 0.037439148372567413 -0.1084634248677761 0 0.018628621842939459 -0.10334930567844811 0 0.037439148372567413 -0.1084634248677761 0 0.038162929879743908 -0.1055143404192561 0 0.057283134799926749 -0.11385851636726541 0 0.037439148372567413 -0.1084634248677761 0 0.038162929879743908 -0.1055143404192561 0 0.038162929879743908 -0.1055143404192561 0 0.032085159196120802 -0.097374137609831671 0 0.043451495748791889 -0.095537587066828369 0 0.038162929879743908 -0.1055143404192561 0 0.043451495748791889 -0.095537587066828369 0 0.046393925854966843 -0.10338236550415079 0 0.021358438075749119 -0.01346850733666991 0 0.034046004365684841 -0.028273678694493789 0 0.037609040516515958 -0.002694215823619749 0 0.024746283423928109 0.012135358359482091 0 0.021358438075749119 -0.01346850733666991 0 0.037609040516515958 -0.002694215823619749 0 -0.0032704433637422889 -0.021708726878872899 0 0.0064513957917756229 0.0050175021511877811 0 -0.0032704433637422889 -0.021708726878872899 0 0.0064513957917756229 0.0050175021511877811 0 0.021358438075749119 -0.01346850733666991 0 -0.0032704433637422889 -0.021708726878872899 0 0.021358438075749119 -0.01346850733666991 0 0.012973912348864631 -0.030342788128586609 0 0.021358438075749119 -0.01346850733666991 0 0.024034592306862241 -0.03149707256717188 0 0.034046004365684841 -0.028273678694493789 0 0.021358438075749119 -0.01346850733666991 0 0.012973912348864631 -0.030342788128586609 0 0.024034592306862241 -0.03149707256717188 0 0.024034592306862241 -0.03149707256717188 0 0.031437665474670737 -0.037103903587571478 0 0.034046004365684841 -0.028273678694493789 0 0.024034592306862241 -0.03149707256717188 0 0.02598041271895242 -0.040912454545210322 0 0.031437665474670737 -0.037103903587571478 0 0.02598041271895242 -0.040912454545210322 0 0.033967325661793613 -0.049417234352715472 0 0.031437665474670737 -0.037103903587571478 0 0.02598041271895242 -0.040912454545210322 0 0.022101834992405232 -0.050108000167493109 0 0.033967325661793613 -0.049417234352715472 0 0.02598041271895242 -0.040912454545210322 0 0.018379681793196871 -0.039483369758389057 0 0.022101834992405232 -0.050108000167493109 0 0.018379681793196871 -0.039483369758389057 0 0.006807656598899833 -0.044556533383483428 0 0.022101834992405232 -0.050108000167493109 0 0.024034592306862241 -0.03149707256717188 0 0.02598041271895242 -0.040912454545210322 0 0.018379681793196871 -0.039483369758389057 0 0.012973912348864631 -0.030342788128586609 0 0.024034592306862241 -0.03149707256717188 0 0.018379681793196871 -0.039483369758389057 0 0.012973912348864631 -0.030342788128586609 0 0.018379681793196871 -0.039483369758389057 0 0.006807656598899833 -0.044556533383483428 0 -0.0032704433637422889 -0.021708726878872899 0 0.012973912348864631 -0.030342788128586609 0 0.006807656598899833 -0.044556533383483428 0 0.006807656598899833 -0.044556533383483428 0 0.01202426097766549 -0.057983746330002521 0 0.022101834992405232 -0.050108000167493109 0 -0.00013189539463332069 -0.062397079718219763 0 0.006807656598899833 -0.044556533383483428 0 0.01202426097766549 -0.057983746330002521 0 0.023323171294268041 -0.06286136230967837 0 0.01202426097766549 -0.057983746330002521 0 0.022101834992405232 -0.050108000167493109 0 0.023323171294268041 -0.06286136230967837 0 0.022101834992405232 -0.050108000167493109 0 0.033967325661793613 -0.049417234352715472 0 0.022101834992405232 -0.050108000167493109 0 0.033967325661793613 -0.049417234352715472 0 0.023323171294268041 -0.06286136230967837 0 0.033967325661793613 -0.049417234352715472 0 0.023323171294268041 -0.06286136230967837 0 0.034249836304144438 -0.059571878974144343 0 0.033967325661793613 -0.049417234352715472 0 0.033967325661793613 -0.049417234352715472 0 0.05026697117709579 -0.048468328131416903 0 0.033967325661793613 -0.049417234352715472 0 0.04157691612297159 -0.056981478970973477 0 0.05026697117709579 -0.048468328131416903 0 0.038131932137544497 -0.069027440263210046 0 0.034249836304144438 -0.059571878974144343 0 0.04157691612297159 -0.056981478970973477 0 0.034249836304144438 -0.059571878974144343 0 0.033967325661793613 -0.049417234352715472 0 0.04157691612297159 -0.056981478970973477 0 0.038131932137544497 -0.069027440263210046 0 0.04157691612297159 -0.056981478970973477 0 0.052349274414971322 -0.058273431086664232 0 0.052349274414971322 -0.058273431086664232 0 0.05026697117709579 -0.048468328131416903 0 0.066566616692397912 -0.047519421910118077 0 0.05026697117709579 -0.048468328131416903 0 0.066566616692397912 -0.047519421910118077 0 0.052349274414971322 -0.058273431086664232 0 0.066566616692397912 -0.047519421910118077 0 0.063461574478849148 -0.059486948344688241 0 0.052800373945666723 -0.067280174290593825 0 0.052349274414971322 -0.058273431086664232 0 0.063461574478849148 -0.059486948344688241 0 0.052349274414971322 -0.058273431086664232 0 0.066566616692397912 -0.047519421910118077 0 0.04157691612297159 -0.056981478970973477 0 0.052349274414971322 -0.058273431086664232 0 0.05026697117709579 -0.048468328131416903 0 0.05026697117709579 -0.048468328131416903 0 0.058022815244797951 -0.040592873266467933 0 0.066566616692397912 -0.047519421910118077 0 0.05026697117709579 -0.048468328131416903 0 0.048715619426201853 -0.041134343680760133 0 0.058022815244797951 -0.040592873266467933 0 0.058022815244797951 -0.040592873266467933 0 0.057428531409408609 -0.029150407499700558 0 0.063799811876805362 -0.024129556836538661 0 0.048715619426201853 -0.041134343680760133 0 0.058022815244797951 -0.040592873266467933 0 0.053219653169468938 -0.035478013086818777 0 0.058022815244797951 -0.040592873266467933 0 0.053219653169468938 -0.035478013086818777 0 0.057428531409408609 -0.029150407499700558 0 0.053219653169468938 -0.035478013086818777 0 0.047084140678495597 -0.032850005676439857 0 0.057428531409408609 -0.029150407499700558 0 0.048715619426201853 -0.041134343680760133 0 0.053219653169468938 -0.035478013086818777 0 0.047084140678495597 -0.032850005676439857 0 0.033967325661793613 -0.049417234352715472 0 0.05026697117709579 -0.048468328131416903 0 0.048715619426201853 -0.041134343680760133 0 0.033967325661793613 -0.049417234352715472 0 0.047084140678495597 -0.032850005676439857 0 0.033967325661793613 -0.049417234352715472 0 0.047084140678495597 -0.032850005676439857 0 0.039159992320060573 -0.035419077778265903 0 0.033967325661793613 -0.049417234352715472 0 0.048715619426201853 -0.041134343680760133 0 0.047084140678495597 -0.032850005676439857 0 0.033967325661793613 -0.049417234352715472 0 0.039159992320060573 -0.035419077778265903 0 0.031437665474670737 -0.037103903587571478 0 0.039159992320060573 -0.035419077778265903 0 0.031437665474670737 -0.037103903587571478 0 0.034046004365684841 -0.028273678694493789 0 0.034046004365684841 -0.028273678694493789 0 0.052292387754216393 -0.016941560454893069 0 0.037609040516515958 -0.002694215823619749 0 0.039159992320060573 -0.035419077778265903 0 0.034046004365684841 -0.028273678694493789 0 0.052292387754216393 -0.016941560454893069 0 0.047084140678495597 -0.032850005676439857 0 0.039159992320060573 -0.035419077778265903 0 0.052292387754216393 -0.016941560454893069 0 0.039159992320060573 -0.035419077778265903 0 0.052292387754216393 -0.016941560454893069 0 0.047084140678495597 -0.032850005676439857 0 0.060200955695197969 -0.01628277700016461 0 0.052292387754216393 -0.016941560454893069 0 0.047084140678495597 -0.032850005676439857 0 0.057428531409408609 -0.029150407499700558 0 0.060200955695197969 -0.01628277700016461 0 0.047084140678495597 -0.032850005676439857 0 0.060200955695197969 -0.01628277700016461 0 0.057428531409408609 -0.029150407499700558 0 0.060200955695197969 -0.01628277700016461 0 0.063799811876805362 -0.024129556836538661 0 0.065424783188372249 0.00153595686847981 0 0.052292387754216393 -0.016941560454893069 0 0.065424783188372249 0.00153595686847981 0 0.060200955695197969 -0.01628277700016461 0 0.052292387754216393 -0.016941560454893069 0 0.065424783188372249 0.00153595686847981 0 0.052292387754216393 -0.016941560454893069 0 0.051841861605487469 -0.0027158551788205791 0 0.052292387754216393 -0.016941560454893069 0 0.051841861605487469 -0.0027158551788205791 0 0.037609040516515958 -0.002694215823619749 0 0.034046004365684841 -0.028273678694493789 0 0.037609040516515958 -0.002694215823619749 0 0.090190712691382735 -0.002244999235090887 0 0.07410676396809035 -0.021418936250779411 0 0.088842684210436965 -0.017571912303406372 0 0.090190712691382735 -0.002244999235090887 0 0.075819305506104218 -0.0062473973239618903 0 0.07410676396809035 -0.021418936250779411 0 0.090190712691382735 -0.002244999235090887 0 0.07410676396809035 -0.021418936250779411 0 0.090190712691382735 -0.002244999235090887 0 0.088842684210436965 -0.017571912303406372 0 0.096600136089238633 -0.011282230784075579 0 0.080134274616143808 0.0040937821631618111 0 0.090190712691382735 -0.002244999235090887 0 0.075819305506104218 -0.0062473973239618903 0 0.065424783188372249 0.00153595686847981 0 0.080134274616143808 0.0040937821631618111 0 0.075819305506104218 -0.0062473973239618903 0 0.065424783188372249 0.00153595686847981 0 0.060200955695197969 -0.01628277700016461 0 0.069239993066531905 -0.01320279016558077 0 0.065424783188372249 0.00153595686847981 0 0.075819305506104218 -0.0062473973239618903 0 0.069239993066531905 -0.01320279016558077 0 0.075819305506104218 -0.0062473973239618903 0 0.069239993066531905 -0.01320279016558077 0 0.07410676396809035 -0.021418936250779411 0 0.058022815244797951 -0.040592873266467933 0 0.07410676396809035 -0.021418936250779411 0 0.063799811876805362 -0.024129556836538661 0 0.058022815244797951 -0.040592873266467933 0 0.07410676396809035 -0.021418936250779411 0 0.060200955695197969 -0.01628277700016461 0 0.069239993066531905 -0.01320279016558077 0 0.063799811876805362 -0.024129556836538661 0 0.069239993066531905 -0.01320279016558077 0 0.07410676396809035 -0.021418936250779411 0 0.063799811876805362 -0.024129556836538661 0 0.07410676396809035 -0.021418936250779411 0 0.083938255583524871 -0.034379500228453173 0 0.070658612872202833 -0.035977682913954728 0 0.088842684210436965 -0.017571912303406372 0 0.083938255583524871 -0.034379500228453173 0 0.1013098944746515 -0.02123957854678795 0 0.083938255583524871 -0.034379500228453173 0 0.1013098944746515 -0.02123957854678795 0 0.07410676396809035 -0.021418936250779411 0 0.088842684210436965 -0.017571912303406372 0 0.083938255583524871 -0.034379500228453173 0 0.08823929284268435 -0.046257717340413548 0 0.083938255583524871 -0.034379500228453173 0 0.066566616692397912 -0.047519421910118077 0 0.08823929284268435 -0.046257717340413548 0 0.083938255583524871 -0.034379500228453173 0 0.098504874234579071 -0.035822807074255753 0 0.083938255583524871 -0.034379500228453173 0 0.070658612872202833 -0.035977682913954728 0 0.066566616692397912 -0.047519421910118077 0 0.083938255583524871 -0.034379500228453173 0 0.066566616692397912 -0.047519421910118077 0 0.058022815244797951 -0.040592873266467933 0 0.07410676396809035 -0.021418936250779411 0 0.070658612872202833 -0.035977682913954728 0 0.058022815244797951 -0.040592873266467933 0 0.070658612872202833 -0.035977682913954728 0 0.066566616692397912 -0.047519421910118077 0 0.08823929284268435 -0.046257717340413548 0 0.066566616692397912 -0.047519421910118077 0 0.08823929284268435 -0.046257717340413548 0 0.066566616692397912 -0.047519421910118077 0 0.078309762657110635 -0.0579433375499658 0 0.066566616692397912 -0.047519421910118077 0 0.063461574478849148 -0.059486948344688241 0 0.078309762657110635 -0.0579433375499658 0 0.063461574478849148 -0.059486948344688241 0 0.078309762657110635 -0.0579433375499658 0 0.071265110550561714 -0.069759098189123792 0 0.08823929284268435 -0.046257717340413548 0 0.078309762657110635 -0.0579433375499658 0 0.099449543769593168 -0.058246566603929073 0 0.078309762657110635 -0.0579433375499658 0 0.099449543769593168 -0.058246566603929073 0 0.086561829374174448 -0.070494467407892544 0 0.08823929284268435 -0.046257717340413548 0 0.099449543769593168 -0.058246566603929073 0 0.1099119689929708 -0.044996012770709512 0 0.1099119689929708 -0.044996012770709512 0 0.13158464514325721 -0.043734308201003359 0 0.12592988142988951 -0.053515555559283563 0 0.099449543769593168 -0.058246566603929073 0 0.1099119689929708 -0.044996012770709512 0 0.12592988142988951 -0.053515555559283563 0 0.099449543769593168 -0.058246566603929073 0 0.1067840073689712 -0.074645704179486294 0 0.12592988142988951 -0.053515555559283563 0 0.1099119689929708 -0.044996012770709512 0 0.13158464514325721 -0.043734308201003359 0 0.1099119689929708 -0.044996012770709512 0 0.11658465197206409 -0.031461827184536308 0 0.13158464514325721 -0.043734308201003359 0 0.08823929284268435 -0.046257717340413548 0 0.1099119689929708 -0.044996012770709512 0 0.098504874234579071 -0.035822807074255753 0 0.1099119689929708 -0.044996012770709512 0 0.11658465197206409 -0.031461827184536308 0 0.098504874234579071 -0.035822807074255753 0 0.08823929284268435 -0.046257717340413548 0 0.1099119689929708 -0.044996012770709512 0 0.083938255583524871 -0.034379500228453173 0 0.098504874234579071 -0.035822807074255753 0 0.1013098944746515 -0.02123957854678795 0 0.11658465197206409 -0.031461827184536308 0 0.098504874234579071 -0.035822807074255753 0 0.1013098944746515 -0.02123957854678795 0 0.088842684210436965 -0.017571912303406372 0 0.1013098944746515 -0.02123957854678795 0 0.096600136089238633 -0.011282230784075579 0 0.11658465197206409 -0.031461827184536308 0 0.1013098944746515 -0.02123957854678795 0 0.1231084193729178 -0.017030089600476989 0 0.11658465197206409 -0.031461827184536308 0 0.1231084193729178 -0.017030089600476989 0 0.12581890553593969 -0.026161097869136039 0 0.11658465197206409 -0.031461827184536308 0 0.12581890553593969 -0.026161097869136039 0 0.13062696563361359 -0.033599875564541228 0 0.1013098944746515 -0.02123957854678795 0 0.1231084193729178 -0.017030089600476989 0 0.1186815333657793 -0.0080996568651242658 0 0.1013098944746515 -0.02123957854678795 0 0.1186815333657793 -0.0080996568651242658 0 0.1231084193729178 -0.017030089600476989 0 0.1186815333657793 -0.0080996568651242658 0 0.1231084193729178 -0.017030089600476989 0 0.1186815333657793 -0.0080996568651242658 0 0.12987870673538801 -0.009995887487841389 0 0.1112154668307228 0.0069617666460044213 0 0.1186815333657793 -0.0080996568651242658 0 0.1112154668307228 0.0069617666460044213 0 0.1186815333657793 -0.0080996568651242658 0 0.1054165138138201 -0.0048713011027633141 0 0.1013098944746515 -0.02123957854678795 0 0.1186815333657793 -0.0080996568651242658 0 0.1054165138138201 -0.0048713011027633141 0 0.1013098944746515 -0.02123957854678795 0 0.1054165138138201 -0.0048713011027633141 0 0.096600136089238633 -0.011282230784075579 0 0.090190712691382735 -0.002244999235090887 0 0.1054165138138201 -0.0048713011027633141 0 0.096600136089238633 -0.011282230784075579 0 0.1006728258854344 0.0067284981921742707 0 0.090190712691382735 -0.002244999235090887 0 0.1054165138138201 -0.0048713011027633141 0 0.087638133308052979 -0.095775852799689032 0 0.084085908736839604 -0.109987311143167 0 0.06729473245905529 -0.1182276396448243 0 0.087638133308052979 -0.095775852799689032 0 0.073190060918706251 -0.102528583137815 0 0.077787374420948616 -0.095506912627961349 0 0.087638133308052979 -0.095775852799689032 0 0.09093260219937227 -0.10463326807165731 0 0.098156406279054934 -0.1005181879570589 0 0.087638133308052979 -0.095775852799689032 0 0.09093260219937227 -0.10463326807165731 0 0.084085908736839604 -0.109987311143167 0 0.09093260219937227 -0.10463326807165731 0 0.089959973906702712 -0.1104777667105977 0 0.084085908736839604 -0.109987311143167 0 0.09093260219937227 -0.10463326807165731 0 0.089959973906702712 -0.1104777667105977 0 0.095093233242139308 -0.10803541618589579 0 0.093180028052593844 -0.12952414309760249 0 0.06729473245905529 -0.1182276396448243 0 0.089959973906702712 -0.1104777667105977 0 0.095093233242139308 -0.10803541618589579 0 0.094224226534726091 -0.1130764018675933 0 0.093180028052593844 -0.12952414309760249 0 0.093109250014256503 -0.12359875532379321 0 0.06729473245905529 -0.1182276396448243 0 0.08732234373138377 -0.11539269840410139 0 0.093109250014256503 -0.12359875532379321 0 0.06729473245905529 -0.1182276396448243 0 0.08732234373138377 -0.11539269840410139 0 0.084085908736839604 -0.109987311143167 0 0.06729473245905529 -0.1182276396448243 0 0.089959973906702712 -0.1104777667105977 0 0.08732234373138377 -0.11539269840410139 0 0.094224226534726091 -0.1130764018675933 0 0.093180028052593844 -0.12952414309760249 0 0.077551670074185175 -0.12697256784210889 0 0.06729473245905529 -0.1182276396448243 0 0.093109250014256503 -0.12359875532379321 0 0.06729473245905529 -0.1182276396448243 0 0.08732234373138377 -0.11539269840410139 0 0.093654206431215456 -0.1184389367985338 0 0.094224226534726091 -0.1130764018675933 0 0.089959973906702712 -0.1104777667105977 0 0.08732234373138377 -0.11539269840410139 0 0.084085908736839604 -0.109987311143167 0 0.08732234373138377 -0.11539269840410139 0 0.093109250014256503 -0.12359875532379321 0 0.093654206431215456 -0.1184389367985338 0 0.06729473245905529 -0.1182276396448243 0 0.06555221180334149 -0.1085412294097399 0 0.073190060918706251 -0.102528583137815 0 0.060784225145630782 -0.1092272285126536 0 0.06729473245905529 -0.1182276396448243 0 0.06555221180334149 -0.1085412294097399 0 0.087638133308052979 -0.095775852799689032 0 0.06729473245905529 -0.1182276396448243 0 0.073190060918706251 -0.102528583137815 0 0.087638133308052979 -0.095775852799689032 0 0.06729473245905529 -0.1182276396448243 0 0.060784225145630782 -0.1092272285126536 0 0.06555221180334149 -0.1085412294097399 0 0.063655448418436691 -0.1031526609834184 0 0.06555221180334149 -0.1085412294097399 0 0.063655448418436691 -0.1031526609834184 0 0.068114887854425654 -0.10380640396583191 0 0.063655448418436691 -0.1031526609834184 0 0.068114887854425654 -0.10380640396583191 0 0.068542385636517544 -0.10019424491227499 0 0.068114887854425654 -0.10380640396583191 0 0.073190060918706251 -0.102528583137815 0 0.068542385636517544 -0.10019424491227499 0 0.06555221180334149 -0.1085412294097399 0 0.068114887854425654 -0.10380640396583191 0 0.073190060918706251 -0.102528583137815 0 0.073190060918706251 -0.102528583137815 0 0.071948729166562211 -0.09470452405309604 0 0.068542385636517544 -0.10019424491227499 0 0.073190060918706251 -0.102528583137815 0 0.077787374420948616 -0.095506912627961349 0 0.071948729166562211 -0.09470452405309604 0 0.061531053782275927 -0.094251051718790252 0 0.071948729166562211 -0.09470452405309604 0 0.068542385636517544 -0.10019424491227499 0 0.061531053782275927 -0.094251051718790252 0 0.063655448418436691 -0.1031526609834184 0 0.068542385636517544 -0.10019424491227499 0 0.061462901594500637 -0.084888849622130502 0 0.061531053782275927 -0.094251051718790252 0 0.068319813684605282 -0.088494546816622721 0 0.061531053782275927 -0.094251051718790252 0 0.071948729166562211 -0.09470452405309604 0 0.068319813684605282 -0.088494546816622721 0 0.061462901594500637 -0.084888849622130502 0 0.068319813684605282 -0.088494546816622721 0 0.069803254229915263 -0.080418515587930964 0 0.061520594855873578 -0.076347379000701932 0 0.061462901594500637 -0.084888849622130502 0 0.069803254229915263 -0.080418515587930964 0 0.068319813684605282 -0.088494546816622721 0 0.069803254229915263 -0.080418515587930964 0 0.076853129649772381 -0.088209793101165862 0 0.069803254229915263 -0.080418515587930964 0 0.076853129649772381 -0.088209793101165862 0 0.078598399238624453 -0.078400788571160063 0 0.071948729166562211 -0.09470452405309604 0 0.068319813684605282 -0.088494546816622721 0 0.076853129649772381 -0.088209793101165862 0 0.077787374420948616 -0.095506912627961349 0 0.071948729166562211 -0.09470452405309604 0 0.076853129649772381 -0.088209793101165862 0 0.060952774156679101 -0.068343560690115324 0 0.063461574478849148 -0.059486948344688241 0 0.071265110550561714 -0.069759098189123792 0 0.061520594855873578 -0.076347379000701932 0 0.060952774156679101 -0.068343560690115324 0 0.071265110550561714 -0.069759098189123792 0 0.061520594855873578 -0.076347379000701932 0 0.069803254229915263 -0.080418515587930964 0 0.071265110550561714 -0.069759098189123792 0 0.069803254229915263 -0.080418515587930964 0 0.071265110550561714 -0.069759098189123792 0 0.078598399238624453 -0.078400788571160063 0 0.086561829374174448 -0.070494467407892544 0 0.08739815184253541 -0.081652298244406799 0 0.1067840073689712 -0.074645704179486294 0 0.078309762657110635 -0.0579433375499658 0 0.071265110550561714 -0.069759098189123792 0 0.086561829374174448 -0.070494467407892544 0 0.071265110550561714 -0.069759098189123792 0 0.086561829374174448 -0.070494467407892544 0 0.078598399238624453 -0.078400788571160063 0 0.086561829374174448 -0.070494467407892544 0 0.078598399238624453 -0.078400788571160063 0 0.08739815184253541 -0.081652298244406799 0 0.087638133308052979 -0.095775852799689032 0 0.076853129649772381 -0.088209793101165862 0 0.08739815184253541 -0.081652298244406799 0 0.087638133308052979 -0.095775852799689032 0 0.077787374420948616 -0.095506912627961349 0 0.076853129649772381 -0.088209793101165862 0 0.076853129649772381 -0.088209793101165862 0 0.078598399238624453 -0.078400788571160063 0 0.08739815184253541 -0.081652298244406799 0 0.087638133308052979 -0.095775852799689032 0 0.1067840073689712 -0.074645704179486294 0 0.087638133308052979 -0.095775852799689032 0 0.08739815184253541 -0.081652298244406799 0 0.1067840073689712 -0.074645704179486294 0 0.1067840073689712 -0.074645704179486294 0 0.1125984847406882 -0.090142375741801145 0 0.098156406279054934 -0.1005181879570589 0 0.087638133308052979 -0.095775852799689032 0 0.1067840073689712 -0.074645704179486294 0 0.098156406279054934 -0.1005181879570589 0 0.099449543769593168 -0.058246566603929073 0 0.086561829374174448 -0.070494467407892544 0 0.1067840073689712 -0.074645704179486294 0 0.1067840073689712 -0.074645704179486294 0 0.12592988142988951 -0.053515555559283563 0 0.1067840073689712 -0.074645704179486294 0 0.13438426325014971 -0.07336065065316362 0 0.12592988142988951 -0.053515555559283563 0 0.1067840073689712 -0.074645704179486294 0 0.1125984847406882 -0.090142375741801145 0 0.13438426325014971 -0.07336065065316362 0 0.1125984847406882 -0.090142375741801145 0 0.1202838760541025 -0.10172477634153999 0 0.13438426325014971 -0.07336065065316362 0 0.1125984847406882 -0.090142375741801145 0 0.1202838760541025 -0.10172477634153999 0 0.10338387075116259 -0.1004625595777569 0 0.1202838760541025 -0.10172477634153999 0 0.10338387075116259 -0.1004625595777569 0 0.1058014173859827 -0.1073933575306157 0 0.1202838760541025 -0.10172477634153999 0 0.10338387075116259 -0.1004625595777569 0 0.1202838760541025 -0.10172477634153999 0 0.1058014173859827 -0.1073933575306157 0 0.1126701278508699 -0.1123334419039958 0 0.1125984847406882 -0.090142375741801145 0 0.10338387075116259 -0.1004625595777569 0 0.098156406279054934 -0.1005181879570589 0 0.1058014173859827 -0.1073933575306157 0 0.098156406279054934 -0.1005181879570589 0 0.1043885114258833 -0.1158260152552439 0 0.10338387075116259 -0.1004625595777569 0 0.1058014173859827 -0.1073933575306157 0 0.098156406279054934 -0.1005181879570589 0 0.09093260219937227 -0.10463326807165731 0 0.095093233242139308 -0.10803541618589579 0 0.098156406279054934 -0.1005181879570589 0 0.098156406279054934 -0.1005181879570589 0 0.099961005444495502 -0.12168789159864719 0 0.1043885114258833 -0.1158260152552439 0 0.095093233242139308 -0.10803541618589579 0 0.098156406279054934 -0.1005181879570589 0 0.099961005444495502 -0.12168789159864719 0 0.098156406279054934 -0.1005181879570589 0 0.099961005444495502 -0.12168789159864719 0 0.093654206431215456 -0.1184389367985338 0 0.099961005444495502 -0.12168789159864719 0 0.094224226534726091 -0.1130764018675933 0 0.093180028052593844 -0.12952414309760249 0 0.093109250014256503 -0.12359875532379321 0 0.099961005444495502 -0.12168789159864719 0 0.093109250014256503 -0.12359875532379321 0 0.093654206431215456 -0.1184389367985338 0 0.099961005444495502 -0.12168789159864719 0 0.095093233242139308 -0.10803541618589579 0 0.099961005444495502 -0.12168789159864719 0 0.094224226534726091 -0.1130764018675933 0 0.1058014173859827 -0.1073933575306157 0 0.1043885114258833 -0.1158260152552439 0 0.1126701278508699 -0.1123334419039958 0 0.1043885114258833 -0.1158260152552439 0 0.1096503773773204 -0.12075330089597421 0 0.1126701278508699 -0.1123334419039958 0 0.099961005444495502 -0.12168789159864719 0 0.1043885114258833 -0.1158260152552439 0 0.1096503773773204 -0.12075330089597421 0 0.1145263804941028 -0.128967240922847 0 0.099961005444495502 -0.12168789159864719 0 0.1096503773773204 -0.12075330089597421 0 0.1145263804941028 -0.128967240922847 0 0.1249384234705134 -0.11453697773573129 0 0.13117736198413379 -0.12665691843031379 0 0.1145263804941028 -0.128967240922847 0 0.1096503773773204 -0.12075330089597421 0 0.1249384234705134 -0.11453697773573129 0 0.1096503773773204 -0.12075330089597421 0 0.1126701278508699 -0.1123334419039958 0 0.1249384234705134 -0.11453697773573129 0 0.1202838760541025 -0.10172477634153999 0 0.1126701278508699 -0.1123334419039958 0 0.1249384234705134 -0.11453697773573129 0 0.1249384234705134 -0.11453697773573129 0 0.1378670318921674 -0.110216283289641 0 0.13117736198413379 -0.12665691843031379 0 0.1378670318921674 -0.110216283289641 0 0.14685392222748619 -0.11323629758967579 0 0.13117736198413379 -0.12665691843031379 0 0.14685392222748619 -0.11323629758967579 0 0.16012322209323671 -0.12189297383967621 0 0.13117736198413379 -0.12665691843031379 0 0.16012322209323671 -0.12189297383967621 0 0.13117736198413379 -0.12665691843031379 0 0.14685392222748619 -0.11323629758967579 0 0.16012322209323671 -0.12189297383967621 0 0.1605201994492747 -0.1047299210732726 0 0.1561244935268207 -0.102173379736565 0 0.1371838813570424 -0.102986993105324 0 0.1605201994492747 -0.1047299210732726 0 0.1371838813570424 -0.102986993105324 0 0.1605201994492747 -0.1047299210732726 0 0.14685392222748619 -0.11323629758967579 0 0.1371838813570424 -0.102986993105324 0 0.1605201994492747 -0.1047299210732726 0 0.1561244935268207 -0.102173379736565 0 0.1371838813570424 -0.102986993105324 0 0.14932678126667381 -0.092557655400931971 0 0.1378670318921674 -0.110216283289641 0 0.14685392222748619 -0.11323629758967579 0 0.1371838813570424 -0.102986993105324 0 0.1202838760541025 -0.10172477634153999 0 0.1371838813570424 -0.102986993105324 0 0.1202838760541025 -0.10172477634153999 0 0.1249384234705134 -0.11453697773573129 0 0.1371838813570424 -0.102986993105324 0 0.1249384234705134 -0.11453697773573129 0 0.1378670318921674 -0.110216283289641 0 0.1371838813570424 -0.102986993105324 0 0.1378670318921674 -0.110216283289641 0 0.1371838813570424 -0.102986993105324 0 0.1371838813570424 -0.102986993105324 0 0.13438426325014971 -0.07336065065316362 0 0.14562239676259611 -0.079819981743459723 0 0.1371838813570424 -0.102986993105324 0 0.13438426325014971 -0.07336065065316362 0 0.1202838760541025 -0.10172477634153999 0 0.1371838813570424 -0.102986993105324 0 0.13438426325014971 -0.07336065065316362 0 0.14562239676259611 -0.079819981743459723 0 0.14362585268346381 -0.060626396971378733 0 0.15281031609849599 -0.0624540575125207 0 0.14562239676259611 -0.079819981743459723 0 0.16062821331365229 -0.068327154300193468 0 0.15281031609849599 -0.0624540575125207 0 0.14562239676259611 -0.079819981743459723 0 0.15837635342023629 -0.085250267018379206 0 0.16062821331365229 -0.068327154300193468 0 0.13438426325014971 -0.07336065065316362 0 0.14562239676259611 -0.079819981743459723 0 0.14362585268346381 -0.060626396971378733 0 0.14562239676259611 -0.079819981743459723 0 0.16062821331365229 -0.068327154300193468 0 0.1371838813570424 -0.102986993105324 0 0.14562239676259611 -0.079819981743459723 0 0.14932678126667381 -0.092557655400931971 0 0.1561244935268207 -0.102173379736565 0 0.14932678126667381 -0.092557655400931971 0 0.15837635342023629 -0.085250267018379206 0 0.14562239676259611 -0.079819981743459723 0 0.14932678126667381 -0.092557655400931971 0 0.15837635342023629 -0.085250267018379206 0 0.15837635342023629 -0.085250267018379206 0 0.16062821331365229 -0.068327154300193468 0 0.17390425222357239 -0.08612717668903562 0 0.1561244935268207 -0.102173379736565 0 0.15837635342023629 -0.085250267018379206 0 0.15837635342023629 -0.085250267018379206 0 0.17390425222357239 -0.08612717668903562 0 0.16350312971636 -0.094543834523885525 0 0.16395198690564089 -0.065781504336845459 0 0.16062821331365229 -0.068327154300193468 0 0.17390425222357239 -0.08612717668903562 0 0.15837635342023629 -0.085250267018379206 0 0.16062821331365229 -0.068327154300193468 0 0.16395198690564089 -0.065781504336845459 0 0.17390425222357239 -0.08612717668903562 0 0.16062821331365229 -0.068327154300193468 0 0.15281031609849599 -0.0624540575125207 0 0.16160530718495339 -0.060984126535175778 0 0.16395198690564089 -0.065781504336845459 0 0.16062821331365229 -0.068327154300193468 0 0.16160530718495339 -0.060984126535175778 0 0.16395198690564089 -0.065781504336845459 0 0.16160530718495339 -0.060984126535175778 0 0.16062821331365229 -0.068327154300193468 0 0.16160530718495339 -0.060984126535175778 0 0.16395198690564089 -0.065781504336845459 0 0.16062821331365229 -0.068327154300193468 0 0.16395198690564089 -0.065781504336845459 0 0.1848490297697328 -0.070094395614981 0 0.17390425222357239 -0.08612717668903562 0 0.1848490297697328 -0.070094395614981 0 0.17390425222357239 -0.08612717668903562 0 0.1963711083878964 -0.091889512955056457 0 0.18385651754150681 -0.10647284904122439 0 0.17339225532158919 -0.1125561933008031 0 0.1605201994492747 -0.1047299210732726 0 0.17390425222357239 -0.08612717668903562 0 0.18385651754150681 -0.10647284904122439 0 0.1963711083878964 -0.091889512955056457 0 0.18385651754150681 -0.10647284904122439 0 0.1605201994492747 -0.1047299210732726 0 0.17390425222357239 -0.08612717668903562 0 0.18385651754150681 -0.10647284904122439 0 0.16350312971636 -0.094543834523885525 0 0.17390425222357239 -0.08612717668903562 0 0.18385651754150681 -0.10647284904122439 0 0.16012322209323671 -0.12189297383967621 0 0.1890690822023397 -0.1171290292490392 0 0.18385651754150681 -0.10647284904122439 0 0.17339225532158919 -0.1125561933008031 0 0.1890690822023397 -0.1171290292490392 0 0.18385651754150681 -0.10647284904122439 0 0.1890690822023397 -0.1171290292490392 0 0.16012322209323671 -0.12189297383967621 0 0.1890690822023397 -0.1171290292490392 0 0.17676988930472851 -0.1327186890943779 0 0.17339225532158919 -0.1125561933008031 0 0.16012322209323671 -0.12189297383967621 0 0.1890690822023397 -0.1171290292490392 0 0.17339225532158919 -0.1125561933008031 0 0.16012322209323671 -0.12189297383967621 0 0.1605201994492747 -0.1047299210732726 0 0.18385651754150681 -0.10647284904122439 0 0.1605201994492747 -0.1047299210732726 0 0.16350312971636 -0.094543834523885525 0 0.1561244935268207 -0.102173379736565 0 0.15837635342023629 -0.085250267018379206 0 0.16350312971636 -0.094543834523885525 0 0.1561244935268207 -0.102173379736565 0 0.1605201994492747 -0.1047299210732726 0 0.16350312971636 -0.094543834523885525 0 0.1499659599275856 -0.0028357427761619 0 0.15620695430303139 -0.014746089308780059 0 0.13782322314636389 -0.01236579952680261 0 0.1394184874939306 0.0075857919787062364 0 0.1499659599275856 -0.0028357427761619 0 0.13782322314636389 -0.01236579952680261 0 0.1394184874939306 0.0075857919787062364 0 0.1186815333657793 -0.0080996568651242658 0 0.12987870673538801 -0.009995887487841389 0 0.1394184874939306 0.0075857919787062364 0 0.12987870673538801 -0.009995887487841389 0 0.13782322314636389 -0.01236579952680261 0 0.1394184874939306 0.0075857919787062364 0 0.1186815333657793 -0.0080996568651242658 0 0.12987870673538801 -0.009995887487841389 0 0.13782322314636389 -0.01236579952680261 0 0.1329555851651634 -0.022552599126989651 0 0.13782322314636389 -0.01236579952680261 0 0.1329555851651634 -0.022552599126989651 0 0.14519651684708981 -0.02743921376959927 0 0.1231084193729178 -0.017030089600476989 0 0.12987870673538801 -0.009995887487841389 0 0.1329555851651634 -0.022552599126989651 0 0.1231084193729178 -0.017030089600476989 0 0.1329555851651634 -0.022552599126989651 0 0.12581890553593969 -0.026161097869136039 0 0.1329555851651634 -0.022552599126989651 0 0.12581890553593969 -0.026161097869136039 0 0.13062696563361359 -0.033599875564541228 0 0.1329555851651634 -0.022552599126989651 0 0.14519651684708981 -0.02743921376959927 0 0.13062696563361359 -0.033599875564541228 0 0.15620695430303139 -0.014746089308780059 0 0.14519651684708981 -0.02743921376959927 0 0.15686858372827389 -0.030572980715218821 0 0.15620695430303139 -0.014746089308780059 0 0.13782322314636389 -0.01236579952680261 0 0.14519651684708981 -0.02743921376959927 0 0.13782322314636389 -0.01236579952680261 0 0.14519651684708981 -0.02743921376959927 0 0.15256981054781521 -0.042512628012396102 0 0.13158464514325721 -0.043734308201003359 0 0.15256981054781521 -0.042512628012396102 0 0.139994484542944 -0.036821506386885819 0 0.13158464514325721 -0.043734308201003359 0 0.14519651684708981 -0.02743921376959927 0 0.15256981054781521 -0.042512628012396102 0 0.14519651684708981 -0.02743921376959927 0 0.15256981054781521 -0.042512628012396102 0 0.15686858372827389 -0.030572980715218821 0 0.14519651684708981 -0.02743921376959927 0 0.15256981054781521 -0.042512628012396102 0 0.139994484542944 -0.036821506386885819 0 0.139994484542944 -0.036821506386885819 0 0.13062696563361359 -0.033599875564541228 0 0.13158464514325721 -0.043734308201003359 0 0.14519651684708981 -0.02743921376959927 0 0.139994484542944 -0.036821506386885819 0 0.13062696563361359 -0.033599875564541228 0 0.13062696563361359 -0.033599875564541228 0 0.13158464514325721 -0.043734308201003359 0 0.11658465197206409 -0.031461827184536308 0 0.13062696563361359 -0.033599875564541228 0 0.13158464514325721 -0.043734308201003359 0 0.13438426325014971 -0.07336065065316362 0 0.13158464514325721 -0.043734308201003359 0 0.14362585268346381 -0.060626396971378733 0 0.13438426325014971 -0.07336065065316362 0 0.13158464514325721 -0.043734308201003359 0 0.13438426325014971 -0.07336065065316362 0 0.13158464514325721 -0.043734308201003359 0 0.12592988142988951 -0.053515555559283563 0 0.15256981054781521 -0.042512628012396102 0 0.14362585268346381 -0.060626396971378733 0 0.15281031609849599 -0.0624540575125207 0 0.15256981054781521 -0.042512628012396102 0 0.15281031609849599 -0.0624540575125207 0 0.16160530718495339 -0.060984126535175778 0 0.15256981054781521 -0.042512628012396102 0 0.13158464514325721 -0.043734308201003359 0 0.14362585268346381 -0.060626396971378733 0 0.15256981054781521 -0.042512628012396102 0 0.16160530718495339 -0.060984126535175778 0 0.16160530718495339 -0.060984126535175778 0 0.1713756795348568 -0.052541801431533842 0 0.16415293053476729 -0.041838300794216417 0 0.16160530718495339 -0.060984126535175778 0 0.16415293053476729 -0.041838300794216417 0 0.15256981054781521 -0.042512628012396102 0 0.16160530718495339 -0.060984126535175778 0 0.16415293053476729 -0.041838300794216417 0 0.16395198690564089 -0.065781504336845459 0 0.16160530718495339 -0.060984126535175778 0 0.1713756795348568 -0.052541801431533842 0 0.16395198690564089 -0.065781504336845459 0 0.1841007662380012 -0.050349725381574832 0 0.16395198690564089 -0.065781504336845459 0 0.1713756795348568 -0.052541801431533842 0 0.1841007662380012 -0.050349725381574832 0 0.16395198690564089 -0.065781504336845459 0 0.1848490297697328 -0.070094395614981 0 0.1841007662380012 -0.050349725381574832 0 0.1713756795348568 -0.052541801431533842 0 0.1841007662380012 -0.050349725381574832 0 0.17774143231709641 -0.041047227524108117 0 0.1841007662380012 -0.050349725381574832 0 0.17774143231709641 -0.041047227524108117 0 0.18882084081925471 -0.03525687123266262 0 0.17774143231709641 -0.041047227524108117 0 0.17964367483989521 -0.02954813549999508 0 0.18882084081925471 -0.03525687123266262 0 0.17774143231709641 -0.041047227524108117 0 0.17171038183293769 -0.03489957152688352 0 0.17964367483989521 -0.02954813549999508 0 0.16415293053476729 -0.041838300794216417 0 0.1662167064086659 -0.026328671691101029 0 0.17171038183293769 -0.03489957152688352 0 0.16415293053476729 -0.041838300794216417 0 0.1662167064086659 -0.026328671691101029 0 0.17774143231709641 -0.041047227524108117 0 0.17171038183293769 -0.03489957152688352 0 0.16415293053476729 -0.041838300794216417 0 0.1713756795348568 -0.052541801431533842 0 0.17774143231709641 -0.041047227524108117 0 0.16415293053476729 -0.041838300794216417 0 0.17774143231709641 -0.041047227524108117 0 0.16415293053476729 -0.041838300794216417 0 0.15256981054781521 -0.042512628012396102 0 0.16415293053476729 -0.041838300794216417 0 0.16415293053476729 -0.041838300794216417 0 0.15686858372827389 -0.030572980715218821 0 0.1662167064086659 -0.026328671691101029 0 0.15256981054781521 -0.042512628012396102 0 0.16415293053476729 -0.041838300794216417 0 0.15686858372827389 -0.030572980715218821 0 0.15620695430303139 -0.014746089308780059 0 0.15686858372827389 -0.030572980715218821 0 0.1662167064086659 -0.026328671691101029 0 0.15620695430303139 -0.014746089308780059 0 0.1662167064086659 -0.026328671691101029 0 0.17365852882115621 -0.0099512103645301598 0 0.17964367483989521 -0.02954813549999508 0 0.19001648481368241 -0.019370424709481169 0 0.18882084081925471 -0.03525687123266262 0 0.17171038183293769 -0.03489957152688352 0 0.1662167064086659 -0.026328671691101029 0 0.17964367483989521 -0.02954813549999508 0 0.17964367483989521 -0.02954813549999508 0 0.17365852882115621 -0.0099512103645301598 0 0.19001648481368241 -0.019370424709481169 0 0.1662167064086659 -0.026328671691101029 0 0.17964367483989521 -0.02954813549999508 0 0.17365852882115621 -0.0099512103645301598 0 0.193411862040101 0.0087804595257519359 0 0.17365852882115621 -0.0099512103645301598 0 0.19001648481368241 -0.019370424709481169 0 0.1664151747670157 0.0081831257522299462 0 0.15620695430303139 -0.014746089308780059 0 0.17365852882115621 -0.0099512103645301598 0 0.1664151747670157 0.0081831257522299462 0 0.1499659599275856 -0.0028357427761619 0 0.15620695430303139 -0.014746089308780059 0 0.22040854931318621 0.0093777932992746577 0 0.20649695332801041 -0.011123257156358399 0 0.2243983249027213 -0.01948616747103284 0 0.193411862040101 0.0087804595257519359 0 0.20649695332801041 -0.011123257156358399 0 0.19001648481368241 -0.019370424709481169 0 0.19001648481368241 -0.019370424709481169 0 0.20424954557036121 -0.034917946426303879 0 0.18882084081925471 -0.03525687123266262 0 0.20649695332801041 -0.011123257156358399 0 0.19001648481368241 -0.019370424709481169 0 0.20424954557036121 -0.034917946426303879 0 0.20649695332801041 -0.011123257156358399 0 0.20424954557036121 -0.034917946426303879 0 0.2243983249027213 -0.01948616747103284 0 0.20424954557036121 -0.034917946426303879 0 0.22500998443226031 -0.039144816089367998 0 0.2243983249027213 -0.01948616747103284 0 0.20424954557036121 -0.034917946426303879 0 0.2243983249027213 -0.01948616747103284 0 0.20424954557036121 -0.034917946426303879 0 0.21945389410262789 -0.055982382971954812 0 0.22500998443226031 -0.039144816089367998 0 0.1841007662380012 -0.050349725381574832 0 0.20424954557036121 -0.034917946426303879 0 0.1841007662380012 -0.050349725381574832 0 0.20424954557036121 -0.034917946426303879 0 0.18882084081925471 -0.03525687123266262 0 0.1841007662380012 -0.050349725381574832 0 0.20424954557036121 -0.034917946426303879 0 0.20107375906444741 -0.057706347196407937 0 0.1848490297697328 -0.070094395614981 0 0.1841007662380012 -0.050349725381574832 0 0.20107375906444741 -0.057706347196407937 0 0.20107375906444741 -0.057706347196407937 0 0.21945389410262789 -0.055982382971954812 0 0.2178769706980917 -0.071860039491261449 0 0.20424954557036121 -0.034917946426303879 0 0.20107375906444741 -0.057706347196407937 0 0.21945389410262789 -0.055982382971954812 0 0.21945389410262789 -0.055982382971954812 0 0.23954444061722649 -0.049417082736679128 0 0.22500998443226031 -0.039144816089367998 0 0.21945389410262789 -0.055982382971954812 0 0.23954444061722649 -0.049417082736679128 0 0.23497048707199361 -0.065430103551947436 0 0.25726925547570079 -0.051347076797932878 0 0.23954444061722649 -0.049417082736679128 0 0.2489147091691396 -0.061047690623056629 0 0.23954444061722649 -0.049417082736679128 0 0.2489147091691396 -0.061047690623056629 0 0.23497048707199361 -0.065430103551947436 0 0.25726925547570079 -0.051347076797932878 0 0.25104537145499961 -0.037501163253547333 0 0.23954444061722649 -0.049417082736679128 0 0.25104537145499961 -0.037501163253547333 0 0.23954444061722649 -0.049417082736679128 0 0.23729256234363871 -0.033734339859473363 0 0.25104537145499961 -0.037501163253547333 0 0.23729256234363871 -0.033734339859473363 0 0.24646469031098589 -0.02312246974673951 0 0.23954444061722649 -0.049417082736679128 0 0.23729256234363871 -0.033734339859473363 0 0.22500998443226031 -0.039144816089367998 0 0.23729256234363871 -0.033734339859473363 0 0.22500998443226031 -0.039144816089367998 0 0.2243983249027213 -0.01948616747103284 0 0.23729256234363871 -0.033734339859473363 0 0.2243983249027213 -0.01948616747103284 0 0.24646469031098589 -0.02312246974673951 0 0.2243983249027213 -0.01948616747103284 0 0.24454710423508169 -0.0040543885157620588 0 0.24646469031098589 -0.02312246974673951 0 0.24986078142061541 -0.0070112464674283144 0 0.24454710423508169 -0.0040543885157620588 0 0.2243983249027213 -0.01948616747103284 0 0.24646469031098589 -0.02312246974673951 0 0.24454710423508169 -0.0040543885157620588 0 0.24986078142061541 -0.0070112464674283144 0 0.24454710423508169 -0.0040543885157620588 0 0.22040854931318621 0.0093777932992746577 0 0.2243983249027213 -0.01948616747103284 0 0.24454710423508169 -0.0040543885157620588 0 0.20791749343059771 -0.1082698997862245 0 0.1963711083878964 -0.091889512955056457 0 0.2165574899412904 -0.088059105932164206 0 0.20791749343059771 -0.1082698997862245 0 0.2165574899412904 -0.088059105932164206 0 0.22236958319249031 -0.099957695899208845 0 0.20791749343059771 -0.1082698997862245 0 0.21052377576101411 -0.11359798989013239 0 0.23197846931968849 -0.1100669505312265 0 0.21052377576101411 -0.11359798989013239 0 0.2193016884711986 -0.12268676968434 0 0.20601257999632211 -0.12500757691203401 0 0.20791749343059771 -0.1082698997862245 0 0.21052377576101411 -0.11359798989013239 0 0.1890690822023397 -0.1171290292490392 0 0.18385651754150681 -0.10647284904122439 0 0.20791749343059771 -0.1082698997862245 0 0.1890690822023397 -0.1171290292490392 0 0.21052377576101411 -0.11359798989013239 0 0.1890690822023397 -0.1171290292490392 0 0.20601257999632211 -0.12500757691203401 0 0.21052377576101411 -0.11359798989013239 0 0.1890690822023397 -0.1171290292490392 0 0.18385651754150681 -0.10647284904122439 0 0.20791749343059771 -0.1082698997862245 0 0.18385651754150681 -0.10647284904122439 0 0.20791749343059771 -0.1082698997862245 0 0.1963711083878964 -0.091889512955056457 0 0.1848490297697328 -0.070094395614981 0 0.1963711083878964 -0.091889512955056457 0 0.20218326692818361 -0.074844928358000842 0 0.1848490297697328 -0.070094395614981 0 0.20107375906444741 -0.057706347196407937 0 0.20218326692818361 -0.074844928358000842 0 0.20107375906444741 -0.057706347196407937 0 0.20218326692818361 -0.074844928358000842 0 0.2178769706980917 -0.071860039491261449 0 0.20218326692818361 -0.074844928358000842 0 0.2178769706980917 -0.071860039491261449 0 0.2165574899412904 -0.088059105932164206 0 0.1963711083878964 -0.091889512955056457 0 0.20218326692818361 -0.074844928358000842 0 0.2165574899412904 -0.088059105932164206 0 0.2178769706980917 -0.071860039491261449 0 0.2165574899412904 -0.088059105932164206 0 0.2332919491882367 -0.078765513220923164 0 0.2165574899412904 -0.088059105932164206 0 0.2332919491882367 -0.078765513220923164 0 0.2330248800783844 -0.09343482734722057 0 0.21945389410262789 -0.055982382971954812 0 0.2178769706980917 -0.071860039491261449 0 0.23497048707199361 -0.065430103551947436 0 0.2178769706980917 -0.071860039491261449 0 0.2332919491882367 -0.078765513220923164 0 0.23497048707199361 -0.065430103551947436 0 0.2332919491882367 -0.078765513220923164 0 0.23497048707199361 -0.065430103551947436 0 0.24957985668624191 -0.073926873436579998 0 0.2489147091691396 -0.061047690623056629 0 0.23497048707199361 -0.065430103551947436 0 0.24957985668624191 -0.073926873436579998 0 0.2332919491882367 -0.078765513220923164 0 0.24957985668624191 -0.073926873436579998 0 0.24464721597715799 -0.088843798637905619 0 0.2332919491882367 -0.078765513220923164 0 0.2330248800783844 -0.09343482734722057 0 0.24464721597715799 -0.088843798637905619 0 0.25247124487397088 -0.099797793390608916 0 0.24464721597715799 -0.088843798637905619 0 0.24117482369513821 -0.1000545135642834 0 0.2330248800783844 -0.09343482734722057 0 0.24117482369513821 -0.1000545135642834 0 0.23197846931968849 -0.1100669505312265 0 0.25247124487397088 -0.099797793390608916 0 0.2437523082264893 -0.10812919791445549 0 0.24117482369513821 -0.1000545135642834 0 0.2437523082264893 -0.10812919791445549 0 0.24117482369513821 -0.1000545135642834 0 0.23197846931968849 -0.1100669505312265 0 0.2437523082264893 -0.10812919791445549 0 0.23197846931968849 -0.1100669505312265 0 0.2330248800783844 -0.09343482734722057 0 0.24464721597715799 -0.088843798637905619 0 0.24117482369513821 -0.1000545135642834 0 0.20791749343059771 -0.1082698997862245 0 0.23197846931968849 -0.1100669505312265 0 0.2330248800783844 -0.09343482734722057 0 0.22236958319249031 -0.099957695899208845 0 0.23197846931968849 -0.1100669505312265 0 0.2165574899412904 -0.088059105932164206 0 0.2330248800783844 -0.09343482734722057 0 0.22236958319249031 -0.099957695899208845 0 0.20791749343059771 -0.1082698997862245 0 0.22236958319249031 -0.099957695899208845 0 0.23197846931968849 -0.1100669505312265 0 0.21052377576101411 -0.11359798989013239 0 0.2193016884711986 -0.12268676968434 0 0.23197846931968849 -0.1100669505312265 0 0.21052377576101411 -0.11359798989013239 0 0.23197846931968849 -0.1100669505312265 0 0.2193016884711986 -0.12268676968434 0 0.23197846931968849 -0.1100669505312265 0 0.23152589638932139 -0.1219920506077375 0 0.25422785205669218 -0.1117286981680507 0 0.23197846931968849 -0.1100669505312265 0 0.25422785205669218 -0.1117286981680507 0 0.23197846931968849 -0.1100669505312265 0 0.24217032514656181 -0.1233876961788135 0 0.25422785205669218 -0.1117286981680507 0 0.2437523082264893 -0.10812919791445549 0 0.23197846931968849 -0.1100669505312265 0 0.23197846931968849 -0.1100669505312265 0 0.23152589638932139 -0.1219920506077375 0 0.24217032514656181 -0.1233876961788135 0 0.25422785205669218 -0.1117286981680507 0 0.2525608327608555 -0.12289103938169629 0 0.24217032514656181 -0.1233876961788135 0 0.25177330827706301 -0.13290269088953879 0 0.24217032514656181 -0.1233876961788135 0 0.23816926123831089 -0.13458470912756629 0 0.2525608327608555 -0.12289103938169629 0 0.25177330827706301 -0.13290269088953879 0 0.24217032514656181 -0.1233876961788135 0 0.25177330827706301 -0.13290269088953879 0 0.23816926123831089 -0.13458470912756629 0 0.24227243407568111 -0.14745761285582429 0 0.23152589638932139 -0.1219920506077375 0 0.24217032514656181 -0.1233876961788135 0 0.23816926123831089 -0.13458470912756629 0 0.23816926123831089 -0.13458470912756629 0 0.24227243407568111 -0.14745761285582429 0 0.22801093651058291 -0.14032259914959011 0 0.24227243407568111 -0.14745761285582429 0 0.2187785015960573 -0.15146451841435901 0 0.24227243407568111 -0.14745761285582429 0 0.2187785015960573 -0.15146451841435901 0 0.23197446896547499 -0.15795708187618979 0 0.24227243407568111 -0.14745761285582429 0 0.2187785015960573 -0.15146451841435901 0 0.22801093651058291 -0.14032259914959011 0 0.2187785015960573 -0.15146451841435901 0 0.22801093651058291 -0.14032259914959011 0 0.21338488854844889 -0.1366800292613698 0 0.23152589638932139 -0.1219920506077375 0 0.23816926123831089 -0.13458470912756629 0 0.2274495970944162 -0.13142612608883111 0 0.23816926123831089 -0.13458470912756629 0 0.2274495970944162 -0.13142612608883111 0 0.22801093651058291 -0.14032259914959011 0 0.2274495970944162 -0.13142612608883111 0 0.22801093651058291 -0.14032259914959011 0 0.21338488854844889 -0.1366800292613698 0 0.2193016884711986 -0.12268676968434 0 0.23152589638932139 -0.1219920506077375 0 0.2274495970944162 -0.13142612608883111 0 0.2193016884711986 -0.12268676968434 0 0.2274495970944162 -0.13142612608883111 0 0.21338488854844889 -0.1366800292613698 0 0.2193016884711986 -0.12268676968434 0 0.20601257999632211 -0.12500757691203401 0 0.21338488854844889 -0.1366800292613698 0 0.20601257999632211 -0.12500757691203401 0 0.21338488854844889 -0.1366800292613698 0 0.1977834649986091 -0.1349440664752892 0 0.2187785015960573 -0.15146451841435901 0 0.21338488854844889 -0.1366800292613698 0 0.20663041325885159 -0.1535363828298261 0 0.21338488854844889 -0.1366800292613698 0 0.20663041325885159 -0.1535363828298261 0 0.1977834649986091 -0.1349440664752892 0 0.2187785015960573 -0.15146451841435901 0 0.20663041325885159 -0.1535363828298261 0 0.20280996320538819 -0.16087110484594769 0 0.2187785015960573 -0.15146451841435901 0 0.20663041325885159 -0.1535363828298261 0 0.1952845691164336 -0.1554714239728936 0 0.1977834649986091 -0.1349440664752892 0 0.18656949747281029 -0.14165458745521919 0 0.20663041325885159 -0.1535363828298261 0 0.1977834649986091 -0.1349440664752892 0 0.20663041325885159 -0.1535363828298261 0 0.1952845691164336 -0.1554714239728936 0 0.1977834649986091 -0.1349440664752892 0 0.20663041325885159 -0.1535363828298261 0 0.1952845691164336 -0.1554714239728936 0 0.1952845691164336 -0.1554714239728936 0 0.18656949747281029 -0.14165458745521919 0 0.18124139520631979 -0.15085640812074819 0 0.1890690822023397 -0.1171290292490392 0 0.1977834649986091 -0.1349440664752892 0 0.18774275091037951 -0.12951942841800149 0 0.1977834649986091 -0.1349440664752892 0 0.18656949747281029 -0.14165458745521919 0 0.1890690822023397 -0.1171290292490392 0 0.18774275091037951 -0.12951942841800149 0 0.1977834649986091 -0.1349440664752892 0 0.1890690822023397 -0.1171290292490392 0 0.20601257999632211 -0.12500757691203401 0 0.1977834649986091 -0.1349440664752892 0 0.19344005624135061 -0.17488752787842241 0 0.2077977356423881 -0.18050414920156391 0 0.19899755453136389 -0.1927184801215108 0 0.19344005624135061 -0.17488752787842241 0 0.19899755453136389 -0.1927184801215108 0 0.1807425574357093 -0.18972247438817211 0 0.20280996320538819 -0.16087110484594769 0 0.18686416921845081 -0.16137824049569091 0 0.19344005624135061 -0.17488752787842241 0 0.20280996320538819 -0.16087110484594769 0 0.18686416921845081 -0.16137824049569091 0 0.1952845691164336 -0.1554714239728936 0 0.20280996320538819 -0.16087110484594769 0 0.18686416921845081 -0.16137824049569091 0 0.20663041325885159 -0.1535363828298261 0 0.1952845691164336 -0.1554714239728936 0 0.20280996320538819 -0.16087110484594769 0 0.2187785015960573 -0.15146451841435901 0 0.20280996320538819 -0.16087110484594769 0 0.21413894758827171 -0.1618457707141063 0 0.19344005624135061 -0.17488752787842241 0 0.21413894758827171 -0.1618457707141063 0 0.2226788462779701 -0.16935349946998571 0 0.19344005624135061 -0.17488752787842241 0 0.20280996320538819 -0.16087110484594769 0 0.21413894758827171 -0.1618457707141063 0 0.19344005624135061 -0.17488752787842241 0 0.2226788462779701 -0.16935349946998571 0 0.21607448551886779 -0.18505708933633649 0 0.2077977356423881 -0.18050414920156391 0 0.2226788462779701 -0.16935349946998571 0 0.19344005624135061 -0.17488752787842241 0 0.2077977356423881 -0.18050414920156391 0 0.2226788462779701 -0.16935349946998571 0 0.21607448551886779 -0.18505708933633649 0 0.2077977356423881 -0.18050414920156391 0 0.19899755453136389 -0.1927184801215108 0 0.21607448551886779 -0.18505708933633649 0 0.2329725169931933 -0.18289448719548229 0 0.2226788462779701 -0.16935349946998571 0 0.2187785015960573 -0.15146451841435901 0 0.21413894758827171 -0.1618457707141063 0 0.23197446896547499 -0.15795708187618979 0 0.21413894758827171 -0.1618457707141063 0 0.2226788462779701 -0.16935349946998571 0 0.23197446896547499 -0.15795708187618979 0 0.25191763631458969 -0.1638194710615489 0 0.24227243407568111 -0.14745761285582429 0 0.23197446896547499 -0.15795708187618979 0 0.25191763631458969 -0.1638194710615489 0 0.2226788462779701 -0.16935349946998571 0 0.23197446896547499 -0.15795708187618979 0 0.25191763631458969 -0.1638194710615489 0 0.2226788462779701 -0.16935349946998571 0 0.25191763631458969 -0.1638194710615489 0 0.2329725169931933 -0.18289448719548229 0 0.2329725169931933 -0.18289448719548229 0 0.24968987140106341 -0.18092922336105319 0 0.24254979627140069 -0.19512410210957429 0 0.25191763631458969 -0.1638194710615489 0 0.2329725169931933 -0.18289448719548229 0 0.24968987140106341 -0.18092922336105319 0 0.25191763631458969 -0.1638194710615489 0 0.2329725169931933 -0.18289448719548229 0 0.2226788462779701 -0.16935349946998571 0 0.24254979627140069 -0.19512410210957429 0 0.2482240050903991 -0.21081725168179599 0 0.2329725169931933 -0.18289448719548229 0 0.24254979627140069 -0.19512410210957429 0 0.2302656663224267 -0.1990849403921548 0 0.24254979627140069 -0.19512410210957429 0 0.23396280579059731 -0.2142399522917168 0 0.2302656663224267 -0.1990849403921548 0 0.24254979627140069 -0.19512410210957429 0 0.2482240050903991 -0.21081725168179599 0 0.23396280579059731 -0.2142399522917168 0 0.25389821390939737 -0.22651040125401781 0 0.2482240050903991 -0.21081725168179599 0 0.23396280579059731 -0.2142399522917168 0 0.23396280579059731 -0.2142399522917168 0 0.22374389160092889 -0.21839007751040071 0 0.21402739767179721 -0.20196950332941579 0 0.23396280579059731 -0.2142399522917168 0 0.21402739767179721 -0.20196950332941579 0 0.23396280579059731 -0.2142399522917168 0 0.2302656663224267 -0.1990849403921548 0 0.21402739767179721 -0.20196950332941579 0 0.21607448551886779 -0.18505708933633649 0 0.2329725169931933 -0.18289448719548229 0 0.21402739767179721 -0.20196950332941579 0 0.2329725169931933 -0.18289448719548229 0 0.2302656663224267 -0.1990849403921548 0 0.21402739767179721 -0.20196950332941579 0 0.2329725169931933 -0.18289448719548229 0 0.21402739767179721 -0.20196950332941579 0 0.2444299610463688 -0.25163298647013332 0 0.23304858683527799 -0.25051591857851252 0 0.23485631178312291 -0.24148885289861141 0 0.2444299610463688 -0.25163298647013332 0 0.2473748297805245 -0.23965382761963189 0 0.23485631178312291 -0.24148885289861141 0 0.2473748297805245 -0.23965382761963189 0 0.23485631178312291 -0.24148885289861141 0 0.23766727421388409 -0.23298652293799599 0 0.25389821390939737 -0.22651040125401781 0 0.23396280579059731 -0.2142399522917168 0 0.2356838041875596 -0.2243252958757769 0 0.25389821390939737 -0.22651040125401781 0 0.23396280579059731 -0.2142399522917168 0 0.25389821390939737 -0.22651040125401781 0 0.23766727421388409 -0.23298652293799599 0 0.2356838041875596 -0.2243252958757769 0 0.25389821390939737 -0.22651040125401781 0 0.2473748297805245 -0.23965382761963189 0 0.23766727421388409 -0.23298652293799599 0 0.23396280579059731 -0.2142399522917168 0 0.22374389160092889 -0.21839007751040071 0 0.2356838041875596 -0.2243252958757769 0 0.22374389160092889 -0.21839007751040071 0 0.2356838041875596 -0.2243252958757769 0 0.2271195898878742 -0.22889843195869611 0 0.22374389160092889 -0.21839007751040071 0 0.2271195898878742 -0.22889843195869611 0 0.21853099633066889 -0.22565145104501491 0 0.2271195898878742 -0.22889843195869611 0 0.21977890090186969 -0.23548315344267359 0 0.21853099633066889 -0.22565145104501491 0 0.2271195898878742 -0.22889843195869611 0 0.2285862353044133 -0.23643469763204711 0 0.21977890090186969 -0.23548315344267359 0 0.23766727421388409 -0.23298652293799599 0 0.2356838041875596 -0.2243252958757769 0 0.2271195898878742 -0.22889843195869611 0 0.23766727421388409 -0.23298652293799599 0 0.2271195898878742 -0.22889843195869611 0 0.2285862353044133 -0.23643469763204711 0 0.22561516590192349 -0.25919641775455021 0 0.22411792709587619 -0.2419415261230467 0 0.2231035150509792 -0.24693580309054231 0 0.23485631178312291 -0.24148885289861141 0 0.2285862353044133 -0.23643469763204711 0 0.22411792709587619 -0.2419415261230467 0 0.23485631178312291 -0.24148885289861141 0 0.23766727421388409 -0.23298652293799599 0 0.2285862353044133 -0.23643469763204711 0 0.2285862353044133 -0.23643469763204711 0 0.21977890090186969 -0.23548315344267359 0 0.22411792709587619 -0.2419415261230467 0 0.21977890090186969 -0.23548315344267359 0 0.22411792709587619 -0.2419415261230467 0 0.21899388632062661 -0.24346719073442449 0 0.21509827865632861 -0.2519032261317693 0 0.21899388632062661 -0.24346719073442449 0 0.2231035150509792 -0.24693580309054231 0 0.22411792709587619 -0.2419415261230467 0 0.21899388632062661 -0.24346719073442449 0 0.2231035150509792 -0.24693580309054231 0 0.23304858683527799 -0.25051591857851252 0 0.23485631178312291 -0.24148885289861141 0 0.22411792709587619 -0.2419415261230467 0 0.21287080989807949 -0.2410722448840904 0 0.20829732945973789 -0.22979322638293129 0 0.20277084668220299 -0.24586474783829379 0 0.21509827865632861 -0.2519032261317693 0 0.21287080989807949 -0.2410722448840904 0 0.20277084668220299 -0.24586474783829379 0 0.21509827865632861 -0.2519032261317693 0 0.21899388632062661 -0.24346719073442449 0 0.21287080989807949 -0.2410722448840904 0 0.21977890090186969 -0.23548315344267359 0 0.21287080989807949 -0.2410722448840904 0 0.20829732945973789 -0.22979322638293129 0 0.21977890090186969 -0.23548315344267359 0 0.21899388632062661 -0.24346719073442449 0 0.21287080989807949 -0.2410722448840904 0 0.21977890090186969 -0.23548315344267359 0 0.20829732945973789 -0.22979322638293129 0 0.21853099633066889 -0.22565145104501491 0 0.22374389160092889 -0.21839007751040071 0 0.21853099633066889 -0.22565145104501491 0 0.21313875573707669 -0.2152558305617836 0 0.20829732945973789 -0.22979322638293129 0 0.21853099633066889 -0.22565145104501491 0 0.21313875573707669 -0.2152558305617836 0 0.20829732945973789 -0.22979322638293129 0 0.21313875573707669 -0.2152558305617836 0 0.20131166261964431 -0.2147724235517601 0 0.20829732945973789 -0.22979322638293129 0 0.18859592756749169 -0.22757534377410471 0 0.20131166261964431 -0.2147724235517601 0 0.18859592756749169 -0.22757534377410471 0 0.20131166261964431 -0.2147724235517601 0 0.20829732945973789 -0.22979322638293129 0 0.18859592756749169 -0.22757534377410471 0 0.20277084668220299 -0.24586474783829379 0 0.18859592756749169 -0.22757534377410471 0 0.20277084668220299 -0.24586474783829379 0 0.18609532454956099 -0.24561307842886959 0 0.21607448551886779 -0.18505708933633649 0 0.21402739767179721 -0.20196950332941579 0 0.19899755453136389 -0.1927184801215108 0 0.21402739767179721 -0.20196950332941579 0 0.19899755453136389 -0.1927184801215108 0 0.22374389160092889 -0.21839007751040071 0 0.21402739767179721 -0.20196950332941579 0 0.21313875573707669 -0.2152558305617836 0 0.21402739767179721 -0.20196950332941579 0 0.20131166261964431 -0.2147724235517601 0 0.19899755453136389 -0.1927184801215108 0 0.21402739767179721 -0.20196950332941579 0 0.21313875573707669 -0.2152558305617836 0 0.20131166261964431 -0.2147724235517601 0 0.21402739767179721 -0.20196950332941579 0 0.20131166261964431 -0.2147724235517601 0 0.18859592756749169 -0.22757534377410471 0 0.20131166261964431 -0.2147724235517601 0 0.18229818337455189 -0.20857159488521021 0 0.20131166261964431 -0.2147724235517601 0 0.19899755453136389 -0.1927184801215108 0 0.18229818337455189 -0.20857159488521021 0 0.1807425574357093 -0.18972247438817211 0 0.18229818337455189 -0.20857159488521021 0 0.155488888443855 -0.20446377489488041 0 0.19899755453136389 -0.1927184801215108 0 0.1807425574357093 -0.18972247438817211 0 0.18229818337455189 -0.20857159488521021 0 0.18229818337455189 -0.20857159488521021 0 0.16758750524756219 -0.2236048893384045 0 0.155488888443855 -0.20446377489488041 0 0.1807425574357093 -0.18972247438817211 0 0.155488888443855 -0.20446377489488041 0 0.16420126620473141 -0.1804215562868608 0 0.155488888443855 -0.20446377489488041 0 0.16420126620473141 -0.1804215562868608 0 0.18859592756749169 -0.22757534377410471 0 0.18609532454956099 -0.24561307842886959 0 0.1739472364541618 -0.23730228083078531 0 0.16778827379441841 -0.25313242553567622 0 0.18609532454956099 -0.24561307842886959 0 0.1739472364541618 -0.23730228083078531 0 0.18859592756749169 -0.22757534377410471 0 0.1739472364541618 -0.23730228083078531 0 0.16758750524756219 -0.2236048893384045 0 0.18859592756749169 -0.22757534377410471 0 0.18229818337455189 -0.20857159488521021 0 0.16758750524756219 -0.2236048893384045 0 0.16758750524756219 -0.2236048893384045 0 0.14677651068297559 -0.22850599350289891 0 0.155488888443855 -0.20446377489488041 0 0.16758750524756219 -0.2236048893384045 0 0.1596691511117756 -0.23658566707687151 0 0.14677651068297559 -0.22850599350289891 0 0.1739472364541618 -0.23730228083078531 0 0.16758750524756219 -0.2236048893384045 0 0.1596691511117756 -0.23658566707687151 0 0.16778827379441841 -0.25313242553567622 0 0.1739472364541618 -0.23730228083078531 0 0.1596691511117756 -0.23658566707687151 0 0.16778827379441841 -0.25313242553567622 0 0.13997209545928421 -0.24219855728055359 0 0.1596691511117756 -0.23658566707687151 0 0.14677651068297559 -0.22850599350289891 0 0.13997209545928421 -0.24219855728055359 0 0.16778827379441841 -0.25313242553567622 0 0.1596691511117756 -0.23658566707687151 0 0.13997209545928421 -0.24219855728055359 0 0.1121559171241498 -0.23126468902543171 0 0.13025041077718519 -0.2280131466272067 0 0.13997209545928421 -0.24219855728055359 0 0.14677651068297559 -0.22850599350289891 0 0.13025041077718519 -0.2280131466272067 0 0.13421570642561351 -0.21525275999518159 0 0.14677651068297559 -0.22850599350289891 0 0.13025041077718519 -0.2280131466272067 0 0.13997209545928421 -0.24219855728055359 0 0.1262666187287034 -0.22077884528595471 0 0.13025041077718519 -0.2280131466272067 0 0.13421570642561351 -0.21525275999518159 0 0.1121559171241498 -0.23126468902543171 0 0.13997209545928421 -0.24219855728055359 0 0.155488888443855 -0.20446377489488041 0 0.13735515214316399 -0.200658115298852 0 0.13788145181467121 -0.18540310991329009 0 0.155488888443855 -0.20446377489488041 0 0.13788145181467121 -0.18540310991329009 0 0.16420126620473141 -0.1804215562868608 0 0.14677651068297559 -0.22850599350289891 0 0.155488888443855 -0.20446377489488041 0 0.155488888443855 -0.20446377489488041 0 0.13421570642561351 -0.21525275999518159 0 0.13735515214316399 -0.200658115298852 0 0.14677651068297559 -0.22850599350289891 0 0.155488888443855 -0.20446377489488041 0 0.13421570642561351 -0.21525275999518159 0 0.1212988593254847 -0.2142063591558602 0 0.1262666187287034 -0.22077884528595471 0 0.13421570642561351 -0.21525275999518159 0 0.1221371923938749 -0.2018438141336171 0 0.13421570642561351 -0.21525275999518159 0 0.13735515214316399 -0.200658115298852 0 0.1221371923938749 -0.2018438141336171 0 0.1212988593254847 -0.2142063591558602 0 0.13421570642561351 -0.21525275999518159 0 0.1221371923938749 -0.2018438141336171 0 0.12231667521256109 -0.1880412671620785 0 0.13735515214316399 -0.200658115298852 0 0.12231667521256109 -0.1880412671620785 0 0.13735515214316399 -0.200658115298852 0 0.13788145181467121 -0.18540310991329009 0 0.12231667521256109 -0.1880412671620785 0 0.13788145181467121 -0.18540310991329009 0 0.12940385266922641 -0.1667074232744796 0 0.13788145181467121 -0.18540310991329009 0 0.16420126620473141 -0.1804215562868608 0 0.13788145181467121 -0.18540310991329009 0 0.1546421097066287 -0.16240302202115089 0 0.16420126620473141 -0.1804215562868608 0 0.1546421097066287 -0.16240302202115089 0 0.12910615674100259 -0.1632151604514876 0 0.1546421097066287 -0.16240302202115089 0 0.12940385266922641 -0.1667074232744796 0 0.13788145181467121 -0.18540310991329009 0 0.1546421097066287 -0.16240302202115089 0 0.12940385266922641 -0.1667074232744796 0 0.1546421097066287 -0.16240302202115089 0 0.12910615674100259 -0.1632151604514876 0 0.15046197940020969 -0.1510331109470813 0 0.1546421097066287 -0.16240302202115089 0 0.12910615674100259 -0.1632151604514876 0 0.12940385266922641 -0.1667074232744796 0 0.12910615674100259 -0.1632151604514876 0 0.14157165105954 -0.14170278638867681 0 0.15046197940020969 -0.1510331109470813 0 0.121251820104277 -0.14271189394047279 0 0.12910615674100259 -0.1632151604514876 0 0.14157165105954 -0.14170278638867681 0 0.121251820104277 -0.14271189394047279 0 0.13117736198413379 -0.12665691843031379 0 0.14157165105954 -0.14170278638867681 0 0.16012322209323671 -0.12189297383967621 0 0.13117736198413379 -0.12665691843031379 0 0.14157165105954 -0.14170278638867681 0 0.16012322209323671 -0.12189297383967621 0 0.14157165105954 -0.14170278638867681 0 0.15831624462749619 -0.14084082632288811 0 0.14157165105954 -0.14170278638867681 0 0.15046197940020969 -0.1510331109470813 0 0.15831624462749619 -0.14084082632288811 0 0.1546421097066287 -0.16240302202115089 0 0.15046197940020969 -0.1510331109470813 0 0.16338383156389269 -0.1513606402288806 0 0.16338383156389269 -0.1513606402288806 0 0.15831624462749619 -0.14084082632288811 0 0.16956252946538131 -0.14252092775371381 0 0.15046197940020969 -0.1510331109470813 0 0.16338383156389269 -0.1513606402288806 0 0.15831624462749619 -0.14084082632288811 0 0.16338383156389269 -0.1513606402288806 0 0.17434575920104151 -0.1524273479342492 0 0.17179063663680949 -0.1594783295314269 0 0.16338383156389269 -0.1513606402288806 0 0.16956252946538131 -0.14252092775371381 0 0.17434575920104151 -0.1524273479342492 0 0.16012322209323671 -0.12189297383967621 0 0.16619297137271069 -0.13449335425266401 0 0.17676988930472851 -0.1327186890943779 0 0.16012322209323671 -0.12189297383967621 0 0.15831624462749619 -0.14084082632288811 0 0.16619297137271069 -0.13449335425266401 0 0.16956252946538131 -0.14252092775371381 0 0.16619297137271069 -0.13449335425266401 0 0.17676988930472851 -0.1327186890943779 0 0.15831624462749619 -0.14084082632288811 0 0.16956252946538131 -0.14252092775371381 0 0.16619297137271069 -0.13449335425266401 0 0.16956252946538131 -0.14252092775371381 0 0.17676988930472851 -0.1327186890943779 0 0.17821651360450361 -0.14525035170995029 0 0.17676988930472851 -0.1327186890943779 0 0.17821651360450361 -0.14525035170995029 0 0.18656949747281029 -0.14165458745521919 0 0.18774275091037951 -0.12951942841800149 0 0.17676988930472851 -0.1327186890943779 0 0.18656949747281029 -0.14165458745521919 0 0.1890690822023397 -0.1171290292490392 0 0.18774275091037951 -0.12951942841800149 0 0.17676988930472851 -0.1327186890943779 0 0.1952845691164336 -0.1554714239728936 0 0.18124139520631979 -0.15085640812074819 0 0.17179063663680949 -0.1594783295314269 0 0.17434575920104151 -0.1524273479342492 0 0.18124139520631979 -0.15085640812074819 0 0.17179063663680949 -0.1594783295314269 0 0.17434575920104151 -0.1524273479342492 0 0.17821651360450361 -0.14525035170995029 0 0.18124139520631979 -0.15085640812074819 0 0.17434575920104151 -0.1524273479342492 0 0.17179063663680949 -0.1594783295314269 0 0.16956252946538131 -0.14252092775371381 0 0.17434575920104151 -0.1524273479342492 0 0.17821651360450361 -0.14525035170995029 0 0.17821651360450361 -0.14525035170995029 0 0.18656949747281029 -0.14165458745521919 0 0.18124139520631979 -0.15085640812074819 0 0.19344005624135061 -0.17488752787842241 0 0.18686416921845081 -0.16137824049569091 0 0.17091837523151349 -0.16188537614543561 0 0.18686416921845081 -0.16137824049569091 0 0.17091837523151349 -0.16188537614543561 0 0.1952845691164336 -0.1554714239728936 0 0.17179063663680949 -0.1594783295314269 0 0.18686416921845081 -0.16137824049569091 0 0.17179063663680949 -0.1594783295314269 0 0.17091837523151349 -0.16188537614543561 0 0.1952845691164336 -0.1554714239728936 0 0.18686416921845081 -0.16137824049569091 0 0.17179063663680949 -0.1594783295314269 0 0.19344005624135061 -0.17488752787842241 0 0.16420126620473141 -0.1804215562868608 0 0.17091837523151349 -0.16188537614543561 0 0.19344005624135061 -0.17488752787842241 0 0.1807425574357093 -0.18972247438817211 0 0.16420126620473141 -0.1804215562868608 0 0.19344005624135061 -0.17488752787842241 0 0.16420126620473141 -0.1804215562868608 0 0.1546421097066287 -0.16240302202115089 0 0.16338383156389269 -0.1513606402288806 0 0.17179063663680949 -0.1594783295314269 0 0.1546421097066287 -0.16240302202115089 0 0.17179063663680949 -0.1594783295314269 0 0.1546421097066287 -0.16240302202115089 0 0.17091837523151349 -0.16188537614543561 0 0.1546421097066287 -0.16240302202115089 0 0.17179063663680949 -0.1594783295314269 0 0.17091837523151349 -0.16188537614543561 0 0.1546421097066287 -0.16240302202115089 0 0.16420126620473141 -0.1804215562868608 0 0.17091837523151349 -0.16188537614543561 0 0.16420126620473141 -0.1804215562868608 0 0.17091837523151349 -0.16188537614543561 0 0.17179063663680949 -0.1594783295314269 0 0.17091837523151349 -0.16188537614543561 0 
</DataArray>
</Points>
<Cells>
<DataArray type="UInt32" Name="connectivity" format="ascii">
0 1 2 3 4 5 6 7 8 9 10 11 12 13 14 15 16 17 18 19 20 21 22 23 24 25 26 27 28 29 30 31 32 33 34 35 36 37 38 39 40 41 42 43 44 45 46 47 48 49 50 51 52 53 54 55 56 57 58 59 60 61 62 63 64 65 66 67 68 69 70 71 72 73 74 75 76 77 78 79 80 81 82 83 84 85 86 87 88 89 90 91 92 93 94 95 96 97 98 99 100 101 102 103 104 105 106 107 108 109 110 111 112 113 114 115 116 117 118 119 120 121 122 123 124 125 126 127 128 129 130 131 132 133 134 135 136 137 138 139 140 141 142 143 144 145 146 147 148 149 150 151 152 153 154 155 156 157 158 159 160 161 162 163 164 165 166 167 168 169 170 171 172 173 174 175 176 177 178 179 180 181 182 183 184 185 186 187 188 189 190 191 192 193 194 195 196 197 198 199 200 201 202 203 204 205 206 207 208 209 210 211 212 213 214 215 216 217 218 219 220 221 222 223 224 225 226 227 228 229 230 231 232 233 234 235 236 237 238 239 240 241 242 243 244 245 246 247 248 249 250 251 252 253 254 255 256 257 258 259 260 261 262 263 264 265 266 267 268 269 270 271 272 273 274 275 276 277 278 279 280 281 282 283 284 285 286 287 288 289 290 291 292 293 294 295 296 297 298 299 300 301 302 303 304 305 306 307 308 309 310 311 312 313 314 315 316 317 318 319 320 321 322 323 324 325 326 327 328 329 330 331 332 333 334 335 336 337 338 339 340 341 342 343 344 345 346 347 348 349 350 351 352 353 354 355 356 357 358 359 360 361 362 363 364 365 366 367 368 369 370 371 372 373 374 375 376 377 378 379 380 381 382 383 384 385 386 387 388 389 390 391 392 393 394 395 396 397 398 399 400 401 402 403 404 405 406 407 408 409 410 411 412 413 414 415 416 417 418 419 420 421 422 423 424 425 426 427 428 429 430 431 432 433 434 435 436 437 438 439 440 441 442 443 444 445 446 447 448 449 450 451 452 453 454 455 456 457 458 459 460 461 462 463 464 465 466 467 468 469 470 471 472 473 474 475 476 477 478 479 480 481 482 483 484 485 486 487 488 489 490 491 492 493 494 495 496 497 498 499 500 501 502 503 504 505 506 507 508 509 510 511 512 513 514 515 516 517 518 519 520 521 522 523 524 525 526 527 528 529 530 531 532 533 534 535 536 537 538 539 540 541 542 543 544 545 546 547 548 549 550 551 552 553 554 555 556 557 558 559 560 561 562 563 564 565 566 567 568 569 570 571 572 573 574 575 576 577 578 579 580 581 582 583 584 585 586 587 588 589 590 591 592 593 594 595 596 597 598 599 600 601 602 603 604 605 606 607 608 609 610 611 612 613 614 615 616 617 618 619 620 621 622 623 624 625 626 627 628 629 630 631 632 633 634 635 636 637 638 639 640 641 642 643 644 645 646 647 648 649 650 651 652 653 654 655 656 657 658 659 660 661 662 663 664 665 666 667 668 669 670 671 672 673 674 675 676 677 678 679 680 681 682 683 684 685 686 687 688 689 690 691 692 693 694 695 696 697 698 699 700 701 702 703 704 705 706 707 708 709 710 711 712 713 714 715 716 717 718 719 720 721 722 723 724 725 726 727 728 729 730 731 732 733 734 735 736 737 738 739 740 741 742 743 744 745 746 747 748 749 750 751 752 753 754 755 756 757 758 759 760 761 762 763 764 765 766 767 768 769 770 771 772 773 774 775 776 777 778 779 780 781 782 783 784 785 786 787 788 789 790 791 792 793 794 795 796 797 798 799 800 801 802 803 804 805 806 807 808 809 810 811 812 813 814 815 816 817 818 819 820 821 822 823 824 825 826 827 828 829 830 831 832 833 834 835 836 837 838 839 840 841 842 843 844 845 846 847 848 849 850 851 852 853 854 855 856 857 858 859 860 861 862 863 864 865 866 867 868 869 870 871 872 873 874 875 876 877 878 879 880 881 882 883 884 885 886 887 888 889 890 891 892 893 894 895 896 897 898 899 900 901 902 903 904 905 906 907 908 909 910 911 912 913 914 915 916 917 918 919 920 921 922 923 924 925 926 927 928 929 930 931 932 933 934 935 936 937 938 939 940 941 942 943 944 945 946 947 948 949 950 951 952 953 954 955 956 957 958 959 960 961 962 963 964 965 966 967 968 969 970 971 972 973 974 975 976 977 978 979 980 981 982 983 984 985 986 987 988 989 990 991 992 993 994 995 996 997 998 999 1000 1001 1002 1003 1004 1005 1006 1007 1008 1009 1010 1011 1012 1013 1014 1015 1016 1017 1018 1019 1020 1021 1022 1023 1024 1025 1026 1027 1028 1029 1030 1031 1032 1033 1034 1035 1036 1037 1038 1039 1040 1041 1042 1043 1044 1045 1046 1047 1048 1049 1050 1051 1052 1053 1054 1055 1056 1057 1058 1059 1060 1061 1062 1063 1064 1065 1066 1067 1068 1069 1070 1071 1072 1073 1074 1075 1076 1077 1078 1079 1080 1081 1082 1083 1084 1085 1086 1087 1088 1089 1090 1091 1092 1093 1094 1095 1096 1097 1098 1099 1100 1101 1102 1103 1104 1105 1106 1107 1108 1109 1110 1111 1112 1113 1114 1115 1116 1117 1118 1119 1120 1121 1122 1123 1124 1125 1126 1127 1128 1129 1130 1131 1132 1133 1134 1135 1136 1137 1138 1139 1140 1141 1142 1143 1144 1145 1146 1147 1148 1149 1150 1151 1152 1153 1154 1155 1156 1157 1158 1159 1160 1161 1162 1163 1164 1165 1166 1167 1168 1169 1170 1171 1172 1173 1174 1175 1176 1177 1178 1179 1180 1181 1182 1183 1184 1185 1186 1187 1188 1189 1190 1191 1192 1193 1194 1195 1196 1197 1198 1199 1200 1201 1202 1203 1204 1205 1206 1207 1208 1209 1210 1211 1212 1213 1214 1215 1216 1217 1218 1219 1220 1221 1222 1223 1224 1225 1226 1227 1228 1229 1230 1231 1232 1233 1234 1235 1236 1237 1238 1239 1240 1241 1242 1243 1244 1245 1246 1247 1248 1249 1250 1251 1252 1253 1254 1255 1256 1257 1258 1259 1260 1261 1262 1263 1264 1265 1266 1267 1268 1269 1270 1271 1272 1273 1274 1275 1276 1277 1278 1279 1280 1281 1282 1283 1284 1285 1286 1287 1288 1289 1290 1291 1292 1293 1294 1295 1296 1297 1298 1299 1300 1301 1302 1303 1304 1305 1306 1307 1308 1309 1310 1311 1312 1313 1314 1315 1316 1317 1318 1319 1320 1321 1322 1323 1324 1325 1326 1327 1328 1329 1330 1331 1332 1333 1334 1335 1336 1337 1338 1339 1340 1341 1342 1343 1344 1345 1346 1347 1348 1349 1350 1351 1352 1353 1354 1355 1356 1357 1358 1359 1360 1361 1362 1363 1364 1365 1366 1367 1368 1369 1370 1371 1372 1373 1374 1375 1376 1377 1378 1379 1380 1381 1382 1383 1384 1385 1386 1387 1388 1389 1390 1391 1392 1393 1394 1395 1396 1397 1398 1399 1400 1401 1402 1403 1404 1405 1406 1407 1408 1409 1410 1411 1412 1413 1414 1415 1416 1417 1418 1419 1420 1421 1422 1423 1424 1425 1426 1427 1428 1429 1430 1431 1432 1433 1434 1435 1436 1437 1438 1439 1440 1441 1442 1443 1444 1445 1446 1447 1448 1449 1450 1451 1452 1453 1454 1455 1456 1457 1458 1459 1460 1461 1462 1463 1464 1465 1466 1467 1468 1469 1470 1471 1472 1473 1474 1475 1476 1477 1478 1479 1480 1481 1482 1483 1484 1485 1486 1487 1488 1489 1490 1491 1492 1493 1494 1495 1496 1497 1498 1499 1500 1501 1502 1503 1504 1505 1506 1507 1508 1509 1510 1511 1512 1513 1514 1515 1516 1517 1518 1519 1520 1521 1522 1523 1524 1525 1526 1527 1528 1529 1530 1531 1532 1533 1534 1535 1536 1537 1538 1539 1540 1541 1542 1543 1544 1545 1546 1547 1548 1549 1550 1551 1552 1553 1554 1555 1556 1557 1558 1559 1560 1561 1562 1563 1564 1565 1566 1567 1568 1569 1570 1571 1572 1573 1574 1575 1576 1577 1578 1579 1580 1581 1582 1583 1584 1585 1586 1587 1588 1589 1590 1591 1592 1593 1594 1595 1596 1597 1598 1599 1600 1601 1602 1603 1604 1605 1606 1607 1608 1609 1610 1611 1612 1613 1614 1615 1616 1617 1618 1619 1620 1621 1622 1623 1624 1625 1626 1627 1628 1629 1630 1631 1632 1633 1634 1635 1636 1637 1638 1639 1640 1641 1642 1643 1644 1645 1646 1647 1648 1649 1650 1651 1652 1653 1654 1655 1656 1657 1658 1659 1660 1661 1662 1663 1664 1665 1666 1667 1668 1669 1670 1671 1672 1673 1674 1675 1676 1677 1678 1679 1680 1681 1682 1683 1684 1685 1686 1687 1688 1689 1690 1691 1692 1693 1694 1695 1696 1697 1698 1699 1700 1701 1702 1703 1704 1705 1706 1707 1708 1709 1710 1711 1712 1713 1714 1715 1716 1717 1718 1719 1720 1721 1722 1723 1724 1725 1726 1727 1728 1729 1730 1731 1732 1733 1734 1735 1736 1737 1738 1739 1740 1741 1742 1743 1744 1745 1746 1747 1748 1749 1750 1751 1752 1753 1754 1755 1756 1757 1758 1759 1760 1761 1762 1763 1764 1765 1766 1767 1768 1769 1770 1771 1772 1773 1774 1775 1776 1777 1778 1779 1780 1781 1782 1783 1784 1785 1786 1787 1788 1789 1790 1791 1792 1793 1794 1795 1796 1797 1798 1799 1800 1801 1802 1803 1804 1805 1806 1807 1808 1809 1810 1811 1812 1813 1814 1815 1816 1817 1818 1819 1820 1821 1822 1823 1824 1825 1826 1827 1828 1829 1830 1831 1832 1833 1834 1835 1836 1837 1838 1839 1840 1841 1842 1843 1844 1845 1846 1847 1848 1849 1850 1851 1852 1853 1854 1855 1856 1857 1858 1859 1860 1861 1862 1863 1864 1865 1866 1867 1868 1869 1870 1871 1872 1873 1874 1875 1876 1877 1878 1879 1880 1881 1882 1883 1884 1885 1886 1887 1888 1889 1890 1891 1892 1893 1894 1895 1896 1897 1898 1899 1900 1901 1902 1903 1904 1905 1906 1907 1908 1909 1910 1911 1912 1913 1914 1915 1916 1917 1918 1919 1920 1921 1922 1923 1924 1925 1926 1927 1928 1929 1930 1931 1932 1933 1934 1935 1936 1937 1938 1939 1940 1941 1942 1943 1944 1945 1946 1947 1948 1949 1950 1951 1952 1953 1954 1955 1956 1957 1958 1959 1960 1961 1962 1963 1964 1965 1966 1967 1968 1969 1970 1971 1972 1973 1974 1975 1976 1977 1978 1979 1980 1981 1982 1983 1984 1985 1986 1987 1988 1989 1990 1991 1992 1993 1994 1995 1996 1997 1998 1999 2000 2001 2002 2003 2004 2005 2006 2007 2008 2009 2010 2011 2012 2013 2014 2015 2016 2017 2018 2019 2020 2021 2022 2023 2024 2025 2026 2027 2028 2029 2030 2031 2032 2033 2034 2035 2036 2037 2038 2039 2040 2041 2042 2043 2044 2045 2046 2047 2048 2049 2050 2051 2052 2053 2054 2055 2056 2057 2058 2059 2060 2061 2062 2063 2064 2065 2066 2067 2068 2069 2070 2071 2072 2073 2074 2075 2076 2077 2078 2079 2080 2081 2082 2083 2084 2085 2086 2087 2088 2089 2090 2091 2092 2093 2094 2095 2096 2097 2098 2099 2100 2101 2102 2103 2104 2105 2106 2107 2108 2109 2110 2111 2112 2113 2114 2115 2116 2117 2118 2119 2120 2121 2122 2123 2124 2125 2126 2127 2128 2129 2130 2131 2132 2133 2134 2135 2136 2137 2138 2139 2140 2141 2142 2143 2144 2145 2146 2147 2148 2149 2150 2151 2152 2153 2154 2155 2156 2157 2158 2159 2160 2161 2162 2163 2164 2165 2166 2167 2168 2169 2170 2171 2172 2173 2174 2175 2176 2177 2178 2179 2180 2181 2182 2183 2184 2185 2186 2187 2188 2189 2190 2191 2192 2193 2194 2195 2196 2197 2198 2199 2200 2201 2202 2203 2204 2205 2206 2207 2208 2209 2210 2211 2212 2213 2214 2215 2216 2217 2218 2219 2220 2221 2222 2223 2224 2225 2226 2227 2228 2229 2230 2231 2232 2233 2234 2235 2236 2237 2238 2239 2240 2241 2242 2243 2244 2245 2246 2247 2248 2249 2250 2251 2252 2253 2254 2255 2256 2257 2258 2259 2260 2261 2262 2263 2264 2265 2266 2267 2268 2269 2270 2271 2272 2273 2274 2275 2276 2277 2278 2279 2280 2281 2282 2283 2284 2285 2286 2287 2288 2289 2290 2291 2292 2293 2294 2295 2296 2297 2298 2299 2300 2301 2302 2303 2304 2305 2306 2307 2308 2309 2310 2311 2312 2313 2314 2315 2316 2317 2318 2319 2320 2321 2322 2323 2324 2325 2326 2327 2328 2329 2330 2331 2332 2333 2334 2335 2336 2337 2338 2339 2340 2341 2342 2343 2344 2345 2346 2347 2348 2349 2350 2351 2352 2353 2354 2355 2356 2357 2358 2359 2360 2361 2362 2363 2364 2365 2366 2367 2368 2369 2370 2371 2372 2373 2374 2375 2376 2377 2378 2379 2380 2381 2382 2383 2384 2385 2386 2387 2388 2389 2390 2391 2392 2393 2394 2395 2396 2397 2398 2399 2400 2401 2402 2403 2404 2405 2406 2407 2408 2409 2410 2411 2412 2413 2414 2415 2416 2417 2418 2419 2420 2421 2422 2423 2424 2425 2426 2427 2428 2429 2430 2431 2432 2433 2434 2435 2436 2437 2438 2439 2440 2441 2442 2443 2444 2445 2446 2447 2448 2449 2450 2451 2452 2453 2454 2455 2456 2457 2458 2459 2460 2461 2462 2463 2464 2465 2466 2467 2468 2469 2470 2471 2472 2473 2474 2475 2476 2477 2478 2479 2480 2481 2482 2483 2484 2485 2486 2487 2488 2489 2490 2491 2492 2493 2494 2495 2496 2497 2498 2499 2500 2501 2502 2503 2504 2505 2506 2507 2508 2509 2510 2511 2512 2513 2514 2515 2516 2517 2518 2519 2520 2521 2522 2523 2524 2525 2526 2527 2528 2529 2530 2531 2532 2533 2534 2535 2536 2537 2538 2539 2540 2541 2542 2543 2544 2545 2546 2547 2548 2549 2550 2551 2552 2553 2554 2555 2556 2557 2558 2559 2560 2561 2562 2563 2564 2565 2566 2567 2568 2569 2570 2571 2572 2573 2574 2575 2576 2577 2578 2579 2580 2581 2582 2583 2584 2585 2586 2587 2588 2589 2590 2591 2592 2593 2594 2595 2596 2597 2598 2599 2600 2601 2602 2603 2604 2605 2606 2607 2608 2609 2610 2611 2612 2613 2614 2615 2616 2617 2618 2619 2620 2621 2622 2623 2624 2625 2626 2627 2628 2629 2630 2631 2632 2633 2634 2635 2636 2637 2638 2639 2640 2641 2642 2643 2644 2645 2646 2647 2648 2649 2650 2651 2652 2653 2654 2655 2656 2657 2658 2659 2660 2661 2662 2663 2664 2665 2666 2667 2668 2669 2670 2671 2672 2673 2674 2675 2676 2677 2678 2679 2680 2681 2682 2683 2684 2685 2686 2687 2688 2689 2690 2691 2692 2693 2694 2695 2696 2697 2698 2699 2700 2701 2702 2703 2704 2705 2706 2707 2708 2709 2710 2711 2712 2713 2714 2715 2716 2717 2718 2719 2720 2721 2722 2723 2724 2725 2726 2727 2728 2729 2730 2731 2732 2733 2734 2735 2736 2737 2738 2739 2740 2741 2742 2743 2744 2745 2746 2747 2748 2749 2750 2751 2752 2753 2754 2755 2756 2757 2758 2759 2760 2761 2762 2763 2764 2765 2766 2767 2768 2769 2770 2771 2772 2773 2774 2775 2776 2777 2778 2779 2780 2781 2782 2783 2784 2785 2786 2787 2788 2789 2790 2791 2792 2793 2794 2795 2796 2797 2798 2799 2800 2801 2802 2803 2804 2805 2806 2807 2808 2809 2810 2811 2812 2813 2814 2815 2816 2817 2818 2819 2820 2821 2822 2823 2824 2825 2826 2827 2828 2829 2830 2831 2832 2833 2834 2835 2836 2837 2838 2839 2840 2841 2842 2843 2844 2845 2846 2847 2848 2849 2850 2851 2852 2853 2854 2855 2856 2857 2858 2859 2860 2861 2862 2863 2864 2865 2866 2867 2868 2869 2870 2871 2872 2873 2874 2875 2876 2877 2878 2879 2880 2881 2882 2883 2884 2885 2886 2887 2888 2889 2890 2891 2892 2893 2894 2895 2896 2897 2898 2899 2900 2901 2902 2903 2904 2905 2906 2907 2908 2909 2910 2911 2912 2913 2914 2915 2916 2917 2918 2919 2920 2921 2922 2923 2924 2925 2926 2927 2928 2929 2930 2931 2932 2933 2934 2935 2936 2937 2938 2939 2940 2941 2942 2943 2944 2945 2946 2947 2948 2949 2950 2951 2952 2953 2954 2955 2956 2957 2958 2959 2960 2961 2962 2963 2964 2965 2966 2967 2968 2969 2970 2971 2972 2973 2974 2975 2976 2977 2978 2979 2980 2981 2982 2983 2984 2985 2986 2987 2988 2989 2990 2991 2992 2993 2994 2995 2996 2997 2998 2999 3000 3001 3002 3003 3004 3005 3006 3007 3008 3009 3010 3011 3012 3013 3014 3015 3016 3017 3018 3019 3020 3021 3022 3023 3024 3025 3026 3027 3028 3029 3030 3031 3032 3033 3034 3035 3036 3037 3038 3039 3040 3041 3042 3043 3044 3045 3046 3047 3048 3049 3050 3051 3052 3053 3054 3055 3056 3057 3058 3059 3060 3061 3062 3063 3064 3065 3066 3067 3068 3069 3070 3071 3072 3073 3074 3075 3076 3077 3078 3079 3080 3081 3082 3083 3084 3085 3086 3087 3088 3089 3090 3091 3092 3093 3094 3095 3096 3097 3098 3099 3100 3101 3102 3103 3104 3105 3106 3107 3108 3109 3110 3111 3112 3113 3114 3115 3116 3117 3118 3119 3120 3121 3122 3123 3124 3125 3126 3127 3128 3129 3130 3131 3132 3133 3134 3135 3136 3137 3138 3139 3140 3141 3142 3143 3144 3145 3146 3147 3148 3149 3150 3151 3152 3153 3154 3155 3156 3157 3158 3159 3160 3161 3162 3163 3164 3165 3166 3167 3168 3169 3170 3171 3172 3173 3174 3175 3176 3177 3178 3179 3180 3181 3182 3183 3184 3185 3186 3187 3188 3189 3190 3191 3192 3193 3194 3195 3196 3197 3198 3199 3200 3201 3202 3203 3204 3205 3206 3207 3208 3209 3210 3211 3212 3213 3214 3215 3216 3217 3218 3219 3220 3221 3222 3223 3224 3225 3226 3227 3228 3229 3230 3231 3232 3233 3234 3235 3236 3237 3238 3239 3240 3241 3242 3243 3244 3245 3246 3247 3248 3249 3250 3251 3252 3253 3254 3255 3256 3257 3258 3259 3260 3261 3262 3263 3264 3265 3266 3267 3268 3269 3270 3271 3272 3273 3274 3275 3276 3277 3278 3279 3280 3281 3282 3283 3284 3285 3286 3287 3288 3289 3290 3291 3292 3293 3294 3295 3296 3297 3298 3299 3300 3301 3302 3303 3304 3305 3306 3307 3308 3309 3310 3311 3312 3313 3314 3315 3316 3317 3318 3319 3320 3321 3322 3323 3324 3325 3326 3327 3328 3329 3330 3331 3332 3333 3334 3335 3336 3337 3338 3339 3340 3341 3342 3343 3344 3345 3346 3347 3348 3349 3350 3351 3352 3353 3354 3355 3356 3357 3358 3359 3360 3361 3362 3363 3364 3365 3366 3367 3368 3369 3370 3371 3372 3373 3374 3375 3376 3377 3378 3379 3380 3381 3382 3383 3384 3385 3386 3387 3388 3389 3390 3391 3392 3393 3394 3395 3396 3397 3398 3399 3400 3401 3402 3403 3404 3405 3406 3407 3408 3409 3410 3411 3412 3413 3414 3415 3416 3417 3418 3419 3420 3421 3422 3423 3424 3425 3426 3427 3428 3429 3430 3431 3432 3433 3434 3435 3436 3437 3438 3439 3440 3441 3442 3443 3444 3445 3446 3447 3448 3449 3450 3451 3452 3453 3454 3455 3456 3457 3458 3459 3460 3461 3462 3463 3464 3465 3466 3467 3468 3469 3470 3471 3472 3473 3474 3475 3476 3477 3478 3479 3480 3481 3482 3483 3484 3485 3486 3487 3488 3489 3490 3491 3492 3493 3494 3495 3496 3497 3498 3499 3500 3501 3502 3503 3504 3505 3506 3507 3508 3509 3510 3511 3512 3513 3514 3515 3516 3517 3518 3519 3520 3521 3522 3523 3524 3525 3526 3527 3528 3529 3530 3531 3532 3533 3534 3535 3536 3537 3538 3539 3540 3541 3542 3543 3544 3545 3546 3547 3548 3549 3550 3551 3552 3553 3554 3555 3556 3557 3558 3559 3560 3561 3562 3563 3564 3565 3566 3567 3568 3569 3570 3571 3572 3573 3574 3575 3576 3577 3578 3579 3580 3581 3582 3583 3584 3585 3586 3587 3588 3589 3590 3591 3592 3593 3594 3595 3596 3597 3598 3599 3600 3601 3602 3603 3604 3605 3606 3607 3608 3609 3610 3611 3612 3613 3614 3615 3616 3617 3618 3619 3620 3621 3622 3623 3624 3625 3626 3627 3628 3629 3630 3631 3632 3633 3634 3635 3636 3637 3638 3639 3640 3641 3642 3643 3644 3645 3646 3647 3648 3649 3650 3651 3652 3653 3654 3655 3656 3657 3658 3659 3660 3661 3662 3663 3664 3665 3666 3667 3668 3669 3670 3671 3672 3673 3674 3675 3676 3677 3678 3679 3680 3681 3682 3683 3684 3685 3686 3687 3688 3689 3690 3691 3692 3693 3694 3695 3696 3697 3698 3699 3700 3701 3702 3703 3704 3705 3706 3707 3708 3709 3710 3711 3712 3713 3714 3715 3716 3717 3718 3719 3720 3721 3722 3723 3724 3725 3726 3727 3728 3729 3730 3731 3732 3733 3734 3735 3736 3737 3738 3739 3740 3741 3742 3743 3744 3745 3746 3747 3748 3749 3750 3751 3752 3753 3754 3755 3756 3757 3758 3759 3760 3761 3762 3763 3764 3765 3766 3767 3768 3769 3770 3771 3772 3773 3774 3775 3776 3777 3778 3779 3780 3781 3782 3783 3784 3785 3786 3787 3788 3789 3790 3791 3792 3793 3794 3795 3796 3797 3798 3799 3800 3801 3802 3803 3804 3805 3806 3807 3808 3809 3810 3811 3812 3813 3814 3815 3816 3817 3818 3819 3820 3821 3822 3823 3824 3825 3826 3827 3828 3829 3830 3831 3832 3833 3834 3835 3836 3837 3838 3839 3840 3841 3842 3843 3844 3845 3846 3847 3848 3849 3850 3851 3852 3853 3854 3855 3856 3857 3858 3859 3860 3861 3862 3863 3864 3865 3866 3867 3868 3869 3870 3871 3872 3873 3874 3875 3876 3877 3878 3879 3880 3881 3882 3883 3884 3885 3886 3887 3888 3889 3890 3891 3892 3893 3894 3895 3896 3897 3898 3899 3900 3901 3902 3903 3904 3905 3906 3907 3908 3909 3910 3911 3912 3913 3914 3915 3916 3917 3918 3919 3920 3921 3922 3923 3924 3925 3926 3927 3928 3929 3930 3931 3932 3933 3934 3935 3936 3937 3938 3939 3940 3941 3942 3943 3944 3945 3946 3947 3948 3949 3950 3951 3952 3953 3954 3955 3956 3957 3958 3959 3960 3961 3962 3963 3964 3965 3966 3967 3968 3969 3970 3971 3972 3973 3974 3975 3976 3977 3978 3979 3980 3981 3982 3983 3984 3985 3986 3987 3988 3989 3990 3991 3992 3993 3994 3995 3996 3997 3998 3999 4000 4001 4002 4003 4004 4005 4006 4007 4008 4009 4010 4011 4012 4013 4014 4015 4016 4017 4018 4019 4020 4021 4022 4023 4024 4025 4026 4027 4028 4029 4030 4031 4032 4033 4034 4035 4036 4037 4038 4039 4040 4041 4042 4043 4044 4045 4046 4047 4048 4049 4050 4051 4052 4053 4054 4055 4056 4057 4058 4059 4060 4061 4062 4063 4064 4065 4066 4067 4068 4069 4070 4071 4072 4073 4074 4075 4076 4077 4078 4079 4080 4081 4082 4083 4084 4085 4086 4087 4088 4089 4090 4091 4092 4093 4094 4095 4096 4097 4098 4099 4100 4101 4102 4103 4104 4105 4106 4107 4108 4109 4110 4111 4112 4113 4114 4115 4116 4117 4118 4119 4120 4121 4122 4123 4124 4125 4126 4127 4128 4129 4130 4131 4132 4133 4134 4135 4136 4137 4138 4139 4140 4141 4142 4143 4144 4145 4146 4147 4148 4149 4150 4151 4152 4153 4154 4155 4156 4157 4158 4159 4160 4161 4162 4163 4164 4165 4166 4167 4168 4169 4170 4171 4172 4173 4174 4175 4176 4177 4178 4179 4180 4181 4182 4183 4184 4185 4186 4187 4188 4189 4190 4191 4192 4193 4194 4195 4196 4197 4198 4199 4200 4201 4202 4203 4204 4205 4206 4207 4208 4209 4210 4211 4212 4213 4214 4215 4216 4217 4218 4219 4220 4221 4222 4223 4224 4225 4226 4227 4228 4229 4230 4231 4232 4233 4234 4235 4236 4237 4238 4239 4240 4241 4242 4243 4244 4245 4246 4247 4248 4249 4250 4251 4252 4253 4254 4255 4256 4257 4258 4259 4260 4261 4262 4263 4264 4265 4266 4267 4268 4269 4270 4271 4272 4273 4274 4275 4276 4277 4278 4279 4280 4281 4282 4283 4284 4285 4286 4287 4288 4289 4290 4291 4292 4293 4294 4295 4296 4297 4298 4299 4300 4301 4302 4303 4304 4305 4306 4307 4308 4309 4310 4311 4312 4313 4314 4315 4316 4317 4318 4319 4320 4321 4322 4323 4324 4325 4326 4327 4328 4329 4330 4331 4332 4333 4334 4335 4336 4337 4338 4339 4340 4341 4342 4343 4344 4345 4346 4347 4348 4349 4350 4351 4352 4353 4354 4355 4356 4357 4358 4359 4360 4361 4362 4363 4364 4365 4366 4367 4368 4369 4370 4371 4372 4373 4374 4375 4376 4377 4378 4379 4380 4381 4382 4383 4384 4385 4386 4387 4388 4389 4390 4391 4392 4393 4394 4395 4396 4397 4398 4399 4400 4401 4402 4403 4404 4405 4406 4407 4408 4409 4410 4411 4412 4413 4414 4415 4416 4417 4418 4419 4420 4421 4422 4423 4424 4425 4426 4427 4428 4429 4430 4431 4432 4433 4434 4435 4436 4437 4438 4439 4440 4441 4442 4443 4444 4445 4446 4447 4448 4449 4450 4451 4452 4453 4454 4455 4456 4457 4458 4459 4460 4461 4462 4463 4464 4465 4466 4467 4468 4469 4470 4471 4472 4473 4474 4475 4476 4477 4478 4479 4480 4481 4482 4483 4484 4485 4486 4487 4488 4489 4490 4491 4492 4493 4494 4495 4496 4497 4498 4499 4500 4501 4502 4503 4504 4505 4506 4507 4508 4509 4510 4511 4512 4513 4514 4515 4516 4517 4518 4519 4520 4521 4522 4523 4524 4525 4526 4527 4528 4529 4530 4531 4532 4533 4534 4535 4536 4537 4538 4539 4540 4541 4542 4543 4544 4545 4546 4547 4548 4549 4550 4551 4552 4553 4554 4555 4556 4557 4558 4559 4560 4561 4562 4563 4564 4565 4566 4567 4568 4569 4570 4571 4572 4573 4574 4575 4576 4577 4578 4579 4580 4581 4582 4583 4584 4585 4586 4587 4588 4589 4590 4591 4592 4593 4594 4595 4596 4597 4598 4599 4600 4601 4602 4603 4604 4605 4606 4607 4608 4609 4610 4611 4612 4613 4614 4615 4616 4617 4618 4619 4620 4621 4622 4623 4624 4625 4626 4627 4628 4629 4630 4631 4632 4633 4634 4635 4636 4637 4638 4639 4640 4641 4642 4643 4644 4645 4646 4647 4648 4649 4650 4651 4652 4653 4654 4655 4656 4657 4658 4659 4660 4661 4662 4663 4664 4665 4666 4667 4668 4669 4670 4671 4672 4673 4674 4675 4676 4677 4678 4679 4680 4681 4682 4683 4684 4685 4686 4687 4688 4689 4690 4691 4692 4693 4694 4695 4696 4697 4698 4699 4700 4701 4702 4703 4704 4705 4706 4707 4708 4709 4710 4711 4712 4713 4714 4715 4716 4717 4718 4719 4720 4721 4722 4723 4724 4725 4726 4727 4728 4729 4730 4731 4732 4733 4734 4735 4736 4737 4738 4739 4740 4741 4742 4743 4744 4745 4746 4747 4748 4749 4750 4751 4752 4753 4754 4755 4756 4757 4758 4759 4760 4761 4762 4763 4764 4765 4766 4767 4768 4769 4770 4771 4772 4773 4774 4775 4776 4777 4778 4779 4780 4781 4782 4783 4784 4785 4786 4787 4788 4789 4790 4791 4792 4793 4794 4795 4796 4797 4798 4799 4800 4801 4802 4803 4804 4805 4806 4807 4808 4809 4810 4811 4812 4813 4814 4815 4816 4817 4818 4819 4820 4821 4822 4823 4824 4825 4826 4827 4828 4829 4830 4831 4832 4833 4834 4835 4836 4837 4838 4839 4840 4841 4842 4843 4844 4845 4846 4847 4848 4849 4850 4851 4852 4853 4854 4855 4856 4857 4858 4859 4860 4861 4862 4863 4864 4865 4866 4867 4868 4869 4870 4871 4872 4873 4874 4875 4876 4877 4878 4879 4880 4881 4882 4883 4884 4885 4886 4887 4888 4889 4890 4891 4892 4893 4894 4895 4896 4897 4898 4899 4900 4901 4902 4903 4904 4905 4906 4907 4908 4909 4910 4911 4912 4913 4914 4915 4916 4917 4918 4919 4920 4921 4922 4923 4924 4925 4926 4927 4928 4929 4930 4931 4932 4933 4934 4935 4936 4937 4938 4939 4940 4941 4942 4943 4944 4945 4946 4947 4948 4949 4950 4951 4952 4953 4954 4955 4956 4957 4958 4959 4960 4961 4962 4963 4964 4965 4966 4967 4968 4969 4970 4971 4972 4973 4974 4975 4976 4977 4978 4979 4980 4981 4982 4983 4984 4985 4986 4987 4988 4989 4990 4991 4992 4993 4994 4995 4996 4997 4998 4999 5000 5001 5002 5003 5004 5005 5006 5007 5008 5009 5010 5011 5012 5013 5014 5015 5016 5017 5018 5019 5020 5021 5022 5023 5024 5025 5026 5027 5028 5029 5030 5031 5032 5033 5034 5035 5036 5037 5038 5039 5040 5041 5042 5043 5044 5045 5046 5047 5048 5049 5050 5051 5052 5053 5054 5055 5056 5057 5058 5059 5060 5061 5062 5063 5064 5065 5066 5067 5068 5069 5070 5071 5072 5073 5074 5075 5076 5077 5078 5079 5080 5081 5082 5083 5084 5085 5086 5087 5088 5089 5090 5091 5092 5093 5094 5095 5096 5097 5098 5099 5100 5101 5102 5103 5104 5105 5106 5107 5108 5109 5110 5111 5112 5113 5114 5115 5116 5117 5118 5119 5120 5121 5122 5123 5124 5125 5126 5127 5128 5129 5130 5131 5132 5133 5134 5135 5136 5137 5138 5139 5140 5141 5142 5143 5144 5145 5146 5147 5148 5149 5150 5151 5152 5153 5154 5155 5156 5157 5158 5159 5160 5161 5162 5163 5164 5165 5166 5167 5168 5169 5170 5171 5172 5173 5174 5175 5176 5177 5178 5179 5180 5181 5182 5183 5184 5185 5186 5187 5188 5189 5190 5191 5192 5193 5194 5195 5196 5197 5198 5199 5200 5201 5202 5203 5204 5205 5206 5207 5208 5209 5210 5211 5212 5213 5214 5215 5216 5217 5218 5219 5220 5221 5222 5223 5224 5225 5226 5227 5228 5229 5230 5231 5232 5233 5234 5235 5236 5237 5238 5239 5240 5241 5242 5243 5244 5245 5246 5247 5248 5249 5250 5251 5252 5253 5254 5255 5256 5257 5258 5259 5260 5261 5262 5263 5264 5265 5266 5267 5268 5269 5270 5271 5272 5273 5274 5275 5276 5277 5278 5279 5280 5281 5282 5283 5284 5285 5286 5287 5288 5289 5290 5291 5292 5293 5294 5295 5296 5297 5298 5299 5300 5301 5302 5303 5304 5305 5306 5307 5308 5309 5310 5311 5312 5313 5314 5315 5316 5317 5318 5319 5320 5321 5322 5323 5324 5325 5326 5327 5328 5329 5330 5331 5332 5333 5334 5335 5336 5337 5338 5339 5340 5341 5342 5343 5344 5345 5346 5347 5348 5349 5350 5351 5352 5353 5354 5355 5356 5357 5358 5359 5360 5361 5362 5363 5364 5365 5366 5367 5368 5369 5370 5371 5372 5373 5374 5375 5376 5377 5378 5379 5380 5381 5382 5383 5384 5385 5386 5387 5388 5389 5390 5391 5392 5393 5394 5395 5396 5397 5398 5399 5400 5401 5402 5403 5404 5405 5406 5407 5408 5409 5410 5411 5412 5413 5414 5415 5416 5417 5418 5419 5420 5421 5422 5423 5424 5425 5426 5427 5428 5429 5430 5431 5432 5433 5434 5435 5436 5437 5438 5439 5440 5441 5442 5443 5444 5445 5446 5447 5448 5449 5450 5451 5452 5453 5454 5455 5456 5457 5458 5459 5460 5461 5462 5463 5464 5465 5466 5467 5468 5469 5470 5471 5472 5473 5474 5475 5476 5477 5478 5479 5480 5481 5482 5483 5484 5485 5486 5487 5488 5489 5490 5491 5492 5493 5494 5495 5496 5497 5498 5499 5500 5501 5502 5503 5504 5505 5506 5507 5508 5509 5510 5511 5512 5513 5514 5515 5516 5517 5518 5519 5520 5521 5522 5523 5524 5525 5526 5527 5528 5529 5530 5531 5532 5533 5534 5535 5536 5537 5538 5539 5540 5541 5542 5543 5544 5545 5546 5547 5548 5549 5550 5551 5552 5553 5554 5555 5556 5557 5558 5559 5560 5561 5562 5563 5564 5565 5566 5567 5568 5569 5570 5571 5572 5573 5574 5575 5576 5577 5578 5579 5580 5581 5582 5583 5584 5585 5586 5587 5588 5589 5590 5591 5592 5593 5594 5595 5596 5597 5598 5599 5600 5601 5602 5603 5604 5605 5606 5607 5608 5609 5610 5611 5612 5613 5614 5615 5616 5617 5618 5619 5620 5621 5622 5623 5624 5625 5626 5627 5628 5629 5630 5631 5632 5633 5634 5635 5636 5637 5638 5639 5640 5641 5642 5643 5644 5645 5646 5647 5648 5649 5650 5651 5652 5653 5654 5655 5656 5657 5658 5659 5660 5661 5662 5663 5664 5665 5666 5667 5668 5669 5670 5671 5672 5673 5674 5675 5676 5677 5678 5679 5680 5681 5682 5683 5684 5685 5686 5687 5688 5689 5690 5691 5692 5693 5694 5695 5696 5697 5698 5699 5700 5701 5702 5703 5704 5705 5706 5707 5708 5709 5710 5711 5712 5713 5714 5715 5716 5717 5718 5719 5720 5721 5722 5723 5724 5725 5726 5727 5728 5729 5730 5731 5732 5733 5734 5735 5736 5737 5738 5739 5740 5741 5742 5743 5744 5745 5746 5747 5748 5749 5750 5751 5752 5753 5754 5755 5756 5757 5758 5759 5760 5761 5762 5763 5764 5765 5766 5767 5768 5769 5770 5771 5772 5773 5774 5775 5776 5777 5778 5779 5780 5781 5782 5783 5784 5785 5786 5787 5788 5789 5790 5791 5792 5793 5794 5795 5796 5797 5798 5799 5800 5801 5802 5803 5804 5805 5806 5807 5808 5809 5810 5811 5812 5813 5814 5815 5816 5817 5818 5819 5820 5821 5822 5823 5824 5825 5826 5827 5828 5829 5830 5831 5832 5833 5834 5835 5836 5837 5838 5839 5840 5841 5842 5843 5844 5845 5846 5847 5848 5849 5850 5851 5852 5853 5854 5855 5856 5857 5858 5859 5860 5861 5862 5863 5864 5865 5866 5867 5868 5869 5870 5871 5872 5873 5874 5875 5876 5877 5878 5879 5880 5881 5882 5883 5884 5885 5886 5887 5888 5889 5890 5891 5892 5893 5894 5895 5896 5897 5898 5899 5900 5901 5902 5903 5904 5905 5906 5907 5908 5909 5910 5911 5912 5913 5914 5915 5916 5917 5918 5919 5920 5921 5922 5923 5924 5925 5926 5927 5928 5929 5930 5931 5932 5933 5934 5935 5936 5937 5938 5939 5940 5941 5942 5943 5944 5945 5946 5947 5948 5949 5950 5951 5952 5953 5954 5955 5956 5957 5958 5959 5960 5961 5962 5963 5964 5965 5966 5967 5968 5969 5970 5971 5972 5973 5974 5975 5976 5977 5978 5979 5980 5981 5982 5983 5984 5985 5986 5987 5988 5989 5990 5991 5992 5993 5994 5995 5996 5997 5998 5999 6000 6001 6002 6003 6004 6005 6006 6007 6008 6009 6010 6011 6012 6013 6014 6015 6016 6017 6018 6019 6020 6021 6022 6023 6024 6025 6026 6027 6028 6029 6030 6031 6032 6033 6034 6035 6036 6037 6038 6039 6040 6041 6042 6043 6044 6045 6046 6047 6048 6049 6050 6051 6052 6053 6054 6055 6056 6057 6058 6059 6060 6061 6062 6063 6064 6065 6066 6067 6068 6069 6070 6071 6072 6073 6074 6075 6076 6077 6078 6079 6080 6081 6082 6083 6084 6085 6086 6087 6088 6089 6090 6091 6092 6093 6094 6095 6096 6097 6098 6099 6100 6101 6102 6103 6104 6105 6106 6107 6108 6109 6110 6111 6112 6113 6114 6115 6116 6117 6118 6119 6120 6121 6122 6123 6124 6125 6126 6127 6128 6129 6130 6131 6132 6133 6134 6135 6136 6137 6138 6139 6140 6141 6142 6143 6144 6145 6146 6147 6148 6149 6150 6151 6152 6153 6154 6155 6156 6157 6158 6159 6160 6161 6162 6163 6164 6165 6166 6167 6168 6169 6170 6171 6172 6173 6174 6175 6176 6177 6178 6179 6180 6181 6182 6183 6184 6185 6186 6187 6188 6189 6190 6191 6192 6193 6194 6195 6196 6197 6198 6199 6200 6201 6202 6203 6204 6205 6206 6207 6208 6209 6210 6211 6212 6213 6214 6215 6216 6217 6218 6219 6220 6221 6222 6223 6224 6225 6226 6227 6228 6229 6230 6231 6232 6233 6234 6235 6236 6237 6238 6239 6240 6241 6242 6243 6244 6245 6246 6247 6248 6249 6250 6251 6252 6253 6254 6255 6256 6257 6258 6259 6260 6261 6262 6263 6264 6265 6266 6267 6268 6269 6270 6271 6272 6273 6274 6275 6276 6277 6278 6279 6280 6281 6282 6283 6284 6285 6286 6287 6288 6289 6290 6291 6292 6293 6294 6295 6296 6297 6298 6299 6300 6301 6302 6303 6304 6305 6306 6307 6308 6309 6310 6311 6312 6313 6314 6315 6316 6317 6318 6319 6320 6321 6322 6323 6324 6325 6326 6327 6328 6329 6330 6331 6332 6333 6334 6335 6336 6337 6338 6339 6340 6341 6342 6343 6344 6345 6346 6347 6348 6349 6350 6351 6352 6353 6354 6355 6356 6357 6358 6359 6360 6361 6362 6363 6364 6365 6366 6367 6368 6369 6370 6371 6372 6373 6374 6375 6376 6377 6378 6379 6380 6381 6382 6383 6384 6385 6386 6387 6388 6389 6390 6391 6392 6393 6394 6395 6396 6397 6398 6399 6400 6401 6402 6403 6404 6405 6406 6407 6408 6409 6410 6411 6412 6413 6414 6415 6416 6417 6418 6419 6420 6421 6422 6423 6424 6425 6426 6427 6428 6429 6430 6431 6432 6433 6434 6435 6436 6437 6438 6439 6440 6441 6442 6443 6444 6445 6446 6447 6448 6449 6450 6451 6452 6453 6454 6455 6456 6457 6458 6459 6460 6461 6462 6463 6464 6465 6466 6467 6468 6469 6470 6471 6472 6473 6474 6475 6476 6477 6478 6479 6480 6481 6482 6483 6484 6485 6486 6487 6488 6489 6490 6491 6492 6493 6494 6495 6496 6497 6498 6499 6500 6501 6502 6503 6504 6505 6506 6507 6508 6509 6510 6511 6512 6513 6514 6515 6516 6517 6518 6519 6520 6521 6522 6523 6524 6525 6526 6527 6528 6529 6530 6531 6532 6533 6534 6535 6536 6537 6538 6539 6540 6541 6542 6543 6544 6545 6546 6547 6548 6549 6550 6551 6552 6553 6554 6555 6556 6557 6558 6559 6560 6561 6562 6563 6564 6565 6566 6567 6568 6569 6570 6571 6572 6573 6574 6575 6576 6577 6578 6579 6580 6581 6582 6583 6584 6585 6586 6587 6588 6589 6590 6591 6592 6593 6594 6595 6596 6597 6598 6599 6600 6601 6602 6603 6604 6605 6606 6607 6608 6609 6610 6611 6612 6613 6614 6615 6616 6617 6618 6619 6620 6621 6622 6623 6624 6625 6626 6627 6628 6629 6630 6631 6632 6633 6634 6635 6636 6637 6638 6639 6640 6641 6642 6643 6644 6645 6646 6647 6648 6649 6650 6651 6652 6653 6654 6655 6656 6657 6658 6659 6660 6661 6662 6663 6664 6665 6666 6667 6668 6669 6670 6671 6672 6673 6674 6675 6676 6677 6678 6679 6680 6681 6682 6683 6684 6685 6686 6687 6688 6689 6690 6691 6692 6693 6694 6695 6696 6697 6698 6699 6700 6701 6702 6703 6704 6705 6706 6707 6708 6709 6710 6711 6712 6713 6714 6715 6716 6717 6718 6719 6720 6721 6722 6723 6724 6725 6726 6727 6728 6729 6730 6731 6732 6733 6734 6735 6736 6737 6738 6739 6740 6741 6742 6743 6744 6745 6746 6747 6748 6749 6750 6751 6752 6753 6754 6755 6756 6757 6758 6759 6760 6761 6762 6763 6764 6765 6766 6767 6768 6769 6770 6771 6772 6773 6774 6775 6776 6777 6778 6779 6780 6781 6782 6783 6784 6785 6786 6787 6788 6789 6790 6791 6792 6793 6794 6795 6796 6797 6798 6799 6800 6801 6802 6803 6804 6805 6806 6807 6808 6809 6810 6811 6812 6813 6814 6815 6816 6817 6818 6819 6820 6821 6822 6823 6824 6825 6826 6827 6828 6829 6830 6831 6832 6833 6834 6835 6836 6837 6838 6839 6840 6841 6842 6843 6844 6845 6846 6847 6848 6849 6850 6851 6852 6853 6854 6855 6856 6857 6858 6859 6860 6861 6862 6863 6864 6865 6866 6867 6868 6869 6870 6871 6872 6873 6874 6875 6876 6877 6878 6879 6880 6881 6882 6883 6884 6885 6886 6887 6888 6889 6890 6891 6892 6893 6894 6895 6896 6897 6898 6899 6900 6901 6902 6903 6904 6905 6906 6907 6908 6909 6910 6911 6912 6913 6914 6915 6916 6917 6918 6919 6920 6921 6922 6923 6924 6925 6926 6927 6928 6929 6930 6931 6932 6933 6934 6935 6936 6937 6938 6939 6940 6941 6942 6943 6944 6945 6946 6947 6948 6949 6950 6951 6952 6953 6954 6955 6956 6957 6958 6959 6960 6961 6962 6963 6964 6965 6966 6967 6968 6969 6970 6971 6972 6973 6974 6975 6976 6977 6978 6979 6980 6981 6982 6983 6984 6985 6986 6987 6988 6989 6990 6991 6992 6993 6994 6995 6996 6997 6998 6999 7000 7001 7002 7003 7004 7005 7006 7007 7008 7009 7010 7011 7012 7013 7014 7015 7016 7017 7018 7019 7020 7021 7022 7023 7024 7025 7026 7027 7028 7029 7030 7031 7032 7033 7034 7035 7036 7037 7038 7039 7040 7041 7042 7043 7044 7045 7046 7047 7048 7049 7050 7051 7052 7053 7054 7055 7056 7057 7058 7059 7060 7061 7062 7063 7064 7065 7066 7067 7068 7069 7070 7071 7072 7073 7074 7075 7076 7077 7078 7079 7080 7081 7082 7083 7084 7085 7086 7087 7088 7089 7090 7091 7092 7093 7094 7095 7096 7097 7098 7099 7100 7101 7102 7103 7104 7105 7106 7107 7108 7109 7110 7111 7112 7113 7114 7115 7116 7117 7118 7119 7120 7121 7122 7123 7124 7125 7126 7127 7128 7129 7130 7131 7132 7133 7134 7135 7136 7137 7138 7139 7140 7141 7142 7143 7144 7145 7146 7147 7148 7149 7150 7151 7152 7153 7154 7155 7156 7157 7158 7159 7160 7161 7162 7163 7164 7165 7166 7167 7168 7169 7170 7171 7172 7173 7174 7175 7176 7177 7178 7179 7180 7181 7182 7183 7184 7185 7186 7187 7188 7189 7190 7191 7192 7193 7194 7195 7196 7197 7198 7199 7200 7201 7202 7203 7204 7205 7206 7207 7208 7209 7210 7211 7212 7213 7214 7215 7216 7217 7218 7219 7220 7221 7222 7223 7224 7225 7226 7227 7228 7229 7230 7231 7232 7233 7234 7235 7236 7237 7238 7239 7240 7241 7242 7243 7244 7245 7246 7247 7248 7249 7250 7251 7252 7253 7254 7255 7256 7257 7258 7259 7260 7261 7262 7263 7264 7265 7266 7267 7268 7269 7270 7271 7272 7273 7274 7275 7276 7277 7278 7279 7280 7281 7282 7283 7284 7285 7286 7287 7288 7289 7290 7291 7292 7293 7294 7295 7296 7297 7298 7299 7300 7301 7302 7303 7304 7305 7306 7307 7308 7309 7310 7311 7312 7313 7314 7315 7316 7317 7318 7319 7320 7321 7322 7323 7324 7325 7326 7327 7328 7329 7330 7331 7332 7333 7334 7335 7336 7337 7338 7339 7340 7341 7342 7343 7344 7345 7346 7347 7348 7349 7350 7351 7352 7353 7354 7355 7356 7357 7358 7359 7360 7361 7362 7363 7364 7365 7366 7367 7368 7369 7370 7371 7372 7373 7374 7375 7376 7377 7378 7379 7380 7381 7382 7383 7384 7385 7386 7387 7388 7389 7390 7391 7392 7393 7394 7395 7396 7397 7398 7399 7400 7401 7402 7403 7404 7405 7406 7407 7408 7409 7410 7411 7412 7413 7414 7415 7416 7417 7418 7419 7420 7421 7422 7423 7424 7425 7426 7427 7428 7429 7430 7431 7432 7433 7434 7435 7436 7437 7438 7439 7440 7441 7442 7443 7444 7445 7446 7447 7448 7449 7450 7451 7452 7453 7454 7455 7456 7457 7458 7459 7460 7461 7462 7463 7464 7465 7466 7467 7468 7469 7470 7471 7472 7473 7474 7475 7476 7477 7478 7479 7480 7481 7482 7483 7484 7485 7486 7487 7488 7489 7490 7491 7492 7493 7494 7495 7496 7497 7498 7499 7500 7501 7502 7503 7504 7505 7506 7507 7508 7509 7510 7511 7512 7513 7514 7515 7516 7517 7518 7519 7520 7521 7522 7523 7524 7525 7526 7527 7528 7529 7530 7531 7532 7533 7534 7535 7536 7537 7538 7539 7540 7541 7542 7543 7544 7545 7546 7547 7548 7549 7550 7551 7552 7553 7554 7555 7556 7557 7558 7559 7560 7561 7562 7563 7564 7565 7566 7567 7568 7569 7570 7571 7572 7573 7574 7575 7576 7577 7578 7579 7580 7581 7582 7583 7584 7585 7586 7587 7588 7589 7590 7591 7592 7593 7594 7595 7596 7597 7598 7599 7600 7601 7602 7603 7604 7605 7606 7607 7608 7609 7610 7611 7612 7613 7614 7615 7616 7617 7618 7619 7620 7621 7622 7623 7624 7625 7626 7627 7628 7629 7630 7631 7632 7633 7634 7635 7636 7637 7638 7639 7640 7641 7642 7643 7644 7645 7646 7647 7648 7649 7650 7651 7652 7653 7654 7655 7656 7657 7658 7659 7660 7661 7662 7663 7664 7665 7666 7667 7668 7669 7670 7671 7672 7673 7674 7675 7676 7677 7678 7679 7680 7681 7682 7683 7684 7685 7686 7687 7688 7689 7690 7691 7692 7693 7694 7695 7696 7697 7698 7699 7700 7701 7702 7703 7704 7705 7706 7707 7708 7709 7710 7711 7712 7713 7714 7715 7716 7717 7718 7719 7720 7721 7722 7723 7724 7725 7726 7727 7728 7729 7730 7731 7732 7733 7734 7735 7736 7737 7738 7739 7740 7741 7742 7743 7744 7745 7746 7747 7748 7749 7750 7751 7752 7753 7754 7755 7756 7757 7758 7759 7760 7761 7762 7763 7764 7765 7766 7767 7768 7769 7770 7771 7772 7773 7774 7775 7776 7777 7778 7779 7780 7781 7782 7783 7784 7785 7786 7787 7788 7789 7790 7791 7792 7793 7794 7795 7796 7797 7798 7799 7800 7801 7802 7803 7804 7805 7806 7807 7808 7809 7810 7811 7812 7813 7814 7815 7816 7817 7818 7819 7820 7821 7822 7823 7824 7825 7826 7827 7828 7829 7830 7831 7832 7833 7834 7835 7836 7837 7838 7839 7840 7841 7842 7843 7844 7845 7846 7847 7848 7849 7850 7851 7852 7853 7854 7855 7856 7857 7858 7859 7860 7861 7862 7863 7864 7865 7866 7867 7868 7869 7870 7871 7872 7873 7874 7875 7876 7877 7878 7879 7880 7881 7882 7883 7884 7885 7886 7887 7888 7889 7890 7891 7892 7893 7894 7895 7896 7897 7898 7899 7900 7901 7902 7903 7904 7905 7906 7907 7908 7909 7910 7911 7912 7913 7914 7915 7916 7917 7918 7919 7920 7921 7922 7923 7924 7925 7926 7927 7928 7929 7930 7931 7932 7933 7934 7935 7936 7937 7938 7939 7940 7941 7942 7943 7944 7945 7946 7947 7948 7949 7950 7951 7952 7953 7954 7955 7956 7957 7958 7959 7960 7961 7962 7963 7964 7965 7966 7967 7968 7969 7970 7971 7972 7973 7974 7975 7976 7977 7978 7979 7980 7981 7982 7983 7984 7985 7986 7987 7988 7989 7990 7991 7992 7993 7994 7995 7996 7997 7998 7999 8000 8001 8002 8003 8004 8005 8006 8007 8008 8009 8010 8011 8012 8013 8014 8015 8016 8017 8018 8019 8020 8021 8022 8023 8024 8025 8026 8027 8028 8029 8030 8031 8032 8033 8034 8035 8036 8037 8038 8039 8040 8041 8042 8043 8044 8045 8046 8047 8048 8049 8050 8051 8052 8053 8054 8055 8056 8057 8058 8059 8060 8061 8062 8063 8064 8065 8066 8067 8068 8069 8070 8071 8072 8073 8074 8075 8076 8077 8078 8079 8080 8081 8082 8083 8084 8085 8086 8087 8088 8089 8090 8091 8092 8093 8094 8095 8096 8097 8098 8099 8100 8101 8102 8103 8104 8105 8106 8107 8108 8109 8110 8111 8112 8113 8114 8115 8116 8117 8118 8119 8120 8121 8122 8123 8124 8125 8126 8127 8128 8129 8130 8131 8132 8133 8134 8135 8136 8137 8138 8139 8140 8141 8142 8143 8144 8145 8146 8147 8148 8149 8150 8151 8152 8153 8154 8155 8156 8157 8158 8159 8160 8161 8162 8163 8164 8165 8166 8167 8168 8169 8170 8171 8172 8173 8174 8175 8176 8177 8178 8179 8180 8181 8182 8183 8184 8185 8186 8187 8188 8189 8190 8191 8192 8193 8194 8195 8196 8197 8198 8199 8200 8201 8202 8203 8204 8205 8206 8207 8208 8209 8210 8211 8212 8213 8214 8215 8216 8217 8218 8219 8220 8221 8222 8223 8224 8225 8226 8227 8228 8229 8230 8231 8232 8233 8234 8235 8236 8237 8238 8239 8240 8241 8242 8243 8244 8245 8246 8247 8248 8249 8250 8251 8252 8253 8254 8255 8256 8257 8258 8259 8260 8261 8262 8263 8264 8265 8266 8267 8268 8269 8270 8271 8272 8273 8274 8275 8276 8277 8278 8279 8280 8281 8282 8283 8284 8285 8286 8287 8288 8289 8290 8291 8292 8293 8294 8295 8296 8297 8298 8299 8300 8301 8302 8303 8304 8305 8306 8307 8308 8309 8310 8311 8312 8313 8314 8315 8316 8317 8318 8319 8320 8321 8322 8323 8324 8325 8326 8327 8328 8329 8330 8331 8332 8333 8334 8335 8336 8337 8338 8339 8340 8341 8342 8343 8344 8345 8346 8347 8348 8349 8350 8351 8352 8353 8354 8355 8356 8357 8358 8359 8360 8361 8362 8363 8364 8365 8366 8367 8368 8369 8370 8371 8372 8373 8374 8375 8376 8377 8378 8379 8380 8381 8382 8383 8384 8385 8386 8387 8388 8389 8390 8391 8392 8393 8394 8395 8396 8397 8398 8399 8400 8401 8402 8403 8404 8405 8406 8407 8408 8409 8410 8411 8412 8413 8414 8415 8416 8417 8418 8419 8420 8421 8422 8423 8424 8425 8426 8427 8428 8429 8430 8431 8432 8433 8434 8435 8436 8437 8438 8439 8440 8441 8442 8443 8444 8445 8446 8447 8448 8449 8450 8451 8452 8453 8454 8455 8456 8457 8458 8459 8460 8461 8462 8463 8464 8465 8466 8467 8468 8469 8470 8471 8472 8473 8474 8475 8476 8477 8478 8479 8480 8481 8482 8483 8484 8485 8486 8487 8488 8489 8490 8491 8492 8493 8494 8495 8496 8497 8498 8499 8500 8501 8502 8503 8504 8505 8506 8507 8508 8509 8510 8511 8512 8513 8514 8515 8516 8517 8518 8519 8520 8521 8522 8523 8524 8525 8526 8527 8528 8529 8530 8531 8532 8533 8534 8535 8536 8537 8538 8539 8540 8541 8542 8543 8544 8545 8546 8547 8548 8549 8550 8551 8552 8553 8554 8555 8556 8557 8558 8559 8560 8561 8562 8563 8564 8565 8566 8567 8568 8569 8570 8571 8572 8573 8574 8575 8576 8577 8578 8579 8580 8581 8582 8583 8584 8585 8586 8587 8588 8589 8590 8591 8592 8593 8594 8595 8596 8597 8598 8599 8600 8601 8602 8603 8604 8605 8606 8607 8608 8609 8610 8611 8612 8613 8614 8615 8616 8617 8618 8619 8620 8621 8622 8623 8624 8625 8626 8627 8628 8629 8630 8631 8632 8633 8634 8635 8636 8637 8638 8639 8640 8641 8642 8643 8644 8645 8646 8647 8648 8649 8650 8651 8652 8653 8654 8655 8656 8657 8658 8659 8660 8661 8662 8663 8664 8665 8666 8667 8668 8669 8670 8671 8672 8673 8674 8675 8676 8677 8678 8679 8680 8681 8682 8683 8684 8685 8686 8687 8688 8689 8690 8691 8692 8693 8694 8695 8696 8697 8698 8699 8700 8701 8702 8703 8704 8705 8706 8707 8708 8709 8710 8711 8712 8713 8714 8715 8716 8717 8718 8719 8720 8721 8722 8723 8724 8725 8726 8727 8728 8729 8730 8731 8732 8733 8734 8735 8736 8737 8738 8739 8740 8741 8742 8743 8744 8745 8746 8747 8748 8749 8750 8751 8752 8753 8754 8755 8756 8757 8758 8759 8760 8761 8762 8763 8764 8765 8766 8767 8768 8769 8770 8771 8772 8773 8774 8775 8776 8777 8778 8779 8780 8781 8782 8783 8784 8785 8786 8787 8788 8789 8790 8791 8792 8793 8794 8795 8796 8797 8798 8799 8800 8801 8802 8803 8804 8805 8806 8807 8808 8809 8810 8811 8812 8813 8814 8815 8816 8817 8818 8819 8820 8821 8822 8823 8824 8825 8826 8827 8828 8829 8830 8831 8832 8833 8834 8835 8836 8837 8838 8839 8840 8841 8842 8843 8844 8845 8846 8847 8848 8849 8850 8851 8852 8853 8854 8855 8856 8857 8858 8859 8860 8861 8862 8863 8864 8865 8866 8867 8868 8869 8870 8871 8872 8873 8874 8875 8876 8877 8878 8879 8880 8881 8882 8883 8884 8885 8886 8887 8888 8889 8890 8891 8892 8893 8894 8895 8896 8897 8898 8899 8900 8901 8902 8903 8904 8905 8906 8907 8908 8909 8910 8911 8912 8913 8914 8915 8916 8917 8918 8919 8920 8921 8922 8923 8924 8925 8926 8927 8928 8929 8930 8931 8932 8933 8934 8935 8936 8937 8938 8939 8940 8941 8942 8943 8944 8945 8946 8947 8948 8949 8950 8951 8952 8953 8954 8955 8956 8957 8958 8959 8960 8961 8962 8963 8964 8965 8966 8967 8968 8969 8970 8971 8972 8973 8974 8975 8976 8977 8978 8979 8980 8981 8982 8983 8984 8985 8986 8987 8988 8989 8990 8991 8992 8993 8994 8995 8996 8997 8998 8999 9000 9001 9002 9003 9004 9005 9006 9007 9008 9009 9010 9011 9012 9013 9014 9015 9016 9017 9018 9019 9020 9021 9022 9023 9024 9025 9026 9027 9028 9029 9030 9031 9032 9033 9034 9035 9036 9037 9038 9039 9040 9041 9042 9043 9044 9045 9046 9047 9048 9049 9050 9051 9052 9053 9054 9055 9056 9057 9058 9059 9060 9061 9062 9063 9064 9065 9066 9067 9068 9069 9070 9071 9072 9073 9074 9075 9076 9077 9078 9079 9080 9081 9082 9083 9084 9085 9086 9087 9088 9089 9090 9091 9092 9093 9094 9095 9096 9097 9098 9099 9100 9101 9102 9103 9104 9105 9106 9107 9108 9109 9110 9111 9112 9113 9114 9115 9116 9117 9118 9119 9120 9121 9122 9123 9124 9125 9126 9127 9128 9129 9130 9131 9132 9133 9134 9135 9136 9137 9138 9139 9140 9141 9142 9143 9144 9145 9146 9147 9148 9149 9150 9151 9152 9153 9154 9155 9156 9157 9158 9159 9160 9161 9162 9163 9164 9165 9166 9167 9168 9169 9170 9171 9172 9173 9174 9175 9176 9177 9178 9179 9180 9181 9182 9183 9184 9185 9186 9187 9188 9189 9190 9191 9192 9193 9194 9195 9196 9197 9198 9199 9200 9201 9202 9203 9204 9205 9206 9207 9208 9209 9210 9211 9212 9213 9214 9215 9216 9217 9218 9219 9220 9221 9222 9223 9224 9225 9226 9227 9228 9229 9230 9231 9232 9233 9234 9235 9236 9237 9238 9239 9240 9241 9242 9243 9244 9245 9246 9247 9248 9249 9250 9251 9252 9253 9254 9255 9256 9257 9258 9259 9260 9261 9262 9263 9264 9265 9266 9267 9268 9269 9270 9271 9272 9273 9274 9275 9276 9277 9278 9279 9280 9281 9282 9283 9284 9285 9286 9287 9288 9289 9290 9291 9292 9293 9294 9295 9296 9297 9298 9299 9300 9301 9302 9303 9304 9305 9306 9307 9308 9309 9310 9311 9312 9313 9314 9315 9316 9317 9318 9319 9320 9321 9322 9323 9324 9325 9326 9327 9328 9329 9330 9331 9332 9333 9334 9335 9336 9337 9338 9339 9340 9341 9342 9343 9344 9345 9346 9347 9348 9349 9350 9351 9352 9353 9354 9355 9356 9357 9358 9359 9360 9361 9362 9363 9364 9365 9366 9367 9368 9369 9370 9371 9372 9373 9374 9375 9376 9377 9378 9379 9380 9381 9382 9383 9384 9385 9386 9387 9388 9389 9390 9391 9392 9393 9394 9395 9396 9397 9398 9399 9400 9401 9402 9403 9404 9405 9406 9407 9408 9409 9410 9411 9412 9413 9414 9415 9416 9417 9418 9419 9420 9421 9422 9423 9424 9425 9426 9427 9428 9429 9430 9431 9432 9433 9434 9435 9436 9437 9438 9439 9440 9441 9442 9443 9444 9445 9446 9447 9448 9449 9450 9451 9452 9453 9454 9455 9456 9457 9458 9459 9460 9461 9462 9463 9464 9465 9466 9467 9468 9469 9470 9471 9472 9473 9474 9475 9476 9477 9478 9479 9480 9481 9482 9483 9484 9485 9486 9487 9488 9489 9490 9491 9492 9493 9494 9495 9496 9497 9498 9499 9500 9501 9502 9503 9504 9505 9506 9507 9508 9509 9510 9511 9512 9513 9514 9515 9516 9517 9518 9519 9520 9521 9522 9523 9524 9525 9526 9527 9528 9529 9530 9531 9532 9533 9534 9535 9536 9537 9538 9539 9540 9541 9542 9543 9544 9545 9546 9547 9548 9549 9550 9551 9552 9553 9554 9555 9556 9557 9558 9559 9560 9561 9562 9563 9564 9565 9566 9567 9568 9569 9570 9571 9572 9573 9574 9575 9576 9577 9578 9579 9580 9581 9582 9583 9584 9585 9586 9587 9588 9589 9590 9591 9592 9593 9594 9595 9596 9597 9598 9599 9600 9601 9602 9603 9604 9605 9606 9607 9608 9609 9610 9611 9612 9613 9614 9615 9616 9617 9618 9619 9620 9621 9622 9623 9624 9625 9626 9627 9628 9629 9630 9631 9632 9633 9634 9635 9636 9637 9638 9639 9640 9641 9642 9643 9644 9645 9646 9647 9648 9649 9650 9651 9652 9653 9654 9655 9656 9657 9658 9659 9660 9661 9662 9663 9664 9665 9666 9667 9668 9669 9670 9671 9672 9673 9674 9675 9676 9677 9678 9679 9680 9681 9682 9683 9684 9685 9686 9687 9688 9689 9690 9691 9692 9693 9694 9695 9696 9697 9698 9699 9700 9701 9702 9703 9704 9705 9706 9707 9708 9709 9710 9711 9712 9713 9714 9715 9716 9717 9718 9719 9720 9721 9722 9723 9724 9725 9726 9727 9728 9729 9730 9731 9732 9733 9734 9735 9736 9737 9738 9739 9740 9741 9742 9743 9744 9745 9746 9747 9748 9749 9750 9751 9752 9753 9754 9755 9756 9757 9758 9759 9760 9761 9762 9763 9764 9765 9766 9767 9768 9769 9770 9771 9772 9773 9774 9775 9776 9777 9778 9779 9780 9781 9782 9783 9784 9785 9786 9787 9788 9789 9790 9791 9792 9793 9794 9795 9796 9797 9798 9799 9800 9801 9802 9803 9804 9805 9806 9807 9808 9809 9810 9811 9812 9813 9814 9815 9816 9817 9818 9819 9820 9821 9822 9823 9824 9825 9826 9827 9828 9829 9830 9831 9832 9833 9834 9835 9836 9837 9838 9839 9840 9841 9842 9843 9844 9845 9846 9847 9848 9849 9850 9851 9852 9853 9854 9855 9856 9857 9858 9859 9860 9861 9862 9863 9864 9865 9866 9867 9868 9869 9870 9871 9872 9873 9874 9875 9876 9877 9878 9879 9880 9881 9882 9883 9884 9885 9886 9887 9888 9889 9890 9891 9892 9893 9894 9895 9896 9897 9898 9899 9900 9901 9902 9903 9904 9905 9906 9907 9908 9909 9910 9911 9912 9913 9914 9915 9916 9917 9918 9919 9920 9921 9922 9923 9924 9925 9926 9927 9928 9929 9930 9931 9932 9933 9934 9935 9936 9937 9938 9939 9940 9941 9942 9943 9944 9945 9946 9947 9948 9949 9950 9951 9952 9953 9954 9955 9956 9957 9958 9959 9960 9961 9962 9963 9964 9965 9966 9967 9968 9969 9970 9971 9972 9973 9974 9975 9976 9977 9978 9979 9980 9981 9982 9983 9984 9985 9986 9987 9988 9989 9990 9991 9992 9993 9994 9995 9996 9997 9998 9999 10000 10001 10002 10003 10004 10005 10006 10007 10008 10009 10010 10011 10012 10013 10014 10015 10016 10017 10018 10019 10020 10021 10022 10023 10024 10025 10026 10027 10028 10029 10030 10031 10032 10033 10034 10035 10036 10037 10038 10039 10040 10041 10042 10043 10044 10045 10046 10047 10048 10049 10050 10051 10052 10053 10054 10055 10056 10057 10058 10059 10060 10061 10062 10063 10064 10065 10066 10067 10068 10069 10070 10071 10072 10073 10074 10075 10076 10077 10078 10079 10080 10081 10082 10083 10084 10085 10086 10087 10088 10089 10090 10091 10092 10093 10094 10095 10096 10097 10098 10099 10100 10101 10102 10103 10104 10105 10106 10107 10108 10109 10110 10111 10112 10113 10114 10115 10116 10117 10118 10119 10120 10121 10122 10123 10124 10125 10126 10127 10128 10129 10130 10131 10132 10133 10134 10135 10136 10137 10138 10139 10140 10141 10142 10143 10144 10145 10146 10147 10148 10149 10150 10151 10152 10153 10154 10155 10156 10157 10158 10159 10160 10161 10162 10163 10164 10165 10166 10167 10168 10169 10170 10171 10172 10173 10174 10175 10176 10177 10178 10179 10180 10181 10182 10183 10184 10185 10186 10187 10188 10189 10190 10191 10192 10193 10194 10195 10196 10197 10198 10199 10200 10201 10202 10203 10204 10205 10206 10207 10208 10209 10210 10211 10212 10213 10214 10215 10216 10217 10218 10219 10220 10221 10222 10223 10224 10225 10226 10227 10228 10229 10230 10231 10232 10233 10234 10235 10236 10237 10238 10239 10240 10241 10242 10243 10244 10245 10246 10247 10248 10249 10250 10251 10252 10253 10254 10255 10256 10257 10258 10259 10260 10261 10262 10263 10264 10265 10266 10267 10268 10269 10270 10271 10272 10273 10274 10275 10276 10277 10278 10279 10280 10281 10282 10283 10284 10285 10286 10287 10288 10289 10290 10291 10292 10293 10294 10295 10296 10297 10298 10299 10300 10301 10302 10303 10304 10305 10306 10307 10308 10309 10310 10311 10312 10313 10314 10315 10316 10317 10318 10319 10320 10321 10322 10323 10324 10325 10326 10327 10328 10329 10330 10331 10332 10333 10334 10335 10336 10337 10338 10339 10340 10341 10342 10343 10344 10345 10346 10347 10348 10349 10350 10351 10352 10353 10354 10355 10356 10357 10358 10359 10360 10361 10362 10363 10364 10365 10366 10367 10368 10369 10370 10371 10372 10373 10374 10375 10376 10377 10378 10379 10380 10381 10382 10383 10384 10385 10386 10387 10388 10389 10390 10391 10392 10393 10394 10395 10396 10397 10398 10399 10400 10401 10402 10403 10404 10405 10406 10407 10408 10409 10410 10411 10412 10413 10414 10415 10416 10417 10418 10419 10420 10421 10422 10423 10424 10425 10426 10427 10428 10429 10430 10431 10432 10433 10434 10435 10436 10437 10438 10439 10440 10441 10442 10443 10444 10445 10446 10447 10448 10449 10450 10451 10452 10453 10454 10455 10456 10457 10458 10459 10460 10461 10462 10463 10464 10465 10466 10467 10468 10469 10470 10471 10472 10473 10474 10475 10476 10477 10478 10479 10480 10481 10482 10483 10484 10485 10486 10487 10488 10489 10490 10491 10492 10493 10494 10495 10496 10497 10498 10499 10500 10501 10502 10503 10504 10505 10506 10507 10508 10509 10510 10511 10512 10513 10514 10515 10516 10517 10518 10519 10520 10521 10522 10523 10524 10525 10526 10527 10528 10529 10530 10531 10532 10533 10534 10535 10536 10537 10538 10539 10540 10541 10542 10543 10544 10545 10546 10547 10548 10549 10550 10551 10552 10553 10554 10555 10556 10557 10558 10559 10560 10561 10562 10563 10564 10565 10566 10567 10568 10569 10570 10571 10572 10573 10574 10575 10576 10577 10578 10579 10580 10581 10582 10583 10584 10585 10586 10587 10588 10589 10590 10591 10592 10593 10594 10595 10596 10597 10598 10599 10600 10601 10602 10603 10604 10605 10606 10607 10608 10609 10610 10611 10612 10613 10614 10615 10616 10617 10618 10619 10620 10621 10622 10623 10624 10625 10626 10627 10628 10629 10630 10631 10632 10633 10634 10635 10636 10637 10638 10639 10640 10641 10642 10643 10644 10645 10646 10647 10648 10649 10650 10651 10652 10653 10654 10655 10656 10657 10658 10659 10660 10661 10662 10663 10664 10665 10666 10667 10668 10669 10670 10671 10672 10673 10674 10675 10676 10677 10678 10679 10680 10681 10682 10683 10684 10685 10686 10687 10688 10689 10690 10691 10692 10693 10694 10695 10696 10697 10698 10699 10700 10701 10702 10703 10704 10705 10706 10707 10708 10709 10710 10711 10712 10713 10714 10715 10716 10717 10718 10719 10720 10721 10722 10723 10724 10725 10726 10727 10728 10729 10730 10731 10732 10733 10734 10735 10736 10737 10738 10739 10740 10741 10742 10743 10744 10745 10746 10747 10748 10749 10750 10751 10752 10753 10754 10755 10756 10757 10758 10759 10760 10761 10762 10763 10764 10765 10766 10767 10768 10769 10770 10771 10772 10773 10774 10775 10776 10777 10778 10779 10780 10781 10782 10783 10784 10785 10786 10787 10788 10789 10790 10791 10792 10793 10794 10795 10796 10797 10798 10799 10800 10801 10802 10803 10804 10805 10806 10807 10808 10809 10810 10811 10812 10813 10814 10815 10816 10817 10818 10819 10820 10821 10822 10823 10824 10825 10826 10827 10828 10829 10830 10831 10832 10833 10834 10835 10836 10837 10838 10839 10840 10841 10842 10843 10844 10845 10846 10847 10848 10849 10850 10851 10852 10853 10854 10855 10856 10857 10858 10859 10860 10861 10862 10863 10864 10865 10866 10867 10868 10869 10870 10871 10872 10873 10874 10875 10876 10877 10878 10879 10880 10881 10882 10883 10884 10885 10886 10887 10888 10889 10890 10891 10892 10893 10894 10895 10896 10897 10898 10899 10900 10901 10902 10903 10904 10905 10906 10907 10908 10909 10910 10911 10912 10913 10914 10915 10916 10917 10918 10919 10920 10921 10922 10923 10924 10925 10926 10927 10928 10929 10930 10931 10932 10933 10934 10935 10936 10937 10938 10939 10940 10941 10942 10943 10944 10945 10946 10947 10948 10949 10950 10951 10952 10953 10954 10955 10956 10957 10958 10959 10960 10961 10962 10963 10964 10965 10966 10967 10968 10969 10970 10971 10972 10973 10974 10975 10976 10977 10978 10979 10980 10981 10982 10983 10984 10985 10986 10987 10988 10989 10990 10991 10992 10993 10994 10995 10996 10997 10998 10999 11000 11001 11002 11003 11004 11005 11006 11007 11008 11009 11010 11011 11012 11013 11014 11015 11016 11017 11018 11019 11020 11021 11022 11023 11024 11025 11026 11027 11028 11029 11030 11031 11032 11033 11034 11035 11036 11037 11038 11039 11040 11041 11042 11043 11044 11045 11046 11047 11048 11049 11050 11051 11052 11053 11054 11055 11056 11057 11058 11059 11060 11061 11062 11063 11064 11065 11066 11067 11068 11069 11070 11071 11072 11073 11074 11075 11076 11077 11078 11079 11080 11081 11082 11083 11084 11085 11086 11087 11088 11089 11090 11091 11092 11093 11094 11095 11096 11097 11098 11099 11100 11101 11102 11103 11104 11105 11106 11107 11108 11109 11110 11111 11112 11113 11114 11115 11116 11117 11118 11119 11120 11121 11122 11123 11124 11125 11126 11127 11128 11129 11130 11131 11132 11133 11134 11135 11136 11137 11138 11139 11140 11141 11142 11143 11144 11145 11146 11147 11148 11149 11150 11151 11152 11153 11154 11155 11156 11157 11158 11159 11160 11161 11162 11163 11164 11165 11166 11167 11168 11169 11170 11171 11172 11173 11174 11175 11176 11177 11178 11179 11180 11181 11182 11183 11184 11185 11186 11187 11188 11189 11190 11191 11192 11193 11194 11195 11196 11197 11198 11199 11200 11201 11202 11203 11204 11205 11206 11207 11208 11209 11210 11211 11212 11213 11214 11215 11216 11217 11218 11219 11220 11221 11222 11223 11224 11225 11226 11227 11228 11229 11230 11231 11232 11233 11234 11235 11236 11237 11238 11239 11240 11241 11242 11243 11244 11245 11246 11247 11248 11249 11250 11251 11252 11253 11254 11255 11256 11257 11258 11259 11260 11261 11262 11263 11264 11265 11266 11267 11268 11269 11270 11271 11272 11273 11274 11275 11276 11277 11278 11279 11280 11281 11282 11283 11284 11285 11286 11287 11288 11289 11290 11291 11292 11293 11294 11295 11296 11297 11298 11299 11300 11301 11302 11303 11304 11305 11306 11307 11308 11309 11310 11311 11312 11313 11314 11315 11316 11317 11318 11319 11320 11321 11322 11323 11324 11325 11326 11327 11328 11329 11330 11331 11332 11333 11334 11335 11336 11337 11338 11339 11340 11341 11342 11343 11344 11345 11346 11347 11348 11349 11350 11351 11352 11353 11354 11355 11356 11357 11358 11359 11360 11361 11362 11363 11364 11365 11366 11367 11368 11369 11370 11371 11372 11373 11374 11375 11376 11377 11378 11379 11380 11381 11382 11383 11384 11385 11386 11387 11388 11389 11390 11391 11392 11393 11394 11395 11396 11397 11398 11399 11400 11401 11402 11403 11404 11405 11406 11407 11408 11409 11410 11411 11412 11413 11414 11415 11416 11417 11418 11419 11420 11421 11422 11423 11424 11425 11426 11427 11428 11429 11430 11431 11432 11433 11434 11435 11436 11437 11438 11439 11440 11441 11442 11443 11444 11445 11446 11447 11448 11449 11450 11451 11452 11453 11454 11455 11456 11457 11458 11459 11460 11461 11462 11463 11464 11465 11466 11467 11468 11469 11470 11471 11472 11473 11474 11475 11476 11477 11478 11479 11480 11481 11482 11483 11484 11485 11486 11487 11488 11489 11490 11491 11492 11493 11494 11495 11496 11497 11498 11499 11500 11501 11502 11503 11504 11505 11506 11507 11508 11509 11510 11511 11512 11513 11514 11515 11516 11517 11518 11519 11520 11521 11522 11523 11524 11525 11526 11527 11528 11529 11530 11531 11532 11533 11534 11535 11536 11537 11538 11539 11540 11541 11542 11543 11544 11545 11546 11547 11548 11549 11550 11551 11552 11553 11554 11555 11556 11557 11558 11559 11560 11561 11562 11563 11564 11565 11566 11567 11568 11569 11570 11571 11572 11573 11574 11575 11576 11577 11578 11579 11580 11581 11582 11583 11584 11585 11586 11587 11588 11589 11590 11591 11592 11593 11594 11595 11596 11597 11598 11599 11600 11601 11602 11603 11604 11605 11606 11607 11608 11609 11610 11611 11612 11613 11614 11615 11616 11617 11618 11619 11620 11621 11622 11623 11624 11625 11626 11627 11628 11629 11630 11631 11632 11633 11634 11635 11636 11637 11638 11639 11640 11641 11642 11643 11644 11645 11646 11647 11648 11649 11650 11651 11652 11653 11654 11655 11656 11657 11658 11659 11660 11661 11662 11663 11664 11665 11666 11667 11668 11669 11670 11671 11672 11673 11674 11675 11676 11677 11678 11679 11680 11681 11682 11683 11684 11685 11686 11687 11688 11689 11690 11691 11692 11693 11694 11695 11696 11697 11698 11699 11700 11701 11702 11703 11704 11705 11706 11707 11708 11709 11710 11711 11712 11713 11714 11715 11716 11717 11718 11719 11720 11721 11722 11723 11724 11725 11726 11727 11728 11729 11730 11731 11732 11733 11734 11735 11736 11737 11738 11739 11740 11741 11742 11743 11744 11745 11746 11747 11748 11749 11750 11751 11752 11753 11754 11755 11756 11757 11758 11759 11760 11761 11762 11763 11764 11765 11766 11767 11768 11769 11770 11771 11772 11773 11774 11775 11776 11777 11778 11779 11780 11781 11782 11783 11784 11785 11786 11787 11788 11789 11790 11791 11792 11793 11794 11795 11796 11797 11798 11799 11800 11801 11802 11803 11804 11805 11806 11807 11808 11809 11810 11811 11812 11813 11814 11815 11816 11817 11818 11819 11820 11821 11822 11823 11824 11825 11826 11827 11828 11829 11830 11831 11832 11833 11834 11835 11836 11837 11838 11839 11840 11841 11842 11843 11844 11845 11846 11847 11848 11849 11850 11851 11852 11853 11854 11855 11856 11857 11858 11859 11860 11861 11862 11863 11864 11865 11866 11867 11868 11869 11870 11871 11872 11873 11874 11875 11876 11877 11878 11879 11880 11881 11882 11883 11884 11885 11886 11887 11888 11889 11890 11891 11892 11893 11894 11895 11896 11897 11898 11899 11900 11901 11902 11903 11904 11905 11906 11907 11908 11909 11910 11911 11912 11913 11914 11915 11916 11917 11918 11919 11920 11921 11922 11923 11924 11925 11926 11927 11928 11929 11930 11931 11932 11933 11934 11935 11936 11937 11938 11939 11940 11941 11942 11943 11944 11945 11946 11947 11948 11949 11950 11951 11952 11953 11954 11955 11956 11957 11958 11959 11960 11961 11962 11963 11964 11965 11966 11967 11968 11969 11970 11971 11972 11973 11974 11975 11976 11977 11978 11979 11980 11981 11982 11983 11984 11985 11986 11987 11988 11989 11990 11991 11992 11993 11994 11995 11996 11997 11998 11999 12000 12001 12002 12003 12004 12005 12006 12007 12008 12009 12010 12011 12012 12013 12014 12015 12016 12017 12018 12019 12020 12021 12022 12023 12024 12025 12026 12027 12028 12029 12030 12031 12032 12033 12034 12035 12036 12037 12038 12039 12040 12041 12042 12043 12044 12045 12046 12047 12048 12049 12050 12051 12052 12053 12054 12055 12056 12057 12058 12059 12060 12061 12062 12063 12064 12065 12066 12067 12068 12069 12070 12071 12072 12073 12074 12075 12076 12077 12078 12079 12080 12081 12082 12083 12084 12085 12086 12087 12088 12089 12090 12091 12092 12093 12094 12095 12096 12097 12098 12099 12100 12101 12102 12103 12104 12105 12106 12107 12108 12109 12110 12111 12112 12113 12114 12115 12116 12117 12118 12119 12120 12121 12122 12123 12124 12125 12126 12127 12128 12129 12130 12131 12132 12133 12134 12135 12136 12137 12138 12139 12140 12141 12142 12143 12144 12145 12146 12147 12148 12149 12150 12151 12152 12153 12154 12155 12156 12157 12158 12159 12160 12161 12162 12163 12164 12165 12166 12167 12168 12169 12170 12171 12172 12173 12174 12175 12176 12177 12178 12179 12180 12181 12182 12183 12184 12185 12186 12187 12188 12189 12190 12191 12192 12193 12194 12195 12196 12197 12198 12199 12200 12201 12202 12203 12204 12205 12206 12207 12208 12209 12210 12211 12212 12213 12214 12215 12216 12217 12218 12219 12220 12221 12222 12223 12224 12225 12226 12227 12228 12229 12230 12231 12232 12233 12234 12235 12236 12237 12238 12239 12240 12241 12242 12243 12244 12245 12246 12247 12248 12249 12250 12251 12252 12253 12254 12255 12256 12257 12258 12259 12260 12261 12262 12263 12264 12265 12266 12267 12268 12269 12270 12271 12272 12273 12274 12275 12276 12277 12278 12279 12280 12281 12282 12283 12284 12285 12286 12287 12288 12289 12290 12291 12292 12293 12294 12295 12296 12297 12298 12299 12300 12301 12302 12303 12304 12305 12306 12307 12308 12309 12310 12311 12312 12313 12314 12315 12316 12317 12318 12319 12320 12321 12322 12323 12324 12325 12326 12327 12328 12329 12330 12331 12332 12333 12334 12335 12336 12337 12338 12339 12340 12341 12342 12343 12344 12345 12346 12347 12348 12349 12350 12351 12352 12353 12354 12355 12356 12357 12358 12359 12360 12361 12362 12363 12364 12365 12366 12367 12368 12369 12370 12371 12372 12373 12374 12375 12376 12377 12378 12379 12380 12381 12382 12383 12384 12385 12386 12387 12388 12389 12390 12391 12392 12393 12394 12395 12396 12397 12398 12399 12400 12401 12402 12403 12404 12405 12406 12407 12408 12409 12410 12411 12412 12413 12414 12415 12416 12417 12418 12419 12420 12421 12422 12423 12424 12425 12426 12427 12428 12429 12430 12431 12432 12433 12434 12435 12436 12437 12438 12439 12440 12441 12442 12443 12444 12445 12446 12447 12448 12449 12450 12451 12452 12453 12454 12455 12456 12457 12458 12459 12460 12461 12462 12463 12464 12465 12466 12467 12468 12469 12470 12471 12472 12473 12474 12475 12476 12477 12478 12479 12480 12481 12482 12483 12484 12485 12486 12487 12488 12489 12490 12491 12492 12493 12494 12495 12496 12497 12498 12499 12500 12501 12502 12503 12504 12505 12506 12507 12508 12509 12510 12511 12512 12513 12514 12515 12516 12517 12518 12519 12520 12521 12522 12523 12524 12525 12526 12527 12528 12529 12530 12531 12532 12533 12534 12535 12536 12537 12538 12539 12540 12541 12542 12543 12544 12545 12546 12547 12548 12549 12550 12551 12552 12553 12554 12555 12556 12557 12558 12559 12560 12561 12562 12563 12564 12565 12566 12567 12568 12569 12570 12571 12572 12573 12574 12575 12576 12577 12578 12579 12580 12581 12582 12583 12584 12585 12586 12587 12588 12589 12590 12591 12592 12593 12594 12595 12596 12597 12598 12599 12600 12601 12602 12603 12604 12605 12606 12607 12608 12609 12610 12611 12612 12613 12614 12615 12616 12617 12618 12619 12620 12621 12622 12623 12624 12625 12626 12627 12628 12629 12630 12631 12632 12633 12634 12635 12636 12637 12638 12639 12640 12641 12642 12643 12644 12645 12646 12647 12648 12649 12650 12651 12652 12653 12654 12655 12656 12657 12658 12659 12660 12661 12662 12663 12664 12665 12666 12667 12668 12669 12670 12671 12672 12673 12674 12675 12676 12677 12678 12679 12680 12681 12682 12683 12684 12685 12686 12687 12688 12689 12690 12691 12692 12693 12694 12695 12696 12697 12698 12699 12700 12701 12702 12703 12704 12705 12706 12707 12708 12709 12710 12711 12712 12713 12714 12715 12716 12717 12718 12719 12720 12721 12722 12723 12724 12725 12726 12727 12728 12729 12730 12731 12732 12733 12734 12735 12736 12737 12738 12739 12740 12741 12742 12743 12744 12745 12746 12747 12748 12749 12750 12751 12752 12753 12754 12755 12756 12757 12758 12759 12760 12761 12762 12763 12764 12765 12766 12767 12768 12769 12770 12771 12772 12773 12774 12775 12776 12777 12778 12779 12780 12781 12782 12783 12784 12785 12786 12787 12788 12789 12790 12791 12792 12793 12794 12795 12796 12797 12798 12799 12800 12801 12802 12803 12804 12805 12806 12807 12808 12809 12810 12811 12812 12813 12814 12815 12816 12817 12818 12819 12820 12821 12822 12823 12824 12825 12826 12827 12828 12829 12830 12831 12832 12833 12834 12835 12836 12837 12838 12839 12840 12841 12842 12843 12844 12845 12846 12847 12848 12849 12850 12851 12852 12853 12854 12855 12856 12857 12858 12859 12860 12861 12862 12863 12864 12865 12866 12867 12868 12869 12870 12871 12872 12873 12874 12875 12876 12877 12878 12879 12880 12881 12882 12883 12884 12885 12886 12887 12888 12889 12890 12891 12892 12893 12894 12895 12896 12897 12898 12899 12900 12901 12902 12903 12904 12905 12906 12907 12908 12909 12910 12911 12912 12913 12914 12915 12916 12917 12918 12919 12920 12921 12922 12923 12924 12925 12926 12927 12928 12929 12930 12931 12932 12933 12934 12935 12936 12937 12938 12939 12940 12941 12942 12943 12944 12945 12946 12947 12948 12949 12950 12951 12952 12953 12954 12955 12956 12957 12958 12959 12960 12961 12962 12963 12964 12965 12966 12967 12968 12969 12970 12971 12972 12973 12974 12975 12976 12977 12978 12979 12980 12981 12982 12983 12984 12985 12986 12987 12988 12989 12990 12991 12992 12993 12994 12995 12996 12997 12998 12999 13000 13001 13002 13003 13004 13005 13006 13007 13008 13009 13010 13011 13012 13013 13014 13015 13016 13017 13018 13019 13020 13021 13022 13023 13024 13025 13026 13027 13028 13029 13030 13031 13032 13033 13034 13035 13036 13037 13038 13039 13040 13041 13042 13043 13044 13045 13046 13047 13048 13049 13050 13051 13052 13053 13054 13055 13056 13057 13058 13059 13060 13061 13062 13063 13064 13065 13066 13067 13068 13069 13070 13071 13072 13073 13074 13075 13076 13077 13078 13079 13080 13081 13082 13083 13084 13085 13086 13087 13088 13089 13090 13091 13092 13093 13094 13095 13096 13097 13098 13099 13100 13101 13102 13103 13104 13105 13106 13107 13108 13109 13110 13111 13112 13113 13114 13115 13116 13117 13118 13119 13120 13121 13122 13123 13124 13125 13126 13127 13128 13129 13130 13131 13132 13133 13134 13135 13136 13137 13138 13139 13140 13141 13142 13143 13144 13145 13146 13147 13148 13149 13150 13151 13152 13153 13154 13155 13156 13157 13158 13159 13160 13161 13162 13163 13164 13165 13166 13167 13168 13169 13170 13171 13172 13173 13174 13175 13176 13177 13178 13179 13180 13181 13182 13183 13184 13185 13186 13187 13188 13189 13190 13191 13192 13193 13194 13195 13196 13197 13198 13199 13200 13201 13202 13203 13204 13205 13206 13207 13208 13209 13210 13211 13212 13213 13214 13215 13216 13217 13218 13219 13220 13221 13222 13223 13224 13225 13226 13227 13228 13229 13230 13231 13232 13233 13234 13235 13236 13237 13238 13239 13240 13241 13242 13243 13244 13245 13246 13247 13248 13249 13250 13251 13252 13253 13254 13255 13256 13257 13258 13259 13260 13261 13262 13263 13264 13265 13266 13267 13268 13269 13270 13271 13272 13273 13274 13275 13276 13277 13278 13279 13280 13281 13282 13283 13284 13285 13286 13287 13288 13289 13290 13291 13292 13293 13294 13295 13296 13297 13298 13299 13300 13301 13302 13303 13304 13305 13306 13307 13308 13309 13310 13311 13312 13313 13314 13315 13316 13317 13318 13319 13320 13321 13322 13323 13324 13325 13326 13327 13328 13329 13330 13331 13332 13333 13334 13335 13336 13337 13338 13339 13340 13341 13342 13343 13344 13345 13346 13347 13348 13349 13350 13351 13352 13353 13354 13355 13356 13357 13358 13359 13360 13361 13362 13363 13364 13365 13366 13367 13368 13369 13370 13371 13372 13373 13374 13375 13376 13377 13378 13379 13380 13381 13382 13383 13384 13385 13386 13387 13388 13389 13390 13391 13392 13393 13394 13395 13396 13397 13398 13399 13400 13401 13402 13403 13404 13405 13406 13407 13408 13409 13410 13411 13412 13413 13414 13415 13416 13417 13418 13419 13420 13421 13422 13423 13424 13425 13426 13427 13428 13429 13430 13431 13432 13433 13434 13435 13436 13437 13438 13439 13440 13441 13442 13443 13444 13445 13446 13447 13448 13449 13450 13451 13452 13453 13454 13455 13456 13457 13458 13459 13460 13461 13462 13463 13464 13465 13466 13467 13468 13469 13470 13471 13472 13473 13474 13475 13476 13477 13478 13479 13480 13481 13482 13483 13484 13485 13486 13487 13488 13489 13490 13491 13492 13493 13494 13495 13496 13497 13498 13499 13500 13501 13502 13503 13504 13505 13506 13507 13508 13509 13510 13511 13512 13513 13514 13515 13516 13517 13518 13519 13520 13521 13522 13523 13524 13525 13526 13527 13528 13529 13530 13531 13532 13533 13534 13535 13536 13537 13538 13539 13540 13541 13542 13543 13544 13545 13546 13547 13548 13549 13550 13551 13552 13553 13554 13555 13556 13557 13558 13559 13560 13561 13562 13563 13564 13565 13566 13567 13568 13569 13570 13571 13572 13573 13574 13575 13576 13577 13578 13579 13580 13581 13582 13583 13584 13585 13586 13587 13588 13589 13590 13591 13592 13593 13594 13595 13596 13597 13598 13599 13600 13601 13602 13603 13604 13605 13606 13607 13608 13609 13610 13611 13612 13613 13614 13615 13616 13617 13618 13619 13620 13621 13622 13623 13624 13625 13626 13627 13628 13629 13630 13631 13632 13633 13634 13635 13636 13637 13638 13639 13640 13641 13642 13643 13644 13645 13646 13647 13648 13649 13650 13651 13652 13653 13654 13655 13656 13657 13658 13659 13660 13661 13662 13663 13664 13665 13666 13667 13668 13669 13670 13671 13672 13673 13674 13675 13676 13677 13678 13679 13680 13681 13682 13683 13684 13685 13686 13687 13688 13689 13690 13691 13692 13693 13694 13695 13696 13697 13698 13699 13700 13701 13702 13703 13704 13705 13706 13707 13708 13709 13710 13711 13712 13713 13714 13715 13716 13717 13718 13719 13720 13721 13722 13723 13724 13725 13726 13727 13728 13729 13730 13731 13732 13733 13734 13735 13736 13737 13738 13739 13740 13741 13742 13743 13744 13745 13746 13747 13748 13749 13750 13751 13752 13753 13754 13755 13756 13757 13758 13759 13760 13761 13762 13763 13764 13765 13766 13767 13768 13769 13770 13771 13772 13773 13774 13775 13776 13777 13778 13779 13780 13781 13782 13783 13784 13785 13786 13787 13788 13789 13790 13791 13792 13793 13794 13795 13796 13797 13798 13799 13800 13801 13802 13803 13804 13805 13806 13807 13808 13809 13810 13811 13812 13813 13814 13815 13816 13817 13818 13819 13820 13821 13822 13823 13824 13825 13826 13827 13828 13829 13830 13831 13832 13833 13834 13835 13836 13837 13838 13839 13840 13841 13842 13843 13844 13845 13846 13847 13848 13849 13850 13851 13852 13853 13854 13855 13856 13857 13858 13859 13860 13861 13862 13863 13864 13865 13866 13867 13868 13869 13870 13871 13872 13873 13874 13875 13876 13877 13878 13879 13880 13881 13882 13883 13884 13885 13886 13887 13888 13889 13890 13891 13892 13893 13894 13895 13896 13897 13898 13899 13900 13901 13902 13903 13904 13905 13906 13907 13908 13909 13910 13911 13912 13913 13914 13915 13916 13917 13918 13919 13920 13921 13922 13923 13924 13925 13926 13927 13928 13929 13930 13931 13932 13933 13934 13935 13936 13937 13938 13939 13940 13941 13942 13943 13944 13945 13946 13947 13948 13949 13950 13951 13952 13953 13954 13955 13956 13957 13958 13959 13960 13961 13962 13963 13964 13965 13966 13967 13968 13969 13970 13971 13972 13973 13974 13975 13976 13977 13978 13979 13980 13981 13982 13983 13984 13985 13986 13987 13988 13989 13990 13991 13992 13993 13994 13995 13996 13997 13998 13999 14000 14001 14002 14003 14004 14005 14006 14007 14008 14009 14010 14011 14012 14013 14014 14015 14016 14017 14018 14019 14020 14021 14022 14023 14024 14025 14026 14027 14028 14029 14030 14031 14032 14033 14034 14035 14036 14037 14038 14039 14040 14041 14042 14043 14044 14045 14046 14047 14048 14049 14050 14051 14052 14053 14054 14055 14056 14057 14058 14059 14060 14061 14062 14063 14064 14065 14066 14067 14068 14069 14070 14071 14072 14073 14074 14075 14076 14077 14078 14079 14080 14081 14082 14083 14084 14085 14086 14087 14088 14089 14090 14091 14092 14093 14094 14095 14096 14097 14098 14099 14100 14101 14102 14103 14104 14105 14106 14107 14108 14109 14110 14111 14112 14113 14114 14115 14116 14117 14118 14119 14120 14121 14122 14123 14124 14125 14126 14127 14128 14129 14130 14131 14132 14133 14134 14135 14136 14137 14138 14139 14140 14141 14142 14143 14144 14145 14146 14147 14148 14149 14150 14151 14152 14153 14154 14155 14156 14157 14158 14159 14160 14161 14162 14163 14164 14165 14166 14167 14168 14169 14170 14171 14172 14173 14174 14175 14176 14177 14178 14179 14180 14181 14182 14183 14184 14185 14186 14187 14188 14189 14190 14191 14192 14193 14194 14195 14196 14197 14198 14199 14200 14201 14202 14203 14204 14205 14206 14207 14208 14209 14210 14211 14212 14213 14214 14215 14216 14217 14218 14219 14220 14221 14222 14223 14224 14225 14226 14227 14228 14229 14230 14231 14232 14233 14234 14235 14236 14237 14238 14239 14240 14241 14242 14243 14244 14245 14246 14247 14248 14249 14250 14251 14252 14253 14254 14255 14256 14257 14258 14259 14260 14261 14262 14263 14264 14265 14266 14267 14268 14269 14270 14271 14272 14273 14274 14275 14276 14277 14278 14279 14280 14281 14282 14283 14284 14285 14286 14287 14288 14289 14290 14291 14292 14293 14294 14295 14296 14297 14298 14299 14300 14301 14302 14303 14304 14305 14306 14307 14308 14309 14310 14311 14312 14313 14314 14315 14316 14317 14318 14319 14320 14321 14322 14323 14324 14325 14326 14327 14328 14329 14330 14331 14332 14333 14334 14335 14336 14337 14338 14339 14340 14341 14342 14343 14344 14345 14346 14347 14348 14349 14350 14351 14352 14353 14354 14355 14356 14357 14358 14359 14360 14361 14362 14363 14364 14365 14366 14367 14368 14369 14370 14371 14372 14373 14374 14375 14376 14377 14378 14379 14380 14381 14382 14383 14384 14385 14386 14387 14388 14389 14390 14391 14392 14393 14394 14395 14396 14397 14398 14399 14400 14401 14402 14403 14404 14405 14406 14407 14408 14409 14410 14411 14412 14413 14414 14415 14416 14417 14418 14419 14420 14421 14422 14423 14424 14425 14426 14427 14428 14429 14430 14431 14432 14433 14434 14435 14436 14437 14438 14439 14440 14441 14442 14443 14444 14445 14446 14447 14448 14449 14450 14451 14452 14453 14454 14455 14456 14457 14458 14459 14460 14461 14462 14463 14464 14465 14466 14467 14468 14469 14470 14471 14472 14473 14474 14475 14476 14477 14478 14479 14480 14481 14482 14483 14484 14485 14486 14487 14488 14489 14490 14491 14492 14493 14494 14495 14496 14497 14498 14499 14500 14501 14502 14503 14504 14505 14506 14507 14508 14509 14510 14511 14512 14513 14514 14515 14516 14517 14518 14519 14520 14521 14522 14523 14524 14525 14526 14527 14528 14529 14530 14531 14532 14533 14534 14535 14536 14537 14538 14539 14540 14541 14542 14543 14544 14545 14546 14547 14548 14549 14550 14551 14552 14553 14554 14555 14556 14557 14558 14559 14560 14561 14562 14563 14564 14565 14566 14567 14568 14569 14570 14571 14572 14573 14574 14575 14576 14577 14578 14579 14580 14581 14582 14583 14584 14585 14586 14587 14588 14589 14590 14591 14592 14593 14594 14595 14596 14597 14598 14599 14600 14601 14602 14603 14604 14605 14606 14607 14608 14609 14610 14611 14612 14613 14614 14615 14616 14617 14618 14619 14620 14621 14622 14623 14624 14625 14626 14627 14628 14629 14630 14631 14632 14633 14634 14635 14636 14637 14638 14639 14640 14641 14642 14643 14644 14645 14646 14647 14648 14649 14650 14651 14652 14653 14654 14655 14656 14657 14658 14659 14660 14661 14662 14663 14664 14665 14666 14667 14668 14669 14670 14671 14672 14673 14674 14675 14676 14677 14678 14679 14680 14681 14682 14683 14684 14685 14686 14687 14688 14689 14690 14691 14692 14693 14694 14695 14696 14697 14698 14699 14700 14701 14702 14703 14704 14705 14706 14707 14708 14709 14710 14711 14712 14713 14714 14715 14716 14717 14718 14719 14720 14721 14722 14723 14724 14725 14726 14727 14728 14729 14730 14731 14732 14733 14734 14735 14736 14737 14738 14739 14740 14741 14742 14743 14744 14745 14746 14747 14748 14749 14750 14751 14752 14753 14754 14755 14756 14757 14758 14759 14760 14761 14762 14763 14764 14765 14766 14767 14768 14769 14770 14771 14772 14773 14774 14775 14776 14777 14778 14779 14780 14781 14782 14783 14784 14785 14786 14787 14788 14789 14790 14791 14792 14793 14794 14795 14796 14797 14798 14799 14800 14801 14802 14803 14804 14805 14806 14807 14808 14809 14810 14811 14812 14813 14814 14815 14816 14817 14818 14819 14820 14821 14822 14823 14824 14825 14826 14827 14828 14829 14830 14831 14832 14833 14834 14835 14836 14837 14838 14839 14840 14841 14842 14843 14844 14845 14846 14847 14848 14849 14850 14851 14852 14853 14854 14855 14856 14857 14858 14859 14860 14861 14862 14863 14864 14865 14866 14867 14868 14869 14870 14871 14872 14873 14874 14875 14876 14877 14878 14879 14880 14881 14882 14883 14884 14885 14886 14887 14888 14889 14890 14891 14892 14893 14894 14895 14896 14897 14898 14899 14900 14901 14902 14903 14904 14905 14906 14907 14908 14909 14910 14911 14912 14913 14914 14915 14916 14917 14918 14919 14920 14921 14922 14923 14924 14925 14926 14927 14928 14929 14930 14931 14932 14933 14934 14935 14936 14937 14938 14939 14940 14941 14942 14943 14944 14945 14946 14947 14948 14949 14950 14951 14952 14953 14954 14955 14956 14957 14958 14959 14960 14961 14962 14963 14964 14965 14966 14967 14968 14969 14970 14971 14972 14973 14974 14975 14976 14977 14978 14979 14980 14981 14982 14983 14984 14985 14986 14987 14988 14989 14990 14991 14992 14993 14994 14995 14996 14997 14998 14999 15000 15001 15002 15003 15004 15005 15006 15007 15008 15009 15010 15011 15012 15013 15014 15015 15016 15017 15018 15019 15020 15021 15022 15023 15024 15025 15026 15027 15028 15029 15030 15031 15032 15033 15034 15035 15036 15037 15038 15039 15040 15041 15042 15043 15044 15045 15046 15047 15048 15049 15050 15051 15052 15053 15054 15055 15056 15057 15058 15059 15060 15061 15062 15063 15064 15065 15066 15067 15068 15069 15070 15071 15072 15073 15074 15075 15076 15077 15078 15079 15080 15081 15082 15083 15084 15085 15086 15087 15088 15089 15090 15091 15092 15093 15094 15095 15096 15097 15098 15099 15100 15101 15102 15103 15104 15105 15106 15107 15108 15109 15110 15111 15112 15113 15114 15115 15116 15117 15118 15119 15120 15121 15122 15123 15124 15125 15126 15127 15128 15129 15130 15131 15132 15133 15134 15135 15136 15137 15138 15139 15140 15141 15142 15143 15144 15145 15146 15147 15148 15149 15150 15151 15152 15153 15154 15155 15156 15157 15158 15159 15160 15161 15162 15163 15164 15165 15166 15167 15168 15169 15170 15171 15172 15173 15174 15175 15176 15177 15178 15179 15180 15181 15182 15183 15184 15185 15186 15187 15188 15189 15190 15191 15192 15193 15194 15195 15196 15197 15198 15199 15200 15201 15202 15203 15204 15205 15206 15207 15208 15209 15210 15211 15212 15213 15214 15215 15216 15217 15218 15219 15220 15221 15222 15223 15224 15225 15226 15227 15228 15229 15230 15231 15232 15233 15234 15235 15236 15237 15238 15239 15240 15241 15242 15243 15244 15245 15246 15247 15248 15249 15250 15251 15252 15253 15254 15255 15256 15257 15258 15259 15260 15261 15262 15263 15264 15265 15266 15267 15268 15269 15270 15271 15272 15273 15274 15275 15276 15277 15278 15279 15280 15281 15282 15283 15284 15285 15286 15287 15288 15289 15290 15291 15292 15293 15294 15295 15296 15297 15298 15299 15300 15301 15302 15303 15304 15305 15306 15307 15308 15309 15310 15311 15312 15313 15314 15315 15316 15317 15318 15319 15320 15321 15322 15323 15324 15325 15326 15327 15328 15329 15330 15331 15332 15333 15334 15335 15336 15337 15338 15339 15340 15341 15342 15343 15344 15345 15346 15347 15348 15349 15350 15351 15352 15353 15354 15355 15356 15357 15358 15359 15360 15361 15362 15363 15364 15365 15366 15367 15368 15369 15370 15371 15372 15373 15374 15375 15376 15377 15378 15379 15380 15381 15382 15383 15384 15385 15386 15387 15388 15389 15390 15391 15392 15393 15394 15395 15396 15397 15398 15399 15400 15401 15402 15403 15404 15405 15406 15407 15408 15409 15410 15411 15412 15413 15414 15415 15416 15417 15418 15419 15420 15421 15422 15423 15424 15425 15426 15427 15428 15429 15430 15431 15432 15433 15434 15435 15436 15437 15438 15439 15440 15441 15442 15443 15444 15445 15446 15447 15448 15449 15450 15451 15452 15453 15454 15455 15456 15457 15458 15459 15460 15461 15462 15463 15464 15465 15466 15467 15468 15469 15470 15471 15472 15473 15474 15475 15476 15477 15478 15479 15480 15481 15482 15483 15484 15485 15486 15487 15488 15489 15490 15491 15492 15493 15494 15495 15496 15497 15498 15499 15500 15501 15502 15503 15504 15505 15506 15507 15508 15509 15510 15511 15512 15513 15514 15515 15516 15517 15518 15519 15520 15521 15522 15523 15524 15525 15526 15527 15528 15529 15530 15531 15532 15533 15534 15535 15536 15537 15538 15539 15540 15541 15542 15543 15544 15545 15546 15547 15548 15549 15550 15551 15552 15553 15554 15555 15556 15557 15558 15559 15560 15561 15562 15563 15564 15565 15566 15567 15568 15569 15570 15571 15572 15573 15574 15575 15576 15577 15578 15579 15580 15581 15582 15583 15584 15585 15586 15587 15588 15589 15590 15591 15592 15593 15594 15595 15596 15597 15598 15599 15600 15601 15602 15603 15604 15605 15606 15607 15608 15609 15610 15611 15612 15613 15614 15615 15616 15617 15618 15619 15620 15621 15622 15623 15624 15625 15626 15627 15628 15629 15630 15631 15632 15633 15634 15635 15636 15637 15638 15639 15640 15641 15642 15643 15644 15645 15646 15647 15648 15649 15650 15651 15652 15653 15654 15655 15656 15657 15658 15659 15660 15661 15662 15663 15664 15665 15666 15667 15668 15669 15670 15671 15672 15673 15674 15675 15676 15677 15678 15679 15680 15681 15682 15683 15684 15685 15686 15687 15688 15689 15690 15691 15692 15693 15694 15695 15696 15697 15698 15699 15700 15701 15702 15703 15704 15705 15706 15707 15708 15709 15710 15711 15712 15713 15714 15715 15716 15717 15718 15719 15720 15721 15722 15723 15724 15725 15726 15727 15728 15729 15730 15731 15732 15733 15734 15735 15736 15737 15738 15739 15740 15741 15742 15743 15744 15745 15746 15747 15748 15749 15750 15751 15752 15753 15754 15755 15756 15757 15758 15759 15760 15761 15762 15763 15764 15765 15766 15767 15768 15769 15770 15771 15772 15773 15774 15775 15776 15777 15778 15779 15780 15781 15782 15783 15784 15785 15786 15787 15788 15789 15790 15791 15792 15793 15794 15795 15796 15797 15798 15799 15800 15801 15802 15803 15804 15805 15806 15807 15808 15809 15810 15811 15812 15813 15814 15815 15816 15817 15818 15819 15820 15821 15822 15823 15824 15825 15826 15827 15828 15829 15830 15831 15832 15833 15834 15835 15836 15837 15838 15839 15840 15841 15842 15843 15844 15845 15846 15847 15848 15849 15850 15851 15852 15853 15854 15855 15856 15857 15858 15859 15860 15861 15862 15863 15864 15865 15866 15867 15868 15869 15870 15871 15872 15873 15874 15875 15876 15877 15878 15879 15880 15881 15882 15883 15884 15885 15886 15887 15888 15889 15890 15891 15892 15893 15894 15895 15896 15897 15898 15899 15900 15901 15902 15903 15904 15905 15906 15907 15908 15909 15910 15911 15912 15913 15914 15915 15916 15917 15918 15919 15920 15921 15922 15923 15924 15925 15926 15927 15928 15929 15930 15931 15932 15933 15934 15935 15936 15937 15938 15939 15940 15941 15942 15943 15944 15945 15946 15947 15948 15949 15950 15951 15952 15953 15954 15955 15956 15957 15958 15959 15960 15961 15962 15963 15964 15965 15966 15967 15968 15969 15970 15971 15972 15973 15974 15975 15976 15977 15978 15979 15980 15981 15982 15983 15984 15985 15986 15987 15988 15989 15990 15991 15992 15993 15994 15995 15996 15997 15998 15999 16000 16001 16002 16003 16004 16005 16006 16007 16008 16009 16010 16011 16012 16013 16014 16015 16016 16017 16018 16019 16020 16021 16022 16023 16024 16025 16026 16027 16028 16029 16030 16031 16032 16033 16034 16035 16036 16037 16038 16039 16040 16041 16042 16043 16044 16045 16046 16047 16048 16049 16050 16051 16052 16053 16054 16055 16056 16057 16058 16059 16060 16061 16062 16063 16064 16065 16066 16067 16068 16069 16070 16071 16072 16073 16074 16075 16076 16077 16078 16079 16080 16081 16082 16083 16084 16085 16086 16087 16088 16089 16090 16091 16092 16093 16094 16095 16096 16097 16098 16099 16100 16101 16102 16103 16104 16105 16106 16107 16108 16109 16110 16111 16112 16113 16114 16115 16116 16117 16118 16119 16120 16121 16122 16123 16124 16125 16126 16127 16128 16129 16130 16131 16132 16133 16134 16135 16136 16137 16138 16139 16140 16141 16142 16143 16144 16145 16146 16147 16148 16149 16150 16151 16152 16153 16154 16155 16156 16157 16158 16159 16160 16161 16162 16163 16164 16165 16166 16167 16168 16169 16170 16171 16172 16173 16174 16175 16176 16177 16178 16179 16180 16181 16182 16183 16184 16185 16186 16187 16188 16189 16190 16191 16192 16193 16194 16195 16196 16197 16198 16199 16200 16201 16202 16203 16204 16205 16206 16207 16208 16209 16210 16211 16212 16213 16214 16215 16216 16217 16218 16219 16220 16221 16222 16223 16224 16225 16226 16227 16228 16229 16230 16231 16232 16233 16234 16235 16236 16237 16238 16239 16240 16241 16242 16243 16244 16245 16246 16247 16248 16249 16250 16251 16252 16253 16254 16255 16256 16257 16258 16259 16260 16261 16262 16263 16264 16265 16266 16267 16268 16269 16270 16271 16272 16273 16274 16275 16276 16277 16278 16279 16280 16281 16282 16283 16284 16285 16286 16287 16288 16289 16290 16291 16292 16293 16294 16295 16296 16297 16298 16299 16300 16301 16302 16303 16304 16305 16306 16307 16308 16309 16310 16311 16312 16313 16314 16315 16316 16317 16318 16319 16320 16321 16322 16323 16324 16325 16326 16327 16328 16329 16330 16331 16332 16333 16334 16335 16336 16337 16338 16339 16340 16341 16342 16343 16344 16345 16346 16347 16348 16349 16350 16351 16352 16353 16354 16355 16356 16357 16358 16359 16360 16361 16362 16363 16364 16365 16366 16367 16368 16369 16370 16371 16372 16373 16374 16375 16376 16377 16378 16379 16380 16381 16382 16383 16384 16385 16386 16387 16388 16389 16390 16391 16392 16393 16394 16395 16396 16397 16398 16399 16400 16401 16402 16403 16404 16405 16406 16407 16408 16409 16410 16411 16412 16413 16414 16415 16416 16417 16418 16419 16420 16421 16422 16423 16424 16425 16426 16427 16428 16429 16430 16431 16432 16433 16434 16435 16436 16437 16438 16439 16440 16441 16442 16443 16444 16445 16446 16447 16448 16449 16450 16451 16452 16453 16454 16455 16456 16457 16458 16459 16460 16461 16462 16463 16464 16465 16466 16467 16468 16469 16470 16471 16472 16473 16474 16475 16476 16477 16478 16479 16480 16481 16482 16483 16484 16485 16486 16487 16488 16489 16490 16491 16492 16493 16494 16495 16496 16497 16498 16499 16500 16501 16502 16503 16504 16505 16506 16507 16508 16509 16510 16511 16512 16513 16514 16515 16516 16517 16518 16519 16520 16521 16522 16523 16524 16525 16526 16527 16528 16529 16530 16531 16532 16533 16534 16535 16536 16537 16538 16539 16540 16541 16542 16543 16544 16545 16546 16547 16548 16549 16550 16551 16552 16553 16554 16555 16556 16557 16558 16559 16560 16561 16562 16563 16564 16565 16566 16567 16568 16569 16570 16571 16572 16573 16574 16575 16576 16577 16578 16579 16580 16581 16582 16583 16584 16585 16586 16587 16588 16589 16590 16591 16592 16593 16594 16595 16596 16597 16598 16599 16600 16601 16602 16603 16604 16605 16606 16607 16608 16609 16610 16611 16612 16613 16614 16615 16616 16617 16618 16619 16620 16621 16622 16623 16624 16625 16626 16627 16628 16629 16630 16631 16632 16633 16634 16635 16636 16637 16638 16639 16640 16641 16642 16643 16644 16645 16646 16647 16648 16649 16650 16651 16652 16653 16654 16655 16656 16657 16658 16659 16660 16661 16662 16663 16664 16665 16666 16667 16668 16669 16670 16671 16672 16673 16674 16675 16676 16677 16678 16679 16680 16681 16682 16683 16684 16685 16686 16687 16688 16689 16690 16691 16692 16693 16694 16695 16696 16697 16698 16699 16700 16701 16702 16703 16704 16705 16706 16707 16708 16709 16710 16711 16712 16713 16714 16715 16716 16717 16718 16719 16720 16721 16722 16723 16724 16725 16726 16727 16728 16729 16730 16731 16732 16733 16734 16735 16736 16737 16738 16739 16740 16741 16742 16743 16744 16745 16746 16747 16748 16749 16750 16751 16752 16753 16754 16755 16756 16757 16758 16759 16760 16761 16762 16763 16764 16765 16766 16767 16768 16769 16770 16771 16772 16773 16774 16775 16776 16777 16778 16779 16780 16781 16782 16783 16784 16785 16786 16787 16788 16789 16790 16791 16792 16793 16794 16795 16796 16797 16798 16799 16800 16801 16802 16803 16804 16805 16806 16807 16808 16809 16810 16811 16812 16813 16814 16815 16816 16817 16818 16819 16820 16821 16822 16823 16824 16825 16826 16827 16828 16829 16830 16831 16832 16833 16834 16835 16836 16837 16838 16839 16840 16841 16842 16843 16844 16845 16846 16847 16848 16849 16850 16851 16852 16853 16854 16855 16856 16857 16858 16859 16860 16861 16862 16863 16864 16865 16866 16867 16868 16869 16870 16871 16872 16873 16874 16875 16876 16877 16878 16879 16880 16881 16882 16883 16884 16885 16886 16887 16888 16889 16890 16891 16892 16893 16894 16895 16896 16897 16898 16899 16900 16901 16902 16903 16904 16905 16906 16907 16908 16909 16910 16911 16912 16913 16914 16915 16916 16917 16918 16919 16920 16921 16922 16923 16924 16925 16926 16927 16928 16929 16930 16931 16932 16933 16934 16935 16936 16937 16938 16939 16940 16941 16942 16943 16944 16945 16946 16947 16948 16949 16950 16951 16952 16953 16954 16955 16956 16957 16958 16959 16960 16961 16962 16963 16964 16965 16966 16967 16968 16969 16970 16971 16972 16973 16974 16975 16976 16977 16978 16979 16980 16981 16982 16983 16984 16985 16986 16987 16988 16989 16990 16991 16992 16993 16994 16995 16996 16997 16998 16999 17000 17001 17002 17003 17004 17005 17006 17007 17008 17009 17010 17011 17012 17013 17014 17015 17016 17017 17018 17019 17020 17021 17022 17023 17024 17025 17026 17027 17028 17029 17030 17031 17032 17033 17034 17035 17036 17037 17038 17039 17040 17041 17042 17043 17044 17045 17046 17047 17048 17049 17050 17051 17052 17053 17054 17055 17056 17057 17058 17059 17060 17061 17062 17063 17064 17065 17066 17067 17068 17069 17070 17071 17072 17073 17074 17075 17076 17077 17078 17079 17080 17081 17082 17083 17084 17085 17086 17087 17088 17089 17090 17091 17092 17093 17094 17095 17096 17097 17098 17099 17100 17101 17102 17103 17104 17105 17106 17107 17108 17109 17110 17111 17112 17113 17114 17115 17116 17117 17118 17119 17120 17121 17122 17123 17124 17125 17126 17127 17128 17129 17130 17131 17132 17133 17134 17135 17136 17137 17138 17139 17140 17141 17142 17143 17144 17145 17146 17147 17148 17149 17150 17151 17152 17153 17154 17155 17156 17157 17158 17159 17160 17161 17162 17163 17164 17165 17166 17167 17168 17169 17170 17171 17172 17173 17174 17175 17176 17177 17178 17179 17180 17181 17182 17183 17184 17185 17186 17187 17188 17189 17190 17191 17192 17193 17194 17195 17196 17197 17198 17199 17200 17201 17202 17203 17204 17205 17206 17207 17208 17209 17210 17211 17212 17213 17214 17215 17216 17217 17218 17219 17220 17221 17222 17223 17224 17225 17226 17227 17228 17229 17230 17231 17232 17233 17234 17235 17236 17237 17238 17239 17240 17241 17242 17243 17244 17245 17246 17247 17248 17249 17250 17251 17252 17253 17254 17255 17256 17257 17258 17259 17260 17261 17262 17263 17264 17265 17266 17267 17268 17269 17270 17271 17272 17273 17274 17275 17276 17277 17278 17279 17280 17281 17282 17283 17284 17285 17286 17287 17288 17289 17290 17291 17292 17293 17294 17295 17296 17297 17298 17299 17300 17301 17302 17303 17304 17305 17306 17307 17308 17309 17310 17311 17312 17313 17314 17315 17316 17317 17318 17319 17320 17321 17322 17323 17324 17325 17326 17327 17328 17329 17330 17331 17332 17333 17334 17335 17336 17337 17338 17339 17340 17341 17342 17343 17344 17345 17346 17347 17348 17349 17350 17351 17352 17353 17354 17355 17356 17357 17358 17359 17360 17361 17362 17363 17364 17365 17366 17367 17368 17369 17370 17371 17372 17373 17374 17375 17376 17377 17378 17379 17380 17381 17382 17383 17384 17385 17386 17387 17388 17389 17390 17391 17392 17393 17394 17395 17396 17397 17398 17399 17400 17401 17402 17403 17404 17405 17406 17407 17408 17409 17410 17411 17412 17413 17414 17415 17416 17417 17418 17419 17420 17421 17422 17423 17424 17425 17426 17427 17428 17429 17430 17431 17432 17433 17434 17435 17436 17437 17438 17439 17440 17441 17442 17443 17444 17445 17446 17447 17448 17449 17450 17451 17452 17453 17454 17455 17456 17457 17458 17459 17460 17461 17462 17463 17464 17465 17466 17467 17468 17469 17470 17471 17472 17473 17474 17475 17476 17477 17478 17479 17480 17481 17482 17483 17484 17485 17486 17487 17488 17489 17490 17491 17492 17493 17494 17495 17496 17497 17498 17499 17500 17501 17502 17503 17504 17505 17506 17507 17508 17509 17510 17511 17512 17513 17514 17515 17516 17517 17518 17519 17520 17521 17522 17523 17524 17525 17526 17527 17528 17529 17530 17531 17532 17533 17534 17535 17536 17537 17538 17539 17540 17541 17542 17543 17544 17545 17546 17547 17548 17549 17550 17551 17552 17553 17554 17555 17556 17557 17558 17559 17560 17561 17562 17563 17564 17565 17566 17567 17568 17569 17570 17571 17572 17573 17574 17575 17576 17577 17578 17579 17580 17581 17582 17583 17584 17585 17586 17587 17588 17589 17590 17591 17592 17593 17594 17595 17596 17597 17598 17599 17600 17601 17602 17603 17604 17605 17606 17607 17608 17609 17610 17611 17612 17613 17614 17615 17616 17617 17618 17619 17620 17621 17622 17623 17624 17625 17626 17627 17628 17629 17630 17631 17632 17633 17634 17635 17636 17637 17638 17639 17640 17641 17642 17643 17644 17645 17646 17647 17648 17649 17650 17651 17652 17653 17654 17655 17656 17657 17658 17659 17660 17661 17662 17663 17664 17665 17666 17667 17668 17669 17670 17671 17672 17673 17674 17675 17676 17677 17678 17679 17680 17681 17682 17683 17684 17685 17686 17687 17688 17689 17690 17691 17692 17693 17694 17695 17696 17697 17698 17699 17700 17701 17702 17703 17704 17705 17706 17707 17708 17709 17710 17711 17712 17713 17714 17715 17716 17717 17718 17719 17720 17721 17722 17723 17724 17725 17726 17727 17728 17729 17730 17731 17732 17733 17734 17735 17736 17737 17738 17739 17740 17741 17742 17743 17744 17745 17746 17747 17748 17749 17750 17751 17752 17753 17754 17755 17756 17757 17758 17759 17760 17761 17762 17763 17764 17765 17766 17767 17768 17769 17770 17771 17772 17773 17774 17775 17776 17777 17778 17779 17780 17781 17782 17783 17784 17785 17786 17787 17788 17789 17790 17791 17792 17793 17794 17795 17796 17797 17798 17799 17800 17801 17802 17803 17804 17805 17806 17807 17808 17809 17810 17811 17812 17813 17814 17815 17816 17817 17818 17819 17820 17821 17822 17823 17824 17825 17826 17827 17828 17829 17830 17831 17832 17833 17834 17835 17836 17837 17838 17839 17840 17841 17842 17843 17844 17845 17846 17847 17848 17849 17850 17851 17852 17853 17854 17855 17856 17857 17858 17859 17860 17861 17862 17863 17864 17865 17866 17867 17868 17869 17870 17871 17872 17873 17874 17875 17876 17877 17878 17879 17880 17881 17882 17883 17884 17885 17886 17887 17888 17889 17890 17891 17892 17893 17894 17895 17896 17897 17898 17899 17900 17901 17902 17903 17904 17905 17906 17907 17908 17909 17910 17911 17912 17913 17914 17915 17916 17917 17918 17919 17920 17921 17922 17923 17924 17925 17926 17927 17928 17929 17930 17931 17932 17933 17934 17935 17936 17937 17938 17939 17940 17941 17942 17943 17944 17945 17946 17947 17948 17949 17950 17951 17952 17953 17954 17955 17956 17957 17958 17959 17960 17961 17962 17963 17964 17965 17966 17967 17968 17969 17970 17971 17972 17973 17974 17975 17976 17977 17978 17979 17980 17981 17982 17983 17984 17985 17986 17987 17988 17989 17990 17991 17992 17993 17994 17995 17996 17997 17998 17999 18000 18001 18002 18003 18004 18005 18006 18007 18008 18009 18010 18011 18012 18013 18014 18015 18016 18017 18018 18019 18020 18021 18022 18023 18024 18025 18026 18027 18028 18029 18030 18031 18032 18033 18034 18035 18036 18037 18038 18039 18040 18041 18042 18043 18044 18045 18046 18047 18048 18049 18050 18051 18052 18053 18054 18055 18056 18057 18058 18059 18060 18061 18062 18063 18064 18065 18066 18067 18068 18069 18070 18071 18072 18073 18074 18075 18076 18077 18078 18079 18080 18081 18082 18083 18084 18085 18086 18087 18088 18089 18090 18091 18092 18093 18094 18095 18096 18097 18098 18099 18100 18101 18102 18103 18104 18105 18106 18107 18108 18109 18110 18111 18112 18113 18114 18115 18116 18117 18118 18119 18120 18121 18122 18123 18124 18125 18126 18127 18128 18129 18130 18131 18132 18133 18134 18135 18136 18137 18138 18139 18140 18141 18142 18143 18144 18145 18146 18147 18148 18149 18150 18151 18152 18153 18154 18155 18156 18157 18158 18159 18160 18161 18162 18163 18164 18165 18166 18167 18168 18169 18170 18171 18172 18173 18174 18175 18176 18177 18178 18179 18180 18181 18182 18183 18184 18185 18186 18187 18188 18189 18190 18191 18192 18193 18194 18195 18196 18197 18198 18199 18200 18201 18202 18203 18204 18205 18206 18207 18208 18209 18210 18211 18212 18213 18214 18215 18216 18217 18218 18219 18220 18221 18222 18223 18224 18225 18226 18227 18228 18229 18230 18231 18232 18233 18234 18235 18236 18237 18238 18239 18240 18241 18242 18243 18244 18245 18246 18247 18248 18249 18250 18251 18252 18253 18254 18255 18256 18257 18258 18259 18260 18261 18262 18263 18264 18265 18266 18267 18268 18269 18270 18271 18272 18273 18274 18275 18276 18277 18278 18279 18280 18281 18282 18283 18284 18285 18286 18287 18288 18289 18290 18291 18292 18293 18294 18295 18296 18297 18298 18299 18300 18301 18302 18303 18304 18305 18306 18307 18308 18309 18310 18311 18312 18313 18314 18315 18316 18317 18318 18319 18320 18321 18322 18323 18324 18325 18326 18327 18328 18329 18330 18331 18332 18333 18334 18335 18336 18337 18338 18339 18340 18341 18342 18343 18344 18345 18346 18347 18348 18349 18350 18351 18352 18353 18354 18355 18356 18357 18358 18359 18360 18361 18362 18363 18364 18365 18366 18367 18368 18369 18370 18371 18372 18373 18374 18375 18376 18377 18378 18379 18380 18381 18382 18383 18384 18385 18386 18387 18388 18389 18390 18391 18392 18393 18394 18395 18396 18397 18398 18399 18400 18401 18402 18403 18404 18405 18406 18407 18408 18409 18410 18411 18412 18413 18414 18415 18416 18417 18418 18419 18420 18421 18422 18423 18424 18425 18426 18427 18428 18429 18430 18431 18432 18433 18434 18435 18436 18437 18438 18439 18440 18441 18442 18443 18444 18445 18446 18447 18448 18449 18450 18451 18452 18453 18454 18455 18456 18457 18458 18459 18460 18461 18462 18463 18464 18465 18466 18467 18468 18469 18470 18471 18472 18473 18474 18475 18476 18477 18478 18479 18480 18481 18482 18483 18484 18485 18486 18487 18488 18489 18490 18491 18492 18493 18494 18495 18496 18497 18498 18499 18500 18501 18502 18503 18504 18505 18506 18507 18508 18509 18510 18511 18512 18513 18514 18515 18516 18517 18518 18519 18520 18521 18522 18523 18524 18525 18526 18527 18528 18529 18530 18531 18532 18533 18534 18535 18536 18537 18538 18539 18540 18541 18542 18543 18544 18545 18546 18547 18548 18549 18550 18551 18552 18553 18554 18555 18556 18557 18558 18559 18560 18561 18562 18563 18564 18565 18566 18567 18568 18569 18570 18571 18572 18573 18574 18575 18576 18577 18578 18579 18580 18581 18582 18583 18584 18585 18586 18587 18588 18589 18590 18591 18592 18593 18594 18595 18596 18597 18598 18599 18600 18601 18602 18603 18604 18605 18606 18607 18608 18609 18610 18611 18612 18613 18614 18615 18616 18617 18618 18619 18620 18621 18622 18623 18624 18625 18626 18627 18628 18629 18630 18631 18632 18633 18634 18635 18636 18637 18638 18639 18640 18641 18642 18643 18644 18645 18646 18647 18648 18649 18650 18651 18652 18653 18654 18655 18656 18657 18658 18659 18660 18661 18662 18663 18664 18665 18666 18667 18668 18669 18670 18671 18672 18673 18674 18675 18676 18677 18678 18679 18680 18681 18682 18683 18684 18685 18686 18687 18688 18689 18690 18691 18692 18693 18694 18695 18696 18697 18698 18699 18700 18701 18702 18703 18704 18705 18706 18707 18708 18709 18710 18711 18712 18713 18714 18715 18716 18717 18718 18719 18720 18721 18722 18723 18724 18725 18726 18727 18728 18729 18730 18731 18732 18733 18734 18735 18736 18737 18738 18739 18740 18741 18742 18743 18744 18745 18746 18747 18748 18749 18750 18751 18752 18753 18754 18755 18756 18757 18758 18759 18760 18761 18762 18763 18764 18765 18766 18767 18768 18769 18770 18771 18772 18773 18774 18775 18776 18777 18778 18779 18780 18781 18782 18783 18784 18785 18786 18787 18788 18789 18790 18791 18792 18793 18794 18795 18796 18797 18798 18799 18800 18801 18802 18803 18804 18805 18806 18807 18808 18809 18810 18811 18812 18813 18814 18815 18816 18817 18818 18819 18820 18821 18822 18823 18824 18825 18826 18827 18828 18829 18830 18831 18832 18833 18834 18835 18836 18837 18838 18839 18840 18841 18842 18843 18844 18845 18846 18847 18848 18849 18850 18851 18852 18853 18854 18855 18856 18857 18858 18859 18860 18861 18862 18863 18864 18865 18866 18867 18868 18869 18870 18871 18872 18873 18874 18875 18876 18877 18878 18879 18880 18881 18882 18883 18884 18885 18886 18887 18888 18889 18890 18891 18892 18893 18894 18895 18896 18897 18898 18899 18900 18901 18902 18903 18904 18905 18906 18907 18908 18909 18910 18911 18912 18913 18914 18915 18916 18917 18918 18919 18920 18921 18922 18923 18924 18925 18926 18927 18928 18929 18930 18931 18932 18933 18934 18935 18936 18937 18938 18939 18940 18941 18942 18943 18944 18945 18946 18947 18948 18949 18950 18951 18952 18953 18954 18955 18956 18957 18958 18959 18960 18961 18962 18963 18964 18965 18966 18967 18968 18969 18970 18971 18972 18973 18974 18975 18976 18977 18978 18979 18980 18981 18982 18983 18984 18985 18986 18987 18988 18989 18990 18991 18992 18993 18994 18995 18996 18997 18998 18999 19000 19001 19002 19003 19004 19005 19006 19007 19008 19009 19010 19011 19012 19013 19014 19015 19016 19017 19018 19019 19020 19021 19022 19023 19024 19025 19026 19027 19028 19029 19030 19031 19032 19033 19034 19035 19036 19037 19038 19039 19040 19041 19042 19043 19044 19045 19046 19047 19048 19049 19050 19051 19052 19053 19054 19055 19056 19057 19058 19059 19060 19061 19062 19063 19064 19065 19066 19067 19068 19069 19070 19071 19072 19073 19074 19075 19076 19077 19078 19079 19080 19081 19082 19083 19084 19085 19086 19087 19088 19089 19090 19091 19092 19093 19094 19095 19096 19097 19098 19099 19100 19101 19102 19103 19104 19105 19106 19107 19108 19109 19110 19111 19112 19113 19114 19115 19116 19117 19118 19119 19120 19121 19122 19123 19124 19125 19126 19127 19128 19129 19130 19131 19132 19133 19134 19135 19136 19137 19138 19139 19140 19141 19142 19143 19144 19145 19146 19147 19148 19149 19150 19151 19152 19153 19154 19155 19156 19157 19158 19159 19160 19161 19162 19163 19164 19165 19166 19167 19168 19169 19170 19171 19172 19173 19174 19175 19176 19177 19178 19179 19180 19181 19182 19183 19184 19185 19186 19187 19188 19189 19190 19191 19192 19193 19194 19195 19196 19197 19198 19199 19200 19201 19202 19203 19204 19205 19206 19207 19208 19209 19210 19211 19212 19213 19214 19215 19216 19217 19218 19219 19220 19221 19222 19223 19224 19225 19226 19227 19228 19229 19230 19231 19232 19233 19234 19235 19236 19237 19238 19239 19240 19241 19242 19243 19244 19245 19246 19247 19248 19249 19250 19251 19252 19253 19254 19255 19256 19257 19258 19259 19260 19261 19262 19263 19264 19265 19266 19267 19268 19269 19270 19271 19272 19273 19274 19275 19276 19277 19278 19279 19280 19281 19282 19283 19284 19285 19286 19287 19288 19289 19290 19291 19292 19293 19294 19295 19296 19297 19298 19299 19300 19301 19302 19303 19304 19305 19306 19307 19308 19309 19310 19311 19312 19313 19314 19315 19316 19317 19318 19319 19320 19321 19322 19323 19324 19325 19326 19327 19328 19329 19330 19331 19332 19333 19334 19335 19336 19337 19338 19339 19340 19341 19342 19343 19344 19345 19346 19347 19348 19349 19350 19351 19352 19353 19354 19355 19356 19357 19358 19359 19360 19361 19362 19363 19364 19365 19366 19367 19368 19369 19370 19371 19372 19373 19374 19375 19376 19377 19378 19379 19380 19381 19382 19383 19384 19385 19386 19387 19388 19389 19390 19391 19392 19393 19394 19395 19396 19397 19398 19399 19400 19401 19402 19403 19404 19405 19406 19407 19408 19409 19410 19411 19412 19413 19414 19415 19416 19417 19418 19419 19420 19421 19422 19423 19424 19425 19426 19427 19428 19429 19430 19431 19432 19433 19434 19435 19436 19437 19438 19439 19440 19441 19442 19443 19444 19445 19446 19447 19448 19449 19450 19451 19452 19453 19454 19455 19456 19457 19458 19459 19460 19461 19462 19463 19464 19465 19466 19467 19468 19469 19470 19471 19472 19473 19474 19475 19476 19477 19478 19479 19480 19481 19482 19483 19484 19485 19486 19487 19488 19489 19490 19491 19492 19493 19494 19495 19496 19497 19498 19499 19500 19501 19502 19503 19504 19505 19506 19507 19508 19509 19510 19511 19512 19513 19514 19515 19516 19517 19518 19519 19520 19521 19522 19523 19524 19525 19526 19527 19528 19529 19530 19531 19532 19533 19534 19535 19536 19537 19538 19539 19540 19541 19542 19543 19544 19545 19546 19547 19548 19549 19550 19551 19552 19553 19554 19555 19556 19557 19558 19559 19560 19561 19562 19563 19564 19565 19566 19567 19568 19569 19570 19571 19572 19573 19574 19575 19576 19577 19578 19579 19580 19581 19582 19583 19584 19585 19586 19587 19588 19589 19590 19591 19592 19593 19594 19595 19596 19597 19598 19599 19600 19601 19602 19603 19604 19605 19606 19607 19608 19609 19610 19611 19612 19613 19614 19615 19616 19617 19618 19619 19620 19621 19622 19623 19624 19625 19626 19627 19628 19629 19630 19631 19632 19633 19634 19635 19636 19637 19638 19639 19640 19641 19642 19643 19644 19645 19646 19647 19648 19649 19650 19651 19652 19653 19654 19655 19656 19657 19658 19659 19660 19661 19662 19663 19664 19665 19666 19667 19668 19669 19670 19671 19672 19673 19674 19675 19676 19677 19678 19679 19680 19681 19682 19683 19684 19685 19686 19687 19688 19689 19690 19691 19692 19693 19694 19695 19696 19697 19698 19699 19700 19701 19702 19703 19704 19705 19706 19707 19708 19709 19710 19711 19712 19713 19714 19715 19716 19717 19718 19719 19720 19721 19722 19723 19724 19725 19726 19727 19728 19729 19730 19731 19732 19733 19734 19735 19736 19737 19738 19739 19740 19741 19742 19743 19744 19745 19746 19747 19748 19749 19750 19751 19752 19753 19754 19755 19756 19757 19758 19759 19760 19761 19762 19763 19764 19765 19766 19767 19768 19769 19770 19771 19772 19773 19774 19775 19776 19777 19778 19779 19780 19781 19782 19783 19784 19785 19786 19787 19788 19789 19790 19791 19792 19793 19794 19795 19796 19797 19798 19799 19800 19801 19802 19803 19804 19805 19806 19807 19808 19809 19810 19811 19812 19813 19814 19815 19816 19817 19818 19819 19820 19821 19822 19823 19824 19825 19826 19827 19828 19829 19830 19831 19832 19833 19834 19835 19836 19837 19838 19839 19840 19841 19842 19843 19844 19845 19846 19847 19848 19849 19850 19851 19852 19853 19854 19855 19856 19857 19858 19859 19860 19861 19862 19863 19864 19865 19866 19867 19868 19869 19870 19871 19872 19873 19874 19875 19876 19877 19878 19879 19880 19881 19882 19883 19884 19885 19886 19887 19888 19889 19890 19891 19892 19893 19894 19895 19896 19897 19898 19899 19900 19901 19902 19903 19904 19905 19906 19907 19908 19909 19910 19911 19912 19913 19914 19915 19916 19917 19918 19919 19920 19921 19922 19923 19924 19925 19926 19927 19928 19929 19930 19931 19932 19933 19934 19935 19936 19937 19938 19939 19940 19941 19942 19943 19944 19945 19946 19947 19948 19949 19950 19951 19952 19953 19954 19955 19956 19957 19958 19959 19960 19961 19962 19963 19964 19965 19966 19967 19968 19969 19970 19971 19972 19973 19974 19975 19976 19977 19978 19979 19980 19981 19982 19983 19984 19985 19986 19987 19988 19989 19990 19991 19992 19993 19994 19995 19996 19997 19998 19999 20000 20001 20002 20003 20004 20005 20006 20007 20008 20009 20010 20011 20012 20013 20014 20015 20016 20017 20018 20019 20020 20021 20022 20023 20024 20025 20026 20027 20028 20029 20030 20031 20032 20033 20034 20035 20036 20037 20038 20039 20040 20041 20042 20043 20044 20045 20046 20047 20048 20049 20050 20051 20052 20053 20054 20055 20056 20057 20058 20059 20060 20061 20062 20063 20064 20065 20066 20067 20068 20069 20070 20071 20072 20073 20074 20075 20076 20077 20078 20079 20080 20081 20082 20083 20084 20085 20086 20087 20088 20089 20090 20091 20092 20093 20094 20095 20096 20097 20098 20099 20100 20101 20102 20103 20104 20105 20106 20107 20108 20109 20110 20111 20112 20113 20114 20115 20116 20117 20118 20119 20120 20121 20122 20123 20124 20125 20126 20127 20128 20129 20130 20131 20132 20133 20134 20135 20136 20137 20138 20139 20140 20141 20142 20143 20144 20145 20146 20147 20148 20149 20150 20151 20152 20153 20154 20155 20156 20157 20158 20159 20160 20161 20162 20163 20164 20165 20166 20167 20168 20169 20170 20171 20172 20173 20174 20175 20176 20177 20178 20179 20180 20181 20182 20183 20184 20185 20186 20187 20188 20189 20190 20191 20192 20193 20194 20195 20196 20197 20198 20199 20200 20201 20202 20203 20204 20205 20206 20207 20208 20209 20210 20211 20212 20213 20214 20215 20216 20217 20218 20219 20220 20221 20222 20223 20224 20225 20226 20227 20228 20229 20230 20231 20232 20233 20234 20235 20236 20237 20238 20239 20240 20241 20242 20243 20244 20245 20246 20247 20248 20249 20250 20251 20252 20253 20254 20255 20256 20257 20258 20259 20260 20261 20262 20263 20264 20265 20266 20267 20268 20269 20270 20271 20272 20273 20274 20275 20276 20277 20278 20279 20280 20281 20282 20283 20284 20285 20286 20287 20288 20289 20290 20291 20292 20293 20294 20295 20296 20297 20298 20299 20300 20301 20302 20303 20304 20305 20306 20307 20308 20309 20310 20311 20312 20313 20314 20315 20316 20317 20318 20319 20320 20321 20322 20323 20324 20325 20326 20327 20328 20329 20330 20331 20332 20333 20334 20335 20336 20337 20338 20339 20340 20341 20342 20343 20344 20345 20346 20347 20348 20349 20350 20351 20352 20353 20354 20355 20356 20357 20358 20359 20360 20361 20362 20363 20364 20365 20366 20367 20368 20369 20370 20371 20372 20373 20374 20375 20376 20377 20378 20379 20380 20381 20382 20383 20384 20385 20386 20387 20388 20389 20390 20391 20392 20393 20394 20395 20396 20397 20398 20399 20400 20401 20402 20403 20404 20405 20406 20407 20408 20409 20410 20411 20412 20413 20414 20415 20416 20417 20418 20419 20420 20421 20422 20423 20424 20425 20426 20427 20428 20429 20430 20431 20432 20433 20434 20435 20436 20437 20438 20439 20440 20441 20442 20443 20444 20445 20446 20447 20448 20449 20450 20451 20452 20453 20454 20455 20456 20457 20458 20459 20460 20461 20462 20463 20464 20465 20466 20467 20468 20469 20470 20471 20472 20473 20474 20475 20476 20477 20478 20479 20480 20481 20482 20483 20484 20485 20486 20487 20488 20489 20490 20491 20492 20493 20494 20495 20496 20497 20498 20499 20500 20501 20502 20503 20504 20505 20506 20507 20508 20509 20510 20511 20512 20513 20514 20515 20516 20517 20518 20519 20520 20521 20522 20523 20524 20525 20526 20527 20528 20529 20530 20531 20532 20533 20534 20535 20536 20537 20538 20539 20540 20541 20542 20543 20544 20545 20546 20547 20548 20549 20550 20551 20552 20553 20554 20555 20556 20557 20558 20559 20560 20561 20562 20563 20564 20565 20566 20567 20568 20569 20570 20571 20572 20573 20574 20575 20576 20577 20578 20579 20580 20581 20582 20583 20584 20585 20586 20587 20588 20589 20590 20591 20592 20593 20594 20595 20596 20597 20598 20599 20600 20601 20602 20603 20604 20605 20606 20607 20608 20609 20610 20611 20612 20613 20614 20615 20616 20617 20618 20619 20620 20621 20622 20623 20624 20625 20626 20627 20628 20629 20630 20631 20632 20633 20634 20635 20636 20637 20638 20639 20640 20641 20642 20643 20644 20645 20646 20647 20648 20649 20650 20651 20652 20653 20654 20655 20656 20657 20658 20659 20660 20661 20662 20663 20664 20665 20666 20667 20668 20669 20670 20671 20672 20673 20674 20675 20676 20677 20678 20679 20680 20681 20682 20683 20684 20685 20686 20687 20688 20689 20690 20691 20692 20693 20694 20695 20696 20697 20698 20699 20700 20701 20702 20703 20704 20705 20706 20707 20708 20709 20710 20711 20712 20713 20714 20715 20716 20717 20718 20719 20720 20721 20722 20723 20724 20725 20726 20727 20728 20729 20730 20731 20732 20733 20734 20735 20736 20737 20738 20739 20740 20741 20742 20743 20744 20745 20746 20747 20748 20749 20750 20751 20752 20753 20754 20755 20756 20757 20758 20759 20760 20761 20762 20763 20764 20765 20766 20767 20768 20769 20770 20771 20772 20773 20774 20775 20776 20777 20778 20779 20780 20781 20782 20783 20784 20785 20786 20787 20788 20789 20790 20791 20792 20793 20794 20795 20796 20797 20798 20799 20800 20801 20802 20803 20804 20805 20806 20807 20808 20809 20810 20811 20812 20813 20814 20815 20816 20817 20818 20819 20820 20821 20822 20823 20824 20825 20826 20827 20828 20829 20830 20831 20832 20833 20834 20835 20836 20837 20838 20839 20840 20841 20842 20843 20844 20845 20846 20847 20848 20849 20850 20851 20852 20853 20854 20855 20856 20857 20858 20859 20860 20861 20862 20863 20864 20865 20866 20867 20868 20869 20870 20871 20872 20873 20874 20875 20876 20877 20878 20879 20880 20881 20882 20883 20884 20885 20886 20887 20888 20889 20890 20891 20892 20893 20894 20895 20896 20897 20898 20899 20900 20901 20902 20903 20904 20905 20906 20907 20908 20909 20910 20911 20912 20913 20914 20915 20916 20917 20918 20919 20920 20921 20922 20923 20924 20925 20926 20927 20928 20929 20930 20931 20932 20933 20934 20935 20936 20937 20938 20939 20940 20941 20942 20943 20944 20945 20946 20947 20948 20949 20950 20951 20952 20953 20954 20955 20956 20957 20958 20959 20960 20961 20962 20963 20964 20965 20966 20967 20968 20969 20970 20971 20972 20973 20974 20975 20976 20977 20978 20979 20980 20981 20982 20983 20984 20985 20986 20987 20988 20989 20990 20991 20992 20993 20994 20995 20996 20997 20998 20999 21000 21001 21002 21003 21004 21005 21006 21007 21008 21009 21010 21011 21012 21013 21014 21015 21016 21017 21018 21019 21020 21021 21022 21023 21024 21025 21026 21027 21028 21029 21030 21031 21032 21033 21034 21035 21036 21037 21038 21039 21040 21041 21042 21043 21044 21045 21046 21047 21048 21049 21050 21051 21052 21053 21054 21055 21056 21057 21058 21059 21060 21061 21062 21063 21064 21065 21066 21067 21068 21069 21070 21071 21072 21073 21074 21075 21076 21077 21078 21079 21080 21081 21082 21083 21084 21085 21086 21087 21088 21089 21090 21091 21092 21093 21094 21095 21096 21097 21098 21099 21100 21101 21102 21103 21104 21105 21106 21107 21108 21109 21110 21111 21112 21113 21114 21115 21116 21117 21118 21119 21120 21121 21122 21123 21124 21125 21126 21127 21128 21129 21130 21131 21132 21133 21134 21135 21136 21137 21138 21139 21140 21141 21142 21143 21144 21145 21146 21147 21148 21149 21150 21151 21152 21153 21154 21155 21156 21157 21158 21159 21160 21161 21162 21163 21164 21165 21166 21167 21168 21169 21170 21171 21172 21173 21174 21175 21176 21177 21178 21179 21180 21181 21182 21183 21184 21185 21186 21187 21188 21189 21190 21191 21192 21193 21194 21195 21196 21197 21198 21199 21200 21201 21202 21203 21204 21205 21206 21207 21208 21209 21210 21211 21212 21213 21214 21215 21216 21217 21218 21219 21220 21221 21222 21223 21224 21225 21226 21227 21228 21229 21230 21231 21232 21233 21234 21235 21236 21237 21238 21239 21240 21241 21242 21243 21244 21245 21246 21247 21248 21249 21250 21251 21252 21253 21254 21255 21256 21257 21258 21259 21260 21261 21262 21263 21264 21265 21266 21267 21268 21269 21270 21271 21272 21273 21274 21275 21276 21277 21278 21279 21280 21281 21282 21283 21284 21285 21286 21287 21288 21289 21290 21291 21292 21293 21294 21295 21296 21297 21298 21299 21300 21301 21302 21303 21304 21305 21306 21307 21308 21309 21310 21311 21312 21313 21314 21315 21316 21317 21318 21319 21320 21321 21322 21323 21324 21325 21326 21327 21328 21329 21330 21331 21332 21333 21334 21335 21336 21337 21338 21339 21340 21341 21342 21343 21344 21345 21346 21347 21348 21349 21350 21351 21352 21353 21354 21355 21356 21357 21358 21359 21360 21361 21362 21363 21364 21365 21366 21367 21368 21369 21370 21371 21372 21373 21374 21375 21376 21377 21378 21379 21380 21381 21382 21383 21384 21385 21386 21387 21388 21389 21390 21391 21392 21393 21394 21395 21396 21397 21398 21399 21400 21401 21402 21403 21404 21405 21406 21407 21408 21409 21410 21411 21412 21413 21414 21415 21416 21417 21418 21419 21420 21421 21422 21423 21424 21425 21426 21427 21428 21429 21430 21431 21432 21433 21434 21435 21436 21437 21438 21439 21440 21441 21442 21443 21444 21445 21446 21447 21448 21449 21450 21451 21452 21453 21454 21455 21456 21457 21458 21459 21460 21461 21462 21463 21464 21465 21466 21467 21468 21469 21470 21471 21472 21473 21474 21475 21476 21477 21478 21479 21480 21481 21482 21483 21484 21485 21486 21487 21488 21489 21490 21491 21492 21493 21494 21495 21496 21497 21498 21499 21500 21501 21502 21503 21504 21505 21506 21507 21508 21509 21510 21511 21512 21513 21514 21515 21516 21517 21518 21519 21520 21521 21522 21523 21524 21525 21526 21527 21528 21529 21530 21531 21532 21533 21534 21535 21536 21537 21538 21539 21540 21541 21542 21543 21544 21545 21546 21547 21548 21549 21550 21551 21552 21553 21554 21555 21556 21557 21558 21559 21560 21561 21562 21563 21564 21565 21566 21567 21568 21569 21570 21571 21572 21573 21574 21575 21576 21577 21578 21579 21580 21581 21582 21583 21584 21585 21586 21587 21588 21589 21590 21591 21592 21593 21594 21595 21596 21597 21598 21599 21600 21601 21602 21603 21604 21605 21606 21607 21608 21609 21610 21611 21612 21613 21614 21615 21616 21617 21618 21619 21620 21621 21622 21623 21624 21625 21626 21627 21628 21629 21630 21631 21632 21633 21634 21635 21636 21637 21638 21639 21640 21641 21642 21643 21644 21645 21646 21647 21648 21649 21650 21651 21652 21653 21654 21655 21656 21657 21658 21659 21660 21661 21662 21663 21664 21665 21666 21667 21668 21669 21670 21671 21672 21673 21674 21675 21676 21677 21678 21679 21680 21681 21682 21683 21684 21685 21686 21687 21688 21689 21690 21691 21692 21693 21694 21695 21696 21697 21698 21699 21700 21701 21702 21703 21704 21705 21706 21707 21708 21709 21710 21711 21712 21713 21714 21715 21716 21717 21718 21719 21720 21721 21722 21723 21724 21725 21726 21727 21728 21729 21730 21731 21732 21733 21734 21735 21736 21737 21738 21739 21740 21741 21742 21743 21744 21745 21746 21747 21748 21749 21750 21751 21752 21753 21754 21755 21756 21757 21758 21759 21760 21761 21762 21763 21764 21765 21766 21767 21768 21769 21770 21771 21772 21773 21774 21775 21776 21777 21778 21779 21780 21781 21782 21783 21784 21785 21786 21787 21788 21789 21790 21791 21792 21793 21794 21795 21796 21797 21798 21799 21800 21801 21802 21803 21804 21805 21806 21807 21808 21809 21810 21811 21812 21813 21814 21815 21816 21817 21818 21819 21820 21821 21822 21823 21824 21825 21826 21827 21828 21829 21830 21831 21832 21833 21834 21835 21836 21837 21838 21839 21840 21841 21842 21843 21844 21845 21846 21847 21848 21849 21850 21851 21852 21853 21854 21855 21856 21857 21858 21859 21860 21861 21862 21863 21864 21865 21866 21867 21868 21869 21870 21871 21872 21873 21874 21875 21876 21877 21878 21879 21880 21881 21882 21883 21884 21885 21886 21887 21888 21889 21890 21891 21892 21893 21894 21895 21896 21897 21898 21899 21900 21901 21902 21903 21904 21905 21906 21907 21908 21909 21910 21911 21912 21913 21914 21915 21916 21917 21918 21919 21920 21921 21922 21923 21924 21925 21926 21927 21928 21929 21930 21931 21932 21933 21934 21935 21936 21937 21938 21939 21940 21941 21942 21943 21944 21945 21946 21947 21948 21949 21950 21951 21952 21953 21954 21955 21956 21957 21958 21959 21960 21961 21962 21963 21964 21965 21966 21967 21968 21969 21970 21971 21972 21973 21974 21975 21976 21977 21978 21979 21980 21981 21982 21983 21984 21985 21986 21987 21988 21989 21990 21991 21992 21993 21994 21995 21996 21997 21998 21999 22000 22001 22002 22003 22004 22005 22006 22007 22008 22009 22010 22011 22012 22013 22014 22015 22016 22017 22018 22019 22020 22021 22022 22023 22024 22025 22026 22027 22028 22029 22030 22031 22032 22033 22034 22035 22036 22037 22038 22039 22040 22041 22042 22043 22044 22045 22046 22047 22048 22049 22050 22051 22052 22053 22054 22055 22056 22057 22058 22059 22060 22061 22062 22063 22064 22065 22066 22067 22068 22069 22070 22071 22072 22073 22074 22075 22076 22077 22078 22079 22080 22081 22082 22083 22084 22085 22086 22087 22088 22089 22090 22091 22092 22093 22094 22095 22096 22097 22098 22099 22100 22101 22102 22103 22104 22105 22106 22107 22108 22109 22110 22111 22112 22113 22114 22115 22116 22117 22118 22119 22120 22121 22122 22123 22124 22125 22126 22127 22128 22129 22130 22131 22132 22133 22134 22135 22136 22137 22138 22139 22140 22141 22142 22143 22144 22145 22146 22147 22148 22149 22150 22151 22152 22153 22154 22155 22156 22157 22158 22159 22160 22161 22162 22163 22164 22165 22166 22167 22168 22169 22170 22171 22172 22173 22174 22175 22176 22177 22178 22179 22180 22181 22182 22183 22184 22185 22186 22187 22188 22189 22190 22191 22192 22193 22194 22195 22196 22197 22198 22199 22200 22201 22202 22203 22204 22205 22206 22207 22208 22209 22210 22211 22212 22213 22214 22215 22216 22217 22218 22219 22220 22221 22222 22223 22224 22225 22226 22227 22228 22229 22230 22231 22232 22233 22234 22235 22236 22237 22238 22239 22240 22241 22242 22243 22244 22245 22246 22247 22248 22249 22250 22251 22252 22253 22254 22255 22256 22257 22258 22259 22260 22261 22262 22263 22264 22265 22266 22267 22268 22269 22270 22271 22272 22273 22274 22275 22276 22277 22278 22279 22280 22281 22282 22283 22284 22285 22286 22287 22288 22289 22290 22291 22292 22293 22294 22295 22296 22297 22298 22299 22300 22301 22302 22303 22304 22305 22306 22307 22308 22309 22310 22311 22312 22313 22314 22315 22316 22317 22318 22319 22320 22321 22322 22323 22324 22325 22326 22327 22328 22329 22330 22331 22332 22333 22334 22335 22336 22337 22338 22339 22340 22341 22342 22343 22344 22345 22346 22347 22348 22349 22350 22351 22352 22353 22354 22355 22356 22357 22358 22359 22360 22361 22362 22363 22364 22365 22366 22367 22368 22369 22370 22371 22372 22373 22374 22375 22376 22377 22378 22379 22380 22381 22382 22383 22384 22385 22386 22387 22388 22389 22390 22391 22392 22393 22394 22395 22396 22397 22398 22399 22400 22401 22402 22403 22404 22405 22406 22407 22408 22409 22410 22411 22412 22413 22414 22415 22416 22417 22418 22419 22420 22421 22422 22423 22424 22425 22426 22427 22428 22429 22430 22431 22432 22433 22434 22435 22436 22437 22438 22439 22440 22441 22442 22443 22444 22445 22446 22447 22448 22449 22450 22451 22452 22453 22454 22455 22456 22457 22458 22459 22460 22461 22462 22463 22464 22465 22466 22467 22468 22469 22470 22471 22472 22473 22474 22475 22476 22477 22478 22479 22480 22481 22482 22483 22484 22485 22486 22487 22488 22489 22490 22491 22492 22493 22494 22495 22496 22497 22498 22499 22500 22501 22502 22503 22504 22505 22506 22507 22508 22509 22510 22511 22512 22513 22514 22515 22516 22517 22518 22519 22520 22521 22522 22523 22524 22525 22526 22527 22528 22529 22530 22531 22532 22533 22534 22535 22536 22537 22538 22539 22540 22541 22542 22543 22544 22545 22546 22547 22548 22549 22550 22551 22552 22553 22554 22555 22556 22557 22558 22559 22560 22561 22562 22563 22564 22565 22566 22567 22568 22569 22570 22571 22572 22573 22574 22575 22576 22577 22578 22579 22580 22581 22582 22583 22584 22585 22586 22587 22588 22589 22590 22591 22592 22593 22594 22595 22596 22597 22598 22599 22600 22601 22602 22603 22604 22605 22606 22607 22608 22609 22610 22611 22612 22613 22614 22615 22616 22617 22618 22619 22620 22621 22622 22623 22624 22625 22626 22627 22628 22629 22630 22631 22632 22633 22634 22635 22636 22637 22638 22639 22640 22641 22642 22643 22644 22645 22646 22647 22648 22649 22650 22651 22652 22653 22654 22655 22656 22657 22658 22659 22660 22661 22662 22663 22664 22665 22666 22667 22668 22669 22670 22671 22672 22673 22674 22675 22676 22677 22678 22679 22680 22681 22682 22683 22684 22685 22686 22687 22688 22689 22690 22691 22692 22693 22694 22695 22696 22697 22698 22699 22700 22701 22702 22703 22704 22705 22706 22707 22708 22709 22710 22711 22712 22713 22714 22715 22716 22717 22718 22719 22720 22721 22722 22723 22724 22725 22726 22727 22728 22729 22730 22731 22732 22733 22734 22735 22736 22737 22738 22739 22740 22741 22742 22743 22744 22745 22746 22747 22748 22749 22750 22751 22752 22753 22754 22755 22756 22757 22758 22759 22760 22761 22762 22763 22764 22765 22766 22767 22768 22769 22770 22771 22772 22773 22774 22775 22776 22777 22778 22779 22780 22781 22782 22783 22784 22785 22786 22787 22788 22789 22790 22791 22792 22793 22794 22795 22796 22797 22798 22799 22800 22801 22802 22803 22804 22805 22806 22807 22808 22809 22810 22811 22812 22813 22814 22815 22816 22817 22818 22819 22820 22821 22822 22823 22824 22825 22826 22827 22828 22829 22830 22831 22832 22833 22834 22835 22836 22837 22838 22839 22840 22841 22842 22843 22844 22845 22846 22847 22848 22849 22850 22851 22852 22853 22854 22855 22856 22857 22858 22859 22860 22861 22862 22863 22864 22865 22866 22867 22868 22869 22870 22871 22872 22873 22874 22875 22876 22877 22878 22879 22880 22881 22882 22883 22884 22885 22886 22887 22888 22889 22890 22891 22892 22893 22894 22895 22896 22897 22898 22899 22900 22901 22902 22903 22904 22905 22906 22907 22908 22909 22910 22911 22912 22913 22914 22915 22916 22917 22918 22919 22920 22921 22922 22923 22924 22925 22926 22927 22928 22929 22930 22931 22932 22933 22934 22935 22936 22937 22938 22939 22940 22941 22942 22943 22944 22945 22946 22947 22948 22949 22950 22951 22952 22953 22954 22955 22956 22957 22958 22959 22960 22961 22962 22963 22964 22965 22966 22967 22968 22969 22970 22971 22972 22973 22974 22975 22976 22977 22978 22979 22980 22981 22982 22983 22984 22985 22986 22987 22988 22989 22990 22991 22992 22993 22994 22995 22996 22997 22998 22999 23000 23001 23002 23003 23004 23005 23006 23007 23008 23009 23010 23011 23012 23013 23014 23015 23016 23017 23018 23019 23020 23021 23022 23023 23024 23025 23026 23027 23028 23029 23030 23031 23032 23033 23034 23035 23036 23037 23038 23039 23040 23041 23042 23043 23044 23045 23046 23047 23048 23049 23050 23051 23052 23053 23054 23055 23056 23057 23058 23059 23060 23061 23062 23063 23064 23065 23066 23067 23068 23069 23070 23071 23072 23073 23074 23075 23076 23077 23078 23079 23080 23081 23082 23083 23084 23085 23086 23087 23088 23089 23090 23091 23092 23093 23094 23095 23096 23097 23098 23099 23100 23101 23102 23103 23104 23105 23106 23107 23108 23109 23110 23111 23112 23113 23114 23115 23116 23117 23118 23119 23120 23121 23122 23123 23124 23125 23126 23127 23128 23129 23130 23131 23132 23133 23134 23135 23136 23137 23138 23139 23140 23141 23142 23143 23144 23145 23146 23147 23148 23149 23150 23151 23152 23153 23154 23155 23156 23157 23158 23159 23160 23161 23162 23163 23164 23165 23166 23167 23168 23169 23170 23171 23172 23173 23174 23175 23176 23177 23178 23179 23180 23181 23182 23183 23184 23185 23186 23187 23188 23189 23190 23191 23192 23193 23194 23195 23196 23197 23198 23199 23200 23201 23202 23203 23204 23205 23206 23207 23208 23209 23210 23211 23212 23213 23214 23215 23216 23217 23218 23219 23220 23221 23222 23223 23224 23225 23226 23227 23228 23229 23230 23231 23232 23233 23234 23235 23236 23237 23238 23239 23240 23241 23242 23243 23244 23245 23246 23247 23248 23249 23250 23251 23252 23253 23254 23255 23256 23257 23258 23259 23260 23261 23262 23263 23264 23265 23266 23267 23268 23269 23270 23271 23272 23273 23274 23275 23276 23277 23278 23279 23280 23281 23282 23283 23284 23285 23286 23287 23288 23289 23290 23291 23292 23293 23294 23295 23296 23297 23298 23299 23300 23301 23302 23303 23304 23305 23306 23307 23308 23309 23310 23311 23312 23313 23314 23315 23316 23317 23318 23319 23320 23321 23322 23323 23324 23325 23326 23327 23328 23329 23330 23331 23332 23333 23334 23335 23336 23337 23338 23339 23340 23341 23342 23343 23344 23345 23346 23347 23348 23349 23350 23351 23352 23353 23354 23355 23356 23357 23358 23359 23360 23361 23362 23363 23364 23365 23366 23367 23368 23369 23370 23371 23372 23373 23374 23375 23376 23377 23378 23379 23380 23381 23382 23383 23384 23385 23386 23387 23388 23389 23390 23391 23392 23393 23394 23395 23396 23397 23398 23399 23400 23401 23402 23403 23404 23405 23406 23407 23408 23409 23410 23411 23412 23413 23414 23415 23416 23417 23418 23419 23420 23421 23422 23423 23424 23425 23426 23427 23428 23429 23430 23431 23432 23433 23434 23435 23436 23437 23438 23439 23440 23441 23442 23443 23444 23445 23446 23447 23448 23449 23450 23451 23452 23453 23454 23455 23456 23457 23458 23459 23460 23461 23462 23463 23464 23465 23466 23467 23468 23469 23470 23471 23472 23473 23474 23475 23476 23477 23478 23479 23480 23481 23482 23483 23484 23485 23486 23487 23488 23489 23490 23491 23492 23493 23494 23495 23496 23497 23498 23499 23500 23501 23502 23503 23504 23505 23506 23507 23508 23509 23510 23511 23512 23513 23514 23515 23516 23517 23518 23519 23520 23521 23522 23523 23524 23525 23526 23527 23528 23529 23530 23531 23532 23533 23534 23535 23536 23537 23538 23539 23540 23541 23542 23543 23544 23545 23546 23547 23548 23549 23550 23551 23552 23553 23554 23555 23556 23557 23558 23559 23560 23561 23562 23563 23564 23565 23566 23567 23568 23569 23570 23571 23572 23573 23574 23575 23576 23577 23578 23579 23580 23581 23582 23583 23584 23585 23586 23587 23588 23589 23590 23591 23592 23593 23594 23595 23596 23597 23598 23599 23600 23601 23602 23603 23604 23605 23606 23607 23608 23609 23610 23611 23612 23613 23614 23615 23616 23617 23618 23619 23620 23621 23622 23623 23624 23625 23626 23627 23628 23629 23630 23631 23632 23633 23634 23635 23636 23637 23638 23639 23640 23641 23642 23643 23644 23645 23646 23647 23648 23649 23650 23651 23652 23653 23654 23655 23656 23657 23658 23659 23660 23661 23662 23663 23664 23665 23666 23667 23668 23669 23670 23671 23672 23673 23674 23675 23676 23677 23678 23679 23680 23681 23682 23683 23684 23685 23686 23687 23688 23689 23690 23691 23692 23693 23694 23695 23696 23697 23698 23699 23700 23701 23702 23703 23704 23705 23706 23707 23708 23709 23710 23711 23712 23713 23714 23715 23716 23717 23718 23719 23720 23721 23722 23723 23724 23725 23726 23727 23728 23729 23730 23731 23732 23733 23734 23735 23736 23737 23738 23739 23740 23741 23742 23743 23744 23745 23746 23747 23748 23749 23750 23751 23752 23753 23754 23755 23756 23757 23758 23759 23760 23761 23762 23763 23764 23765 23766 23767 23768 23769 23770 23771 23772 23773 23774 23775 23776 23777 23778 23779 23780 23781 23782 23783 23784 23785 23786 23787 23788 23789 23790 23791 23792 23793 23794 23795 23796 23797 23798 23799 23800 23801 23802 23803 23804 23805 23806 23807 23808 23809 23810 23811 23812 23813 23814 23815 23816 23817 23818 23819 23820 23821 23822 23823 23824 23825 23826 23827 23828 23829 23830 23831 23832 23833 23834 23835 23836 23837 23838 23839 23840 23841 23842 23843 23844 23845 23846 23847 23848 23849 23850 23851 23852 23853 23854 23855 23856 23857 23858 23859 23860 23861 23862 23863 23864 23865 23866 23867 23868 23869 23870 23871 23872 23873 23874 23875 23876 23877 23878 23879 23880 23881 23882 23883 23884 23885 23886 23887 23888 23889 23890 23891 23892 23893 23894 23895 23896 23897 23898 23899 23900 23901 23902 23903 23904 23905 23906 23907 23908 23909 23910 23911 23912 23913 23914 23915 23916 23917 23918 23919 23920 23921 23922 23923 23924 23925 23926 23927 23928 23929 23930 23931 23932 23933 23934 23935 23936 23937 23938 23939 23940 23941 23942 23943 23944 23945 23946 23947 23948 23949 23950 23951 23952 23953 23954 23955 23956 23957 23958 23959 23960 23961 23962 23963 23964 23965 23966 23967 23968 23969 23970 23971 23972 23973 23974 23975 23976 23977 23978 23979 23980 23981 23982 23983 23984 23985 23986 23987 23988 23989 23990 23991 23992 23993 23994 23995 23996 23997 23998 23999 24000 24001 24002 24003 24004 24005 24006 24007 24008 24009 24010 24011 24012 24013 24014 24015 24016 24017 24018 24019 24020 24021 24022 24023 24024 24025 24026 24027 24028 24029 24030 24031 24032 24033 24034 24035 24036 24037 24038 24039 24040 24041 24042 24043 24044 24045 24046 24047 24048 24049 24050 24051 24052 24053 24054 24055 24056 24057 24058 24059 24060 24061 24062 24063 24064 24065 24066 24067 24068 24069 24070 24071 24072 24073 24074 24075 24076 24077 24078 24079 24080 24081 24082 24083 24084 24085 24086 24087 24088 24089 24090 24091 24092 24093 24094 24095 24096 24097 24098 24099 24100 24101 24102 24103 24104 24105 24106 24107 24108 24109 24110 24111 24112 24113 24114 24115 24116 24117 24118 24119 24120 24121 24122 24123 24124 24125 24126 24127 24128 24129 24130 24131 24132 24133 24134 24135 24136 24137 24138 24139 24140 24141 24142 24143 24144 24145 24146 24147 24148 24149 24150 24151 24152 24153 24154 24155 24156 24157 24158 24159 24160 24161 24162 24163 24164 24165 24166 24167 24168 24169 24170 24171 24172 24173 24174 24175 24176 24177 24178 24179 24180 24181 24182 24183 24184 24185 24186 24187 24188 24189 24190 24191 24192 24193 24194 24195 24196 24197 24198 24199 24200 24201 24202 24203 24204 24205 24206 24207 24208 24209 24210 24211 24212 24213 24214 24215 24216 24217 24218 24219 24220 24221 24222 24223 24224 24225 24226 24227 24228 24229 24230 24231 24232 24233 24234 24235 24236 24237 24238 24239 24240 24241 24242 24243 24244 24245 24246 24247 24248 24249 24250 24251 24252 24253 24254 24255 24256 24257 24258 24259 24260 24261 24262 24263 24264 24265 24266 24267 24268 24269 24270 24271 24272 24273 24274 24275 24276 24277 24278 24279 24280 24281 24282 24283 24284 24285 24286 24287 24288 24289 24290 24291 24292 24293 24294 24295 24296 24297 24298 24299 24300 24301 24302 24303 24304 24305 24306 24307 24308 24309 24310 24311 24312 24313 24314 24315 24316 24317 24318 24319 24320 24321 24322 24323 24324 24325 24326 24327 24328 24329 24330 24331 24332 24333 24334 24335 24336 24337 24338 24339 24340 24341 24342 24343 24344 24345 24346 24347 24348 24349 24350 24351 24352 24353 24354 24355 24356 24357 24358 24359 24360 24361 24362 24363 24364 24365 24366 24367 24368 24369 24370 24371 24372 24373 24374 24375 24376 24377 24378 24379 24380 24381 24382 24383 24384 24385 24386 24387 24388 24389 24390 24391 24392 24393 24394 24395 24396 24397 24398 24399 24400 24401 24402 24403 24404 24405 24406 24407 24408 24409 24410 24411 24412 24413 24414 24415 24416 24417 24418 24419 24420 24421 24422 24423 24424 24425 24426 24427 24428 24429 24430 24431 24432 24433 24434 24435 24436 24437 24438 24439 24440 24441 24442 24443 24444 24445 24446 24447 24448 24449 24450 24451 24452 24453 24454 24455 24456 24457 24458 24459 24460 24461 24462 24463 24464 24465 24466 24467 24468 24469 24470 24471 24472 24473 24474 24475 24476 24477 24478 24479 24480 24481 24482 24483 24484 24485 24486 24487 24488 24489 24490 24491 24492 24493 24494 24495 24496 24497 24498 24499 24500 24501 24502 24503 24504 24505 24506 24507 24508 24509 24510 24511 24512 24513 24514 24515 24516 24517 24518 24519 24520 24521 24522 24523 24524 24525 24526 24527 24528 24529 24530 24531 24532 24533 24534 24535 24536 24537 24538 24539 24540 24541 24542 24543 24544 24545 24546 24547 24548 24549 24550 24551 24552 24553 24554 24555 24556 24557 24558 24559 24560 24561 24562 24563 24564 24565 24566 24567 24568 24569 24570 24571 24572 24573 24574 24575 24576 24577 24578 24579 24580 24581 24582 24583 24584 24585 24586 24587 24588 24589 24590 24591 24592 24593 24594 24595 24596 24597 24598 24599 24600 24601 24602 24603 24604 24605 24606 24607 24608 24609 24610 24611 24612 24613 24614 24615 24616 24617 24618 24619 24620 24621 24622 24623 24624 24625 24626 24627 24628 24629 24630 24631 24632 24633 24634 24635 24636 24637 24638 24639 24640 24641 24642 24643 24644 24645 24646 24647 24648 24649 24650 24651 24652 24653 24654 24655 24656 24657 24658 24659 24660 24661 24662 24663 24664 24665 24666 24667 24668 24669 24670 24671 24672 24673 24674 24675 24676 24677 24678 24679 24680 24681 24682 24683 24684 24685 24686 24687 24688 24689 24690 24691 24692 24693 24694 24695 24696 24697 24698 24699 24700 24701 24702 24703 24704 24705 24706 24707 24708 24709 24710 24711 24712 24713 24714 24715 24716 24717 24718 24719 24720 24721 24722 24723 24724 24725 24726 24727 24728 24729 24730 24731 24732 24733 24734 24735 24736 24737 24738 24739 24740 24741 24742 24743 24744 24745 24746 24747 24748 24749 24750 24751 24752 24753 24754 24755 24756 24757 24758 24759 24760 24761 24762 24763 24764 24765 24766 24767 24768 24769 24770 24771 24772 24773 24774 24775 24776 24777 24778 24779 24780 24781 24782 24783 24784 24785 24786 24787 24788 24789 24790 24791 24792 24793 24794 24795 24796 24797 24798 24799 24800 24801 24802 24803 24804 24805 24806 24807 24808 24809 24810 24811 24812 24813 24814 24815 24816 24817 24818 24819 24820 24821 24822 24823 24824 24825 24826 24827 24828 24829 24830 24831 24832 24833 24834 24835 24836 24837 24838 24839 24840 24841 24842 24843 24844 24845 24846 24847 24848 24849 24850 24851 24852 24853 24854 24855 24856 24857 24858 24859 24860 24861 24862 24863 24864 24865 24866 24867 24868 24869 24870 24871 24872 24873 24874 24875 24876 24877 24878 24879 24880 24881 24882 24883 24884 24885 24886 24887 24888 24889 24890 24891 24892 24893 24894 24895 24896 24897 24898 24899 24900 24901 24902 24903 24904 24905 24906 24907 24908 24909 24910 24911 24912 24913 24914 24915 24916 24917 24918 24919 24920 24921 24922 24923 24924 24925 24926 24927 24928 24929 24930 24931 24932 24933 24934 24935 24936 24937 24938 24939 24940 24941 24942 24943 24944 24945 24946 24947 24948 24949 24950 24951 24952 24953 24954 24955 24956 24957 24958 24959 24960 24961 24962 24963 24964 24965 24966 24967 24968 24969 24970 24971 24972 24973 24974 24975 24976 24977 24978 24979 24980 24981 24982 24983 24984 24985 24986 24987 24988 24989 24990 24991 24992 24993 24994 24995 24996 24997 24998 24999 25000 25001 25002 25003 25004 25005 25006 25007 25008 25009 25010 25011 25012 25013 25014 25015 25016 25017 25018 25019 25020 25021 25022 25023 25024 25025 25026 25027 25028 25029 25030 25031 25032 25033 25034 25035 25036 25037 25038 25039 25040 25041 25042 25043 25044 25045 25046 25047 25048 25049 25050 25051 25052 25053 25054 25055 25056 25057 25058 25059 25060 25061 25062 25063 25064 25065 25066 25067 25068 25069 25070 25071 25072 25073 25074 25075 25076 25077 25078 25079 25080 25081 25082 25083 25084 25085 25086 25087 25088 25089 25090 25091 25092 25093 25094 25095 25096 25097 25098 25099 25100 25101 25102 25103 25104 25105 25106 25107 25108 25109 25110 25111 25112 25113 25114 25115 25116 25117 25118 25119 25120 25121 25122 25123 25124 25125 25126 25127 25128 25129 25130 25131 25132 25133 25134 25135 25136 25137 25138 25139 25140 25141 25142 25143 25144 25145 25146 25147 25148 25149 25150 25151 25152 25153 25154 25155 25156 25157 25158 25159 25160 25161 25162 25163 25164 25165 25166 25167 25168 25169 25170 25171 25172 25173 25174 25175 25176 25177 25178 25179 25180 25181 25182 25183 25184 25185 25186 25187 25188 25189 25190 25191 25192 25193 25194 25195 25196 25197 25198 25199 25200 25201 25202 25203 25204 25205 25206 25207 25208 25209 25210 25211 25212 25213 25214 25215 25216 25217 25218 25219 25220 25221 25222 25223 25224 25225 25226 25227 25228 25229 25230 25231 25232 25233 25234 25235 25236 25237 25238 25239 25240 25241 25242 25243 25244 25245 25246 25247 25248 25249 25250 25251 25252 25253 25254 25255 25256 25257 25258 25259 25260 25261 25262 25263 25264 25265 25266 25267 25268 25269 25270 25271 25272 25273 25274 25275 25276 25277 25278 25279 25280 25281 25282 25283 25284 25285 25286 25287 25288 25289 25290 25291 25292 25293 25294 25295 25296 25297 25298 25299 25300 25301 25302 25303 25304 25305 25306 25307 25308 25309 25310 25311 25312 25313 25314 25315 25316 25317 25318 25319 25320 25321 25322 25323 25324 25325 25326 25327 25328 25329 25330 25331 25332 25333 25334 25335 25336 25337 25338 25339 25340 25341 25342 25343 25344 25345 25346 25347 25348 25349 25350 25351 25352 25353 25354 25355 25356 25357 25358 25359 25360 25361 25362 25363 25364 25365 25366 25367 25368 25369 25370 25371 25372 25373 25374 25375 25376 25377 25378 25379 25380 25381 25382 25383 25384 25385 25386 25387 25388 25389 25390 25391 25392 25393 25394 25395 25396 25397 25398 25399 25400 25401 25402 25403 25404 25405 25406 25407 25408 25409 25410 25411 25412 25413 25414 25415 25416 25417 25418 25419 25420 25421 25422 25423 25424 25425 25426 25427 25428 25429 25430 25431 25432 25433 25434 25435 25436 25437 25438 25439 25440 25441 25442 25443 25444 25445 25446 25447 25448 25449 25450 25451 25452 25453 25454 25455 25456 25457 25458 25459 25460 25461 25462 25463 25464 25465 25466 25467 25468 25469 25470 25471 25472 25473 25474 25475 25476 25477 25478 25479 25480 25481 25482 25483 25484 25485 25486 25487 25488 25489 25490 25491 25492 25493 25494 25495 25496 25497 25498 25499 25500 25501 25502 25503 25504 25505 25506 25507 25508 25509 25510 25511 25512 25513 25514 25515 25516 25517 25518 25519 25520 25521 25522 25523 25524 25525 25526 25527 25528 25529 25530 25531 25532 25533 25534 25535 25536 25537 25538 25539 25540 25541 25542 25543 25544 25545 25546 25547 25548 25549 25550 25551 25552 25553 25554 25555 25556 25557 25558 25559 25560 25561 25562 25563 25564 25565 25566 25567 25568 25569 25570 25571 25572 25573 25574 25575 25576 25577 25578 25579 25580 25581 25582 25583 25584 25585 25586 25587 25588 25589 25590 25591 25592 25593 25594 25595 25596 25597 25598 25599 25600 25601 25602 25603 25604 25605 25606 25607 25608 25609 25610 25611 25612 25613 25614 25615 25616 25617 25618 25619 25620 25621 25622 25623 25624 25625 25626 25627 25628 25629 25630 25631 25632 25633 25634 25635 25636 25637 25638 25639 25640 25641 25642 25643 25644 25645 25646 25647 25648 25649 25650 25651 25652 25653 25654 25655 25656 25657 25658 25659 25660 25661 25662 25663 25664 25665 25666 25667 25668 25669 25670 25671 25672 25673 25674 25675 25676 25677 25678 25679 25680 25681 25682 25683 25684 25685 25686 25687 25688 25689 25690 25691 25692 25693 25694 25695 25696 25697 25698 25699 25700 25701 25702 25703 25704 25705 25706 25707 25708 25709 25710 25711 25712 25713 25714 25715 25716 25717 25718 25719 25720 25721 25722 25723 25724 25725 25726 25727 25728 25729 25730 25731 25732 25733 25734 25735 25736 25737 25738 25739 25740 25741 25742 25743 25744 25745 25746 25747 25748 25749 25750 25751 25752 25753 25754 25755 25756 25757 25758 25759 25760 25761 25762 25763 25764 25765 25766 25767 25768 25769 25770 25771 25772 25773 25774 25775 25776 25777 25778 25779 25780 25781 25782 25783 25784 25785 25786 25787 25788 25789 25790 25791 25792 25793 25794 25795 25796 25797 25798 25799 25800 25801 25802 25803 25804 25805 25806 25807 25808 25809 25810 25811 25812 25813 25814 25815 25816 25817 25818 25819 25820 25821 25822 25823 25824 25825 25826 25827 25828 25829 25830 25831 25832 25833 25834 25835 25836 25837 25838 25839 25840 25841 25842 25843 25844 25845 25846 25847 25848 25849 25850 25851 25852 25853 25854 25855 25856 25857 25858 25859 25860 25861 25862 25863 25864 25865 25866 25867 25868 25869 25870 25871 25872 25873 25874 25875 25876 25877 25878 25879 25880 25881 25882 25883 25884 25885 25886 25887 25888 25889 25890 25891 25892 25893 25894 25895 25896 25897 25898 25899 25900 25901 25902 25903 25904 25905 25906 25907 25908 25909 25910 25911 25912 25913 25914 25915 25916 25917 25918 25919 25920 25921 25922 25923 25924 25925 25926 25927 25928 25929 25930 25931 25932 25933 25934 25935 25936 25937 25938 25939 25940 25941 25942 25943 25944 25945 25946 25947 25948 25949 25950 25951 25952 25953 25954 25955 25956 25957 25958 25959 25960 25961 25962 25963 25964 25965 25966 25967 25968 25969 25970 25971 25972 25973 25974 25975 25976 25977 25978 25979 25980 25981 25982 25983 25984 25985 25986 25987 25988 25989 25990 25991 25992 25993 25994 25995 25996 25997 25998 25999 26000 26001 26002 26003 26004 26005 26006 26007 26008 26009 26010 26011 26012 26013 26014 26015 26016 26017 26018 26019 26020 26021 26022 26023 26024 26025 26026 26027 26028 26029 26030 26031 26032 26033 26034 26035 26036 26037 26038 26039 26040 26041 26042 26043 26044 26045 26046 26047 26048 26049 26050 26051 26052 26053 26054 26055 26056 26057 26058 26059 26060 26061 26062 26063 26064 26065 26066 26067 26068 26069 26070 26071 26072 26073 26074 26075 26076 26077 26078 26079 26080 26081 26082 26083 26084 26085 26086 26087 26088 26089 26090 26091 26092 26093 26094 26095 26096 26097 26098 26099 26100 26101 26102 26103 26104 26105 26106 26107 26108 26109 26110 26111 26112 26113 26114 26115 26116 26117 26118 26119 26120 26121 26122 26123 26124 26125 26126 26127 26128 26129 26130 26131 26132 26133 26134 26135 26136 26137 26138 26139 26140 26141 26142 26143 26144 26145 26146 26147 26148 26149 26150 26151 26152 26153 26154 26155 26156 26157 26158 26159 26160 26161 26162 26163 26164 26165 26166 26167 26168 26169 26170 26171 26172 26173 26174 26175 26176 26177 26178 26179 26180 26181 26182 26183 26184 26185 26186 26187 26188 26189 26190 26191 26192 26193 26194 26195 26196 26197 26198 26199 26200 26201 26202 26203 26204 26205 26206 26207 26208 26209 26210 26211 26212 26213 26214 26215 26216 26217 26218 26219 26220 26221 26222 26223 26224 26225 26226 26227 26228 26229 26230 26231 26232 26233 26234 26235 26236 26237 26238 26239 26240 26241 26242 26243 26244 26245 26246 26247 26248 26249 26250 26251 26252 26253 26254 26255 26256 26257 26258 26259 26260 26261 26262 26263 26264 26265 26266 26267 26268 26269 26270 26271 26272 26273 26274 26275 26276 26277 26278 26279 26280 26281 26282 26283 26284 26285 26286 26287 26288 26289 26290 26291 26292 26293 26294 26295 26296 26297 26298 26299 26300 26301 26302 26303 26304 26305 26306 26307 26308 26309 26310 26311 26312 26313 26314 26315 26316 26317 26318 26319 26320 26321 26322 26323 26324 26325 26326 26327 26328 26329 26330 26331 26332 26333 26334 26335 26336 26337 26338 26339 26340 26341 26342 26343 26344 26345 26346 26347 26348 26349 26350 26351 26352 26353 26354 26355 26356 26357 26358 26359 26360 26361 26362 26363 26364 26365 26366 26367 26368 26369 26370 26371 26372 26373 26374 26375 26376 26377 26378 26379 26380 26381 26382 26383 26384 26385 26386 26387 26388 26389 26390 26391 26392 26393 26394 26395 26396 26397 26398 26399 26400 26401 26402 26403 26404 26405 26406 26407 26408 26409 26410 26411 26412 26413 26414 26415 26416 26417 26418 26419 26420 26421 26422 26423 26424 26425 26426 26427 26428 26429 26430 26431 26432 26433 26434 26435 26436 26437 26438 26439 26440 26441 26442 26443 26444 26445 26446 26447 26448 26449 26450 26451 26452 26453 26454 26455 26456 26457 26458 26459 26460 26461 26462 26463 26464 26465 26466 26467 26468 26469 26470 26471 26472 26473 26474 26475 26476 26477 26478 26479 26480 26481 26482 26483 26484 26485 26486 26487 26488 26489 26490 26491 26492 26493 26494 26495 26496 26497 26498 26499 26500 26501 26502 26503 26504 26505 26506 26507 26508 26509 26510 26511 26512 26513 26514 26515 26516 26517 26518 26519 26520 26521 26522 26523 26524 26525 26526 26527 26528 26529 26530 26531 26532 26533 26534 26535 26536 26537 26538 26539 26540 26541 26542 26543 26544 26545 26546 26547 26548 26549 26550 26551 26552 26553 26554 26555 26556 26557 26558 26559 26560 26561 26562 26563 26564 26565 26566 26567 26568 26569 26570 26571 26572 26573 26574 26575 26576 26577 26578 26579 26580 26581 26582 26583 26584 26585 26586 26587 26588 26589 26590 26591 26592 26593 26594 26595 26596 26597 26598 26599 26600 26601 26602 26603 26604 26605 26606 26607 26608 26609 26610 26611 26612 26613 26614 26615 26616 26617 26618 26619 26620 26621 26622 26623 26624 26625 26626 26627 26628 26629 26630 26631 26632 26633 26634 26635 26636 26637 26638 26639 26640 26641 26642 26643 26644 26645 26646 26647 26648 26649 26650 26651 26652 26653 26654 26655 26656 26657 26658 26659 26660 26661 26662 26663 26664 26665 26666 26667 26668 26669 26670 26671 26672 26673 26674 26675 26676 26677 26678 26679 26680 26681 26682 26683 26684 26685 26686 26687 26688 26689 26690 26691 26692 26693 26694 26695 26696 26697 26698 26699 26700 26701 26702 26703 26704 26705 26706 26707 26708 26709 26710 26711 26712 26713 26714 26715 26716 26717 26718 26719 26720 26721 26722 26723 26724 26725 26726 26727 26728 26729 26730 26731 26732 26733 26734 26735 26736 26737 26738 26739 26740 26741 26742 26743 26744 26745 26746 26747 26748 26749 26750 26751 26752 26753 26754 26755 26756 26757 26758 26759 26760 26761 26762 26763 26764 26765 26766 26767 26768 26769 26770 26771 26772 26773 26774 26775 26776 26777 26778 26779 26780 26781 26782 26783 26784 26785 26786 26787 26788 26789 26790 26791 26792 26793 26794 26795 26796 26797 26798 26799 26800 26801 26802 26803 26804 26805 26806 26807 26808 26809 26810 26811 26812 26813 26814 26815 26816 26817 26818 26819 26820 26821 26822 26823 26824 26825 26826 26827 26828 26829 26830 26831 26832 26833 26834 26835 26836 26837 26838 26839 26840 26841 26842 26843 26844 26845 26846 26847 26848 26849 26850 26851 26852 26853 26854 26855 26856 26857 26858 26859 26860 26861 26862 26863 26864 26865 26866 26867 26868 26869 26870 26871 26872 26873 26874 26875 26876 26877 26878 26879 26880 26881 26882 26883 26884 26885 26886 26887 26888 26889 26890 26891 26892 26893 26894 26895 26896 26897 26898 26899 26900 26901 26902 26903 26904 26905 26906 26907 26908 26909 26910 26911 26912 26913 26914 26915 26916 26917 26918 26919 26920 26921 26922 26923 26924 26925 26926 26927 26928 26929 26930 26931 26932 26933 26934 26935 26936 26937 26938 26939 26940 26941 26942 26943 26944 26945 26946 26947 26948 26949 26950 26951 26952 26953 26954 26955 26956 26957 26958 26959 26960 26961 26962 26963 26964 26965 26966 26967 26968 26969 26970 26971 26972 26973 26974 26975 26976 26977 26978 26979 26980 26981 26982 26983 26984 26985 26986 26987 26988 26989 26990 26991 26992 26993 26994 26995 26996 26997 26998 26999 27000 27001 27002 27003 27004 27005 27006 27007 27008 27009 27010 27011 27012 27013 27014 27015 27016 27017 27018 27019 27020 27021 27022 27023 27024 27025 27026 27027 27028 27029 27030 27031 27032 27033 27034 27035 27036 27037 27038 27039 27040 27041 27042 27043 27044 27045 27046 27047 27048 27049 27050 27051 27052 27053 27054 27055 27056 27057 27058 27059 27060 27061 27062 27063 27064 27065 27066 27067 27068 27069 27070 27071 27072 27073 27074 27075 27076 27077 27078 27079 27080 27081 27082 27083 27084 27085 27086 27087 27088 27089 27090 27091 27092 27093 27094 27095 27096 27097 27098 27099 27100 27101 27102 27103 27104 27105 27106 27107 27108 27109 27110 27111 27112 27113 27114 27115 27116 27117 27118 27119 27120 27121 27122 27123 27124 27125 27126 27127 27128 27129 27130 27131 27132 27133 27134 27135 27136 27137 27138 27139 27140 27141 27142 27143 27144 27145 27146 27147 27148 27149 27150 27151 27152 27153 27154 27155 27156 27157 27158 27159 27160 27161 27162 27163 27164 27165 27166 27167 27168 27169 27170 27171 27172 27173 27174 27175 27176 27177 27178 27179 27180 27181 27182 27183 27184 27185 27186 27187 27188 27189 27190 27191 27192 27193 27194 27195 27196 27197 27198 27199 27200 27201 27202 27203 27204 27205 27206 27207 27208 27209 27210 27211 27212 27213 27214 27215 27216 27217 27218 27219 27220 27221 27222 27223 27224 27225 27226 27227 27228 27229 27230 27231 27232 27233 27234 27235 27236 27237 27238 27239 27240 27241 27242 27243 27244 27245 27246 27247 27248 27249 27250 27251 27252 27253 27254 27255 27256 27257 27258 27259 27260 27261 27262 27263 27264 27265 27266 27267 27268 27269 27270 27271 27272 27273 27274 27275 27276 27277 27278 27279 27280 27281 27282 27283 27284 27285 27286 27287 27288 27289 27290 27291 27292 27293 27294 27295 27296 27297 27298 27299 27300 27301 27302 27303 27304 27305 27306 27307 27308 27309 27310 27311 27312 27313 27314 27315 27316 27317 27318 27319 27320 27321 27322 27323 27324 27325 27326 27327 27328 27329 27330 27331 27332 27333 27334 27335 27336 27337 27338 27339 27340 27341 27342 27343 27344 27345 27346 27347 27348 27349 27350 27351 27352 27353 27354 27355 27356 27357 27358 27359 27360 27361 27362 27363 27364 27365 27366 27367 27368 27369 27370 27371 27372 27373 27374 27375 27376 27377 27378 27379 27380 27381 27382 27383 27384 27385 27386 27387 27388 27389 27390 27391 27392 27393 27394 27395 27396 27397 27398 27399 27400 27401 27402 27403 27404 27405 27406 27407 27408 27409 27410 27411 27412 27413 27414 27415 27416 27417 27418 27419 27420 27421 27422 27423 27424 27425 27426 27427 27428 27429 27430 27431 27432 27433 27434 27435 27436 27437 27438 27439 27440 27441 27442 27443 27444 27445 27446 27447 27448 27449 27450 27451 27452 27453 27454 27455 27456 27457 27458 27459 27460 27461 27462 27463 27464 27465 27466 27467 27468 27469 27470 27471 27472 27473 27474 27475 27476 27477 27478 27479 27480 27481 27482 27483 27484 27485 27486 27487 27488 27489 27490 27491 27492 27493 27494 27495 27496 27497 27498 27499 27500 27501 27502 27503 27504 27505 27506 27507 27508 27509 27510 27511 27512 27513 27514 27515 27516 27517 27518 27519 27520 27521 27522 27523 27524 27525 27526 27527 27528 27529 27530 27531 27532 27533 27534 27535 27536 27537 27538 27539 27540 27541 27542 27543 27544 27545 27546 27547 27548 27549 27550 27551 27552 27553 27554 27555 27556 27557 27558 27559 27560 27561 27562 27563 27564 27565 27566 27567 27568 27569 27570 27571 27572 27573 27574 27575 27576 27577 27578 27579 27580 27581 27582 27583 27584 27585 27586 27587 27588 27589 27590 27591 27592 27593 27594 27595 27596 27597 27598 27599 27600 27601 27602 27603 27604 27605 27606 27607 27608 27609 27610 27611 27612 27613 27614 27615 27616 27617 27618 27619 27620 27621 27622 27623 27624 27625 27626 27627 27628 27629 27630 27631 27632 27633 27634 27635 27636 27637 27638 27639 27640 27641 27642 27643 27644 27645 27646 27647 27648 27649 27650 27651 27652 27653 27654 27655 27656 27657 27658 27659 27660 27661 27662 27663 27664 27665 27666 27667 27668 27669 27670 27671 27672 27673 27674 27675 27676 27677 27678 27679 27680 27681 27682 27683 27684 27685 27686 27687 27688 27689 27690 27691 27692 27693 27694 27695 27696 27697 27698 27699 27700 27701 27702 27703 27704 27705 27706 27707 27708 27709 27710 27711 27712 27713 27714 27715 27716 27717 27718 27719 27720 27721 27722 27723 27724 27725 27726 27727 27728 27729 27730 27731 27732 27733 27734 27735 27736 27737 27738 27739 27740 27741 27742 27743 27744 27745 27746 27747 27748 27749 27750 27751 27752 27753 27754 27755 27756 27757 27758 27759 27760 27761 27762 27763 27764 27765 27766 27767 27768 27769 27770 27771 27772 27773 27774 27775 27776 27777 27778 27779 27780 27781 27782 27783 27784 27785 27786 27787 27788 27789 27790 27791 27792 27793 27794 27795 27796 27797 27798 27799 27800 27801 27802 27803 27804 27805 27806 27807 27808 27809 27810 27811 27812 27813 27814 27815 27816 27817 27818 27819 27820 27821 27822 27823 27824 27825 27826 27827 27828 27829 27830 27831 27832 27833 27834 27835 27836 27837 27838 27839 27840 27841 27842 27843 27844 27845 27846 27847 27848 27849 27850 27851 27852 27853 27854 27855 27856 27857 27858 27859 27860 27861 27862 27863 27864 27865 27866 27867 27868 27869 27870 27871 27872 27873 27874 27875 27876 27877 27878 27879 27880 27881 27882 27883 27884 27885 27886 27887 27888 27889 27890 27891 27892 27893 27894 27895 27896 27897 27898 27899 27900 27901 27902 27903 27904 27905 27906 27907 27908 27909 27910 27911 27912 27913 27914 27915 27916 27917 27918 27919 27920 27921 27922 27923 27924 27925 27926 27927 27928 27929 27930 27931 27932 27933 27934 27935 27936 27937 27938 27939 27940 27941 27942 27943 27944 27945 27946 27947 27948 27949 27950 27951 27952 27953 27954 27955 27956 27957 27958 27959 27960 27961 27962 27963 27964 27965 27966 27967 27968 27969 27970 27971 27972 27973 27974 27975 27976 27977 27978 27979 27980 27981 27982 27983 27984 27985 27986 27987 27988 27989 27990 27991 27992 27993 27994 27995 27996 27997 27998 27999 28000 28001 28002 28003 28004 28005 28006 28007 28008 28009 28010 28011 28012 28013 28014 28015 28016 28017 28018 28019 28020 28021 28022 28023 28024 28025 28026 28027 28028 28029 28030 28031 28032 28033 28034 28035 28036 28037 28038 28039 28040 28041 28042 28043 28044 28045 28046 28047 28048 28049 28050 28051 28052 28053 28054 28055 28056 28057 28058 28059 28060 28061 28062 28063 28064 28065 28066 28067 28068 28069 28070 28071 28072 28073 28074 28075 28076 28077 28078 28079 28080 28081 28082 28083 28084 28085 28086 28087 28088 28089 28090 28091 28092 28093 28094 28095 28096 28097 28098 28099 28100 28101 28102 28103 28104 28105 28106 28107 28108 28109 28110 28111 28112 28113 28114 28115 28116 28117 28118 28119 28120 28121 28122 28123 28124 28125 28126 28127 28128 28129 28130 28131 28132 28133 28134 28135 28136 28137 28138 28139 28140 28141 28142 28143 28144 28145 28146 28147 28148 28149 28150 28151 28152 28153 28154 28155 28156 28157 28158 28159 28160 28161 28162 28163 28164 28165 28166 28167 28168 28169 28170 28171 28172 28173 28174 28175 28176 28177 28178 28179 28180 28181 28182 28183 28184 28185 28186 28187 28188 28189 28190 28191 28192 28193 28194 28195 28196 28197 28198 28199 28200 28201 28202 28203 28204 28205 28206 28207 28208 28209 28210 28211 28212 28213 28214 28215 28216 28217 28218 28219 28220 28221 28222 28223 28224 28225 28226 28227 28228 28229 28230 28231 28232 28233 28234 28235 28236 28237 28238 28239 28240 28241 28242 28243 28244 28245 28246 28247 28248 28249 28250 28251 28252 28253 28254 28255 28256 28257 28258 28259 28260 28261 28262 28263 28264 28265 28266 28267 28268 28269 28270 28271 28272 28273 28274 28275 28276 28277 28278 28279 28280 28281 28282 28283 28284 28285 28286 28287 28288 28289 28290 28291 28292 28293 28294 28295 28296 28297 28298 28299 28300 28301 28302 28303 28304 28305 28306 28307 28308 28309 28310 28311 28312 28313 28314 28315 28316 28317 28318 28319 28320 28321 28322 28323 28324 28325 28326 28327 28328 28329 28330 28331 28332 28333 28334 28335 28336 28337 28338 28339 28340 28341 28342 28343 28344 28345 28346 28347 28348 28349 28350 28351 28352 28353 28354 28355 28356 28357 28358 28359 28360 28361 28362 28363 28364 28365 28366 28367 28368 28369 28370 28371 28372 28373 28374 28375 28376 28377 28378 28379 28380 28381 28382 28383 28384 28385 28386 28387 28388 28389 28390 28391 28392 28393 28394 28395 28396 28397 28398 28399 28400 28401 28402 28403 28404 28405 28406 28407 28408 28409 28410 28411 28412 28413 28414 28415 28416 28417 28418 28419 28420 28421 28422 28423 28424 28425 28426 28427 28428 28429 28430 28431 28432 28433 28434 28435 28436 28437 28438 28439 28440 28441 28442 28443 28444 28445 28446 28447 28448 28449 28450 28451 28452 28453 28454 28455 28456 28457 28458 28459 28460 28461 28462 28463 28464 28465 28466 28467 28468 28469 28470 28471 28472 28473 28474 28475 28476 28477 28478 28479 28480 28481 28482 28483 28484 28485 28486 28487 28488 28489 28490 28491 28492 28493 28494 28495 28496 28497 28498 28499 28500 28501 28502 28503 28504 28505 28506 28507 28508 28509 28510 28511 28512 28513 28514 28515 28516 28517 28518 28519 28520 28521 28522 28523 28524 28525 28526 28527 28528 28529 28530 28531 28532 28533 28534 28535 28536 28537 28538 28539 28540 28541 28542 28543 28544 28545 28546 28547 28548 28549 28550 28551 28552 28553 28554 28555 28556 28557 28558 28559 28560 28561 28562 28563 28564 28565 28566 28567 28568 28569 28570 28571 28572 28573 28574 28575 28576 28577 28578 28579 28580 28581 28582 28583 28584 28585 28586 28587 28588 28589 28590 28591 28592 28593 28594 28595 28596 28597 28598 28599 28600 28601 28602 28603 28604 28605 28606 28607 28608 28609 28610 28611 28612 28613 28614 28615 28616 28617 28618 28619 28620 28621 28622 28623 28624 28625 28626 28627 28628 28629 28630 28631 28632 28633 28634 28635 28636 28637 28638 28639 28640 28641 28642 28643 28644 28645 28646 28647 28648 28649 28650 28651 28652 28653 28654 28655 28656 28657 28658 28659 28660 28661 28662 28663 28664 28665 28666 28667 28668 28669 28670 28671 28672 28673 28674 28675 28676 28677 28678 28679 28680 28681 28682 28683 28684 28685 28686 28687 28688 28689 28690 28691 28692 28693 28694 28695 28696 28697 28698 28699 28700 28701 28702 28703 28704 28705 28706 28707 28708 28709 28710 28711 28712 28713 28714 28715 28716 28717 28718 28719 28720 28721 28722 28723 28724 28725 28726 28727 28728 28729 28730 28731 28732 28733 28734 28735 28736 28737 28738 28739 28740 28741 28742 28743 28744 28745 28746 28747 28748 28749 28750 28751 28752 28753 28754 28755 28756 28757 28758 28759 28760 28761 28762 28763 28764 28765 28766 28767 28768 28769 28770 28771 28772 28773 28774 28775 28776 28777 28778 28779 28780 28781 28782 28783 28784 28785 28786 28787 28788 28789 28790 28791 28792 28793 28794 28795 28796 28797 28798 28799 28800 28801 28802 28803 28804 28805 28806 28807 28808 28809 28810 28811 28812 28813 28814 28815 28816 28817 28818 28819 28820 28821 28822 28823 28824 28825 28826 28827 28828 28829 28830 28831 28832 28833 28834 28835 28836 28837 28838 28839 28840 28841 28842 28843 28844 28845 28846 28847 28848 28849 28850 28851 28852 28853 28854 28855 28856 28857 28858 28859 28860 28861 28862 28863 28864 28865 28866 28867 28868 28869 28870 28871 28872 28873 28874 28875 28876 28877 28878 28879 28880 28881 28882 28883 28884 28885 28886 28887 28888 28889 28890 28891 28892 28893 28894 28895 28896 28897 28898 28899 28900 28901 28902 28903 28904 28905 28906 28907 28908 28909 28910 28911 28912 28913 28914 28915 28916 28917 28918 28919 28920 28921 28922 28923 28924 28925 28926 28927 28928 28929 28930 28931 28932 28933 28934 28935 28936 28937 28938 28939 28940 28941 28942 28943 28944 28945 28946 28947 28948 28949 28950 28951 28952 28953 28954 28955 28956 28957 28958 28959 28960 28961 28962 28963 28964 28965 28966 28967 28968 28969 28970 28971 28972 28973 28974 28975 28976 28977 28978 28979 28980 28981 28982 28983 28984 28985 28986 28987 28988 28989 28990 28991 28992 28993 28994 28995 28996 28997 28998 28999 29000 29001 29002 29003 29004 29005 29006 29007 29008 29009 29010 29011 29012 29013 29014 29015 29016 29017 29018 29019 29020 29021 29022 29023 29024 29025 29026 29027 29028 29029 29030 29031 29032 29033 29034 29035 29036 29037 29038 29039 29040 29041 29042 29043 29044 29045 29046 29047 29048 29049 29050 29051 29052 29053 29054 29055 29056 29057 29058 29059 29060 29061 29062 29063 29064 29065 29066 29067 29068 29069 29070 29071 29072 29073 29074 29075 29076 29077 29078 29079 29080 29081 29082 29083 29084 29085 29086 29087 29088 29089 29090 29091 29092 29093 29094 29095 29096 29097 29098 29099 29100 29101 29102 29103 29104 29105 29106 29107 29108 29109 29110 29111 29112 29113 29114 29115 29116 29117 29118 29119 29120 29121 29122 29123 29124 29125 29126 29127 29128 29129 29130 29131 29132 29133 29134 29135 29136 29137 29138 29139 29140 29141 29142 29143 29144 29145 29146 29147 29148 29149 29150 29151 29152 29153 29154 29155 29156 29157 29158 29159 29160 29161 29162 29163 29164 29165 29166 29167 29168 29169 29170 29171 29172 29173 29174 29175 29176 29177 29178 29179 29180 29181 29182 29183 29184 29185 29186 29187 29188 29189 29190 29191 29192 29193 29194 29195 29196 29197 29198 29199 29200 29201 29202 29203 29204 29205 29206 29207 29208 29209 29210 29211 29212 29213 29214 29215 29216 29217 29218 29219 29220 29221 29222 29223 29224 29225 29226 29227 29228 29229 29230 29231 29232 29233 29234 29235 29236 29237 29238 29239 29240 29241 29242 29243 29244 29245 29246 29247 29248 29249 29250 29251 29252 29253 29254 29255 29256 29257 29258 29259 29260 29261 29262 29263 29264 29265 29266 29267 29268 29269 29270 29271 29272 29273 29274 29275 29276 29277 29278 29279 29280 29281 29282 29283 29284 29285 29286 29287 29288 29289 29290 29291 29292 29293 29294 29295 29296 29297 29298 29299 29300 29301 29302 29303 29304 29305 29306 29307 29308 29309 29310 29311 29312 29313 29314 29315 29316 29317 29318 29319 29320 29321 29322 29323 29324 29325 29326 29327 29328 29329 29330 29331 29332 29333 29334 29335 29336 29337 29338 29339 29340 29341 29342 29343 29344 29345 29346 29347 29348 29349 29350 29351 29352 29353 29354 29355 29356 29357 29358 29359 29360 29361 29362 29363 29364 29365 29366 29367 29368 29369 29370 29371 29372 29373 29374 29375 29376 29377 29378 29379 29380 29381 29382 29383 29384 29385 29386 29387 29388 29389 29390 29391 29392 29393 29394 29395 29396 29397 29398 29399 29400 29401 29402 29403 29404 29405 29406 29407 29408 29409 29410 29411 29412 29413 29414 29415 29416 29417 29418 29419 29420 29421 29422 29423 29424 29425 29426 29427 29428 29429 29430 29431 29432 29433 29434 29435 29436 29437 29438 29439 29440 29441 29442 29443 29444 29445 29446 29447 29448 29449 29450 29451 29452 29453 29454 29455 29456 29457 29458 29459 29460 29461 29462 29463 29464 29465 29466 29467 29468 29469 29470 29471 29472 29473 29474 29475 29476 29477 29478 29479 29480 29481 29482 29483 29484 29485 29486 29487 29488 29489 29490 29491 29492 29493 29494 29495 29496 29497 29498 29499 29500 29501 29502 29503 29504 29505 29506 29507 29508 29509 29510 29511 29512 29513 29514 29515 29516 29517 29518 29519 29520 29521 29522 29523 29524 29525 29526 29527 29528 29529 29530 29531 29532 29533 29534 29535 29536 29537 29538 29539 29540 29541 29542 29543 29544 29545 29546 29547 29548 29549 29550 29551 29552 29553 29554 29555 29556 29557 29558 29559 29560 29561 29562 29563 29564 29565 29566 29567 29568 29569 29570 29571 29572 29573 29574 29575 29576 29577 29578 29579 29580 29581 29582 29583 29584 29585 29586 29587 29588 29589 29590 29591 29592 29593 29594 29595 29596 29597 29598 29599 29600 29601 29602 29603 29604 29605 29606 29607 29608 29609 29610 29611 29612 29613 29614 29615 29616 29617 29618 29619 29620 29621 29622 29623 29624 29625 29626 29627 29628 29629 29630 29631 29632 29633 29634 29635 29636 29637 29638 29639 29640 29641 29642 29643 29644 29645 29646 29647 29648 29649 29650 29651 29652 29653 29654 29655 29656 29657 29658 29659 29660 29661 29662 29663 29664 29665 29666 29667 29668 29669 29670 29671 29672 29673 29674 29675 29676 29677 29678 29679 29680 29681 29682 29683 29684 29685 29686 29687 29688 29689 29690 29691 29692 29693 29694 29695 29696 29697 29698 29699 29700 29701 29702 29703 29704 29705 29706 29707 29708 29709 29710 29711 29712 29713 29714 29715 29716 29717 29718 29719 29720 29721 29722 29723 29724 29725 29726 29727 29728 29729 29730 29731 29732 29733 29734 29735 29736 29737 29738 29739 29740 29741 29742 29743 29744 29745 29746 29747 29748 29749 29750 29751 29752 29753 29754 29755 29756 29757 29758 29759 29760 29761 29762 29763 29764 29765 29766 29767 29768 29769 29770 29771 29772 29773 29774 29775 29776 29777 29778 29779 29780 29781 29782 29783 29784 29785 29786 29787 29788 29789 29790 29791 29792 29793 29794 29795 29796 29797 29798 29799 29800 29801 29802 29803 29804 29805 29806 29807 29808 29809 29810 29811 29812 29813 29814 29815 29816 29817 29818 29819 29820 29821 29822 29823 29824 29825 29826 29827 29828 29829 29830 29831 29832 29833 29834 29835 29836 29837 29838 29839 29840 29841 29842 29843 29844 29845 29846 29847 29848 29849 29850 29851 29852 29853 29854 29855 29856 29857 29858 29859 29860 29861 29862 29863 29864 29865 29866 29867 29868 29869 29870 29871 29872 29873 29874 29875 29876 29877 29878 29879 29880 29881 29882 29883 29884 29885 29886 29887 29888 29889 29890 29891 29892 29893 29894 29895 29896 29897 29898 29899 29900 29901 29902 29903 29904 29905 29906 29907 29908 29909 29910 29911 29912 29913 29914 29915 29916 29917 29918 29919 29920 29921 29922 29923 29924 29925 29926 29927 29928 29929 29930 29931 29932 29933 29934 29935 29936 29937 29938 29939 29940 29941 29942 29943 29944 29945 29946 29947 29948 29949 29950 29951 29952 29953 29954 29955 29956 29957 29958 29959 29960 29961 29962 29963 29964 29965 29966 29967 29968 29969 29970 29971 29972 29973 29974 29975 29976 29977 29978 29979 29980 29981 29982 29983 29984 29985 29986 29987 29988 29989 29990 29991 29992 29993 29994 29995 29996 29997 29998 29999 30000 30001 30002 30003 30004 30005 30006 30007 30008 30009 30010 30011 30012 30013 30014 30015 30016 30017 30018 30019 30020 30021 30022 30023 30024 30025 30026 30027 30028 30029 30030 30031 30032 30033 30034 30035 30036 30037 30038 30039 30040 30041 30042 30043 30044 30045 30046 30047 30048 30049 30050 30051 30052 30053 30054 30055 30056 30057 30058 30059 30060 30061 30062 30063 30064 30065 30066 30067 30068 30069 30070 30071 30072 30073 30074 30075 30076 30077 30078 30079 30080 30081 30082 30083 30084 30085 30086 30087 30088 30089 30090 30091 30092 30093 30094 30095 30096 30097 30098 30099 30100 30101 30102 30103 30104 30105 30106 30107 30108 30109 30110 30111 30112 30113 30114 30115 30116 30117 30118 30119 30120 30121 30122 30123 30124 30125 30126 30127 30128 30129 30130 30131 30132 30133 30134 30135 30136 30137 30138 30139 30140 30141 30142 30143 30144 30145 30146 30147 30148 30149 30150 30151 30152 30153 30154 30155 30156 30157 30158 30159 30160 30161 30162 30163 30164 30165 30166 30167 30168 30169 30170 30171 30172 30173 30174 30175 30176 30177 30178 30179 30180 30181 30182 30183 30184 30185 30186 30187 30188 30189 30190 30191 30192 30193 30194 30195 30196 30197 30198 30199 30200 30201 30202 30203 30204 30205 30206 30207 30208 30209 30210 30211 30212 30213 30214 30215 30216 30217 30218 30219 30220 30221 30222 30223 30224 30225 30226 30227 30228 30229 30230 30231 30232 30233 30234 30235 30236 30237 30238 30239 30240 30241 30242 30243 30244 30245 30246 30247 30248 30249 30250 30251 30252 30253 30254 30255 30256 30257 30258 30259 30260 30261 30262 30263 30264 30265 30266 30267 30268 30269 30270 30271 30272 30273 30274 30275 30276 30277 30278 30279 30280 30281 30282 30283 30284 30285 30286 30287 30288 30289 30290 30291 30292 30293 30294 30295 30296 30297 30298 30299 30300 30301 30302 30303 30304 30305 30306 30307 30308 30309 30310 30311 30312 30313 30314 30315 30316 30317 30318 30319 30320 30321 30322 30323 30324 30325 30326 30327 30328 30329 30330 30331 30332 30333 30334 30335 30336 30337 30338 30339 30340 30341 30342 30343 30344 30345 30346 30347 30348 30349 30350 30351 30352 30353 30354 30355 30356 30357 30358 30359 30360 30361 30362 30363 30364 30365 30366 30367 30368 30369 30370 30371 30372 30373 30374 30375 30376 30377 30378 30379 30380 30381 30382 30383 30384 30385 30386 30387 30388 30389 30390 30391 30392 30393 30394 30395 30396 30397 30398 30399 30400 30401 30402 30403 30404 30405 30406 30407 30408 30409 30410 30411 30412 30413 30414 30415 30416 30417 30418 30419 30420 30421 30422 30423 30424 30425 30426 30427 30428 30429 30430 30431 30432 30433 30434 30435 30436 30437 30438 30439 30440 30441 30442 30443 30444 30445 30446 30447 30448 30449 30450 30451 30452 30453 30454 30455 30456 30457 30458 30459 30460 30461 30462 30463 30464 30465 30466 30467 30468 30469 30470 30471 30472 30473 30474 30475 30476 30477 30478 30479 30480 30481 30482 30483 30484 30485 30486 30487 30488 30489 30490 30491 30492 30493 30494 30495 30496 30497 30498 30499 30500 30501 30502 30503 30504 30505 30506 30507 30508 30509 30510 30511 30512 30513 30514 30515 30516 30517 30518 30519 30520 30521 30522 30523 30524 30525 30526 30527 30528 30529 30530 30531 30532 30533 30534 30535 30536 30537 30538 30539 30540 30541 30542 30543 30544 30545 30546 30547 30548 30549 30550 30551 30552 30553 30554 30555 30556 30557 30558 30559 30560 30561 30562 30563 30564 30565 30566 30567 30568 30569 30570 30571 30572 30573 30574 30575 30576 30577 30578 30579 30580 30581 30582 30583 30584 30585 30586 30587 30588 30589 30590 30591 30592 30593 30594 30595 30596 30597 30598 30599 30600 30601 30602 30603 30604 30605 30606 30607 30608 30609 30610 30611 30612 30613 30614 30615 30616 30617 30618 30619 30620 30621 30622 30623 30624 30625 30626 30627 30628 30629 30630 30631 30632 30633 30634 30635 30636 30637 30638 30639 30640 30641 30642 30643 30644 30645 30646 30647 30648 30649 30650 30651 30652 30653 30654 30655 30656 30657 30658 30659 30660 30661 30662 30663 30664 30665 30666 30667 30668 30669 30670 30671 30672 30673 30674 30675 30676 30677 30678 30679 30680 30681 30682 30683 30684 30685 30686 30687 30688 30689 30690 30691 30692 30693 30694 30695 30696 30697 30698 30699 30700 30701 30702 30703 30704 30705 30706 30707 30708 30709 30710 30711 30712 30713 30714 30715 30716 30717 30718 30719 30720 30721 30722 30723 30724 30725 30726 30727 30728 30729 30730 30731 30732 30733 30734 30735 30736 30737 30738 30739 30740 30741 30742 30743 30744 30745 30746 30747 30748 30749 30750 30751 30752 30753 30754 30755 30756 30757 30758 30759 30760 30761 30762 30763 30764 30765 30766 30767 30768 30769 30770 30771 30772 30773 30774 30775 30776 30777 30778 30779 30780 30781 30782 30783 30784 30785 30786 30787 30788 30789 30790 30791 30792 30793 30794 30795 30796 30797 30798 30799 30800 30801 30802 30803 30804 30805 30806 30807 30808 30809 30810 30811 30812 30813 30814 30815 30816 30817 30818 30819 30820 30821 30822 30823 30824 30825 30826 30827 30828 30829 30830 30831 30832 30833 30834 30835 30836 30837 30838 30839 30840 30841 30842 30843 30844 30845 30846 30847 30848 30849 30850 30851 30852 30853 30854 30855 30856 30857 30858 30859 30860 30861 30862 30863 30864 30865 30866 30867 30868 30869 30870 30871 30872 30873 30874 30875 30876 30877 30878 30879 30880 30881 30882 30883 30884 30885 30886 30887 30888 30889 30890 30891 30892 30893 30894 30895 30896 30897 30898 30899 30900 30901 30902 30903 30904 30905 30906 30907 30908 30909 30910 30911 30912 30913 30914 30915 30916 30917 30918 30919 30920 30921 30922 30923 30924 30925 30926 30927 30928 30929 30930 30931 30932 30933 30934 30935 30936 30937 30938 30939 30940 30941 30942 30943 30944 30945 30946 30947 30948 30949 30950 30951 30952 30953 30954 30955 30956 30957 30958 30959 30960 30961 30962 30963 30964 30965 30966 30967 30968 30969 30970 30971 30972 30973 30974 30975 30976 30977 30978 30979 30980 30981 30982 30983 30984 30985 30986 30987 30988 30989 30990 30991 30992 30993 30994 30995 30996 30997 30998 30999 31000 31001 31002 31003 31004 31005 31006 31007 31008 31009 31010 31011 31012 31013 31014 31015 31016 31017 31018 31019 31020 31021 31022 31023 31024 31025 31026 31027 31028 31029 31030 31031 31032 31033 31034 31035 31036 31037 31038 31039 31040 31041 31042 31043 31044 31045 31046 31047 31048 31049 31050 31051 31052 31053 31054 31055 31056 31057 31058 31059 31060 31061 31062 31063 31064 31065 31066 31067 31068 31069 31070 31071 31072 31073 31074 31075 31076 31077 31078 31079 31080 31081 31082 31083 31084 31085 31086 31087 31088 31089 31090 31091 31092 31093 31094 31095 31096 31097 31098 31099 31100 31101 31102 31103 31104 31105 31106 31107 31108 31109 31110 31111 31112 31113 31114 31115 31116 31117 31118 31119 31120 31121 31122 31123 31124 31125 31126 31127 31128 31129 31130 31131 31132 31133 31134 31135 31136 31137 31138 31139 31140 31141 31142 31143 31144 31145 31146 31147 31148 31149 31150 31151 31152 31153 31154 31155 31156 31157 31158 31159 31160 31161 31162 31163 31164 31165 31166 31167 31168 31169 31170 31171 31172 31173 31174 31175 31176 31177 31178 31179 31180 31181 31182 31183 31184 31185 31186 31187 31188 31189 31190 31191 31192 31193 31194 31195 31196 31197 31198 31199 31200 31201 31202 31203 31204 31205 31206 31207 31208 31209 31210 31211 31212 31213 31214 31215 31216 31217 31218 31219 31220 31221 31222 31223 31224 31225 31226 31227 31228 31229 31230 31231 31232 31233 31234 31235 31236 31237 31238 31239 31240 31241 31242 31243 31244 31245 31246 31247 31248 31249 31250 31251 31252 31253 31254 31255 31256 31257 31258 31259 31260 31261 31262 31263 31264 31265 31266 31267 31268 31269 31270 31271 31272 31273 31274 31275 31276 31277 31278 31279 31280 31281 31282 31283 31284 31285 31286 31287 31288 31289 31290 31291 31292 31293 31294 31295 31296 31297 31298 31299 31300 31301 31302 31303 31304 31305 31306 31307 31308 31309 31310 31311 31312 31313 31314 31315 31316 31317 31318 31319 31320 31321 31322 31323 31324 31325 31326 31327 31328 31329 31330 31331 31332 31333 31334 31335 31336 31337 31338 31339 31340 31341 31342 31343 31344 31345 31346 31347 31348 31349 31350 31351 31352 31353 31354 31355 31356 31357 31358 31359 31360 31361 31362 31363 31364 31365 31366 31367 31368 31369 31370 31371 31372 31373 31374 31375 31376 31377 31378 31379 31380 31381 31382 31383 31384 31385 31386 31387 31388 31389 31390 31391 31392 31393 31394 31395 31396 31397 31398 31399 31400 31401 31402 31403 31404 31405 31406 31407 31408 31409 31410 31411 31412 31413 31414 31415 31416 31417 31418 31419 31420 31421 31422 31423 31424 31425 31426 31427 31428 31429 31430 31431 31432 31433 31434 31435 31436 31437 31438 31439 31440 31441 31442 31443 31444 31445 31446 31447 31448 31449 31450 31451 31452 31453 31454 31455 31456 31457 31458 31459 
</DataArray>
<DataArray type="UInt32" Name="offsets" format="ascii">
3 6 9 12 15 18 20 23 26 29 32 35 37 40 43 45 48 51 54 56 59 62 65 68 71 74 77 80 83 86 89 92 95 98 101 104 107 110 113 116 119 122 125 128 131 134 137 140 143 146 148 151 153 156 159 162 164 167 170 173 176 179 182 185 187 190 193 195 198 201 204 207 210 213 216 218 221 224 227 230 232 235 238 241 244 247 249 252 255 258 260 263 266 269 272 275 278 281 284 287 290 293 296 299 302 305 308 311 313 316 319 322 325 327 330 333 336 339 342 345 347 350 353 356 358 361 363 366 368 371 374 376 379 382 385 388 391 394 397 399 402 405 408 411 414 417 420 423 426 429 432 435 437 440 443 446 449 452 455 458 460 463 466 469 472 475 478 481 484 486 489 492 495 498 501 504 506 509 512 515 518 521 523 526 528 531 534 537 540 543 545 548 550 553 555 557 560 563 565 568 571 574 577 580 583 586 589 592 595 598 601 604 607 610 613 616 619 622 625 628 631 634 637 640 643 646 649 652 655 658 661 664 667 670 673 676 678 681 683 686 689 692 695 698 701 704 707 710 712 715 717 720 723 726 729 732 734 737 740 743 746 748 751 754 757 760 763 766 769 772 775 778 781 783 786 789 791 794 797 800 803 806 809 812 815 818 821 824 827 830 833 836 839 842 845 848 851 854 857 860 863 866 869 872 875 878 881 884 887 890 893 896 899 902 905 908 911 914 917 919 922 925 928 930 933 936 939 941 944 947 950 953 955 958 961 964 967 969 972 975 978 981 984 987 990 993 996 999 1002 1004 1007 1010 1013 1016 1019 1022 1025 1028 1031 1034 1037 1040 1043 1046 1049 1052 1055 1058 1061 1064 1067 1070 1073 1076 1078 1080 1083 1086 1089 1092 1095 1098 1101 1104 1107 1110 1112 1115 1118 1121 1124 1127 1130 1133 1136 1139 1142 1145 1148 1151 1154 1157 1160 1163 1166 1169 1172 1175 1178 1181 1183 1186 1189 1192 1194 1197 1200 1203 1206 1209 1212 1215 1217 1220 1223 1226 1229 1232 1235 1238 1241 1244 1246 1249 1252 1255 1257 1260 1263 1266 1269 1272 1275 1278 1280 1283 1286 1289 1292 1295 1298 1301 1304 1307 1310 1313 1316 1319 1322 1325 1328 1331 1334 1336 1339 1342 1345 1348 1351 1354 1357 1360 1363 1366 1369 1372 1375 1378 1381 1384 1387 1390 1393 1396 1398 1401 1404 1407 1409 1412 1415 1417 1420 1422 1425 1428 1431 1433 1436 1439 1442 1445 1447 1450 1453 1456 1458 1461 1464 1467 1470 1473 1475 1478 1481 1484 1487 1490 1493 1496 1499 1501 1504 1507 1510 1513 1516 1519 1522 1525 1528 1531 1534 1537 1540 1543 1546 1549 1552 1555 1558 1561 1564 1567 1570 1573 1575 1578 1580 1583 1586 1589 1592 1595 1598 1601 1604 1606 1609 1612 1615 1618 1621 1623 1626 1629 1632 1635 1638 1641 1643 1646 1648 1651 1654 1657 1660 1663 1666 1669 1672 1675 1678 1681 1684 1687 1690 1693 1696 1699 1702 1705 1708 1711 1714 1716 1718 1721 1724 1727 1729 1732 1735 1738 1741 1743 1746 1749 1752 1755 1758 1761 1764 1767 1769 1772 1775 1778 1780 1783 1786 1789 1792 1795 1798 1801 1804 1806 1808 1811 1813 1816 1819 1821 1824 1826 1829 1832 1835 1838 1841 1844 1846 1849 1852 1855 1858 1861 1863 1866 1869 1871 1874 1877 1879 1882 1885 1888 1890 1893 1896 1899 1902 1905 1908 1911 1914 1917 1920 1923 1926 1929 1932 1934 1937 1940 1943 1946 1949 1951 1954 1957 1960 1962 1965 1968 1970 1972 1975 1978 1981 1984 1987 1990 1993 1995 1998 2001 2004 2007 2009 2012 2015 2018 2021 2023 2026 2029 2032 2035 2038 2041 2044 2047 2050 2052 2055 2058 2061 2064 2067 2070 2072 2075 2078 2080 2083 2086 2089 2092 2095 2097 2100 2103 2105 2108 2111 2114 2117 2120 2123 2126 2129 2131 2133 2136 2139 2142 2145 2148 2151 2153 2156 2159 2162 2165 2168 2171 2173 2176 2179 2182 2185 2188 2191 2193 2196 2199 2202 2205 2208 2211 2214 2217 2220 2223 2225 2228 2231 2234 2237 2240 2242 2245 2248 2250 2253 2256 2259 2262 2265 2268 2270 2273 2275 2278 2281 2284 2286 2289 2292 2294 2297 2300 2303 2306 2309 2312 2315 2318 2321 2324 2327 2330 2333 2335 2338 2341 2344 2346 2349 2352 2355 2358 2361 2364 2367 2370 2373 2376 2378 2381 2384 2387 2390 2393 2396 2399 2402 2405 2408 2411 2414 2417 2420 2423 2426 2429 2432 2434 2437 2440 2442 2445 2448 2451 2454 2457 2460 2463 2466 2469 2472 2475 2478 2481 2484 2487 2490 2493 2495 2498 2501 2504 2507 2510 2513 2516 2519 2522 2525 2528 2531 2534 2536 2539 2542 2545 2548 2551 2554 2557 2560 2563 2566 2569 2572 2575 2578 2581 2584 2586 2589 2592 2595 2597 2600 2603 2606 2609 2612 2615 2618 2620 2623 2626 2628 2631 2633 2636 2638 2641 2643 2646 2649 2652 2655 2657 2660 2663 2666 2669 2672 2675 2677 2680 2683 2685 2688 2691 2694 2697 2700 2702 2704 2707 2710 2713 2716 2719 2722 2725 2728 2731 2734 2737 2740 2743 2746 2749 2752 2755 2758 2761 2764 2767 2770 2773 2776 2778 2781 2784 2787 2790 2793 2796 2799 2802 2805 2808 2811 2814 2817 2820 2823 2826 2829 2832 2835 2838 2841 2844 2847 2850 2853 2856 2859 2862 2865 2867 2870 2873 2876 2879 2882 2885 2888 2891 2894 2897 2900 2902 2905 2908 2911 2914 2917 2920 2922 2925 2928 2930 2933 2935 2938 2941 2944 2946 2949 2952 2955 2957 2960 2963 2965 2968 2970 2973 2976 2978 2981 2984 2986 2989 2991 2994 2997 3000 3003 3006 3008 3011 3013 3016 3019 3022 3025 3027 3029 3032 3035 3037 3040 3043 3045 3048 3050 3053 3056 3058 3061 3064 3067 3069 3072 3075 3077 3079 3082 3085 3088 3090 3092 3095 3098 3101 3104 3107 3110 3113 3116 3118 3121 3123 3126 3128 3131 3133 3136 3138 3141 3143 3146 3149 3152 3154 3157 3160 3162 3165 3168 3170 3173 3175 3177 3180 3182 3184 3187 3190 3192 3195 3197 3200 3203 3206 3209 3212 3215 3218 3220 3223 3226 3229 3232 3234 3237 3240 3243 3246 3249 3252 3255 3258 3261 3263 3266 3268 3271 3274 3277 3280 3283 3286 3289 3292 3295 3298 3301 3304 3307 3309 3312 3314 3317 3320 3322 3325 3328 3331 3333 3336 3339 3342 3345 3348 3351 3354 3356 3359 3362 3365 3368 3371 3373 3375 3378 3381 3384 3387 3390 3393 3396 3398 3401 3404 3407 3409 3412 3415 3418 3421 3424 3427 3430 3433 3436 3438 3441 3444 3447 3450 3453 3456 3459 3462 3465 3468 3471 3473 3476 3479 3482 3485 3488 3491 3493 3496 3499 3502 3505 3507 3510 3513 3516 3519 3522 3525 3528 3531 3534 3537 3540 3543 3546 3549 3552 3555 3558 3561 3564 3566 3569 3572 3575 3578 3580 3583 3586 3589 3592 3595 3598 3601 3604 3607 3610 3613 3616 3619 3622 3625 3627 3630 3633 3635 3638 3640 3643 3646 3649 3652 3655 3658 3660 3663 3666 3669 3672 3675 3677 3680 3683 3686 3689 3692 3694 3696 3699 3702 3705 3708 3711 3714 3717 3720 3723 3726 3729 3732 3735 3738 3741 3744 3747 3750 3753 3756 3759 3761 3764 3767 3770 3773 3776 3779 3782 3785 3788 3791 3794 3796 3799 3801 3804 3807 3810 3813 3815 3818 3821 3823 3826 3829 3831 3834 3837 3839 3842 3845 3848 3851 3854 3857 3859 3862 3865 3868 3871 3874 3877 3880 3882 3885 3888 3890 3893 3896 3898 3901 3904 3907 3910 3913 3915 3918 3921 3924 3927 3930 3933 3936 3939 3942 3945 3948 3951 3953 3956 3959 3962 3965 3968 3971 3974 3977 3980 3983 3986 3989 3992 3995 3997 3999 4002 4005 4007 4010 4012 4015 4017 4019 4022 4025 4028 4031 4033 4035 4037 4040 4043 4045 4048 4051 4053 4056 4059 4062 4065 4067 4070 4073 4076 4079 4082 4085 4088 4090 4093 4096 4098 4100 4103 4106 4108 4111 4113 4116 4119 4122 4125 4128 4131 4134 4137 4140 4143 4146 4149 4152 4155 4158 4161 4164 4167 4170 4173 4176 4178 4180 4183 4186 4189 4192 4195 4198 4201 4204 4207 4210 4212 4215 4218 4221 4224 4226 4229 4232 4235 4238 4241 4244 4246 4249 4252 4255 4257 4260 4263 4266 4269 4272 4275 4277 4280 4283 4286 4289 4292 4295 4297 4300 4303 4305 4308 4311 4314 4317 4320 4323 4326 4329 4332 4335 4338 4341 4344 4347 4350 4353 4356 4359 4362 4365 4368 4371 4374 4377 4379 4382 4385 4388 4391 4394 4397 4400 4403 4406 4409 4412 4415 4418 4420 4423 4425 4428 4431 4434 4437 4440 4443 4446 4449 4452 4455 4458 4461 4464 4467 4470 4473 4476 4478 4481 4484 4487 4489 4492 4495 4498 4500 4503 4506 4509 4512 4514 4517 4520 4523 4526 4529 4532 4535 4538 4541 4544 4547 4550 4553 4556 4559 4562 4565 4568 4571 4574 4577 4580 4583 4586 4589 4592 4595 4598 4601 4604 4607 4610 4613 4616 4619 4622 4625 4627 4630 4633 4636 4639 4642 4645 4648 4650 4653 4656 4658 4661 4663 4666 4669 4672 4675 4678 4680 4683 4686 4689 4691 4694 4697 4700 4703 4706 4709 4712 4715 4718 4721 4724 4727 4730 4733 4736 4739 4742 4745 4748 4751 4753 4756 4759 4762 4765 4768 4771 4774 4777 4780 4783 4786 4789 4792 4795 4798 4801 4804 4807 4810 4813 4816 4819 4822 4825 4828 4831 4834 4836 4838 4841 4844 4847 4850 4853 4856 4858 4861 4864 4867 4870 4873 4876 4879 4881 4883 4886 4889 4891 4893 4896 4899 4902 4905 4907 4909 4912 4915 4918 4921 4924 4926 4929 4932 4935 4937 4940 4943 4946 4949 4952 4955 4958 4961 4964 4966 4969 4972 4975 4977 4980 4983 4985 4988 4990 4993 4995 4998 5000 5002 5005 5008 5010 5012 5015 5018 5021 5024 5027 5030 5032 5035 5037 5040 5043 5046 5049 5051 5054 5057 5060 5063 5066 5069 5072 5074 5077 5079 5082 5085 5088 5091 5094 5097 5100 5103 5106 5109 5112 5115 5118 5120 5123 5125 5128 5131 5134 5137 5140 5143 5146 5149 5152 5155 5158 5161 5164 5166 5169 5172 5175 5178 5181 5184 5187 5190 5193 5196 5198 5201 5204 5207 5210 5213 5216 5219 5222 5225 5228 5231 5234 5237 5240 5242 5245 5247 5250 5253 5256 5258 5261 5264 5267 5270 5273 5276 5279 5282 5285 5288 5291 5294 5297 5300 5303 5305 5307 5310 5313 5316 5319 5322 5325 5328 5331 5334 5337 5340 5343 5346 5349 5351 5354 5357 5360 5363 5366 5368 5371 5374 5377 5380 5383 5386 5388 5391 5394 5397 5400 5403 5406 5409 5412 5415 5418 5421 5424 5426 5429 5432 5435 5438 5441 5444 5446 5449 5452 5455 5457 5460 5463 5466 5469 5472 5474 5477 5480 5483 5485 5488 5491 5494 5497 5500 5503 5506 5509 5512 5514 5517 5520 5523 5526 5529 5532 5535 5538 5541 5544 5546 5549 5552 5555 5557 5560 5563 5566 5569 5572 5575 5578 5581 5584 5587 5590 5593 5596 5599 5602 5605 5608 5611 5614 5617 5620 5623 5626 5628 5631 5634 5637 5640 5643 5646 5649 5652 5655 5658 5661 5664 5667 5670 5673 5676 5679 5682 5685 5688 5691 5694 5697 5700 5702 5705 5708 5711 5714 5717 5720 5723 5725 5728 5731 5734 5736 5739 5742 5745 5748 5751 5754 5757 5760 5762 5765 5767 5770 5773 5775 5778 5780 5783 5786 5789 5792 5795 5798 5800 5803 5806 5809 5811 5813 5816 5818 5821 5824 5827 5830 5833 5835 5838 5841 5844 5847 5850 5853 5856 5859 5862 5865 5868 5871 5874 5877 5880 5882 5885 5888 5890 5893 5896 5899 5901 5904 5906 5909 5911 5914 5916 5919 5922 5924 5926 5929 5932 5935 5937 5940 5942 5945 5948 5951 5954 5957 5960 5963 5966 5969 5971 5974 5977 5980 5982 5985 5988 5991 5994 5997 6000 6003 6006 6009 6012 6015 6017 6020 6023 6026 6028 6031 6034 6037 6040 6043 6046 6049 6052 6055 6057 6060 6063 6065 6068 6071 6074 6076 6079 6082 6084 6087 6090 6093 6096 6099 6102 6105 6108 6111 6114 6117 6120 6123 6126 6129 6132 6135 6138 6141 6144 6147 6150 6152 6155 6158 6160 6163 6166 6169 6172 6175 6178 6181 6183 6186 6189 6192 6195 6198 6201 6204 6207 6210 6213 6216 6219 6221 6224 6227 6230 6232 6235 6238 6240 6242 6245 6247 6250 6253 6256 6259 6262 6264 6267 6270 6273 6276 6279 6281 6284 6287 6290 6292 6294 6297 6300 6303 6305 6308 6311 6314 6316 6319 6322 6325 6327 6329 6332 6335 6337 6340 6343 6346 6349 6352 6355 6357 6359 6362 6365 6368 6371 6374 6377 6380 6383 6386 6389 6392 6394 6397 6400 6403 6406 6409 6412 6415 6418 6421 6424 6427 6430 6433 6436 6439 6442 6444 6447 6450 6453 6455 6458 6461 6464 6467 6470 6473 6476 6479 6482 6485 6487 6489 6492 6495 6498 6501 6503 6506 6509 6512 6515 6518 6521 6523 6526 6528 6531 6534 6537 6540 6543 6546 6548 6550 6553 6556 6559 6562 6565 6568 6571 6574 6576 6578 6581 6584 6587 6590 6593 6596 6598 6601 6604 6607 6610 6612 6615 6617 6620 6623 6626 6629 6632 6634 6637 6639 6641 6644 6647 6649 6651 6654 6657 6659 6662 6664 6666 6669 6672 6675 6677 6679 6682 6685 6688 6691 6694 6697 6700 6703 6706 6709 6711 6714 6717 6720 6722 6724 6727 6729 6731 6734 6737 6740 6743 6746 6748 6751 6753 6756 6758 6761 6764 6767 6769 6772 6774 6776 6779 6782 6784 6787 6790 6792 6795 6798 6801 6804 6806 6809 6812 6815 6818 6821 6824 6827 6830 6833 6836 6839 6842 6844 6847 6850 6853 6856 6859 6861 6864 6866 6869 6871 6874 6876 6879 6881 6884 6886 6889 6892 6895 6898 6901 6903 6905 6908 6910 6912 6914 6917 6920 6923 6926 6928 6931 6934 6937 6940 6943 6945 6948 6951 6954 6957 6960 6963 6965 6968 6971 6974 6977 6979 6982 6985 6987 6990 6992 6994 6997 7000 7003 7006 7009 7012 7014 7016 7018 7020 7023 7026 7028 7031 7033 7036 7038 7040 7043 7046 7049 7052 7055 7058 7061 7064 7067 7070 7073 7076 7078 7081 7084 7086 7089 7092 7095 7098 7101 7104 7107 7110 7113 7116 7119 7121 7124 7127 7130 7133 7135 7138 7141 7143 7146 7149 7152 7154 7157 7159 7162 7165 7168 7171 7174 7177 7180 7183 7186 7188 7191 7194 7197 7200 7203 7205 7208 7211 7214 7217 7220 7223 7226 7229 7232 7235 7238 7241 7244 7247 7250 7252 7255 7258 7261 7264 7266 7269 7272 7275 7278 7280 7283 7286 7289 7292 7295 7298 7301 7304 7307 7310 7313 7316 7319 7322 7325 7328 7331 7334 7336 7339 7342 7345 7348 7350 7353 7356 7359 7362 7365 7368 7371 7374 7377 7380 7383 7385 7388 7391 7394 7396 7398 7401 7404 7407 7409 7411 7413 7416 7418 7421 7424 7426 7429 7432 7434 7437 7440 7442 7445 7447 7450 7453 7456 7459 7462 7465 7468 7471 7474 7477 7480 7483 7486 7489 7492 7495 7498 7501 7504 7507 7509 7511 7514 7517 7520 7522 7525 7527 7530 7533 7536 7539 7542 7545 7548 7551 7554 7557 7559 7562 7565 7568 7571 7574 7577 7580 7583 7586 7588 7591 7594 7597 7600 7603 7606 7608 7611 7614 7617 7620 7623 7626 7629 7632 7635 7638 7641 7644 7646 7649 7651 7654 7657 7660 7663 7666 7669 7672 7675 7678 7681 7684 7687 7690 7693 7696 7699 7702 7705 7707 7710 7712 7715 7717 7720 7723 7725 7728 7730 7733 7736 7738 7741 7744 7746 7749 7752 7755 7758 7761 7764 7766 7769 7772 7774 7776 7779 7782 7784 7787 7790 7792 7795 7797 7799 7802 7805 7808 7811 7814 7817 7819 7822 7825 7828 7831 7834 7837 7840 7843 7846 7849 7851 7854 7857 7859 7862 7865 7868 7870 7873 7876 7879 7882 7885 7888 7891 7893 7896 7899 7902 7904 7907 7910 7912 7915 7918 7921 7924 7927 7930 7933 7936 7939 7942 7945 7948 7951 7954 7957 7960 7963 7966 7969 7972 7975 7978 7981 7984 7987 7990 7993 7996 7999 8002 8005 8008 8011 8014 8017 8020 8023 8026 8029 8032 8035 8038 8041 8044 8047 8050 8052 8055 8058 8061 8064 8067 8070 8073 8076 8079 8082 8085 8088 8091 8094 8097 8100 8103 8106 8109 8112 8114 8117 8119 8122 8125 8128 8131 8134 8137 8140 8142 8145 8148 8151 8154 8157 8160 8163 8165 8168 8171 8174 8177 8180 8183 8185 8188 8190 8193 8196 8199 8201 8204 8207 8210 8213 8216 8219 8222 8225 8228 8231 8234 8237 8239 8242 8245 8248 8251 8253 8256 8259 8262 8264 8266 8269 8272 8275 8277 8279 8282 8285 8288 8291 8294 8297 8300 8303 8306 8309 8312 8315 8318 8321 8324 8327 8330 8333 8336 8339 8341 8344 8347 8350 8353 8355 8358 8361 8364 8366 8369 8372 8375 8378 8381 8384 8387 8390 8393 8396 8398 8400 8403 8406 8409 8412 8414 8417 8420 8423 8426 8429 8432 8434 8437 8440 8442 8445 8448 8450 8453 8456 8459 8462 8465 8468 8471 8474 8477 8480 8483 8486 8489 8492 8495 8498 8501 8504 8507 8510 8513 8516 8519 8522 8525 8528 8531 8534 8537 8540 8543 8546 8549 8552 8555 8558 8561 8564 8567 8570 8573 8576 8579 8582 8585 8588 8591 8594 8596 8599 8602 8605 8608 8611 8613 8616 8619 8621 8624 8627 8629 8632 8635 8638 8641 8644 8647 8650 8653 8656 8659 8662 8665 8668 8671 8674 8677 8680 8683 8686 8688 8691 8694 8697 8700 8703 8705 8708 8711 8714 8717 8720 8723 8726 8729 8732 8735 8738 8741 8743 8746 8749 8752 8755 8758 8760 8763 8766 8769 8771 8774 8777 8780 8783 8786 8789 8791 8794 8797 8800 8803 8805 8808 8811 8814 8817 8819 8822 8825 8828 8830 8833 8836 8839 8841 8844 8847 8849 8852 8855 8858 8861 8864 8867 8870 8873 8876 8879 8882 8885 8888 8891 8894 8897 8900 8903 8906 8909 8912 8915 8918 8920 8923 8926 8929 8931 8934 8937 8940 8943 8946 8949 8952 8955 8958 8961 8964 8967 8970 8973 8976 8979 8982 8984 8986 8989 8992 8994 8997 9000 9002 9005 9007 9010 9012 9015 9018 9021 9024 9026 9029 9032 9035 9038 9040 9043 9045 9048 9051 9054 9057 9060 9063 9066 9069 9072 9075 9078 9081 9084 9087 9089 9092 9095 9098 9101 9104 9107 9110 9113 9116 9119 9121 9124 9127 9130 9133 9136 9139 9142 9145 9148 9151 9153 9156 9159 9162 9165 9168 9170 9173 9176 9179 9182 9185 9187 9190 9193 9196 9199 9201 9204 9207 9210 9213 9216 9219 9222 9225 9228 9231 9234 9237 9239 9242 9245 9248 9251 9254 9256 9259 9262 9265 9268 9271 9274 9276 9279 9282 9285 9288 9291 9294 9296 9299 9302 9305 9308 9311 9314 9317 9320 9323 9326 9329 9332 9335 9338 9341 9344 9347 9350 9353 9356 9359 9362 9365 9368 9371 9373 9376 9379 9382 9385 9388 9391 9393 9396 9399 9402 9405 9407 9410 9413 9415 9418 9421 9424 9427 9430 9433 9436 9439 9442 9444 9447 9450 9452 9455 9458 9461 9463 9466 9469 9472 9475 9477 9480 9483 9486 9489 9492 9495 9498 9501 9504 9506 9509 9512 9515 9518 9521 9524 9527 9530 9533 9536 9539 9542 9545 9548 9551 9554 9557 9560 9563 9566 9569 9572 9575 9578 9580 9583 9586 9589 9592 9595 9598 9601 9604 9607 9610 9612 9615 9618 9621 9624 9627 9630 9633 9635 9638 9641 9644 9647 9649 9652 9655 9658 9661 9664 9667 9670 9673 9676 9679 9682 9685 9688 9691 9694 9697 9700 9703 9706 9709 9712 9715 9718 9721 9724 9727 9730 9733 9736 9739 9742 9745 9748 9751 9754 9757 9760 9763 9766 9769 9772 9775 9778 9781 9784 9787 9790 9792 9795 9798 9801 9804 9807 9810 9813 9816 9819 9822 9825 9828 9831 9834 9836 9839 9842 9845 9848 9851 9854 9857 9860 9862 9865 9868 9871 9874 9876 9878 9881 9884 9886 9888 9891 9894 9897 9900 9903 9906 9909 9912 9915 9918 9921 9924 9927 9930 9933 9936 9938 9941 9944 9947 9950 9953 9956 9959 9962 9965 9968 9971 9973 9976 9979 9982 9985 9988 9991 9994 9997 10000 10002 10004 10007 10010 10012 10015 10018 10021 10024 10027 10030 10032 10035 10038 10041 10044 10046 10049 10052 10055 10058 10061 10064 10067 10070 10073 10076 10079 10082 10084 10087 10090 10093 10096 10098 10101 10104 10107 10110 10113 10116 10119 10122 10125 10127 10129 10132 10135 10138 10141 10143 10146 10149 10152 10155 10158 10161 10163 10166 10169 10172 10175 10178 10181 10184 10187 10190 10193 10196 10199 10202 10205 10208 10210 10213 10216 10219 10222 10225 10228 10231 10234 10237 10240 10243 10246 10249 10252 10255 10258 10261 10264 10267 10270 10273 10276 10279 10282 10285 10288 10291 10293 10296 10299 10302 10304 10307 10310 10313 10316 10319 10322 10325 10328 10331 10333 10336 10339 10342 10345 10348 10351 10354 10357 10360 10362 10365 10368 10371 10374 10377 10380 10383 10386 10389 10392 10395 10398 10401 10404 10407 10409 10412 10415 10418 10421 10424 10427 10430 10432 10435 10438 10441 10444 10447 10450 10453 10456 10459 10462 10465 10468 10471 10474 10477 10480 10483 10486 10489 10492 10495 10498 10501 10504 10507 10510 10513 10516 10519 10522 10524 10527 10530 10533 10536 10538 10541 10544 10547 10550 10553 10555 10558 10560 10563 10566 10569 10572 10575 10578 10580 10583 10586 10589 10591 10594 10597 10600 10603 10606 10609 10612 10615 10618 10621 10624 10627 10630 10633 10636 10639 10642 10645 10648 10651 10654 10657 10660 10663 10666 10669 10672 10675 10678 10680 10683 10686 10689 10692 10695 10697 10700 10703 10706 10709 10712 10715 10718 10720 10723 10726 10729 10732 10735 10738 10741 10743 10746 10748 10751 10754 10757 10760 10763 10765 10767 10770 10773 10775 10778 10781 10783 10786 10788 10790 10792 10795 10797 10800 10802 10804 10806 10809 10812 10814 10816 10819 10822 10824 10827 10830 10833 10836 10839 10841 10844 10847 10849 10852 10854 10857 10860 10863 10866 10869 10871 10874 10877 10879 10882 10884 10887 10889 10891 10894 10897 10900 10903 10906 10908 10911 10914 10916 10919 10922 10925 10928 10931 10934 10936 10939 10942 10945 10948 10951 10954 10957 10960 10963 10966 10969 10972 10975 10978 10981 10983 10986 10989 10992 10995 10998 11000 11003 11005 11007 11010 11013 11016 11019 11022 11025 11028 11031 11034 11037 11040 11043 11046 11049 11052 11055 11058 11061 11064 11067 11070 11072 11075 11078 11081 11083 11086 11089 11091 11094 11097 11100 11103 11106 11109 11112 11115 11118 11121 11123 11126 11128 11131 11134 11137 11140 11143 11145 11148 11151 11154 11157 11159 11162 11165 11168 11171 11174 11177 11180 11183 11186 11189 11192 11195 11198 11201 11204 11207 11210 11213 11216 11219 11222 11225 11228 11231 11234 11237 11240 11243 11246 11249 11252 11255 11257 11260 11262 11265 11267 11270 11272 11275 11278 11281 11283 11285 11288 11290 11292 11295 11298 11301 11303 11306 11309 11312 11315 11318 11321 11324 11327 11330 11333 11336 11339 11342 11345 11348 11351 11354 11357 11360 11363 11366 11369 11372 11375 11378 11381 11384 11387 11390 11393 11396 11399 11402 11405 11408 11411 11414 11417 11420 11423 11426 11429 11432 11435 11438 11441 11444 11447 11450 11453 11456 11459 11462 11465 11468 11471 11474 11477 11480 11483 11486 11489 11492 11494 11497 11500 11503 11506 11509 11512 11514 11516 11519 11522 11525 11528 11531 11534 11536 11539 11542 11545 11548 11550 11553 11556 11559 11562 11565 11567 11570 11572 11575 11578 11581 11584 11586 11589 11592 11595 11598 11601 11604 11607 11610 11613 11616 11619 11622 11625 11628 11631 11634 11637 11640 11643 11646 11649 11652 11655 11658 11661 11663 11666 11669 11672 11675 11678 11681 11684 11687 11690 11692 11694 11697 11700 11703 11705 11707 11710 11713 11716 11719 11722 11724 11727 11729 11732 11735 11737 11740 11743 11746 11749 11752 11755 11758 11761 11764 11767 11770 11773 11775 11778 11781 11784 11787 11789 11792 11795 11798 11801 11804 11807 11810 11812 11815 11818 11821 11824 11827 11830 11833 11836 11839 11842 11845 11848 11851 11854 11857 11860 11863 11866 11868 11871 11874 11877 11879 11882 11885 11888 11891 11894 11897 11900 11903 11906 11909 11912 11915 11918 11921 11923 11925 11928 11931 11934 11937 11940 11943 11946 11949 11952 11955 11958 11960 11963 11966 11969 11972 11975 11978 11981 11983 11986 11989 11992 11995 11998 12001 12004 12007 12010 12013 12016 12019 12022 12025 12028 12031 12034 12037 12040 12042 12044 12047 12050 12053 12056 12059 12062 12064 12067 12070 12073 12076 12079 12082 12085 12088 12091 12094 12097 12100 12103 12106 12109 12112 12115 12118 12121 12124 12127 12130 12133 12136 12139 12142 12145 12148 12150 12152 12155 12158 12161 12164 12167 12169 12172 12175 12177 12180 12183 12186 12189 12191 12194 12197 12200 12202 12204 12207 12209 12211 12214 12217 12220 12223 12225 12228 12231 12234 12237 12240 12243 12246 12248 12251 12253 12256 12258 12261 12264 12266 12268 12271 12274 12277 12279 12282 12284 12287 12290 12293 12296 12299 12302 12305 12308 12311 12313 12316 12319 12322 12325 12328 12330 12333 12336 12339 12342 12345 12348 12351 12354 12357 12360 12363 12366 12368 12371 12374 12377 12380 12383 12386 12389 12392 12395 12397 12400 12403 12406 12409 12412 12415 12418 12421 12423 12425 12427 12430 12433 12436 12438 12441 12444 12446 12449 12452 12455 12458 12461 12464 12466 12469 12472 12475 12477 12479 12482 12484 12487 12490 12493 12496 12498 12500 12503 12506 12508 12511 12514 12516 12519 12522 12525 12528 12531 12534 12537 12539 12542 12544 12547 12549 12551 12554 12557 12560 12563 12566 12569 12572 12575 12577 12580 12583 12586 12589 12592 12594 12597 12600 12603 12606 12609 12612 12615 12618 12621 12624 12627 12630 12633 12636 12639 12642 12645 12648 12651 12654 12657 12660 12663 12666 12669 12672 12675 12678 12681 12684 12687 12690 12693 12696 12699 12702 12705 12708 12711 12714 12717 12720 12723 12726 12729 12732 12735 12738 12741 12744 12747 12750 12753 12756 12759 12762 12765 12768 12771 12774 12777 12780 12783 12786 12788 12791 12794 12797 12800 12803 12806 12809 12812 12815 12818 12821 12824 12827 12830 12833 12836 12839 12842 12845 12848 12851 12854 12857 12860 12863 12866 12869 12872 12875 12878 12880 12883 12886 12889 12891 12893 12895 12898 12901 12904 12907 12910 12913 12916 12918 12920 12923 12926 12929 12931 12934 12936 12939 12942 12945 12948 12951 12954 12956 12959 12962 12964 12967 12970 12973 12976 12979 12982 12985 12988 12991 12994 12997 13000 13002 13005 13008 13011 13014 13017 13020 13023 13025 13028 13030 13032 13035 13038 13041 13044 13046 13049 13051 13053 13056 13059 13062 13065 13067 13070 13073 13075 13077 13080 13083 13086 13089 13091 13094 13097 13099 13102 13105 13108 13111 13114 13117 13120 13123 13126 13129 13131 13134 13136 13139 13142 13145 13148 13150 13153 13156 13159 13162 13165 13167 13170 13173 13176 13179 13182 13185 13188 13191 13194 13197 13200 13203 13206 13209 13212 13214 13217 13220 13223 13225 13227 13230 13233 13236 13239 13242 13245 13248 13251 13254 13257 13260 13263 13266 13268 13271 13273 13276 13279 13282 13284 13287 13290 13293 13295 13298 13301 13304 13307 13309 13312 13315 13318 13321 13324 13326 13329 13332 13335 13338 13341 13344 13346 13349 13352 13355 13358 13361 13364 13367 13370 13373 13376 13378 13380 13383 13385 13388 13391 13394 13397 13399 13402 13405 13407 13410 13413 13415 13418 13421 13424 13426 13428 13431 13433 13435 13438 13441 13444 13447 13450 13452 13455 13458 13460 13463 13466 13469 13471 13474 13476 13479 13482 13485 13488 13491 13494 13497 13499 13502 13505 13508 13511 13514 13517 13520 13523 13526 13529 13532 13535 13537 13540 13543 13546 13549 13552 13554 13557 13560 13562 13565 13567 13570 13573 13575 13578 13580 13583 13586 13588 13590 13593 13596 13599 13601 13603 13606 13609 13611 13614 13617 13620 13623 13626 13628 13630 13632 13634 13636 13638 13641 13644 13647 13649 13652 13654 13656 13658 13661 13664 13667 13669 13672 13675 13677 13680 13683 13686 13688 13691 13694 13696 13699 13702 13705 13708 13710 13712 13715 13718 13721 13724 13727 13729 13732 13735 13738 13741 13744 13747 13749 13751 13754 13757 13759 13762 13764 13767 13770 13773 13776 13779 13782 13785 13788 13791 13794 13797 13800 13803 13806 13809 13812 13815 13818 13821 13823 13826 13829 13832 13835 13837 13840 13842 13845 13848 13851 13853 13856 13859 13862 13864 13867 13870 13873 13876 13879 13882 13885 13888 13891 13894 13897 13900 13903 13906 13908 13910 13913 13916 13919 13922 13925 13928 13931 13934 13937 13940 13943 13946 13949 13952 13955 13957 13960 13963 13966 13969 13971 13974 13976 13979 13982 13985 13988 13991 13994 13997 14000 14003 14006 14009 14012 14015 14018 14021 14024 14027 14030 14033 14036 14039 14042 14045 14048 14051 14054 14057 14060 14063 14066 14069 14072 14075 14078 14080 14082 14085 14088 14090 14093 14095 14098 14100 14102 14105 14108 14111 14114 14117 14120 14122 14124 14127 14130 14132 14135 14138 14141 14143 14146 14149 14152 14155 14158 14161 14164 14166 14169 14172 14175 14178 14181 14184 14186 14189 14192 14195 14198 14201 14204 14207 14210 14213 14216 14219 14221 14224 14227 14230 14233 14236 14239 14242 14245 14248 14250 14253 14256 14259 14262 14264 14267 14270 14273 14276 14279 14281 14284 14287 14290 14293 14296 14299 14302 14305 14308 14311 14314 14317 14320 14323 14326 14329 14332 14335 14338 14341 14344 14347 14350 14353 14356 14358 14361 14364 14367 14370 14373 14376 14379 14382 14385 14388 14391 14394 14397 14400 14402 14405 14408 14411 14414 14417 14420 14422 14425 14427 14430 14433 14436 14439 14441 14444 14446 14449 14452 14455 14458 14461 14464 14467 14469 14472 14475 14478 14481 14484 14487 14490 14493 14495 14498 14501 14504 14507 14510 14513 14516 14518 14521 14524 14527 14530 14533 14536 14539 14542 14545 14548 14551 14554 14557 14560 14562 14565 14568 14571 14574 14576 14578 14581 14584 14587 14590 14593 14596 14599 14601 14604 14606 14609 14611 14614 14617 14619 14621 14624 14626 14629 14632 14635 14638 14641 14644 14647 14650 14652 14655 14657 14660 14663 14666 14669 14671 14674 14677 14679 14682 14685 14688 14691 14694 14696 14699 14702 14705 14708 14711 14714 14717 14720 14723 14726 14729 14732 14735 14737 14740 14743 14745 14748 14751 14754 14756 14759 14762 14765 14768 14771 14773 14776 14779 14781 14784 14786 14789 14792 14795 14798 14801 14804 14807 14809 14812 14815 14817 14820 14823 14826 14828 14831 14834 14837 14840 14843 14846 14849 14852 14855 14858 14860 14863 14866 14869 14871 14874 14877 14880 14883 14885 14888 14891 14894 14897 14900 14903 14906 14909 14912 14915 14918 14921 14924 14927 14930 14933 14936 14939 14942 14945 14947 14950 14953 14956 14958 14961 14964 14967 14970 14973 14976 14979 14982 14985 14987 14990 14993 14996 14999 15002 15004 15007 15010 15013 15016 15019 15022 15025 15028 15031 15034 15037 15040 15043 15046 15049 15052 15055 15058 15061 15064 15067 15069 15072 15075 15078 15081 15084 15086 15088 15091 15094 15097 15100 15102 15105 15108 15111 15114 15117 15120 15123 15126 15128 15131 15134 15137 15140 15143 15146 15149 15151 15153 15156 15159 15162 15165 15168 15170 15173 15176 15179 15182 15185 15188 15191 15194 15197 15200 15202 15205 15207 15210 15212 15215 15217 15220 15223 15226 15229 15231 15234 15237 15240 15243 15246 15249 15252 15255 15258 15261 15264 15267 15270 15273 15276 15279 15282 15285 15288 15291 15293 15296 15299 15301 15304 15307 15310 15313 15316 15319 15322 15325 15328 15330 15333 15336 15338 15341 15344 15347 15350 15352 15355 15358 15361 15364 15367 15370 15373 15376 15379 15382 15385 15388 15391 15394 15397 15400 15403 15406 15409 15412 15415 15418 15420 15423 15426 15429 15432 15435 15438 15441 15444 15447 15450 15453 15456 15459 15462 15465 15468 15471 15474 15477 15480 15483 15486 15489 15492 15495 15497 15500 15503 15506 15509 15512 15515 15518 15521 15524 15527 15530 15533 15536 15539 15542 15544 15547 15550 15553 15556 15559 15562 15565 15568 15571 15574 15577 15580 15582 15585 15588 15591 15594 15596 15598 15601 15604 15607 15609 15612 15614 15617 15620 15623 15625 15628 15631 15634 15637 15639 15641 15644 15647 15649 15652 15655 15658 15661 15664 15667 15670 15673 15675 15678 15681 15684 15687 15690 15693 15696 15699 15702 15705 15708 15711 15714 15716 15719 15721 15724 15727 15730 15733 15736 15739 15742 15744 15747 15750 15753 15756 15759 15761 15763 15766 15769 15772 15775 15778 15781 15784 15786 15789 15792 15795 15798 15801 15803 15806 15809 15812 15815 15818 15820 15823 15826 15829 15832 15835 15837 15840 15843 15846 15849 15852 15855 15858 15861 15864 15867 15870 15873 15876 15879 15882 15885 15888 15891 15894 15897 15900 15903 15906 15909 15912 15914 15917 15920 15923 15926 15929 15932 15935 15938 15941 15944 15947 15950 15952 15955 15957 15959 15962 15965 15968 15971 15974 15976 15979 15982 15985 15988 15991 15994 15996 15999 16001 16004 16007 16010 16013 16016 16019 16022 16025 16028 16031 16034 16037 16040 16043 16046 16048 16051 16053 16056 16059 16062 16065 16068 16070 16073 16076 16079 16082 16085 16088 16091 16094 16097 16100 16103 16106 16109 16112 16115 16118 16121 16124 16127 16130 16133 16135 16138 16141 16144 16147 16150 16153 16156 16159 16162 16164 16167 16170 16173 16176 16179 16181 16184 16187 16190 16193 16195 16198 16201 16204 16207 16210 16212 16215 16218 16221 16224 16227 16229 16232 16235 16238 16241 16244 16247 16250 16253 16256 16259 16262 16264 16267 16270 16273 16275 16278 16281 16284 16287 16290 16292 16295 16298 16301 16303 16305 16308 16311 16314 16317 16320 16323 16326 16328 16331 16334 16337 16340 16343 16346 16349 16351 16354 16357 16360 16363 16366 16368 16371 16374 16377 16380 16383 16386 16389 16392 16395 16398 16401 16404 16407 16409 16412 16415 16418 16421 16424 16427 16430 16433 16436 16439 16442 16444 16447 16450 16453 16456 16459 16462 16465 16468 16471 16474 16477 16480 16483 16486 16489 16492 16495 16498 16501 16504 16507 16510 16513 16516 16518 16521 16523 16526 16528 16531 16534 16537 16540 16542 16545 16547 16550 16553 16555 16558 16561 16564 16567 16570 16573 16576 16579 16582 16585 16588 16591 16594 16597 16600 16603 16606 16609 16611 16614 16617 16620 16623 16626 16629 16632 16635 16638 16641 16644 16647 16650 16653 16655 16658 16661 16664 16667 16670 16673 16676 16678 16680 16683 16686 16689 16692 16695 16697 16700 16703 16706 16709 16712 16715 16718 16721 16724 16727 16730 16733 16736 16739 16742 16744 16747 16750 16753 16756 16759 16762 16765 16768 16771 16774 16776 16779 16782 16785 16788 16790 16793 16796 16799 16802 16805 16808 16811 16814 16817 16820 16823 16826 16829 16832 16835 16838 16841 16844 16847 16849 16852 16855 16858 16860 16863 16866 16869 16871 16874 16877 16880 16883 16886 16889 16892 16895 16898 16901 16904 16907 16910 16913 16916 16918 16921 16924 16927 16930 16933 16936 16939 16941 16944 16947 16950 16953 16956 16959 16962 16965 16968 16971 16974 16977 16980 16983 16986 16989 16992 16995 16998 17001 17004 17007 17010 17013 17016 17019 17022 17025 17028 17031 17033 17036 17038 17041 17044 17047 17050 17053 17056 17059 17062 17064 17067 17070 17073 17076 17079 17082 17085 17088 17091 17094 17097 17099 17102 17105 17108 17111 17114 17117 17120 17122 17125 17128 17131 17134 17137 17140 17143 17145 17148 17151 17154 17157 17160 17162 17165 17168 17171 17173 17176 17179 17182 17185 17188 17191 17194 17197 17200 17203 17206 17209 17212 17215 17218 17221 17224 17226 17229 17232 17234 17237 17240 17243 17245 17248 17251 17254 17257 17260 17263 17265 17268 17271 17273 17276 17279 17282 17285 17288 17291 17293 17296 17299 17302 17304 17307 17310 17313 17316 17319 17322 17325 17328 17331 17333 17336 17339 17341 17344 17347 17350 17353 17356 17359 17362 17365 17368 17370 17372 17375 17378 17381 17384 17387 17390 17393 17395 17397 17400 17403 17406 17409 17412 17415 17418 17421 17424 17427 17430 17433 17436 17439 17442 17445 17448 17451 17453 17456 17459 17462 17465 17468 17471 17474 17477 17480 17483 17486 17489 17492 17495 17498 17501 17504 17506 17509 17512 17514 17517 17520 17523 17526 17529 17532 17535 17538 17541 17544 17547 17550 17552 17555 17558 17561 17564 17567 17569 17572 17575 17578 17581 17584 17587 17590 17593 17596 17599 17602 17605 17608 17611 17614 17617 17620 17623 17626 17629 17632 17635 17638 17641 17644 17647 17650 17652 17655 17658 17661 17664 17667 17669 17672 17675 17678 17681 17684 17687 17690 17693 17695 17698 17701 17704 17707 17710 17713 17716 17718 17721 17724 17727 17730 17733 17736 17739 17742 17745 17747 17750 17753 17756 17759 17762 17765 17767 17770 17773 17776 17779 17782 17785 17788 17791 17794 17796 17799 17802 17805 17807 17810 17812 17815 17818 17821 17824 17827 17829 17832 17835 17837 17840 17842 17845 17848 17851 17854 17857 17860 17862 17864 17867 17870 17872 17875 17877 17880 17883 17886 17889 17892 17895 17898 17901 17904 17907 17910 17913 17916 17918 17921 17923 17926 17929 17932 17934 17937 17940 17943 17946 17948 17951 17954 17957 17960 17963 17966 17969 17972 17975 17978 17981 17983 17986 17989 17992 17995 17998 18001 18003 18006 18009 18012 18014 18017 18020 18022 18025 18028 18031 18034 18037 18040 18043 18046 18049 18052 18055 18058 18061 18064 18067 18070 18073 18076 18079 18082 18085 18088 18091 18094 18097 18100 18103 18105 18108 18111 18114 18117 18120 18122 18125 18128 18131 18134 18137 18140 18143 18146 18149 18152 18155 18158 18161 18164 18166 18169 18172 18175 18178 18181 18184 18186 18189 18192 18195 18197 18200 18203 18206 18209 18212 18215 18218 18221 18224 18227 18230 18233 18236 18239 18242 18245 18248 18251 18254 18257 18260 18263 18266 18269 18272 18274 18277 18280 18283 18286 18289 18292 18295 18298 18300 18302 18305 18308 18311 18314 18317 18320 18323 18326 18329 18331 18334 18337 18339 18342 18344 18347 18349 18352 18355 18358 18361 18364 18367 18369 18372 18375 18378 18381 18383 18386 18389 18391 18394 18397 18400 18403 18406 18408 18411 18414 18417 18420 18423 18426 18429 18432 18435 18438 18441 18444 18447 18450 18452 18454 18457 18460 18463 18466 18469 18472 18475 18478 18481 18484 18487 18490 18492 18495 18498 18500 18503 18506 18508 18510 18513 18516 18519 18521 18524 18527 18530 18533 18535 18537 18540 18543 18545 18548 18551 18554 18556 18559 18562 18565 18568 18571 18574 18577 18580 18582 18585 18588 18591 18594 18597 18599 18602 18605 18608 18610 18613 18616 18619 18621 18624 18627 18630 18633 18635 18638 18641 18643 18645 18648 18651 18654 18657 18660 18663 18665 18668 18671 18674 18677 18680 18683 18686 18689 18692 18695 18698 18701 18704 18707 18710 18713 18716 18718 18721 18724 18727 18730 18733 18736 18739 18741 18744 18747 18750 18752 18755 18758 18760 18763 18766 18769 18772 18775 18777 18779 18782 18785 18788 18791 18794 18796 18799 18802 18805 18808 18810 18813 18815 18818 18821 18824 18827 18830 18833 18836 18838 18841 18844 18846 18849 18852 18855 18857 18860 18863 18865 18867 18870 18873 18876 18879 18882 18885 18888 18890 18893 18896 18898 18901 18904 18907 18909 18912 18915 18918 18921 18924 18927 18930 18933 18936 18939 18942 18945 18948 18951 18954 18957 18960 18963 18966 18969 18972 18975 18978 18981 18984 18987 18990 18993 18996 18999 19002 19005 19008 19011 19014 19017 19020 19023 19026 19029 19032 19035 19038 19041 19044 19047 19050 19053 19056 19059 19062 19065 19068 19071 19074 19077 19080 19083 19086 19089 19092 19095 19098 19101 19104 19107 19110 19113 19116 19119 19122 19125 19128 19131 19134 19137 19140 19143 19146 19149 19152 19155 19157 19160 19162 19165 19168 19171 19173 19176 19179 19182 19185 19188 19191 19194 19197 19200 19203 19206 19209 19212 19215 19217 19220 19223 19226 19229 19232 19234 19236 19238 19241 19244 19247 19250 19253 19255 19257 19260 19263 19266 19269 19271 19274 19277 19280 19283 19286 19289 19292 19295 19297 19300 19302 19305 19308 19311 19314 19317 19320 19323 19326 19329 19332 19335 19338 19341 19344 19347 19350 19353 19356 19359 19362 19365 19368 19371 19374 19377 19380 19383 19386 19389 19392 19395 19398 19401 19404 19407 19410 19413 19416 19418 19421 19424 19427 19430 19433 19436 19439 19441 19444 19447 19450 19453 19456 19459 19462 19465 19467 19470 19473 19476 19478 19481 19484 19487 19490 19493 19496 19499 19502 19505 19508 19511 19514 19517 19520 19523 19526 19529 19532 19535 19538 19541 19544 19547 19550 19553 19555 19558 19561 19563 19566 19569 19572 19575 19578 19581 19584 19587 19590 19593 19596 19599 19601 19604 19607 19610 19613 19616 19618 19621 19624 19627 19630 19632 19635 19637 19640 19643 19646 19648 19651 19654 19657 19659 19662 19664 19667 19670 19672 19674 19676 19679 19682 19685 19687 19690 19693 19695 19697 19700 19703 19706 19709 19712 19715 19718 19721 19724 19727 19730 19733 19736 19739 19742 19745 19747 19750 19753 19755 19758 19761 19764 19767 19770 19773 19776 19779 19782 19784 19787 19790 19792 19795 19798 19800 19803 19806 19809 19812 19815 19818 19821 19824 19827 19830 19833 19836 19839 19842 19845 19847 19850 19853 19856 19858 19861 19864 19867 19869 19872 19874 19877 19880 19883 19886 19889 19892 19895 19898 19900 19903 19906 19909 19912 19915 19918 19921 19924 19927 19930 19933 19936 19939 19941 19944 19947 19950 19953 19956 19959 19962 19965 19967 19970 19973 19976 19979 19982 19984 19987 19990 19993 19996 19999 20002 20005 20007 20010 20012 20015 20018 20021 20024 20027 20030 20033 20036 20039 20042 20045 20048 20051 20053 20056 20059 20062 20065 20068 20071 20074 20076 20079 20082 20085 20088 20091 20094 20097 20100 20103 20106 20109 20112 20115 20118 20121 20124 20127 20130 20133 20136 20139 20142 20145 20148 20151 20154 20157 20160 20163 20165 20168 20171 20174 20176 20179 20181 20183 20186 20189 20191 20193 20196 20199 20202 20205 20208 20210 20213 20216 20219 20222 20225 20228 20231 20234 20237 20240 20242 20245 20247 20250 20253 20256 20259 20261 20264 20267 20270 20273 20276 20279 20282 20285 20288 20291 20293 20296 20299 20302 20305 20308 20311 20314 20317 20320 20323 20326 20329 20331 20334 20337 20340 20343 20345 20348 20351 20354 20357 20360 20363 20365 20368 20371 20374 20376 20379 20381 20384 20387 20390 20393 20395 20398 20401 20404 20407 20410 20413 20416 20419 20422 20425 20428 20431 20434 20437 20440 20443 20446 20449 20452 20455 20458 20461 20464 20467 20470 20473 20476 20479 20482 20485 20488 20491 20494 20497 20500 20503 20506 20509 20511 20514 20517 20520 20523 20525 20528 20531 20534 20537 20540 20543 20546 20549 20552 20555 20557 20560 20563 20566 20569 20572 20575 20578 20581 20584 20587 20590 20593 20595 20598 20601 20604 20606 20609 20612 20615 20618 20621 20624 20627 20629 20632 20635 20638 20641 20644 20646 20649 20652 20655 20658 20661 20664 20667 20670 20673 20676 20679 20682 20685 20688 20691 20694 20697 20700 20703 20706 20709 20712 20715 20718 20721 20724 20727 20730 20733 20736 20739 20742 20745 20748 20751 20754 20757 20759 20762 20765 20768 20771 20774 20777 20780 20783 20786 20789 20792 20795 20798 20801 20804 20807 20809 20812 20815 20817 20820 20823 20826 20829 20832 20835 20838 20841 20844 20847 20850 20853 20856 20859 20862 20865 20868 20871 20874 20877 20880 20883 20886 20889 20892 20895 20898 20901 20904 20907 20910 20913 20916 20919 20922 20925 20928 20931 20934 20937 20940 20943 20945 20948 20951 20954 20956 20959 20962 20965 20968 20970 20973 20976 20979 20981 20984 20987 20990 20993 20996 20999 21002 21005 21008 21011 21014 21017 21020 21023 21025 21028 21031 21034 21037 21039 21041 21044 21047 21050 21053 21056 21059 21062 21065 21068 21070 21073 21075 21078 21081 21084 21087 21090 21093 21096 21099 21102 21105 21108 21111 21114 21117 21119 21122 21125 21128 21131 21134 21137 21140 21143 21146 21149 21152 21155 21158 21161 21163 21166 21169 21172 21175 21177 21180 21183 21186 21189 21191 21194 21196 21199 21202 21205 21207 21210 21213 21215 21218 21221 21224 21227 21229 21232 21235 21238 21241 21244 21246 21249 21252 21254 21257 21260 21263 21266 21268 21271 21274 21277 21280 21283 21286 21289 21291 21294 21297 21300 21303 21305 21308 21311 21313 21316 21319 21321 21324 21326 21329 21332 21335 21338 21340 21343 21346 21349 21351 21354 21357 21360 21363 21366 21369 21372 21374 21377 21380 21383 21386 21389 21392 21395 21398 21401 21404 21407 21410 21413 21416 21419 21422 21425 21427 21430 21433 21436 21438 21441 21444 21447 21450 21453 21456 21459 21462 21465 21468 21471 21474 21477 21480 21483 21486 21489 21492 21495 21498 21501 21504 21507 21510 21513 21516 21519 21522 21525 21528 21531 21534 21537 21540 21543 21546 21549 21551 21554 21557 21560 21562 21565 21568 21570 21572 21575 21578 21581 21584 21587 21590 21593 21596 21599 21602 21604 21607 21610 21613 21616 21619 21622 21625 21628 21631 21634 21637 21640 21643 21646 21649 21651 21654 21657 21660 21663 21666 21669 21672 21675 21678 21681 21684 21687 21690 21692 21695 21698 21701 21704 21707 21709 21712 21715 21718 21721 21723 21726 21729 21732 21735 21738 21740 21743 21746 21749 21752 21755 21758 21761 21764 21767 21770 21772 21775 21777 21780 21783 21786 21789 21791 21794 21796 21799 21802 21805 21808 21811 21814 21816 21818 21821 21824 21826 21829 21832 21835 21838 21841 21844 21847 21850 21852 21855 21858 21861 21864 21867 21870 21873 21876 21879 21882 21885 21888 21891 21894 21897 21900 21902 21905 21907 21910 21913 21916 21919 21922 21925 21928 21931 21934 21937 21940 21943 21946 21949 21952 21955 21958 21961 21964 21967 21970 21972 21975 21978 21981 21984 21987 21990 21993 21996 21999 22002 22005 22008 22011 22014 22017 22020 22023 22026 22029 22032 22035 22038 22041 22044 22047 22050 22053 22056 22059 22062 22065 22068 22071 22074 22076 22079 22082 22085 22088 22091 22094 22097 22100 22103 22106 22108 22111 22114 22117 22119 22122 22124 22127 22130 22133 22136 22139 22142 22145 22148 22151 22154 22156 22159 22162 22164 22167 22170 22173 22176 22179 22182 22185 22188 22191 22194 22197 22200 22203 22206 22209 22212 22215 22218 22221 22224 22227 22230 22233 22236 22239 22242 22245 22248 22251 22254 22257 22260 22263 22266 22269 22272 22275 22278 22281 22284 22287 22290 22293 22296 22299 22302 22305 22308 22311 22314 22317 22320 22323 22326 22329 22332 22335 22338 22341 22344 22346 22349 22352 22355 22358 22361 22364 22366 22368 22371 22374 22377 22380 22383 22386 22389 22392 22395 22397 22400 22403 22406 22409 22412 22415 22418 22421 22424 22427 22430 22433 22436 22439 22442 22445 22448 22451 22454 22457 22460 22463 22466 22469 22472 22475 22478 22481 22484 22487 22490 22493 22496 22499 22502 22505 22508 22511 22514 22517 22520 22523 22526 22529 22532 22535 22538 22541 22544 22547 22550 22553 22556 22559 22562 22565 22568 22571 22573 22576 22578 22581 22584 22587 22590 22593 22596 22599 22602 22604 22607 22610 22613 22616 22619 22622 22625 22628 22631 22633 22636 22639 22642 22645 22648 22651 22654 22656 22659 22662 22665 22668 22671 22674 22677 22680 22683 22686 22689 22692 22694 22697 22700 22702 22705 22708 22711 22714 22717 22720 22723 22726 22729 22732 22735 22738 22741 22744 22747 22750 22753 22756 22759 22762 22765 22768 22771 22774 22777 22780 22783 22786 22789 22792 22795 22798 22801 22804 22807 22810 22813 22816 22819 22822 22825 22828 22831 22834 22837 22840 22843 22845 22848 22851 22854 22857 22859 22862 22865 22867 22870 22873 22876 22879 22882 22884 22887 22890 22893 22896 22898 22901 22904 22907 22910 22912 22915 22918 22920 22923 22926 22929 22931 22934 22937 22940 22943 22946 22949 22952 22955 22958 22961 22964 22967 22970 22973 22976 22979 22982 22985 22988 22991 22994 22997 23000 23003 23006 23009 23012 23014 23016 23019 23021 23024 23027 23030 23032 23035 23038 23041 23044 23047 23050 23053 23056 23059 23061 23064 23066 23069 23072 23074 23077 23080 23082 23085 23088 23091 23094 23097 23100 23103 23106 23109 23112 23115 23118 23121 23124 23127 23130 23133 23136 23139 23142 23145 23148 23151 23154 23157 23159 23162 23165 23168 23171 23174 23176 23179 23182 23185 23188 23191 23194 23197 23199 23201 23204 23207 23210 23212 23215 23218 23221 23224 23226 23229 23232 23235 23237 23240 23243 23246 23249 23252 23255 23258 23261 23264 23266 23269 23272 23275 23278 23281 23284 23287 23290 23293 23295 23298 23301 23304 23306 23309 23312 23315 23318 23320 23323 23326 23328 23331 23334 23337 23340 23343 23346 23349 23351 23354 23357 23360 23363 23366 23369 23371 23374 23377 23380 23383 23386 23389 23391 23394 23397 23400 23403 23406 23409 23412 23415 23417 23420 23423 23426 23428 23431 23434 23437 23440 23443 23446 23449 23452 23455 23458 23461 23464 23467 23470 23473 23476 23479 23482 23485 23488 23491 23494 23497 23500 23503 23506 23509 23512 23515 23518 23521 23524 23527 23530 23533 23536 23539 23542 23545 23548 23551 23554 23557 23560 23563 23566 23569 23572 23575 23578 23581 23584 23587 23589 23592 23595 23597 23600 23602 23605 23608 23610 23613 23616 23619 23622 23625 23628 23631 23634 23637 23639 23642 23645 23648 23651 23654 23657 23659 23662 23665 23668 23671 23674 23677 23679 23682 23684 23687 23690 23692 23695 23698 23700 23703 23706 23708 23711 23714 23717 23720 23723 23726 23729 23732 23735 23738 23741 23744 23747 23749 23752 23754 23757 23760 23762 23765 23768 23771 23774 23777 23779 23782 23785 23788 23791 23794 23797 23800 23803 23806 23809 23812 23815 23818 23821 23824 23826 23829 23832 23834 23837 23840 23843 23846 23848 23851 23854 23857 23860 23863 23866 23869 23872 23875 23877 23880 23883 23886 23889 23892 23895 23898 23901 23904 23907 23909 23912 23915 23918 23921 23924 23926 23928 23931 23934 23937 23940 23943 23946 23949 23951 23953 23956 23959 23962 23965 23968 23971 23974 23977 23979 23982 23985 23987 23990 23992 23995 23998 24000 24003 24006 24009 24012 24015 24018 24020 24023 24026 24029 24032 24035 24038 24041 24044 24047 24050 24052 24055 24058 24061 24064 24067 24070 24072 24074 24077 24080 24083 24086 24088 24091 24094 24097 24100 24103 24106 24109 24112 24115 24118 24121 24124 24127 24130 24133 24136 24139 24142 24144 24147 24150 24153 24156 24158 24161 24164 24167 24170 24173 24176 24179 24182 24185 24188 24191 24194 24197 24199 24202 24205 24208 24211 24214 24217 24220 24223 24225 24228 24231 24234 24236 24239 24242 24245 24248 24251 24253 24256 24258 24261 24264 24267 24270 24273 24276 24279 24282 24285 24288 24291 24294 24297 24300 24302 24305 24308 24311 24314 24317 24320 24323 24326 24329 24332 24334 24337 24340 24343 24346 24349 24352 24355 24357 24359 24362 24365 24368 24371 24374 24377 24379 24382 24385 24388 24391 24394 24397 24400 24403 24406 24409 24411 24414 24417 24420 24423 24425 24427 24430 24432 24435 24438 24441 24444 24447 24450 24453 24455 24458 24460 24463 24466 24469 24472 24475 24478 24481 24484 24487 24489 24492 24495 24498 24501 24504 24507 24510 24513 24516 24519 24522 24525 24528 24531 24534 24537 24540 24543 24546 24549 24552 24555 24558 24561 24563 24566 24569 24572 24575 24578 24581 24584 24587 24590 24593 24596 24599 24602 24605 24608 24611 24614 24617 24620 24623 24626 24629 24632 24635 24638 24641 24644 24647 24650 24653 24656 24659 24662 24665 24668 24671 24674 24677 24680 24683 24686 24689 24692 24695 24698 24701 24704 24706 24709 24712 24715 24718 24720 24723 24726 24729 24732 24735 24738 24741 24743 24746 24749 24751 24754 24757 24760 24763 24766 24769 24772 24775 24778 24781 24784 24787 24790 24793 24796 24798 24800 24803 24806 24809 24812 24815 24818 24821 24824 24826 24829 24832 24835 24838 24841 24844 24847 24850 24853 24856 24858 24861 24863 24866 24869 24872 24875 24878 24881 24884 24887 24890 24893 24896 24899 24902 24905 24908 24911 24914 24917 24920 24923 24926 24929 24932 24935 24938 24941 24944 24947 24950 24953 24956 24959 24962 24965 24968 24971 24974 24977 24980 24983 24986 24989 24992 24995 24998 25001 25004 25007 25010 25013 25016 25019 25022 25025 25028 25031 25034 25037 25040 25043 25046 25048 25051 25054 25056 25059 25062 25065 25068 25071 25074 25077 25080 25083 25085 25088 25091 25094 25097 25100 25103 25106 25109 25112 25115 25118 25121 25123 25126 25129 25132 25134 25137 25140 25143 25146 25149 25152 25155 25158 25161 25164 25167 25170 25173 25176 25179 25182 25185 25188 25191 25194 25197 25199 25202 25205 25208 25210 25213 25216 25219 25222 25225 25228 25230 25232 25235 25238 25241 25244 25247 25250 25253 25256 25259 25262 25265 25268 25271 25274 25277 25280 25283 25286 25289 25292 25295 25298 25301 25304 25307 25310 25313 25316 25319 25322 25325 25328 25331 25334 25337 25339 25342 25345 25348 25351 25354 25357 25360 25363 25366 25369 25372 25375 25378 25381 25384 25387 25390 25393 25396 25399 25402 25405 25408 25411 25413 25416 25419 25422 25425 25428 25431 25434 25437 25440 25443 25446 25449 25452 25454 25456 25459 25462 25465 25467 25469 25472 25475 25478 25481 25484 25487 25490 25493 25496 25499 25502 25505 25508 25510 25513 25516 25519 25522 25524 25527 25530 25533 25536 25539 25541 25544 25547 25550 25553 25556 25559 25562 25565 25567 25570 25573 25576 25578 25581 25584 25586 25589 25592 25594 25597 25600 25603 25605 25608 25611 25613 25616 25619 25622 25625 25628 25631 25633 25636 25639 25642 25645 25647 25650 25653 25656 25659 25662 25665 25668 25671 25674 25677 25680 25682 25685 25688 25691 25694 25697 25700 25703 25706 25709 25712 25715 25718 25721 25724 25727 25730 25733 25736 25739 25742 25745 25748 25751 25754 25756 25759 25761 25763 25766 25769 25772 25774 25777 25780 25783 25786 25788 25791 25794 25797 25800 25803 25806 25809 25812 25814 25817 25820 25823 25825 25828 25831 25834 25837 25840 25843 25846 25849 25852 25855 25858 25861 25864 25867 25870 25873 25876 25879 25882 25885 25887 25890 25893 25896 25899 25902 25905 25908 25911 25914 25917 25920 25923 25925 25928 25931 25934 25937 25940 25943 25945 25948 25950 25952 25955 25958 25961 25964 25967 25970 25973 25976 25979 25982 25984 25987 25990 25993 25996 25998 26001 26004 26007 26009 26012 26015 26017 26020 26023 26026 26029 26032 26035 26038 26041 26044 26047 26049 26052 26054 26057 26060 26063 26065 26068 26070 26073 26076 26079 26082 26084 26086 26088 26091 26094 26097 26100 26103 26106 26108 26111 26114 26117 26120 26123 26126 26129 26131 26134 26137 26140 26143 26146 26149 26152 26155 26158 26161 26164 26167 26170 26173 26175 26178 26180 26183 26186 26189 26192 26195 26198 26200 26203 26206 26209 26212 26214 26217 26220 26222 26225 26228 26231 26233 26236 26238 26241 26244 26246 26249 26252 26255 26258 26261 26263 26266 26268 26271 26274 26277 26280 26283 26286 26289 26292 26295 26298 26300 26303 26305 26308 26311 26314 26317 26320 26322 26324 26327 26329 26332 26335 26338 26340 26342 26344 26346 26349 26352 26355 26357 26360 26362 26365 26367 26369 26372 26375 26378 26380 26383 26386 26389 26391 26393 26396 26398 26401 26404 26406 26409 26412 26415 26418 26421 26424 26427 26430 26433 26436 26439 26442 26445 26448 26451 26454 26457 26460 26463 26466 26469 26471 26474 26477 26480 26483 26485 26488 26490 26493 26495 26498 26501 26504 26507 26510 26512 26514 26517 26519 26522 26525 26527 26530 26533 26536 26539 26542 26544 26547 26550 26552 26555 26558 26561 26563 26565 26568 26571 26574 26576 26579 26581 26583 26586 26589 26591 26594 26596 26599 26602 26604 26607 26609 26612 26615 26618 26621 26624 26627 26629 26632 26635 26638 26640 26643 26646 26649 26652 26655 26658 26661 26664 26667 26670 26673 26676 26679 26682 26685 26688 26691 26694 26697 26700 26703 26706 26709 26712 26715 26718 26721 26724 26726 26729 26732 26735 26737 26740 26742 26745 26748 26750 26753 26756 26759 26762 26765 26768 26771 26774 26777 26780 26782 26785 26788 26791 26794 26797 26800 26803 26806 26809 26812 26815 26818 26821 26824 26826 26828 26831 26834 26837 26840 26843 26845 26847 26850 26853 26855 26857 26860 26863 26866 26869 26872 26875 26878 26881 26884 26887 26890 26893 26896 26899 26902 26905 26908 26911 26914 26916 26919 26922 26925 26928 26931 26934 26937 26940 26942 26945 26948 26951 26954 26957 26960 26963 26966 26969 26972 26975 26977 26979 26982 26985 26988 26991 26994 26997 27000 27003 27006 27009 27012 27015 27018 27021 27024 27027 27030 27033 27036 27039 27042 27045 27048 27051 27054 27057 27060 27063 27066 27069 27072 27075 27078 27080 27083 27086 27088 27091 27094 27097 27100 27103 27106 27109 27112 27115 27118 27121 27124 27127 27130 27133 27136 27139 27142 27145 27148 27151 27154 27157 27160 27163 27166 27169 27172 27175 27178 27181 27184 27187 27190 27193 27195 27198 27201 27204 27207 27210 27213 27216 27219 27222 27225 27227 27230 27233 27236 27239 27242 27245 27248 27250 27253 27256 27259 27262 27265 27268 27271 27274 27277 27280 27283 27286 27289 27292 27295 27298 27301 27304 27307 27310 27313 27316 27319 27322 27325 27328 27331 27334 27337 27340 27343 27346 27349 27352 27355 27358 27361 27364 27367 27369 27372 27375 27378 27381 27383 27386 27389 27392 27395 27398 27401 27404 27407 27410 27413 27416 27419 27422 27424 27427 27430 27433 27436 27439 27442 27444 27447 27450 27452 27454 27457 27460 27462 27464 27467 27470 27473 27476 27478 27480 27483 27486 27489 27492 27494 27496 27499 27502 27505 27508 27511 27514 27517 27519 27522 27525 27528 27531 27534 27537 27540 27543 27546 27548 27551 27554 27557 27559 27562 27564 27567 27569 27572 27575 27577 27580 27583 27585 27588 27591 27594 27597 27599 27602 27605 27608 27611 27614 27617 27620 27623 27625 27628 27631 27634 27637 27640 27643 27645 27648 27651 27654 27657 27660 27663 27666 27669 27672 27675 27678 27680 27683 27686 27689 27692 27695 27698 27701 27704 27707 27710 27713 27716 27719 27722 27724 27727 27730 27733 27736 27739 27742 27744 27747 27750 27752 27755 27758 27761 27764 27767 27770 27773 27776 27779 27782 27785 27788 27791 27794 27797 27800 27803 27806 27808 27811 27814 27817 27820 27823 27826 27829 27831 27834 27837 27840 27843 27846 27849 27852 27855 27858 27861 27863 27866 27869 27872 27874 27877 27880 27882 27885 27887 27890 27893 27896 27899 27901 27903 27906 27909 27912 27915 27918 27920 27922 27925 27927 27929 27932 27934 27936 27939 27942 27945 27947 27950 27953 27956 27959 27962 27965 27967 27970 27973 27975 27977 27980 27983 27986 27989 27992 27995 27998 28001 28004 28007 28009 28011 28014 28017 28020 28022 28025 28028 28031 28033 28036 28039 28042 28045 28048 28051 28054 28057 28060 28063 28066 28069 28072 28075 28078 28081 28084 28087 28089 28092 28095 28097 28100 28103 28105 28107 28110 28113 28116 28118 28121 28124 28127 28130 28132 28135 28138 28141 28144 28147 28150 28153 28156 28159 28161 28164 28167 28169 28172 28175 28178 28181 28184 28187 28190 28193 28196 28198 28200 28203 28206 28209 28212 28215 28218 28220 28223 28226 28228 28231 28234 28237 28240 28243 28246 28249 28252 28255 28258 28261 28263 28266 28269 28272 28275 28278 28281 28283 28286 28289 28292 28295 28298 28301 28304 28307 28309 28312 28314 28317 28320 28323 28326 28328 28330 28333 28336 28338 28341 28344 28347 28350 28353 28356 28359 28362 28365 28368 28371 28374 28377 28380 28383 28386 28389 28392 28395 28398 28400 28403 28405 28408 28411 28414 28417 28420 28423 28426 28428 28431 28434 28437 28440 28443 28446 28449 28452 28455 28458 28461 28464 28467 28470 28473 28476 28479 28482 28485 28488 28490 28492 28495 28498 28501 28504 28507 28510 28513 28515 28518 28521 28523 28526 28528 28531 28534 28536 28538 28541 28544 28547 28550 28552 28555 28558 28560 28563 28566 28569 28572 28574 28577 28579 28582 28585 28588 28591 28594 28597 28600 28603 28606 28609 28612 28615 28618 28621 28624 28627 28630 28632 28635 28638 28641 28643 28646 28649 28652 28654 28657 28659 28661 28664 28667 28670 28673 28675 28678 28681 28684 28686 28689 28691 28693 28695 28698 28701 28704 28707 28710 28712 28715 28718 28721 28724 28727 28730 28733 28736 28739 28742 28745 28748 28750 28753 28756 28759 28762 28764 28767 28770 28773 28776 28779 28782 28785 28788 28791 28794 28797 28800 28803 28806 28809 28812 28815 28817 28820 28823 28826 28829 28832 28835 28838 28841 28843 28846 28848 28851 28854 28857 28860 28863 28865 28868 28871 28874 28877 28879 28882 28884 28887 28889 28892 28894 28897 28900 28902 28905 28908 28911 28914 28917 28920 28923 28926 28929 28932 28935 28938 28941 28944 28947 28950 28953 28956 28958 28961 28964 28967 28970 28973 28976 28979 28981 28984 28987 28990 28993 28996 28998 29000 29003 29006 29009 29012 29015 29018 29021 29024 29027 29030 29033 29036 29039 29042 29045 29048 29050 29053 29056 29059 29062 29065 29068 29071 29074 29076 29079 29082 29084 29087 29090 29093 29096 29099 29102 29105 29108 29110 29113 29116 29119 29121 29124 29127 29130 29133 29135 29138 29141 29144 29147 29150 29153 29156 29159 29162 29165 29168 29171 29174 29177 29180 29183 29186 29189 29192 29195 29197 29200 29203 29206 29209 29212 29215 29218 29220 29223 29226 29229 29232 29235 29237 29240 29243 29246 29249 29252 29255 29258 29261 29264 29267 29270 29273 29276 29279 29282 29285 29288 29291 29294 29297 29300 29303 29306 29309 29312 29315 29317 29320 29323 29325 29327 29330 29333 29335 29338 29341 29344 29347 29349 29352 29355 29358 29361 29364 29367 29370 29373 29375 29377 29380 29383 29386 29389 29392 29394 29397 29400 29403 29405 29408 29411 29413 29416 29418 29421 29424 29427 29430 29433 29435 29438 29440 29443 29446 29449 29452 29455 29458 29461 29464 29467 29470 29473 29476 29479 29482 29485 29488 29491 29494 29497 29500 29503 29506 29508 29511 29514 29517 29520 29523 29525 29528 29531 29534 29537 29539 29542 29545 29548 29551 29554 29557 29560 29563 29566 29568 29571 29574 29577 29580 29582 29584 29587 29590 29593 29596 29599 29602 29605 29607 29609 29612 29615 29618 29621 29624 29626 29628 29630 29633 29635 29638 29641 29643 29646 29649 29652 29654 29657 29660 29662 29665 29668 29671 29673 29676 29679 29682 29685 29687 29690 29693 29695 29698 29701 29704 29707 29710 29713 29715 29718 29721 29724 29726 29729 29732 29735 29738 29741 29744 29747 29750 29753 29756 29759 29761 29764 29767 29770 29773 29776 29779 29782 29785 29788 29791 29794 29797 29800 29803 29806 29809 29812 29815 29818 29821 29824 29827 29830 29833 29836 29839 29841 29843 29846 29849 29852 29854 29857 29859 29862 29865 29868 29871 29874 29877 29880 29882 29885 29888 29891 29894 29897 29900 29903 29906 29909 29912 29915 29918 29921 29924 29927 29930 29933 29936 29938 29940 29943 29945 29948 29951 29954 29957 29960 29962 29965 29968 29970 29973 29976 29979 29982 29985 29988 29991 29994 29997 29999 30002 30005 30008 30011 30014 30017 30020 30022 30025 30028 30030 30033 30035 30038 30041 30044 30046 30049 30052 30054 30057 30060 30063 30066 30069 30072 30075 30077 30080 30083 30086 30089 30091 30094 30097 30100 30103 30105 30108 30111 30113 30116 30119 30122 30125 30128 30131 30134 30137 30140 30142 30145 30148 30151 30153 30156 30159 30162 30165 30168 30171 30174 30176 30178 30181 30183 30186 30189 30192 30195 30198 30201 30204 30207 30210 30213 30216 30218 30221 30224 30227 30230 30233 30236 30238 30241 30244 30247 30250 30253 30256 30258 30261 30264 30267 30270 30273 30276 30279 30282 30285 30288 30291 30294 30297 30300 30303 30306 30309 30312 30315 30318 30321 30324 30327 30330 30333 30336 30339 30342 30344 30347 30350 30353 30356 30358 30361 30364 30367 30370 30373 30375 30378 30381 30384 30387 30390 30393 30396 30398 30401 30404 30407 30410 30413 30416 30419 30422 30425 30428 30431 30434 30437 30440 30443 30445 30448 30451 30453 30456 30459 30462 30464 30467 30470 30472 30475 30477 30480 30483 30486 30489 30492 30494 30497 30500 30503 30506 30508 30511 30514 30516 30518 30521 30524 30526 30528 30530 30533 30536 30539 30542 30544 30547 30549 30551 30554 30556 30559 30562 30565 30568 30571 30574 30577 30580 30583 30586 30588 30591 30594 30597 30600 30603 30606 30609 30612 30614 30616 30619 30621 30624 30627 30630 30633 30635 30638 30641 30643 30646 30649 30652 30655 30657 30660 30662 30665 30668 30670 30673 30676 30679 30682 30685 30688 30690 30693 30696 30699 30701 30703 30706 30709 30712 30715 30718 30721 30724 30727 30730 30733 30736 30739 30742 30745 30748 30751 30754 30756 30759 30761 30764 30767 30770 30773 30776 30779 30782 30785 30788 30791 30794 30797 30800 30803 30806 30808 30811 30814 30816 30819 30822 30825 30828 30831 30834 30837 30840 30842 30844 30847 30850 30853 30856 30859 30862 30865 30868 30871 30874 30877 30880 30883 30886 30889 30892 30895 30898 30900 30903 30905 30908 30911 30914 30917 30919 30922 30924 30927 30930 30933 30936 30939 30942 30945 30948 30951 30953 30956 30959 30962 30965 30968 30971 30974 30977 30980 30983 30986 30989 30992 30994 30997 30999 31002 31004 31007 31009 31012 31015 31018 31021 31024 31026 31029 31032 31035 31038 31041 31044 31046 31049 31052 31055 31058 31061 31064 31067 31070 31072 31074 31077 31080 31083 31085 31088 31091 31094 31097 31100 31102 31105 31108 31111 31113 31116 31119 31122 31125 31127 31130 31133 31136 31139 31142 31145 31148 31151 31154 31157 31160 31163 31166 31169 31172 31175 31178 31181 31184 31187 31190 31193 31196 31199 31202 31205 31208 31210 31213 31216 31219 31221 31224 31227 31230 31232 31235 31238 31241 31244 31247 31250 31252 31255 31258 31261 31264 31267 31270 31273 31276 31278 31281 31284 31287 31290 31293 31296 31298 31301 31304 31306 31309 31312 31315 31318 31321 31324 31327 31330 31332 31335 31337 31339 31342 31345 31348 31351 31354 31357 31360 31363 31366 31369 31372 31375 31378 31381 31384 31387 31390 31393 31396 31399 31402 31405 31408 31411 31414 31416 31419 31422 31425 31427 31429 31432 31435 31438 31441 31443 31446 31448 31450 31453 31456 31458 31460 
</DataArray>
<DataArray type="UInt32" Name="types" format="ascii">
5 5 5 5 5 5 3 5 5 5 5 5 3 5 5 3 5 5 5 3 5 5 5 5 5 5 5 5 5 5 5 5 5 5 5 5 5 5 5 5 5 5 5 5 5 5 5 5 5 5 3 5 3 5 5 5 3 5 5 5 5 5 5 5 3 5 5 3 5 5 5 5 5 5 5 3 5 5 5 5 3 5 5 5 5 5 3 5 5 5 3 5 5 5 5 5 5 5 5 5 5 5 5 5 5 5 5 5 3 5 5 5 5 3 5 5 5 5 5 5 3 5 5 5 3 5 3 5 3 5 5 3 5 5 5 5 5 5 5 3 5 5 5 5 5 5 5 5 5 5 5 5 3 5 5 5 5 5 5 5 3 5 5 5 5 5 5 5 5 3 5 5 5 5 5 5 3 5 5 5 5 5 3 5 3 5 5 5 5 5 3 5 3 5 3 3 5 5 3 5 5 5 5 5 5 5 5 5 5 5 5 5 5 5 5 5 5 5 5 5 5 5 5 5 5 5 5 5 5 5 5 5 5 5 5 5 3 5 3 5 5 5 5 5 5 5 5 5 3 5 3 5 5 5 5 5 3 5 5 5 5 3 5 5 5 5 5 5 5 5 5 5 5 3 5 5 3 5 5 5 5 5 5 5 5 5 5 5 5 5 5 5 5 5 5 5 5 5 5 5 5 5 5 5 5 5 5 5 5 5 5 5 5 5 5 5 5 5 5 3 5 5 5 3 5 5 5 3 5 5 5 5 3 5 5 5 5 3 5 5 5 5 5 5 5 5 5 5 5 3 5 5 5 5 5 5 5 5 5 5 5 5 5 5 5 5 5 5 5 5 5 5 5 5 3 3 5 5 5 5 5 5 5 5 5 5 3 5 5 5 5 5 5 5 5 5 5 5 5 5 5 5 5 5 5 5 5 5 5 5 3 5 5 5 3 5 5 5 5 5 5 5 3 5 5 5 5 5 5 5 5 5 3 5 5 5 3 5 5 5 5 5 5 5 3 5 5 5 5 5 5 5 5 5 5 5 5 5 5 5 5 5 5 3 5 5 5 5 5 5 5 5 5 5 5 5 5 5 5 5 5 5 5 5 3 5 5 5 3 5 5 3 5 3 5 5 5 3 5 5 5 5 3 5 5 5 3 5 5 5 5 5 3 5 5 5 5 5 5 5 5 3 5 5 5 5 5 5 5 5 5 5 5 5 5 5 5 5 5 5 5 5 5 5 5 5 3 5 3 5 5 5 5 5 5 5 5 3 5 5 5 5 5 3 5 5 5 5 5 5 3 5 3 5 5 5 5 5 5 5 5 5 5 5 5 5 5 5 5 5 5 5 5 5 5 3 3 5 5 5 3 5 5 5 5 3 5 5 5 5 5 5 5 5 3 5 5 5 3 5 5 5 5 5 5 5 5 3 3 5 3 5 5 3 5 3 5 5 5 5 5 5 3 5 5 5 5 5 3 5 5 3 5 5 3 5 5 5 3 5 5 5 5 5 5 5 5 5 5 5 5 5 5 3 5 5 5 5 5 3 5 5 5 3 5 5 3 3 5 5 5 5 5 5 5 3 5 5 5 5 3 5 5 5 5 3 5 5 5 5 5 5 5 5 5 3 5 5 5 5 5 5 3 5 5 3 5 5 5 5 5 3 5 5 3 5 5 5 5 5 5 5 5 3 3 5 5 5 5 5 5 3 5 5 5 5 5 5 3 5 5 5 5 5 5 3 5 5 5 5 5 5 5 5 5 5 3 5 5 5 5 5 3 5 5 3 5 5 5 5 5 5 3 5 3 5 5 5 3 5 5 3 5 5 5 5 5 5 5 5 5 5 5 5 5 3 5 5 5 3 5 5 5 5 5 5 5 5 5 5 3 5 5 5 5 5 5 5 5 5 5 5 5 5 5 5 5 5 5 3 5 5 3 5 5 5 5 5 5 5 5 5 5 5 5 5 5 5 5 5 3 5 5 5 5 5 5 5 5 5 5 5 5 5 3 5 5 5 5 5 5 5 5 5 5 5 5 5 5 5 5 3 5 5 5 3 5 5 5 5 5 5 5 3 5 5 3 5 3 5 3 5 3 5 5 5 5 3 5 5 5 5 5 5 3 5 5 3 5 5 5 5 5 3 3 5 5 5 5 5 5 5 5 5 5 5 5 5 5 5 5 5 5 5 5 5 5 5 5 3 5 5 5 5 5 5 5 5 5 5 5 5 5 5 5 5 5 5 5 5 5 5 5 5 5 5 5 5 5 3 5 5 5 5 5 5 5 5 5 5 5 3 5 5 5 5 5 5 3 5 5 3 5 3 5 5 5 3 5 5 5 3 5 5 3 5 3 5 5 3 5 5 3 5 3 5 5 5 5 5 3 5 3 5 5 5 5 3 3 5 5 3 5 5 3 5 3 5 5 3 5 5 5 3 5 5 3 3 5 5 5 3 3 5 5 5 5 5 5 5 5 3 5 3 5 3 5 3 5 3 5 3 5 5 5 3 5 5 3 5 5 3 5 3 3 5 3 3 5 5 3 5 3 5 5 5 5 5 5 5 3 5 5 5 5 3 5 5 5 5 5 5 5 5 5 3 5 3 5 5 5 5 5 5 5 5 5 5 5 5 5 3 5 3 5 5 3 5 5 5 3 5 5 5 5 5 5 5 3 5 5 5 5 5 3 3 5 5 5 5 5 5 5 3 5 5 5 3 5 5 5 5 5 5 5 5 5 3 5 5 5 5 5 5 5 5 5 5 5 3 5 5 5 5 5 5 3 5 5 5 5 3 5 5 5 5 5 5 5 5 5 5 5 5 5 5 5 5 5 5 5 3 5 5 5 5 3 5 5 5 5 5 5 5 5 5 5 5 5 5 5 5 3 5 5 3 5 3 5 5 5 5 5 5 3 5 5 5 5 5 3 5 5 5 5 5 3 3 5 5 5 5 5 5 5 5 5 5 5 5 5 5 5 5 5 5 5 5 5 3 5 5 5 5 5 5 5 5 5 5 5 3 5 3 5 5 5 5 3 5 5 3 5 5 3 5 5 3 5 5 5 5 5 5 3 5 5 5 5 5 5 5 3 5 5 3 5 5 3 5 5 5 5 5 3 5 5 5 5 5 5 5 5 5 5 5 5 3 5 5 5 5 5 5 5 5 5 5 5 5 5 5 3 3 5 5 3 5 3 5 3 3 5 5 5 5 3 3 3 5 5 3 5 5 3 5 5 5 5 3 5 5 5 5 5 5 5 3 5 5 3 3 5 5 3 5 3 5 5 5 5 5 5 5 5 5 5 5 5 5 5 5 5 5 5 5 5 5 3 3 5 5 5 5 5 5 5 5 5 5 3 5 5 5 5 3 5 5 5 5 5 5 3 5 5 5 3 5 5 5 5 5 5 3 5 5 5 5 5 5 3 5 5 3 5 5 5 5 5 5 5 5 5 5 5 5 5 5 5 5 5 5 5 5 5 5 5 5 3 5 5 5 5 5 5 5 5 5 5 5 5 5 3 5 3 5 5 5 5 5 5 5 5 5 5 5 5 5 5 5 5 5 3 5 5 5 3 5 5 5 3 5 5 5 5 3 5 5 5 5 5 5 5 5 5 5 5 5 5 5 5 5 5 5 5 5 5 5 5 5 5 5 5 5 5 5 5 5 5 5 5 5 5 3 5 5 5 5 5 5 5 3 5 5 3 5 3 5 5 5 5 5 3 5 5 5 3 5 5 5 5 5 5 5 5 5 5 5 5 5 5 5 5 5 5 5 5 3 5 5 5 5 5 5 5 5 5 5 5 5 5 5 5 5 5 5 5 5 5 5 5 5 5 5 5 3 3 5 5 5 5 5 5 3 5 5 5 5 5 5 5 3 3 5 5 3 3 5 5 5 5 3 3 5 5 5 5 5 3 5 5 5 3 5 5 5 5 5 5 5 5 5 3 5 5 5 3 5 5 3 5 3 5 3 5 3 3 5 5 3 3 5 5 5 5 5 5 3 5 3 5 5 5 5 3 5 5 5 5 5 5 5 3 5 3 5 5 5 5 5 5 5 5 5 5 5 5 5 3 5 3 5 5 5 5 5 5 5 5 5 5 5 5 5 3 5 5 5 5 5 5 5 5 5 5 3 5 5 5 5 5 5 5 5 5 5 5 5 5 5 3 5 3 5 5 5 3 5 5 5 5 5 5 5 5 5 5 5 5 5 5 5 3 3 5 5 5 5 5 5 5 5 5 5 5 5 5 5 3 5 5 5 5 5 3 5 5 5 5 5 5 3 5 5 5 5 5 5 5 5 5 5 5 5 3 5 5 5 5 5 5 3 5 5 5 3 5 5 5 5 5 3 5 5 5 3 5 5 5 5 5 5 5 5 5 3 5 5 5 5 5 5 5 5 5 5 3 5 5 5 3 5 5 5 5 5 5 5 5 5 5 5 5 5 5 5 5 5 5 5 5 5 5 5 3 5 5 5 5 5 5 5 5 5 5 5 5 5 5 5 5 5 5 5 5 5 5 5 5 3 5 5 5 5 5 5 5 3 5 5 5 3 5 5 5 5 5 5 5 5 3 5 3 5 5 3 5 3 5 5 5 5 5 5 3 5 5 5 3 3 5 3 5 5 5 5 5 3 5 5 5 5 5 5 5 5 5 5 5 5 5 5 5 3 5 5 3 5 5 5 3 5 3 5 3 5 3 5 5 3 3 5 5 5 3 5 3 5 5 5 5 5 5 5 5 5 3 5 5 5 3 5 5 5 5 5 5 5 5 5 5 5 3 5 5 5 3 5 5 5 5 5 5 5 5 5 3 5 5 3 5 5 5 3 5 5 3 5 5 5 5 5 5 5 5 5 5 5 5 5 5 5 5 5 5 5 5 5 5 3 5 5 3 5 5 5 5 5 5 5 3 5 5 5 5 5 5 5 5 5 5 5 5 3 5 5 5 3 5 5 3 3 5 3 5 5 5 5 5 3 5 5 5 5 5 3 5 5 5 3 3 5 5 5 3 5 5 5 3 5 5 5 3 3 5 5 3 5 5 5 5 5 5 3 3 5 5 5 5 5 5 5 5 5 5 5 3 5 5 5 5 5 5 5 5 5 5 5 5 5 5 5 5 3 5 5 5 3 5 5 5 5 5 5 5 5 5 5 3 3 5 5 5 5 3 5 5 5 5 5 5 3 5 3 5 5 5 5 5 5 3 3 5 5 5 5 5 5 5 5 3 3 5 5 5 5 5 5 3 5 5 5 5 3 5 3 5 5 5 5 5 3 5 3 3 5 5 3 3 5 5 3 5 3 3 5 5 5 3 3 5 5 5 5 5 5 5 5 5 5 3 5 5 5 3 3 5 3 3 5 5 5 5 5 3 5 3 5 3 5 5 5 3 5 3 3 5 5 3 5 5 3 5 5 5 5 3 5 5 5 5 5 5 5 5 5 5 5 5 3 5 5 5 5 5 3 5 3 5 3 5 3 5 3 5 3 5 5 5 5 5 3 3 5 3 3 3 5 5 5 5 3 5 5 5 5 5 3 5 5 5 5 5 5 3 5 5 5 5 3 5 5 3 5 3 3 5 5 5 5 5 5 3 3 3 3 5 5 3 5 3 5 3 3 5 5 5 5 5 5 5 5 5 5 5 5 3 5 5 3 5 5 5 5 5 5 5 5 5 5 5 3 5 5 5 5 3 5 5 3 5 5 5 3 5 3 5 5 5 5 5 5 5 5 5 3 5 5 5 5 5 3 5 5 5 5 5 5 5 5 5 5 5 5 5 5 5 3 5 5 5 5 3 5 5 5 5 3 5 5 5 5 5 5 5 5 5 5 5 5 5 5 5 5 5 5 3 5 5 5 5 3 5 5 5 5 5 5 5 5 5 5 5 3 5 5 5 3 3 5 5 5 3 3 3 5 3 5 5 3 5 5 3 5 5 3 5 3 5 5 5 5 5 5 5 5 5 5 5 5 5 5 5 5 5 5 5 5 3 3 5 5 5 3 5 3 5 5 5 5 5 5 5 5 5 5 3 5 5 5 5 5 5 5 5 5 3 5 5 5 5 5 5 3 5 5 5 5 5 5 5 5 5 5 5 5 3 5 3 5 5 5 5 5 5 5 5 5 5 5 5 5 5 5 5 5 5 3 5 3 5 3 5 5 3 5 3 5 5 3 5 5 3 5 5 5 5 5 5 3 5 5 3 3 5 5 3 5 5 3 5 3 3 5 5 5 5 5 5 3 5 5 5 5 5 5 5 5 5 5 3 5 5 3 5 5 5 3 5 5 5 5 5 5 5 3 5 5 5 3 5 5 3 5 5 5 5 5 5 5 5 5 5 5 5 5 5 5 5 5 5 5 5 5 5 5 5 5 5 5 5 5 5 5 5 5 5 5 5 5 5 5 5 5 5 5 5 5 5 3 5 5 5 5 5 5 5 5 5 5 5 5 5 5 5 5 5 5 5 5 3 5 3 5 5 5 5 5 5 5 3 5 5 5 5 5 5 5 3 5 5 5 5 5 5 3 5 3 5 5 5 3 5 5 5 5 5 5 5 5 5 5 5 5 3 5 5 5 5 3 5 5 5 3 3 5 5 5 3 3 5 5 5 5 5 5 5 5 5 5 5 5 5 5 5 5 5 5 5 5 3 5 5 5 5 3 5 5 5 3 5 5 5 5 5 5 5 5 5 5 3 3 5 5 5 5 3 5 5 5 5 5 5 3 5 5 3 5 5 3 5 5 5 5 5 5 5 5 5 5 5 5 5 5 5 5 5 5 5 5 5 5 5 5 5 5 5 5 5 5 5 5 5 5 5 5 5 5 5 5 5 5 5 5 5 5 5 5 3 5 5 5 5 5 3 5 5 3 5 5 3 5 5 5 5 5 5 5 5 5 5 5 5 5 5 5 5 5 5 5 3 5 5 5 5 5 3 5 5 5 5 5 5 5 5 5 5 5 5 3 5 5 5 5 5 3 5 5 5 3 5 5 5 5 5 5 3 5 5 5 5 3 5 5 5 5 3 5 5 5 3 5 5 5 3 5 5 3 5 5 5 5 5 5 5 5 5 5 5 5 5 5 5 5 5 5 5 5 5 5 5 3 5 5 5 3 5 5 5 5 5 5 5 5 5 5 5 5 5 5 5 5 5 3 3 5 5 3 5 5 3 5 3 5 3 5 5 5 5 3 5 5 5 5 3 5 3 5 5 5 5 5 5 5 5 5 5 5 5 5 5 3 5 5 5 5 5 5 5 5 5 5 3 5 5 5 5 5 5 5 5 5 5 3 5 5 5 5 5 3 5 5 5 5 5 3 5 5 5 5 3 5 5 5 5 5 5 5 5 5 5 5 5 3 5 5 5 5 5 3 5 5 5 5 5 5 3 5 5 5 5 5 5 3 5 5 5 5 5 5 5 5 5 5 5 5 5 5 5 5 5 5 5 5 5 5 5 5 5 3 5 5 5 5 5 5 3 5 5 5 5 3 5 5 3 5 5 5 5 5 5 5 5 5 3 5 5 3 5 5 5 3 5 5 5 5 3 5 5 5 5 5 5 5 5 5 3 5 5 5 5 5 5 5 5 5 5 5 5 5 5 5 5 5 5 5 5 5 5 5 5 3 5 5 5 5 5 5 5 5 5 5 3 5 5 5 5 5 5 5 3 5 5 5 5 3 5 5 5 5 5 5 5 5 5 5 5 5 5 5 5 5 5 5 5 5 5 5 5 5 5 5 5 5 5 5 5 5 5 5 5 5 5 5 5 5 5 5 5 5 5 5 5 3 5 5 5 5 5 5 5 5 5 5 5 5 5 5 3 5 5 5 5 5 5 5 5 3 5 5 5 5 3 3 5 5 3 3 5 5 5 5 5 5 5 5 5 5 5 5 5 5 5 5 3 5 5 5 5 5 5 5 5 5 5 5 3 5 5 5 5 5 5 5 5 5 3 3 5 5 3 5 5 5 5 5 5 3 5 5 5 5 3 5 5 5 5 5 5 5 5 5 5 5 5 3 5 5 5 5 3 5 5 5 5 5 5 5 5 5 3 3 5 5 5 5 3 5 5 5 5 5 5 3 5 5 5 5 5 5 5 5 5 5 5 5 5 5 5 3 5 5 5 5 5 5 5 5 5 5 5 5 5 5 5 5 5 5 5 5 5 5 5 5 5 5 5 3 5 5 5 3 5 5 5 5 5 5 5 5 5 3 5 5 5 5 5 5 5 5 5 3 5 5 5 5 5 5 5 5 5 5 5 5 5 5 5 3 5 5 5 5 5 5 5 3 5 5 5 5 5 5 5 5 5 5 5 5 5 5 5 5 5 5 5 5 5 5 5 5 5 5 5 5 5 5 3 5 5 5 5 3 5 5 5 5 5 3 5 3 5 5 5 5 5 5 3 5 5 5 3 5 5 5 5 5 5 5 5 5 5 5 5 5 5 5 5 5 5 5 5 5 5 5 5 5 5 5 5 5 3 5 5 5 5 5 3 5 5 5 5 5 5 5 3 5 5 5 5 5 5 5 3 5 3 5 5 5 5 5 3 3 5 5 3 5 5 3 5 3 3 3 5 3 5 3 3 3 5 5 3 3 5 5 3 5 5 5 5 5 3 5 5 3 5 3 5 5 5 5 5 3 5 5 3 5 3 5 3 3 5 5 5 5 5 3 5 5 3 5 5 5 5 5 5 3 5 5 5 5 5 5 5 5 5 5 5 5 5 5 5 3 5 5 5 5 5 3 5 3 3 5 5 5 5 5 5 5 5 5 5 5 5 5 5 5 5 5 5 5 5 5 3 5 5 5 3 5 5 3 5 5 5 5 5 5 5 5 5 5 3 5 3 5 5 5 5 5 3 5 5 5 5 3 5 5 5 5 5 5 5 5 5 5 5 5 5 5 5 5 5 5 5 5 5 5 5 5 5 5 5 5 5 5 5 5 3 5 3 5 3 5 3 5 5 5 3 3 5 3 3 5 5 5 3 5 5 5 5 5 5 5 5 5 5 5 5 5 5 5 5 5 5 5 5 5 5 5 5 5 5 5 5 5 5 5 5 5 5 5 5 5 5 5 5 5 5 5 5 5 5 5 5 5 5 5 5 5 5 5 5 5 5 5 5 5 5 5 3 5 5 5 5 5 5 3 3 5 5 5 5 5 5 3 5 5 5 5 3 5 5 5 5 5 3 5 3 5 5 5 5 3 5 5 5 5 5 5 5 5 5 5 5 5 5 5 5 5 5 5 5 5 5 5 5 5 5 3 5 5 5 5 5 5 5 5 5 3 3 5 5 5 3 3 5 5 5 5 5 3 5 3 5 5 3 5 5 5 5 5 5 5 5 5 5 5 5 3 5 5 5 5 3 5 5 5 5 5 5 5 3 5 5 5 5 5 5 5 5 5 5 5 5 5 5 5 5 5 5 3 5 5 5 3 5 5 5 5 5 5 5 5 5 5 5 5 5 5 3 3 5 5 5 5 5 5 5 5 5 5 5 3 5 5 5 5 5 5 5 3 5 5 5 5 5 5 5 5 5 5 5 5 5 5 5 5 5 5 5 3 3 5 5 5 5 5 5 3 5 5 5 5 5 5 5 5 5 5 5 5 5 5 5 5 5 5 5 5 5 5 5 5 5 5 5 5 3 3 5 5 5 5 5 3 5 5 3 5 5 5 5 3 5 5 5 3 3 5 3 3 5 5 5 5 3 5 5 5 5 5 5 5 3 5 3 5 3 5 5 3 3 5 5 5 3 5 3 5 5 5 5 5 5 5 5 5 3 5 5 5 5 5 3 5 5 5 5 5 5 5 5 5 5 5 5 3 5 5 5 5 5 5 5 5 5 3 5 5 5 5 5 5 5 5 3 3 3 5 5 5 3 5 5 3 5 5 5 5 5 5 3 5 5 5 3 3 5 3 5 5 5 5 3 3 5 5 3 5 5 3 5 5 5 5 5 5 5 3 5 3 5 3 3 5 5 5 5 5 5 5 5 3 5 5 5 5 5 3 5 5 5 5 5 5 5 5 5 5 5 5 5 5 5 5 5 5 5 5 5 5 5 5 5 5 5 5 5 5 5 5 5 5 5 5 5 5 5 5 5 5 5 5 5 5 5 5 5 5 5 5 5 5 5 5 5 5 5 5 5 5 5 5 3 5 5 5 5 5 5 5 5 5 5 5 5 5 5 5 5 5 5 5 5 5 5 5 5 5 5 5 5 5 5 3 5 5 5 3 3 3 5 5 5 5 5 5 5 3 3 5 5 5 3 5 3 5 5 5 5 5 5 3 5 5 3 5 5 5 5 5 5 5 5 5 5 5 5 3 5 5 5 5 5 5 5 3 5 3 3 5 5 5 5 3 5 3 3 5 5 5 5 3 5 5 3 3 5 5 5 5 3 5 5 3 5 5 5 5 5 5 5 5 5 5 3 5 3 5 5 5 5 3 5 5 5 5 5 3 5 5 5 5 5 5 5 5 5 5 5 5 5 5 5 3 5 5 5 3 3 5 5 5 5 5 5 5 5 5 5 5 5 5 3 5 3 5 5 5 3 5 5 5 3 5 5 5 5 3 5 5 5 5 5 3 5 5 5 5 5 5 3 5 5 5 5 5 5 5 5 5 5 3 3 5 3 5 5 5 5 3 5 5 3 5 5 3 5 5 5 3 3 5 3 3 5 5 5 5 5 3 5 5 3 5 5 5 3 5 3 5 5 5 5 5 5 5 3 5 5 5 5 5 5 5 5 5 5 5 5 3 5 5 5 5 5 3 5 5 3 5 3 5 5 3 5 3 5 5 3 3 5 5 5 3 3 5 5 3 5 5 5 5 5 3 3 3 3 3 3 5 5 5 3 5 3 3 3 5 5 5 3 5 5 3 5 5 5 3 5 5 3 5 5 5 5 3 3 5 5 5 5 5 3 5 5 5 5 5 5 3 3 5 5 3 5 3 5 5 5 5 5 5 5 5 5 5 5 5 5 5 5 5 5 5 5 3 5 5 5 5 3 5 3 5 5 5 3 5 5 5 3 5 5 5 5 5 5 5 5 5 5 5 5 5 5 3 3 5 5 5 5 5 5 5 5 5 5 5 5 5 5 5 3 5 5 5 5 3 5 3 5 5 5 5 5 5 5 5 5 5 5 5 5 5 5 5 5 5 5 5 5 5 5 5 5 5 5 5 5 5 5 5 5 5 3 3 5 5 3 5 3 5 3 3 5 5 5 5 5 5 3 3 5 5 3 5 5 5 3 5 5 5 5 5 5 5 3 5 5 5 5 5 5 3 5 5 5 5 5 5 5 5 5 5 5 3 5 5 5 5 5 5 5 5 5 3 5 5 5 5 3 5 5 5 5 5 3 5 5 5 5 5 5 5 5 5 5 5 5 5 5 5 5 5 5 5 5 5 5 5 5 5 3 5 5 5 5 5 5 5 5 5 5 5 5 5 5 3 5 5 5 5 5 5 3 5 3 5 5 5 5 3 5 3 5 5 5 5 5 5 5 3 5 5 5 5 5 5 5 5 3 5 5 5 5 5 5 5 3 5 5 5 5 5 5 5 5 5 5 5 5 5 5 3 5 5 5 5 3 3 5 5 5 5 5 5 5 3 5 3 5 3 5 5 3 3 5 3 5 5 5 5 5 5 5 5 3 5 3 5 5 5 5 3 5 5 3 5 5 5 5 5 3 5 5 5 5 5 5 5 5 5 5 5 5 5 3 5 5 3 5 5 5 3 5 5 5 5 5 3 5 5 3 5 3 5 5 5 5 5 5 5 3 5 5 3 5 5 5 3 5 5 5 5 5 5 5 5 5 5 3 5 5 5 3 5 5 5 5 3 5 5 5 5 5 5 5 5 5 5 5 5 5 5 5 5 5 5 5 5 3 5 5 5 3 5 5 5 5 5 5 5 5 5 3 5 5 5 5 5 3 5 5 5 5 5 5 5 5 5 5 5 5 5 5 5 5 5 5 5 5 5 3 5 5 5 5 5 3 3 5 5 5 5 3 5 5 5 5 5 5 5 5 3 5 5 5 5 5 5 5 3 3 5 5 5 5 5 3 5 5 5 5 5 5 5 5 5 5 3 5 3 5 3 5 3 5 5 5 5 3 5 5 5 5 5 5 5 5 5 5 5 5 5 5 5 5 5 5 5 5 3 5 5 3 5 5 5 5 5 5 5 5 5 3 5 5 3 5 5 5 5 3 5 5 5 5 5 5 5 5 5 5 5 5 5 5 5 5 5 5 5 5 5 5 3 5 5 5 5 5 5 5 5 5 5 5 5 5 5 5 5 5 5 5 5 5 5 5 5 5 3 5 5 5 5 5 5 5 5 5 5 5 5 5 5 5 3 5 5 5 5 5 5 5 5 5 5 5 5 3 5 5 5 5 3 3 5 5 5 3 5 3 5 5 5 3 5 5 5 5 3 3 5 5 3 5 5 5 5 5 5 5 5 3 5 5 5 5 5 5 5 5 5 5 5 5 5 3 5 3 5 5 5 5 5 5 5 3 5 5 5 5 5 3 3 5 5 5 5 5 5 5 3 5 5 5 5 5 3 5 5 5 5 5 3 5 5 5 5 5 3 5 5 5 5 5 5 5 5 5 5 5 5 5 5 5 5 5 5 5 5 5 5 5 5 5 3 5 5 5 5 5 5 5 5 5 5 5 5 3 5 3 3 5 5 5 5 5 3 5 5 5 5 5 5 3 5 3 5 5 5 5 5 5 5 5 5 5 5 5 5 5 5 3 5 3 5 5 5 5 5 3 5 5 5 5 5 5 5 5 5 5 5 5 5 5 5 5 5 5 5 5 5 3 5 5 5 5 5 5 5 5 5 3 5 5 5 5 5 3 5 5 5 5 3 5 5 5 5 5 3 5 5 5 5 5 3 5 5 5 5 5 5 5 5 5 5 5 3 5 5 5 3 5 5 5 5 5 3 5 5 5 3 3 5 5 5 5 5 5 5 3 5 5 5 5 5 5 5 3 5 5 5 5 5 3 5 5 5 5 5 5 5 5 5 5 5 5 5 3 5 5 5 5 5 5 5 5 5 5 5 3 5 5 5 5 5 5 5 5 5 5 5 5 5 5 5 5 5 5 5 5 5 5 5 5 3 5 3 5 3 5 5 5 5 3 5 3 5 5 3 5 5 5 5 5 5 5 5 5 5 5 5 5 5 5 5 5 5 3 5 5 5 5 5 5 5 5 5 5 5 5 5 5 3 5 5 5 5 5 5 5 3 3 5 5 5 5 5 3 5 5 5 5 5 5 5 5 5 5 5 5 5 5 5 3 5 5 5 5 5 5 5 5 5 5 3 5 5 5 5 3 5 5 5 5 5 5 5 5 5 5 5 5 5 5 5 5 5 5 5 3 5 5 5 3 5 5 5 3 5 5 5 5 5 5 5 5 5 5 5 5 5 5 5 3 5 5 5 5 5 5 5 3 5 5 5 5 5 5 5 5 5 5 5 5 5 5 5 5 5 5 5 5 5 5 5 5 5 5 5 5 5 5 3 5 3 5 5 5 5 5 5 5 5 3 5 5 5 5 5 5 5 5 5 5 5 3 5 5 5 5 5 5 5 3 5 5 5 5 5 5 5 3 5 5 5 5 5 3 5 5 5 3 5 5 5 5 5 5 5 5 5 5 5 5 5 5 5 5 5 3 5 5 3 5 5 5 3 5 5 5 5 5 5 3 5 5 3 5 5 5 5 5 5 3 5 5 5 3 5 5 5 5 5 5 5 5 5 3 5 5 3 5 5 5 5 5 5 5 5 5 3 3 5 5 5 5 5 5 5 3 3 5 5 5 5 5 5 5 5 5 5 5 5 5 5 5 5 5 5 3 5 5 5 5 5 5 5 5 5 5 5 5 5 5 5 5 5 3 5 5 3 5 5 5 5 5 5 5 5 5 5 5 5 3 5 5 5 5 5 3 5 5 5 5 5 5 5 5 5 5 5 5 5 5 5 5 5 5 5 5 5 5 5 5 5 5 5 3 5 5 5 5 5 3 5 5 5 5 5 5 5 5 3 5 5 5 5 5 5 5 3 5 5 5 5 5 5 5 5 5 3 5 5 5 5 5 5 3 5 5 5 5 5 5 5 5 5 3 5 5 5 3 5 3 5 5 5 5 5 3 5 5 3 5 3 5 5 5 5 5 5 3 3 5 5 3 5 3 5 5 5 5 5 5 5 5 5 5 5 5 5 3 5 3 5 5 5 3 5 5 5 5 3 5 5 5 5 5 5 5 5 5 5 5 3 5 5 5 5 5 5 3 5 5 5 3 5 5 3 5 5 5 5 5 5 5 5 5 5 5 5 5 5 5 5 5 5 5 5 5 5 5 5 5 5 5 3 5 5 5 5 5 3 5 5 5 5 5 5 5 5 5 5 5 5 5 5 3 5 5 5 5 5 5 3 5 5 5 3 5 5 5 5 5 5 5 5 5 5 5 5 5 5 5 5 5 5 5 5 5 5 5 5 5 3 5 5 5 5 5 5 5 5 3 3 5 5 5 5 5 5 5 5 5 3 5 5 3 5 3 5 3 5 5 5 5 5 5 3 5 5 5 5 3 5 5 3 5 5 5 5 5 3 5 5 5 5 5 5 5 5 5 5 5 5 5 5 3 3 5 5 5 5 5 5 5 5 5 5 5 5 3 5 5 3 5 5 3 3 5 5 5 3 5 5 5 5 3 3 5 5 3 5 5 5 3 5 5 5 5 5 5 5 5 3 5 5 5 5 5 3 5 5 5 3 5 5 5 3 5 5 5 5 3 5 5 3 3 5 5 5 5 5 5 3 5 5 5 5 5 5 5 5 5 5 5 5 5 5 5 5 5 3 5 5 5 5 5 5 5 3 5 5 5 3 5 5 3 5 5 5 5 5 3 3 5 5 5 5 5 3 5 5 5 5 3 5 3 5 5 5 5 5 5 5 3 5 5 3 5 5 5 3 5 5 3 3 5 5 5 5 5 5 5 3 5 5 3 5 5 5 3 5 5 5 5 5 5 5 5 5 5 5 5 5 5 5 5 5 5 5 5 5 5 5 5 5 5 5 5 5 5 5 5 5 5 5 5 5 5 5 5 5 5 5 5 5 5 5 5 5 5 5 5 5 5 5 5 5 5 5 5 5 5 5 5 5 5 5 5 5 5 5 5 5 5 5 5 5 5 5 5 5 5 3 5 3 5 5 5 3 5 5 5 5 5 5 5 5 5 5 5 5 5 5 3 5 5 5 5 5 3 3 3 5 5 5 5 5 3 3 5 5 5 5 3 5 5 5 5 5 5 5 5 3 5 3 5 5 5 5 5 5 5 5 5 5 5 5 5 5 5 5 5 5 5 5 5 5 5 5 5 5 5 5 5 5 5 5 5 5 5 5 5 5 3 5 5 5 5 5 5 5 3 5 5 5 5 5 5 5 5 3 5 5 5 3 5 5 5 5 5 5 5 5 5 5 5 5 5 5 5 5 5 5 5 5 5 5 5 5 5 3 5 5 3 5 5 5 5 5 5 5 5 5 5 5 5 3 5 5 5 5 5 3 5 5 5 5 3 5 3 5 5 5 3 5 5 5 3 5 3 5 5 3 3 3 5 5 5 3 5 5 3 3 5 5 5 5 5 5 5 5 5 5 5 5 5 5 5 5 3 5 5 3 5 5 5 5 5 5 5 5 5 3 5 5 3 5 5 3 5 5 5 5 5 5 5 5 5 5 5 5 5 5 5 3 5 5 5 3 5 5 5 3 5 3 5 5 5 5 5 5 5 5 3 5 5 5 5 5 5 5 5 5 5 5 5 5 3 5 5 5 5 5 5 5 5 3 5 5 5 5 5 3 5 5 5 5 5 5 5 3 5 3 5 5 5 5 5 5 5 5 5 5 5 5 5 3 5 5 5 5 5 5 5 3 5 5 5 5 5 5 5 5 5 5 5 5 5 5 5 5 5 5 5 5 5 5 5 5 5 5 5 5 5 3 5 5 5 3 5 3 3 5 5 3 3 5 5 5 5 5 3 5 5 5 5 5 5 5 5 5 5 3 5 3 5 5 5 5 3 5 5 5 5 5 5 5 5 5 5 3 5 5 5 5 5 5 5 5 5 5 5 5 3 5 5 5 5 3 5 5 5 5 5 5 3 5 5 5 3 5 3 5 5 5 5 3 5 5 5 5 5 5 5 5 5 5 5 5 5 5 5 5 5 5 5 5 5 5 5 5 5 5 5 5 5 5 5 5 5 5 5 5 5 5 3 5 5 5 5 3 5 5 5 5 5 5 5 5 5 5 3 5 5 5 5 5 5 5 5 5 5 5 5 3 5 5 5 3 5 5 5 5 5 5 5 3 5 5 5 5 5 3 5 5 5 5 5 5 5 5 5 5 5 5 5 5 5 5 5 5 5 5 5 5 5 5 5 5 5 5 5 5 5 5 5 5 5 5 5 3 5 5 5 5 5 5 5 5 5 5 5 5 5 5 5 5 3 5 5 3 5 5 5 5 5 5 5 5 5 5 5 5 5 5 5 5 5 5 5 5 5 5 5 5 5 5 5 5 5 5 5 5 5 5 5 5 5 5 5 5 5 5 3 5 5 5 3 5 5 5 5 3 5 5 5 3 5 5 5 5 5 5 5 5 5 5 5 5 5 5 3 5 5 5 5 3 3 5 5 5 5 5 5 5 5 5 3 5 3 5 5 5 5 5 5 5 5 5 5 5 5 5 5 3 5 5 5 5 5 5 5 5 5 5 5 5 5 5 3 5 5 5 5 3 5 5 5 5 3 5 3 5 5 5 3 5 5 3 5 5 5 5 3 5 5 5 5 5 3 5 5 3 5 5 5 5 3 5 5 5 5 5 5 5 3 5 5 5 5 3 5 5 3 5 5 3 5 3 5 5 5 5 3 5 5 5 3 5 5 5 5 5 5 5 3 5 5 5 5 5 5 5 5 5 5 5 5 5 5 5 5 5 3 5 5 5 3 5 5 5 5 5 5 5 5 5 5 5 5 5 5 5 5 5 5 5 5 5 5 5 5 5 5 5 5 5 5 5 5 5 5 5 5 5 3 5 5 5 3 5 5 3 3 5 5 5 5 5 5 5 5 5 5 3 5 5 5 5 5 5 5 5 5 5 5 5 5 5 5 3 5 5 5 5 5 5 5 5 5 5 5 5 5 3 5 5 5 5 5 3 5 5 5 5 3 5 5 5 5 5 3 5 5 5 5 5 5 5 5 5 5 3 5 3 5 5 5 5 3 5 3 5 5 5 5 5 5 3 3 5 5 3 5 5 5 5 5 5 5 5 3 5 5 5 5 5 5 5 5 5 5 5 5 5 5 5 5 3 5 3 5 5 5 5 5 5 5 5 5 5 5 5 5 5 5 5 5 5 5 5 5 3 5 5 5 5 5 5 5 5 5 5 5 5 5 5 5 5 5 5 5 5 5 5 5 5 5 5 5 5 5 5 5 5 5 5 3 5 5 5 5 5 5 5 5 5 5 3 5 5 5 3 5 3 5 5 5 5 5 5 5 5 5 5 3 5 5 3 5 5 5 5 5 5 5 5 5 5 5 5 5 5 5 5 5 5 5 5 5 5 5 5 5 5 5 5 5 5 5 5 5 5 5 5 5 5 5 5 5 5 5 5 5 5 5 5 5 5 5 5 5 5 5 5 5 5 5 5 3 5 5 5 5 5 5 3 3 5 5 5 5 5 5 5 5 5 3 5 5 5 5 5 5 5 5 5 5 5 5 5 5 5 5 5 5 5 5 5 5 5 5 5 5 5 5 5 5 5 5 5 5 5 5 5 5 5 5 5 5 5 5 5 5 5 5 5 5 5 5 5 5 5 5 5 5 3 5 3 5 5 5 5 5 5 5 5 3 5 5 5 5 5 5 5 5 5 3 5 5 5 5 5 5 5 3 5 5 5 5 5 5 5 5 5 5 5 5 3 5 5 3 5 5 5 5 5 5 5 5 5 5 5 5 5 5 5 5 5 5 5 5 5 5 5 5 5 5 5 5 5 5 5 5 5 5 5 5 5 5 5 5 5 5 5 5 5 5 5 3 5 5 5 5 3 5 5 3 5 5 5 5 5 3 5 5 5 5 3 5 5 5 5 3 5 5 3 5 5 5 3 5 5 5 5 5 5 5 5 5 5 5 5 5 5 5 5 5 5 5 5 5 5 5 5 5 5 5 3 3 5 3 5 5 5 3 5 5 5 5 5 5 5 5 5 3 5 3 5 5 3 5 5 3 5 5 5 5 5 5 5 5 5 5 5 5 5 5 5 5 5 5 5 5 5 5 5 5 5 3 5 5 5 5 5 3 5 5 5 5 5 5 5 3 3 5 5 5 3 5 5 5 5 3 5 5 5 3 5 5 5 5 5 5 5 5 5 3 5 5 5 5 5 5 5 5 5 3 5 5 5 3 5 5 5 5 3 5 5 3 5 5 5 5 5 5 5 3 5 5 5 5 5 5 3 5 5 5 5 5 5 3 5 5 5 5 5 5 5 5 3 5 5 5 3 5 5 5 5 5 5 5 5 5 5 5 5 5 5 5 5 5 5 5 5 5 5 5 5 5 5 5 5 5 5 5 5 5 5 5 5 5 5 5 5 5 5 5 5 5 5 5 5 5 5 5 5 5 3 5 5 3 5 3 5 5 3 5 5 5 5 5 5 5 5 5 3 5 5 5 5 5 5 3 5 5 5 5 5 5 3 5 3 5 5 3 5 5 3 5 5 3 5 5 5 5 5 5 5 5 5 5 5 5 5 3 5 3 5 5 3 5 5 5 5 5 3 5 5 5 5 5 5 5 5 5 5 5 5 5 5 5 3 5 5 3 5 5 5 5 3 5 5 5 5 5 5 5 5 5 3 5 5 5 5 5 5 5 5 5 5 3 5 5 5 5 5 3 3 5 5 5 5 5 5 5 3 3 5 5 5 5 5 5 5 5 3 5 5 3 5 3 5 5 3 5 5 5 5 5 5 3 5 5 5 5 5 5 5 5 5 5 3 5 5 5 5 5 5 3 3 5 5 5 5 3 5 5 5 5 5 5 5 5 5 5 5 5 5 5 5 5 5 5 3 5 5 5 5 3 5 5 5 5 5 5 5 5 5 5 5 5 5 3 5 5 5 5 5 5 5 5 3 5 5 5 3 5 5 5 5 5 3 5 3 5 5 5 5 5 5 5 5 5 5 5 5 5 5 3 5 5 5 5 5 5 5 5 5 5 3 5 5 5 5 5 5 5 3 3 5 5 5 5 5 5 3 5 5 5 5 5 5 5 5 5 5 3 5 5 5 5 3 3 5 3 5 5 5 5 5 5 5 3 5 3 5 5 5 5 5 5 5 5 5 3 5 5 5 5 5 5 5 5 5 5 5 5 5 5 5 5 5 5 5 5 5 5 5 5 3 5 5 5 5 5 5 5 5 5 5 5 5 5 5 5 5 5 5 5 5 5 5 5 5 5 5 5 5 5 5 5 5 5 5 5 5 5 5 5 5 5 5 5 5 5 5 5 3 5 5 5 5 3 5 5 5 5 5 5 5 3 5 5 3 5 5 5 5 5 5 5 5 5 5 5 5 5 5 5 3 3 5 5 5 5 5 5 5 5 3 5 5 5 5 5 5 5 5 5 5 3 5 3 5 5 5 5 5 5 5 5 5 5 5 5 5 5 5 5 5 5 5 5 5 5 5 5 5 5 5 5 5 5 5 5 5 5 5 5 5 5 5 5 5 5 5 5 5 5 5 5 5 5 5 5 5 5 5 5 5 5 5 5 5 3 5 5 3 5 5 5 5 5 5 5 5 5 3 5 5 5 5 5 5 5 5 5 5 5 5 3 5 5 5 3 5 5 5 5 5 5 5 5 5 5 5 5 5 5 5 5 5 5 5 5 5 3 5 5 5 3 5 5 5 5 5 5 3 3 5 5 5 5 5 5 5 5 5 5 5 5 5 5 5 5 5 5 5 5 5 5 5 5 5 5 5 5 5 5 5 5 5 5 5 3 5 5 5 5 5 5 5 5 5 5 5 5 5 5 5 5 5 5 5 5 5 5 5 5 3 5 5 5 5 5 5 5 5 5 5 5 5 5 3 3 5 5 5 3 3 5 5 5 5 5 5 5 5 5 5 5 5 5 3 5 5 5 5 3 5 5 5 5 5 3 5 5 5 5 5 5 5 5 3 5 5 5 3 5 5 3 5 5 3 5 5 5 3 5 5 3 5 5 5 5 5 5 3 5 5 5 5 3 5 5 5 5 5 5 5 5 5 5 5 3 5 5 5 5 5 5 5 5 5 5 5 5 5 5 5 5 5 5 5 5 5 5 5 5 3 5 3 3 5 5 5 3 5 5 5 5 3 5 5 5 5 5 5 5 5 3 5 5 5 3 5 5 5 5 5 5 5 5 5 5 5 5 5 5 5 5 5 5 5 5 3 5 5 5 5 5 5 5 5 5 5 5 5 3 5 5 5 5 5 5 3 5 3 3 5 5 5 5 5 5 5 5 5 5 3 5 5 5 5 3 5 5 5 3 5 5 3 5 5 5 5 5 5 5 5 5 5 3 5 3 5 5 5 3 5 3 5 5 5 5 3 3 3 5 5 5 5 5 5 3 5 5 5 5 5 5 5 3 5 5 5 5 5 5 5 5 5 5 5 5 5 5 3 5 3 5 5 5 5 5 5 3 5 5 5 5 3 5 5 3 5 5 5 3 5 3 5 5 3 5 5 5 5 5 3 5 3 5 5 5 5 5 5 5 5 5 5 3 5 3 5 5 5 5 5 3 3 5 3 5 5 5 3 3 3 3 5 5 5 3 5 3 5 3 3 5 5 5 3 5 5 5 3 3 5 3 5 5 3 5 5 5 5 5 5 5 5 5 5 5 5 5 5 5 5 5 5 5 5 5 3 5 5 5 5 3 5 3 5 3 5 5 5 5 5 3 3 5 3 5 5 3 5 5 5 5 5 3 5 5 3 5 5 5 3 3 5 5 5 3 5 3 3 5 5 3 5 3 5 5 3 5 3 5 5 5 5 5 5 3 5 5 5 3 5 5 5 5 5 5 5 5 5 5 5 5 5 5 5 5 5 5 5 5 5 5 5 5 5 5 5 5 3 5 5 5 3 5 3 5 5 3 5 5 5 5 5 5 5 5 5 5 3 5 5 5 5 5 5 5 5 5 5 5 5 5 5 3 3 5 5 5 5 5 3 3 5 5 3 3 5 5 5 5 5 5 5 5 5 5 5 5 5 5 5 5 5 5 5 3 5 5 5 5 5 5 5 5 3 5 5 5 5 5 5 5 5 5 5 5 3 3 5 5 5 5 5 5 5 5 5 5 5 5 5 5 5 5 5 5 5 5 5 5 5 5 5 5 5 5 5 5 5 5 5 3 5 5 3 5 5 5 5 5 5 5 5 5 5 5 5 5 5 5 5 5 5 5 5 5 5 5 5 5 5 5 5 5 5 5 5 5 5 5 3 5 5 5 5 5 5 5 5 5 5 3 5 5 5 5 5 5 5 3 5 5 5 5 5 5 5 5 5 5 5 5 5 5 5 5 5 5 5 5 5 5 5 5 5 5 5 5 5 5 5 5 5 5 5 5 5 5 5 3 5 5 5 5 3 5 5 5 5 5 5 5 5 5 5 5 5 5 3 5 5 5 5 5 5 3 5 5 3 3 5 5 3 3 5 5 5 5 3 3 5 5 5 5 3 3 5 5 5 5 5 5 5 3 5 5 5 5 5 5 5 5 5 3 5 5 5 3 5 3 5 3 5 5 3 5 5 3 5 5 5 5 3 5 5 5 5 5 5 5 5 3 5 5 5 5 5 5 3 5 5 5 5 5 5 5 5 5 5 5 3 5 5 5 5 5 5 5 5 5 5 5 5 5 5 3 5 5 5 5 5 5 3 5 5 3 5 5 5 5 5 5 5 5 5 5 5 5 5 5 5 5 5 5 3 5 5 5 5 5 5 5 3 5 5 5 5 5 5 5 5 5 5 3 5 5 5 3 5 5 3 5 3 5 5 5 5 3 3 5 5 5 5 5 3 3 5 3 3 5 3 3 5 5 5 3 5 5 5 5 5 5 3 5 5 3 3 5 5 5 5 5 5 5 5 5 5 3 3 5 5 5 3 5 5 5 3 5 5 5 5 5 5 5 5 5 5 5 5 5 5 5 5 5 5 3 5 5 3 5 5 3 3 5 5 5 3 5 5 5 5 3 5 5 5 5 5 5 5 5 5 3 5 5 3 5 5 5 5 5 5 5 5 5 3 3 5 5 5 5 5 5 3 5 5 3 5 5 5 5 5 5 5 5 5 5 5 3 5 5 5 5 5 5 3 5 5 5 5 5 5 5 5 3 5 3 5 5 5 5 3 3 5 5 3 5 5 5 5 5 5 5 5 5 5 5 5 5 5 5 5 5 5 5 5 3 5 3 5 5 5 5 5 5 5 3 5 5 5 5 5 5 5 5 5 5 5 5 5 5 5 5 5 5 5 5 3 3 5 5 5 5 5 5 5 3 5 5 3 5 3 5 5 3 3 5 5 5 5 3 5 5 3 5 5 5 5 3 5 3 5 5 5 5 5 5 5 5 5 5 5 5 5 5 5 5 5 3 5 5 5 3 5 5 5 3 5 3 3 5 5 5 5 3 5 5 5 3 5 3 3 3 5 5 5 5 5 3 5 5 5 5 5 5 5 5 5 5 5 5 3 5 5 5 5 3 5 5 5 5 5 5 5 5 5 5 5 5 5 5 5 5 5 3 5 5 5 5 5 5 5 5 3 5 3 5 5 5 5 5 3 5 5 5 5 3 5 3 5 3 5 3 5 5 3 5 5 5 5 5 5 5 5 5 5 5 5 5 5 5 5 5 5 3 5 5 5 5 5 5 5 3 5 5 5 5 5 3 3 5 5 5 5 5 5 5 5 5 5 5 5 5 5 5 5 3 5 5 5 5 5 5 5 5 3 5 5 3 5 5 5 5 5 5 5 5 3 5 5 5 3 5 5 5 5 3 5 5 5 5 5 5 5 5 5 5 5 5 5 5 5 5 5 5 5 5 3 5 5 5 5 5 5 5 3 5 5 5 5 5 3 5 5 5 5 5 5 5 5 5 5 5 5 5 5 5 5 5 5 5 5 5 5 5 5 5 5 3 5 5 3 3 5 5 3 5 5 5 5 3 5 5 5 5 5 5 5 5 3 3 5 5 5 5 5 3 5 5 5 3 5 5 3 5 3 5 5 5 5 5 3 5 3 5 5 5 5 5 5 5 5 5 5 5 5 5 5 5 5 5 5 5 5 5 5 3 5 5 5 5 5 3 5 5 5 5 3 5 5 5 5 5 5 5 5 5 3 5 5 5 5 3 3 5 5 5 5 5 5 5 3 3 5 5 5 5 5 3 3 3 5 3 5 5 3 5 5 5 3 5 5 3 5 5 5 3 5 5 5 5 3 5 5 3 5 5 5 5 5 5 3 5 5 5 3 5 5 5 5 5 5 5 5 5 5 5 3 5 5 5 5 5 5 5 5 5 5 5 5 5 5 5 5 5 5 5 5 5 5 5 5 5 5 3 3 5 5 5 3 5 3 5 5 5 5 5 5 5 3 5 5 5 5 5 5 5 5 5 5 5 5 5 5 5 5 5 5 3 3 5 3 5 5 5 5 5 3 5 5 3 5 5 5 5 5 5 5 5 5 3 5 5 5 5 5 5 5 3 5 5 3 5 3 5 5 5 3 5 5 3 5 5 5 5 5 5 5 3 5 5 5 5 3 5 5 5 5 3 5 5 3 5 5 5 5 5 5 5 5 5 3 5 5 5 3 5 5 5 5 5 5 5 3 3 5 3 5 5 5 5 5 5 5 5 5 5 5 3 5 5 5 5 5 5 3 5 5 5 5 5 5 3 5 5 5 5 5 5 5 5 5 5 5 5 5 5 5 5 5 5 5 5 5 5 5 5 5 5 5 5 3 5 5 5 5 3 5 5 5 5 5 3 5 5 5 5 5 5 5 3 5 5 5 5 5 5 5 5 5 5 5 5 5 5 5 3 5 5 3 5 5 5 3 5 5 3 5 3 5 5 5 5 5 3 5 5 5 5 3 5 5 3 3 5 5 3 3 3 5 5 5 5 3 5 3 3 5 3 5 5 5 5 5 5 5 5 5 5 3 5 5 5 5 5 5 5 5 3 3 5 3 5 5 5 5 3 5 5 3 5 5 5 5 3 5 3 5 5 3 5 5 5 5 5 5 3 5 5 5 3 3 5 5 5 5 5 5 5 5 5 5 5 5 5 5 5 5 5 3 5 3 5 5 5 5 5 5 5 5 5 5 5 5 5 5 5 3 5 5 3 5 5 5 5 5 5 5 5 3 3 5 5 5 5 5 5 5 5 5 5 5 5 5 5 5 5 5 5 3 5 3 5 5 5 5 3 5 3 5 5 5 5 5 5 5 5 5 3 5 5 5 5 5 5 5 5 5 5 5 5 5 3 5 3 5 3 5 3 5 5 5 5 5 3 5 5 5 5 5 5 3 5 5 5 5 5 5 5 5 3 3 5 5 5 3 5 5 5 5 5 3 5 5 5 3 5 5 5 5 3 5 5 5 5 5 5 5 5 5 5 5 5 5 5 5 5 5 5 5 5 5 5 5 5 5 5 5 3 5 5 5 3 5 5 5 3 5 5 5 5 5 5 3 5 5 5 5 5 5 5 5 3 5 5 5 5 5 5 3 5 5 3 5 5 5 5 5 5 5 5 3 5 3 3 5 5 5 5 5 5 5 5 5 5 5 5 5 5 5 5 5 5 5 5 5 5 5 5 5 3 5 5 5 3 3 5 5 5 5 3 5 3 3 5 5 3 3 
</DataArray>
</Cells>
<PointData Scalars="" Vectors="displacement," Tensors="">
<DataArray type="Float64" Name="displacement" NumberOfComponents="3" format="ascii">
-0.054996329974277086 -9.5385333462862847e-07 0 -0.050653588148808708 0.00011476674760790769 0 -0.05381592868881363 2.3676713064042347e-05 0 -0.054996329974277086 -9.5385333462862847e-07 0 -0.050653588148808708 0.00011476674760790769 0 -0.050433779089660118 1.7189646861957638e-08 0 -0.054996329974277086 -9.5385333462862847e-07 0 -0.05381592868881363 2.3676713064042347e-05 0 -0.054512980365471211 -5.8745042067830035e-05 0 -0.054996329974277086 -9.5385333462862847e-07 0 -0.054512980365471211 -5.8745042067830035e-05 0 -0.054999182193394183 -3.0284874301501258e-07 0 -0.050653588148808708 0.00011476674760790769 0 -0.050433779089660118 1.7189646861957638e-08 0 -0.047794560048271845 1.7583858871600353e-05 0 -0.050653588148808708 0.00011476674760790769 0 -0.048668029666461846 6.4345935787364801e-05 0 -0.047794560048271845 1.7583858871600353e-05 0 -0.050782014680218347 0.00011648047534832554 0 -0.051411559604146569 1.2871035657195223e-05 0 -0.050653588148808708 0.00011476674760790769 0 -0.048668029666461846 6.4345935787364801e-05 0 -0.048938316286537553 0.00010490473209512259 0 -0.049184660936590602 0.0004079521706504456 0 -0.050065172172926463 0.00011364346926235853 0 -0.050609225562780087 0.00075422263234959936 0 -0.048668029666461846 6.4345935787364801e-05 0 -0.049184660936590602 0.0004079521706504456 0 -0.048938316286537553 0.00010490473209512259 0 -0.049184660936590602 0.0004079521706504456 0 -0.048938316286537553 0.00010490473209512259 0 -0.050065172172926463 0.00011364346926235853 0 -0.048938316286537553 0.00010490473209512259 0 -0.050065172172926463 0.00011364346926235853 0 -0.049985500579379082 -0.00068072394871731905 0 -0.051411559604146569 1.2871035657195223e-05 0 -0.052276028025644176 -0.00034614213942063277 0 -0.054512980365471211 -5.8745042067830035e-05 0 -0.054999182193394183 -3.0284874301501258e-07 0 -0.054893227037668323 -4.055260209958416e-05 0 -0.054999182193394183 -3.0284874301501258e-07 0 -0.054893227037668323 -4.055260209958416e-05 0 -0.054615973836572171 -0.00030410204203565089 0 -0.053386791047485907 -0.00048250377436097152 0 -0.054411815654735234 -0.00036712551315344871 0 -0.05192707274625618 -0.0010414193519006454 0 -0.053166533925616592 -0.00019076864312383111 0 -0.051567399003070759 8.3532121334521327e-05 0 -0.05192707274625618 -0.0010414193519006454 0 -0.054615973836572171 -0.00030410204203565089 0 -0.053166533925616592 -0.00019076864312383111 0 -0.049985500579379082 -0.00068072394871731905 0 -0.05192707274625618 -0.0010414193519006454 0 -0.051567399003070759 8.3532121334521327e-05 0 -0.052276028025644176 -0.00034614213942063277 0 -0.053386791047485907 -0.00048250377436097152 0 -0.054999182193394183 -3.0284874301501258e-07 0 -0.054615973836572171 -0.00030410204203565089 0 -0.054998421943582607 -5.0453803751700225e-07 0 -0.054615973836572171 -0.00030410204203565089 0 -0.053166533925616592 -0.00019076864312383111 0 -0.053921951311264545 -1.7609150120664225e-05 0 -0.054615973836572171 -0.00030410204203565089 0 -0.053921951311264545 -1.7609150120664225e-05 0 -0.054516566359867985 2.2526115467025163e-05 0 -0.053921951311264545 -1.7609150120664225e-05 0 -0.053931991530231926 0.00047980391577483162 0 -0.054516566359867985 2.2526115467025163e-05 0 -0.053921951311264545 -1.7609150120664225e-05 0 -0.053931991530231926 0.00047980391577483162 0 -0.053104482241669484 0.0003340172558021106 0 -0.053166533925616592 -0.00019076864312383111 0 -0.053921951311264545 -1.7609150120664225e-05 0 -0.053104482241669484 0.0003340172558021106 0 -0.053931991530231926 0.00047980391577483162 0 -0.053104482241669484 0.0003340172558021106 0 -0.053069891308123118 0.00078937321382670125 0 -0.053104482241669484 0.0003340172558021106 0 -0.053069891308123118 0.00078937321382670125 0 -0.052082138063149597 0.00062511403111505668 0 -0.053069891308123118 0.00078937321382670125 0 -0.052082138063149597 0.00062511403111505668 0 -0.052059722029268736 0.0012158286418047961 0 -0.053931991530231926 0.00047980391577483162 0 -0.053069891308123118 0.00078937321382670125 0 -0.053638935181552008 0.00095262152581915478 0 -0.053069891308123118 0.00078937321382670125 0 -0.053638935181552008 0.00095262152581915478 0 -0.053170439553610699 0.0012962790324444358 0 -0.050065172172926463 0.00011364346926235853 0 -0.049985500579379082 -0.00068072394871731905 0 -0.051567399003070759 8.3532121334521327e-05 0 -0.053166533925616592 -0.00019076864312383111 0 -0.053104482241669484 0.0003340172558021106 0 -0.051567399003070759 8.3532121334521327e-05 0 -0.053104482241669484 0.0003340172558021106 0 -0.051567399003070759 8.3532121334521327e-05 0 -0.052082138063149597 0.00062511403111505668 0 -0.051567399003070759 8.3532121334521327e-05 0 -0.052082138063149597 0.00062511403111505668 0 -0.050609225562780087 0.00075422263234959936 0 -0.052082138063149597 0.00062511403111505668 0 -0.050609225562780087 0.00075422263234959936 0 -0.052059722029268736 0.0012158286418047961 0 -0.050065172172926463 0.00011364346926235853 0 -0.051567399003070759 8.3532121334521327e-05 0 -0.050609225562780087 0.00075422263234959936 0 -0.050609225562780087 0.00075422263234959936 0 -0.050565570279022191 0.0016557681581975657 0 -0.049129159367142877 0.0013149050350220648 0 -0.052059722029268736 0.0012158286418047961 0 -0.050565570279022191 0.0016557681581975657 0 -0.052496934529109744 0.0020121872559807526 0 -0.050609225562780087 0.00075422263234959936 0 -0.052059722029268736 0.0012158286418047961 0 -0.050565570279022191 0.0016557681581975657 0 -0.051565025933229813 0.0028732813088899233 0 -0.050565570279022191 0.0016557681581975657 0 -0.052496934529109744 0.0020121872559807526 0 -0.051565025933229813 0.0028732813088899233 0 -0.050565570279022191 0.0016557681581975657 0 -0.048310499552760081 0.0028289155735311397 0 -0.050565570279022191 0.0016557681581975657 0 -0.048310499552760081 0.0028289155735311397 0 -0.049129159367142877 0.0013149050350220648 0 -0.053717098753788127 0.0012792839925103068 0 -0.053539157837929584 0.0016773382835322921 0 -0.053816434749990878 0.0013911294976316749 0 -0.053638935181552008 0.00095262152581915478 0 -0.053717098753788127 0.0012792839925103068 0 -0.053170439553610699 0.0012962790324444358 0 -0.053717098753788127 0.0012792839925103068 0 -0.053170439553610699 0.0012962790324444358 0 -0.053539157837929584 0.0016773382835322921 0 -0.053170439553610699 0.0012962790324444358 0 -0.052496934529109744 0.0020121872559807526 0 -0.053539157837929584 0.0016773382835322921 0 -0.052059722029268736 0.0012158286418047961 0 -0.053170439553610699 0.0012962790324444358 0 -0.052496934529109744 0.0020121872559807526 0 -0.053069891308123118 0.00078937321382670125 0 -0.052059722029268736 0.0012158286418047961 0 -0.053170439553610699 0.0012962790324444358 0 -0.051565025933229813 0.0028732813088899233 0 -0.052496934529109744 0.0020121872559807526 0 -0.05356693766006039 0.0023459845308118994 0 -0.047977812928891958 0.0036170231332060005 0 -0.045131143860955715 0.0026862989772702211 0 -0.052496934529109744 0.0020121872559807526 0 -0.053539157837929584 0.0016773382835322921 0 -0.05356693766006039 0.0023459845308118994 0 -0.049205883804828703 0.0019078975375184503 0 -0.045131143860955715 0.0026862989772702211 0 -0.053539157837929584 0.0016773382835322921 0 -0.053564264960469989 0.0017815790989712593 0 -0.053816434749990878 0.0013911294976316749 0 -0.040521348616495124 0.0047038161786449413 0 -0.041870487574062788 0.0030516192067189364 0 -0.04055146201772681 0.0024176536868887291 0 -0.033877603048117107 0.0008522807667187824 0 -0.034028101208718908 0.00065915786366121097 0 -0.033630221008664439 0.00095998371483183541 0 -0.045131143860955715 0.0026862989772702211 0 -0.036724794064497752 0.0015785620023783815 0 -0.043505638117562841 0.0043685946617784029 0 -0.040521348616495124 0.0047038161786449413 0 -0.041870487574062788 0.0030516192067189364 0 -0.043505638117562841 0.0043685946617784029 0 -0.041870487574062788 0.0030516192067189364 0 -0.043007058366195491 0.0025335008469671611 0 -0.041870487574062788 0.0030516192067189364 0 -0.041922792536172017 0.0015003613535728821 0 -0.04055146201772681 0.0024176536868887291 0 -0.041870487574062788 0.0030516192067189364 0 -0.041922792536172017 0.0015003613535728821 0 -0.043007058366195491 0.0025335008469671611 0 -0.041922792536172017 0.0015003613535728821 0 -0.043463339222214292 0.0013167145898472597 0 -0.042528935666875399 0.00077619955929092302 0 -0.041922792536172017 0.0015003613535728821 0 -0.04055146201772681 0.0024176536868887291 0 -0.040638357210790288 0.00064626103804522558 0 -0.034028101208718908 0.00065915786366121097 0 -0.033650757981958476 5.0291894740828076e-05 0 -0.034124086425041465 -0.00010501743514840922 0 -0.036724794064497752 0.0015785620023783815 0 -0.037369754806688228 3.1904944392229849e-05 0 -0.044951347837325011 0.0021959281572459292 0 -0.046738603968159112 0.0019220862850247631 0 -0.048310499552760081 0.0028289155735311397 0 -0.043505638117562841 0.0043685946617784029 0 -0.044951347837325011 0.0021959281572459292 0 -0.048310499552760081 0.0028289155735311397 0 -0.047977812928891958 0.0036170231332060005 0 -0.048102932353986459 0.0029498273707328033 0 -0.043505638117562841 0.0043685946617784029 0 -0.044951347837325011 0.0021959281572459292 0 -0.043007058366195491 0.0025335008469671611 0 -0.044951347837325011 0.0021959281572459292 0 -0.043007058366195491 0.0025335008469671611 0 -0.043463339222214292 0.0013167145898472597 0 -0.044951347837325011 0.0021959281572459292 0 -0.043463339222214292 0.0013167145898472597 0 -0.044877099932568026 0.00071600712690767421 0 -0.041922792536172017 0.0015003613535728821 0 -0.043007058366195491 0.0025335008469671611 0 -0.043463339222214292 0.0013167145898472597 0 -0.043463339222214292 0.0013167145898472597 0 -0.044877099932568026 0.00071600712690767421 0 -0.043850112242198737 0.00043385107494314193 0 -0.044877099932568026 0.00071600712690767421 0 -0.046738603968159112 0.0019220862850247631 0 -0.048560389315741241 0.0019151279953881573 0 -0.044951347837325011 0.0021959281572459292 0 -0.044877099932568026 0.00071600712690767421 0 -0.046738603968159112 0.0019220862850247631 0 -0.044999362206755406 0.00071688269800258288 0 -0.046485334315413136 0.0010948008394003718 0 -0.044877099932568026 0.00071600712690767421 0 -0.044660336076384449 0.00028243250025014323 0 -0.044666680109761048 0.00045869636178644431 0 -0.046738603968159112 0.0019220862850247631 0 -0.048560389315741241 0.0019151279953881573 0 -0.048310499552760081 0.0028289155735311397 0 -0.048560389315741241 0.0019151279953881573 0 -0.048310499552760081 0.0028289155735311397 0 -0.04840101912604021 0.0017698378091428478 0 -0.048560389315741241 0.0019151279953881573 0 -0.047517086149789736 0.0019316785236180207 0 -0.04840101912604021 0.0017698378091428478 0 -0.046485334315413136 0.0010948008394003718 0 -0.045869652964285655 0.00092688172891633046 0 -0.044660336076384449 0.00028243250025014323 0 -0.044362393812641482 0.00024056213056419671 0 -0.044177451828567187 1.3270900326039402e-05 0 -0.044660336076384449 0.00028243250025014323 0 -0.044362393812641482 0.00024056213056419671 0 -0.044468836624460301 0.00034837826649969096 0 -0.044660336076384449 0.00028243250025014323 0 -0.044468836624460301 0.00034837826649969096 0 -0.044618815772306017 0.00040371914375929578 0 -0.044362393812641482 0.00024056213056419671 0 -0.044468836624460301 0.00034837826649969096 0 -0.044061589526128722 0.00037574756069637638 0 -0.044362393812641482 0.00024056213056419671 0 -0.044061589526128722 0.00037574756069637638 0 -0.044177451828567187 1.3270900326039402e-05 0 -0.041884073754563572 0.00025369606522658279 0 -0.043435211292079313 -4.2511389870499192e-08 0 -0.039695754037752738 0.00043630567123922648 0 -0.040171380069041279 0.00016451966451163378 0 -0.043432334020293048 1.7905978165341673e-06 0 -0.044061589526128722 0.00037574756069637638 0 -0.04344455634527343 1.2876930589115161e-06 0 -0.044177451828567187 1.3270900326039402e-05 0 -0.040171380069041279 0.00016451966451163378 0 -0.043432334020293048 1.7905978165341673e-06 0 -0.040493421103225166 -3.0946911760621344e-07 0 -0.044120451970807356 3.4398437127030628e-07 0 -0.045869652964285655 0.00092688172891633046 0 -0.044111720563859848 -1.3116207050530479e-06 0 -0.04344455634527343 1.2876930589115161e-06 0 -0.044177451828567187 1.3270900326039402e-05 0 -0.047517086149789736 0.0019316785236180207 0 -0.047794560048271845 1.7583858871600353e-05 0 -0.04840101912604021 0.0017698378091428478 0 -0.050433779089660118 1.7189646861957638e-08 0 -0.044126640912687476 4.1514023878236185e-06 0 -0.047794560048271845 1.7583858871600353e-05 0 -0.044126640912687476 4.1514023878236185e-06 0 -0.047517086149789736 0.0019316785236180207 0 -0.047794560048271845 1.7583858871600353e-05 0 -0.048668029666461846 6.4345935787364801e-05 0 -0.047794560048271845 1.7583858871600353e-05 0 -0.048564675414378491 0.00062284074883306667 0 -0.049184660936590602 0.0004079521706504456 0 -0.048564675414378491 0.00062284074883306667 0 -0.049129159367142877 0.0013149050350220648 0 -0.048668029666461846 6.4345935787364801e-05 0 -0.049184660936590602 0.0004079521706504456 0 -0.048564675414378491 0.00062284074883306667 0 -0.049184660936590602 0.0004079521706504456 0 -0.050609225562780087 0.00075422263234959936 0 -0.049129159367142877 0.0013149050350220648 0 -0.048310499552760081 0.0028289155735311397 0 -0.049129159367142877 0.0013149050350220648 0 -0.04840101912604021 0.0017698378091428478 0 -0.048564675414378491 0.00062284074883306667 0 -0.049129159367142877 0.0013149050350220648 0 -0.04840101912604021 0.0017698378091428478 0 -0.047794560048271845 1.7583858871600353e-05 0 -0.048564675414378491 0.00062284074883306667 0 -0.04840101912604021 0.0017698378091428478 0 -0.048865219251597723 0.0020004157353400347 0 -0.049185641077775018 0.0022705906882251547 0 -0.048825690104793047 0.002433980664984803 0 -0.048865219251597723 0.0020004157353400347 0 -0.049185641077775018 0.0022705906882251547 0 -0.049472587465650752 0.0020292283312995209 0 -0.049185641077775018 0.0022705906882251547 0 -0.049488882959273575 0.0022657797294967901 0 -0.049472587465650752 0.0020292283312995209 0 -0.049488882959273575 0.0022657797294967901 0 -0.049627160742431238 0.0022391075524242844 0 -0.049472587465650752 0.0020292283312995209 0 -0.049185641077775018 0.0022705906882251547 0 -0.049488882959273575 0.0022657797294967901 0 -0.049200552892441234 0.0026322757720359104 0 -0.052563224117712276 0.0017296666462890439 0 -0.052363270166949853 0.00045260035168183664 0 -0.0499251512043863 0.0013474628990191666 0 -0.05067436844968369 0.0023365254406339888 0 -0.050014387893820178 0.0021577573688369447 0 -0.049488882959273575 0.0022657797294967901 0 -0.049200552892441234 0.0026322757720359104 0 -0.04985788200328635 0.0021836275289001191 0 -0.049185641077775018 0.0022705906882251547 0 -0.049200552892441234 0.0026322757720359104 0 -0.048825690104793047 0.002433980664984803 0 -0.054965731676343242 -3.120364788336756e-05 0 -0.054985901087672748 -4.4872421364494701e-05 0 -0.054856650542138292 -6.6928140447327264e-05 0 -0.05384716865096497 0.00072691138860574817 0 -0.052363270166949853 0.00045260035168183664 0 -0.054856650542138292 -6.6928140447327264e-05 0 -0.053591994770050222 0.00018227917975075167 0 -0.054791103047630178 -6.121558527169999e-05 0 -0.052563224117712276 0.0017296666462890439 0 -0.05384716865096497 0.00072691138860574817 0 -0.052363270166949853 0.00045260035168183664 0 -0.054965731676343242 -3.120364788336756e-05 0 -0.054989308528703859 -2.0841932203894005e-05 0 -0.054985901087672748 -4.4872421364494701e-05 0 -0.054965731676343242 -3.120364788336756e-05 0 -0.054999961748605761 3.8198806169397875e-08 0 -0.054856650542138292 -6.6928140447327264e-05 0 -0.054965731676343242 -3.120364788336756e-05 0 -0.054999961748605761 3.8198806169397875e-08 0 -0.054989308528703859 -2.0841932203894005e-05 0 -0.055000003215415053 -5.7450170860739055e-08 0 -0.054989308528703859 -2.0841932203894005e-05 0 -0.054983981250699941 -2.7037550288071653e-05 0 -0.054999961748605761 3.8198806169397875e-08 0 -0.055000003215415053 -5.7450170860739055e-08 0 -0.054989308528703859 -2.0841932203894005e-05 0 -0.053591994770050222 0.00018227917975075167 0 -0.052917406193274744 0.0010950991656927609 0 -0.054985901087672748 -4.4872421364494701e-05 0 -0.054983981250699941 -2.7037550288071653e-05 0 -0.054959023404463167 -4.5096459543393295e-06 0 -0.054989308528703859 -2.0841932203894005e-05 0 -0.054985901087672748 -4.4872421364494701e-05 0 -0.054983981250699941 -2.7037550288071653e-05 0 -0.055041057446891493 7.1386071536640405e-05 0 -0.055010605268278938 8.6849209371409934e-05 0 -0.055064276569139113 0.0001581416649584217 0 -0.05510436227563522 -0.0002199359167904749 0 -0.052917406193274744 0.0010950991656927609 0 -0.055000986547019869 4.4245141040102661e-07 0 -0.055041057446891493 7.1386071536640405e-05 0 -0.055010605268278938 8.6849209371409934e-05 0 -0.054999938322491407 2.571346580191731e-07 0 -0.05510436227563522 -0.0002199359167904749 0 -0.051456015757210476 0.0025277113545338621 0 -0.051636525542005894 0.0018210158066418755 0 -0.052400546924550054 0.0021878058328010908 0 -0.052917406193274744 0.0010950991656927609 0 -0.05378052023766202 0.0012565034919528924 0 -0.055010605268278938 8.6849209371409934e-05 0 -0.055064276569139113 0.0001581416649584217 0 -0.055042522194962085 0.00027189455670666146 0 -0.0499251512043863 0.0013474628990191666 0 -0.04985788200328635 0.0021836275289001191 0 -0.049682759025848407 0.0024161969409263492 0 -0.052917406193274744 0.0010950991656927609 0 -0.050771098703481267 0.0022347731188058734 0 -0.052563224117712276 0.0017296666462890439 0 -0.0499251512043863 0.0013474628990191666 0 -0.04985788200328635 0.0021836275289001191 0 -0.04985788200328635 0.0021836275289001191 0 -0.049682759025848407 0.0024161969409263492 0 -0.049627160742431238 0.0022391075524242844 0 -0.049682759025848407 0.0024161969409263492 0 -0.049627160742431238 0.0022391075524242844 0 -0.049749218101651491 0.0020900338062950982 0 -0.049488882959273575 0.0022657797294967901 0 -0.04985788200328635 0.0021836275289001191 0 -0.049627160742431238 0.0022391075524242844 0 -0.051636525542005894 0.0018210158066418755 0 -0.052085480044098867 0.0016441387751103312 0 -0.051788902033811902 0.0010727405456951429 0 -0.051636525542005894 0.0018210158066418755 0 -0.052085480044098867 0.0016441387751103312 0 -0.052400546924550054 0.0021878058328010908 0 -0.055000986547019869 4.4245141040102661e-07 0 -0.055010605268278938 8.6849209371409934e-05 0 -0.054998421943582607 -5.0453803751700225e-07 0 -0.054110310211040721 0.0011783266200713696 0 -0.05378052023766202 0.0012565034919528924 0 -0.05250810808749929 0.0014708739644532331 0 -0.053386938361193521 0.0017914319155707308 0 -0.052400546924550054 0.0021878058328010908 0 -0.052085480044098867 0.0016441387751103312 0 -0.05250810808749929 0.0014708739644532331 0 -0.052400546924550054 0.0021878058328010908 0 -0.054930604002348435 0.00056416606693037504 0 -0.05489476385627446 0.00016608906252678918 0 -0.055042522194962085 0.00027189455670666146 0 -0.055010605268278938 8.6849209371409934e-05 0 -0.05489476385627446 0.00016608906252678918 0 -0.055042522194962085 0.00027189455670666146 0 -0.055010605268278938 8.6849209371409934e-05 0 -0.05489476385627446 0.00016608906252678918 0 -0.054998421943582607 -5.0453803751700225e-07 0 -0.05489476385627446 0.00016608906252678918 0 -0.054998421943582607 -5.0453803751700225e-07 0 -0.054516566359867985 2.2526115467025163e-05 0 -0.054615973836572171 -0.00030410204203565089 0 -0.054998421943582607 -5.0453803751700225e-07 0 -0.054516566359867985 2.2526115467025163e-05 0 -0.053931991530231926 0.00047980391577483162 0 -0.054516566359867985 2.2526115467025163e-05 0 -0.054510994103744347 0.00042495153018356948 0 -0.054930604002348435 0.00056416606693037504 0 -0.05489476385627446 0.00016608906252678918 0 -0.054510994103744347 0.00042495153018356948 0 -0.05489476385627446 0.00016608906252678918 0 -0.054516566359867985 2.2526115467025163e-05 0 -0.054510994103744347 0.00042495153018356948 0 -0.054930604002348435 0.00056416606693037504 0 -0.054510994103744347 0.00042495153018356948 0 -0.054158253965977725 0.0011651747271460783 0 -0.053386938361193521 0.0017914319155707308 0 -0.054158253965977725 0.0011651747271460783 0 -0.053593046331947086 0.0012167951612699877 0 -0.054110310211040721 0.0011783266200713696 0 -0.054139571645059989 0.0011786617899475977 0 -0.053931991530231926 0.00047980391577483162 0 -0.053638935181552008 0.00095262152581915478 0 -0.054158253965977725 0.0011651747271460783 0 -0.053931991530231926 0.00047980391577483162 0 -0.054510994103744347 0.00042495153018356948 0 -0.054158253965977725 0.0011651747271460783 0 -0.054158253965977725 0.0011651747271460783 0 -0.053816434749990878 0.0013911294976316749 0 -0.05392176652522971 0.0011671937235895307 0 -0.053717098753788127 0.0012792839925103068 0 -0.054158253965977725 0.0011651747271460783 0 -0.053816434749990878 0.0013911294976316749 0 -0.053638935181552008 0.00095262152581915478 0 -0.053717098753788127 0.0012792839925103068 0 -0.054158253965977725 0.0011651747271460783 0 -0.054158253965977725 0.0011651747271460783 0 -0.053593046331947086 0.0012167951612699877 0 -0.05392176652522971 0.0011671937235895307 0 -0.033900000825378154 0.00043576686746769059 0 -0.033630221008664439 0.00095998371483183541 0 -0.035325605213865803 0.0010494545891500066 0 -0.045131143860955715 0.0026862989772702211 0 -0.043597961629752269 0.00065493871510555852 0 -0.033877603048117107 0.0008522807667187824 0 -0.033900000825378154 0.00043576686746769059 0 -0.033630221008664439 0.00095998371483183541 0 -0.053564264960469989 0.0017815790989712593 0 -0.053816434749990878 0.0013911294976316749 0 -0.05392176652522971 0.0011671937235895307 0 -0.034028101208718908 0.00065915786366121097 0 -0.033630221008664439 0.00095998371483183541 0 -0.033604047573155778 0.00051526210708393411 0 -0.034028101208718908 0.00065915786366121097 0 -0.033604047573155778 0.00051526210708393411 0 -0.033650757981958476 5.0291894740828076e-05 0 -0.033604047573155778 0.00051526210708393411 0 -0.033049776397612578 0.0001509778292336386 0 -0.033650757981958476 5.0291894740828076e-05 0 -0.033049776397612578 0.0001509778292336386 0 -0.033036284110182348 0.00062211545719463026 0 -0.032427222767596992 0.00067328230857460151 0 -0.033604047573155778 0.00051526210708393411 0 -0.033049776397612578 0.0001509778292336386 0 -0.033036284110182348 0.00062211545719463026 0 -0.033630221008664439 0.00095998371483183541 0 -0.033036284110182348 0.00062211545719463026 0 -0.032239645264494528 0.0012420354027692932 0 -0.033668448908516974 0.00099371272670759829 0 -0.033814171310984471 0.0011129248246960362 0 -0.033630221008664439 0.00095998371483183541 0 -0.033604047573155778 0.00051526210708393411 0 -0.033036284110182348 0.00062211545719463026 0 -0.033036284110182348 0.00062211545719463026 0 -0.032239645264494528 0.0012420354027692932 0 -0.032427222767596992 0.00067328230857460151 0 -0.032239645264494528 0.0012420354027692932 0 -0.032427222767596992 0.00067328230857460151 0 -0.03187702590381214 0.00070616604553923562 0 -0.033049776397612578 0.0001509778292336386 0 -0.032427222767596992 0.00067328230857460151 0 -0.032296538326994584 -0.00012422837310569848 0 -0.032427222767596992 0.00067328230857460151 0 -0.031466931660169048 -4.0199185570947964e-05 0 -0.032296538326994584 -0.00012422837310569848 0 -0.03187702590381214 0.00070616604553923562 0 -0.031374337486231252 0.00066352868023803466 0 -0.031681692097566508 -7.3499244078385333e-05 0 -0.032363578686963879 0.00063339214871423102 0 -0.031590558571683351 -5.3266069168903774e-05 0 -0.032427222767596992 0.00067328230857460151 0 -0.03187702590381214 0.00070616604553923562 0 -0.031681692097566508 -7.3499244078385333e-05 0 -0.03187702590381214 0.00070616604553923562 0 -0.031682608666610955 0.0010465776673641797 0 -0.031374337486231252 0.00066352868023803466 0 -0.032239645264494528 0.0012420354027692932 0 -0.03187702590381214 0.00070616604553923562 0 -0.031682608666610955 0.0010465776673641797 0 -0.032239645264494528 0.0012420354027692932 0 -0.031682608666610955 0.0010465776673641797 0 -0.031272773504634484 0.0013457357344805604 0 -0.035733937939756703 -0.00010082603886743279 0 -0.037561454223541221 0.00048812051805112487 0 -0.037420401423480978 0.00064228434907836671 0 -0.033814171310984471 0.0011129248246960362 0 -0.034330430034441965 0.000997401091495413 0 -0.035325605213865803 0.0010494545891500066 0 -0.035733937939756703 -0.00010082603886743279 0 -0.037420401423480978 0.00064228434907836671 0 -0.043597961629752269 0.00065493871510555852 0 -0.044496301228174537 0.0003983777351219639 0 -0.033900000825378154 0.00043576686746769059 0 -0.035325605213865803 0.0010494545891500066 0 -0.035733937939756703 -0.00010082603886743279 0 -0.05250810808749929 0.0014708739644532331 0 -0.053386938361193521 0.0017914319155707308 0 -0.052990643661179643 0.0009087733572859598 0 -0.053593046331947086 0.0012167951612699877 0 -0.05392176652522971 0.0011671937235895307 0 -0.052990643661179643 0.0009087733572859598 0 -0.053386938361193521 0.0017914319155707308 0 -0.053593046331947086 0.0012167951612699877 0 -0.052990643661179643 0.0009087733572859598 0 -0.05250810808749929 0.0014708739644532331 0 -0.052990643661179643 0.0009087733572859598 0 -0.051788902033811902 0.0010727405456951429 0 -0.044496301228174537 0.0003983777351219639 0 -0.044490427539859573 0.00060903313706891821 0 -0.052085480044098867 0.0016441387751103312 0 -0.05250810808749929 0.0014708739644532331 0 -0.051788902033811902 0.0010727405456951429 0 -0.050771098703481267 0.0022347731188058734 0 -0.044490427539859573 0.00060903313706891821 0 -0.035733937939756703 -0.00010082603886743279 0 -0.03786993378791001 -0.00045607761776917316 0 -0.037561454223541221 0.00048812051805112487 0 -0.044490427539859573 0.00060903313706891821 0 -0.038958287955300396 0.00096092171651567524 0 -0.044490427539859573 0.00060903313706891821 0 -0.043804455899527757 0.0010641165074483886 0 -0.049627160742431238 0.0022391075524242844 0 -0.049749218101651491 0.0020900338062950982 0 -0.049472587465650752 0.0020292283312995209 0 -0.037764912865147493 1.896274431711719e-05 0 -0.038538644322282746 0.00033182159193094653 0 -0.038678532822033616 -4.6742048492050748e-05 0 -0.034330430034441965 0.000997401091495413 0 -0.034501690322747372 0.00088909100365671214 0 -0.037764912865147493 1.896274431711719e-05 0 -0.037561454223541221 0.00048812051805112487 0 -0.038538644322282746 0.00033182159193094653 0 -0.03067312980357198 0.0012328793768879051 0 -0.031272773504634484 0.0013457357344805604 0 -0.030377150358398355 0.0014822456585574736 0 -0.03067312980357198 0.0012328793768879051 0 -0.030228448565521499 0.0010606339312419595 0 -0.030377150358398355 0.0014822456585574736 0 -0.03067312980357198 0.0012328793768879051 0 -0.030645569479479641 0.00097088996910962779 0 -0.030228448565521499 0.0010606339312419595 0 -0.03067312980357198 0.0012328793768879051 0 -0.030947820127501583 0.0011757148203547011 0 -0.030645569479479641 0.00097088996910962779 0 -0.030947820127501583 0.0011757148203547011 0 -0.031152684299542679 0.0011364701872565238 0 -0.031272773504634484 0.0013457357344805604 0 -0.037561454223541221 0.00048812051805112487 0 -0.037420401423480978 0.00064228434907836671 0 -0.038538644322282746 0.00033182159193094653 0 -0.03067312980357198 0.0012328793768879051 0 -0.030947820127501583 0.0011757148203547011 0 -0.031272773504634484 0.0013457357344805604 0 -0.031682608666610955 0.0010465776673641797 0 -0.031272773504634484 0.0013457357344805604 0 -0.031328239899013725 0.0010568517238140219 0 -0.031152684299542679 0.0011364701872565238 0 -0.031272773504634484 0.0013457357344805604 0 -0.031328239899013725 0.0010568517238140219 0 -0.031682608666610955 0.0010465776673641797 0 -0.031328239899013725 0.0010568517238140219 0 -0.031374337486231252 0.00066352868023803466 0 -0.031328239899013725 0.0010568517238140219 0 -0.03106302673473426 0.00096483031175998173 0 -0.031374337486231252 0.00066352868023803466 0 -0.03106302673473426 0.00096483031175998173 0 -0.031374337486231252 0.00066352868023803466 0 -0.030781869476483772 0.0006143694878873975 0 -0.030947820127501583 0.0011757148203547011 0 -0.031152684299542679 0.0011364701872565238 0 -0.03106302673473426 0.00096483031175998173 0 -0.031152684299542679 0.0011364701872565238 0 -0.031328239899013725 0.0010568517238140219 0 -0.03106302673473426 0.00096483031175998173 0 -0.031374337486231252 0.00066352868023803466 0 -0.03097874084472994 0.00010653510656874508 0 -0.030781869476483772 0.0006143694878873975 0 -0.031374337486231252 0.00066352868023803466 0 -0.03097874084472994 0.00010653510656874508 0 -0.031681692097566508 -7.3499244078385333e-05 0 -0.03048360853085497 0.00032751330091002133 0 -0.030781869476483772 0.0006143694878873975 0 -0.030237615947700174 0.00065184888308609829 0 -0.03097874084472994 0.00010653510656874508 0 -0.03048360853085497 0.00032751330091002133 0 -0.030414041966183469 -0.00019859389850986544 0 -0.03097874084472994 0.00010653510656874508 0 -0.03048360853085497 0.00032751330091002133 0 -0.030781869476483772 0.0006143694878873975 0 -0.030781869476483772 0.0006143694878873975 0 -0.030645569479479641 0.00097088996910962779 0 -0.030237615947700174 0.00065184888308609829 0 -0.03106302673473426 0.00096483031175998173 0 -0.030781869476483772 0.0006143694878873975 0 -0.030645569479479641 0.00097088996910962779 0 -0.030947820127501583 0.0011757148203547011 0 -0.03106302673473426 0.00096483031175998173 0 -0.030645569479479641 0.00097088996910962779 0 -0.030645569479479641 0.00097088996910962779 0 -0.030237615947700174 0.00065184888308609829 0 -0.030228448565521499 0.0010606339312419595 0 -0.030237615947700174 0.00065184888308609829 0 -0.029927984053604025 0.00027514343971994448 0 -0.02972175073649868 0.0007519536642516594 0 -0.030237615947700174 0.00065184888308609829 0 -0.02972175073649868 0.0007519536642516594 0 -0.030228448565521499 0.0010606339312419595 0 -0.02972175073649868 0.0007519536642516594 0 -0.02984421790227481 0.0012142359345019939 0 -0.030228448565521499 0.0010606339312419595 0 -0.03048360853085497 0.00032751330091002133 0 -0.029927984053604025 0.00027514343971994448 0 -0.030414041966183469 -0.00019859389850986544 0 -0.03048360853085497 0.00032751330091002133 0 -0.030237615947700174 0.00065184888308609829 0 -0.029927984053604025 0.00027514343971994448 0 -0.029927984053604025 0.00027514343971994448 0 -0.029327544470912448 0.00017626457157762985 0 -0.02972175073649868 0.0007519536642516594 0 -0.029927984053604025 0.00027514343971994448 0 -0.029327544470912448 0.00017626457157762985 0 -0.029819171049945307 -0.00029535743122162785 0 -0.02972175073649868 0.0007519536642516594 0 -0.029364418447667327 0.0011556147323583507 0 -0.029195095810276229 0.00068693736269600343 0 -0.029327544470912448 0.00017626457157762985 0 -0.02972175073649868 0.0007519536642516594 0 -0.029195095810276229 0.00068693736269600343 0 -0.02984421790227481 0.0012142359345019939 0 -0.02955261962055955 0.0016214884111873983 0 -0.029364418447667327 0.0011556147323583507 0 -0.02972175073649868 0.0007519536642516594 0 -0.02984421790227481 0.0012142359345019939 0 -0.029364418447667327 0.0011556147323583507 0 -0.02984421790227481 0.0012142359345019939 0 -0.030377150358398355 0.0014822456585574736 0 -0.02955261962055955 0.0016214884111873983 0 -0.02984421790227481 0.0012142359345019939 0 -0.030228448565521499 0.0010606339312419595 0 -0.030377150358398355 0.0014822456585574736 0 -0.034501690322747372 0.00088909100365671214 0 -0.034180125508325269 0.00096928852017177936 0 -0.038538644322282746 0.00033182159193094653 0 -0.038678532822033616 -4.6742048492050748e-05 0 -0.03918120067765609 0.00012024496181788056 0 -0.044481909344682533 0.00095329247292206989 0 -0.043804455899527757 0.0010641165074483886 0 -0.03923764900811446 -7.7559601959494804e-05 0 -0.038678532822033616 -4.6742048492050748e-05 0 -0.03918120067765609 0.00012024496181788056 0 -0.019788478338226778 -0.00060162766960552151 0 -0.019382753178275845 -0.00012216328039395212 0 -0.020354126206855172 -0.00043529028648472523 0 -0.019788478338226778 -0.00060162766960552151 0 -0.019429947825086103 -0.00060784657264702224 0 -0.019759599067383591 -0.0009247643158550278 0 -0.019788478338226778 -0.00060162766960552151 0 -0.019759599067383591 -0.0009247643158550278 0 -0.020174835985191361 -0.00092365952697193241 0 -0.019788478338226778 -0.00060162766960552151 0 -0.019429947825086103 -0.00060784657264702224 0 -0.019382753178275845 -0.00012216328039395212 0 -0.021496721591519035 -0.0014615024124331451 0 -0.022944007205385444 -0.0029032789398482943 0 -0.021159203752786942 -0.0014848691357274295 0 -0.019429947825086103 -0.00060784657264702224 0 -0.019216802888890973 -0.00027158056595200672 0 -0.019382753178275845 -0.00012216328039395212 0 -0.018991683669013229 -0.00047555296838413456 0 -0.019429947825086103 -0.00060784657264702224 0 -0.019216802888890973 -0.00027158056595200672 0 -0.018991683669013229 -0.00047555296838413456 0 -0.019429947825086103 -0.00060784657264702224 0 -0.019445417789037026 -0.0012449683321590931 0 -0.019754559228415625 -0.00080845209557334945 0 -0.025000040691896791 -0.0016728768222128306 0 -0.018991683669013229 -0.00047555296838413456 0 -0.019086857856222782 -0.00020613472677624079 0 -0.019216802888890973 -0.00027158056595200672 0 -0.025000040691896791 -0.0016728768222128306 0 -0.025952241737229296 -0.0018759519531259985 0 -0.030148466055057256 -0.0014560799086105513 0 -0.029679857868908838 -0.0013697358088368482 0 -0.030233258310665589 -0.0019755759109979154 0 -0.030148466055057256 -0.0014560799086105513 0 -0.029679857868908838 -0.0013697358088368482 0 -0.029814126792916687 -0.0010890305746227131 0 -0.019445417789037026 -0.0012449683321590931 0 -0.019986730754126374 -0.0012803726147704859 0 -0.020219773281047571 -0.0019637069452687751 0 -0.029509276777281879 -0.0011361378995916247 0 -0.029651430656286417 -0.0013434687960049484 0 -0.029175591206215504 -0.00080309377651518977 0 -0.029509276777281879 -0.0011361378995916247 0 -0.029679857868908838 -0.0013697358088368482 0 -0.029814126792916687 -0.0010890305746227131 0 -0.027956818587835951 -0.0024734094884592303 0 -0.025000040691896791 -0.0016728768222128306 0 -0.019445417789037026 -0.0012449683321590931 0 -0.019759599067383591 -0.0009247643158550278 0 -0.019986730754126374 -0.0012803726147704859 0 -0.019429947825086103 -0.00060784657264702224 0 -0.019445417789037026 -0.0012449683321590931 0 -0.019759599067383591 -0.0009247643158550278 0 -0.019759599067383591 -0.0009247643158550278 0 -0.019986730754126374 -0.0012803726147704859 0 -0.020174835985191361 -0.00092365952697193241 0 -0.029509276777281879 -0.0011361378995916247 0 -0.029609266334510175 -0.0007333839421275369 0 -0.029175591206215504 -0.00080309377651518977 0 -0.025000040691896791 -0.0016728768222128306 0 -0.024347941267359209 -0.0012337055879920828 0 -0.029509276777281879 -0.0011361378995916247 0 -0.029609266334510175 -0.0007333839421275369 0 -0.029814126792916687 -0.0010890305746227131 0 -0.029609266334510175 -0.0007333839421275369 0 -0.029288037750188199 -0.00033677000260294484 0 -0.029175591206215504 -0.00080309377651518977 0 -0.029327544470912448 0.00017626457157762985 0 -0.029288037750188199 -0.00033677000260294484 0 -0.029819171049945307 -0.00029535743122162785 0 -0.029609266334510175 -0.0007333839421275369 0 -0.029288037750188199 -0.00033677000260294484 0 -0.029819171049945307 -0.00029535743122162785 0 -0.029819171049945307 -0.00029535743122162785 0 -0.030121616727702596 -0.00075174379190911785 0 -0.030414041966183469 -0.00019859389850986544 0 -0.029927984053604025 0.00027514343971994448 0 -0.029819171049945307 -0.00029535743122162785 0 -0.030414041966183469 -0.00019859389850986544 0 -0.030148466055057256 -0.0014560799086105513 0 -0.030121616727702596 -0.00075174379190911785 0 -0.029814126792916687 -0.0010890305746227131 0 -0.029609266334510175 -0.0007333839421275369 0 -0.029819171049945307 -0.00029535743122162785 0 -0.030121616727702596 -0.00075174379190911785 0 -0.029609266334510175 -0.0007333839421275369 0 -0.030121616727702596 -0.00075174379190911785 0 -0.029814126792916687 -0.0010890305746227131 0 -0.030148466055057256 -0.0014560799086105513 0 -0.030121616727702596 -0.00075174379190911785 0 -0.030967696312694366 -0.00075525112912976241 0 -0.030121616727702596 -0.00075174379190911785 0 -0.030414041966183469 -0.00019859389850986544 0 -0.030967696312694366 -0.00075525112912976241 0 -0.030192174680699891 -0.0014149113721305452 0 -0.030820036250162879 -0.0007969004048192787 0 -0.03097874084472994 0.00010653510656874508 0 -0.030414041966183469 -0.00019859389850986544 0 -0.030967696312694366 -0.00075525112912976241 0 -0.03097874084472994 0.00010653510656874508 0 -0.030967696312694366 -0.00075525112912976241 0 -0.031681692097566508 -7.3499244078385333e-05 0 -0.030820036250162879 -0.0007969004048192787 0 -0.031590558571683351 -5.3266069168903774e-05 0 -0.030684934118272049 -0.00083010501257762897 0 -0.031021646916080264 -0.0017368661362911696 0 -0.031414796806087705 -0.0013824850654239665 0 -0.030684934118272049 -0.00083010501257762897 0 -0.031021646916080264 -0.0017368661362911696 0 -0.030548684009124086 -0.0016124176051944862 0 -0.030148466055057256 -0.0014560799086105513 0 -0.030684934118272049 -0.00083010501257762897 0 -0.030548684009124086 -0.0016124176051944862 0 -0.030148466055057256 -0.0014560799086105513 0 -0.030548684009124086 -0.0016124176051944862 0 -0.030233258310665589 -0.0019755759109979154 0 -0.030548684009124086 -0.0016124176051944862 0 -0.030233258310665589 -0.0019755759109979154 0 -0.030696599064262045 -0.0021041010148532021 0 -0.021496721591519035 -0.0014615024124331451 0 -0.021159203752786942 -0.0014848691357274295 0 -0.020178276695993664 -0.00018215919431598975 0 -0.030233258310665589 -0.0019755759109979154 0 -0.030696599064262045 -0.0021041010148532021 0 -0.030830148075147109 -0.0026080473198335338 0 -0.030696599064262045 -0.0021041010148532021 0 -0.031147332772271569 -0.0022348386876090997 0 -0.030937066222734972 -0.0023572373209590305 0 -0.031021646916080264 -0.0017368661362911696 0 -0.030696599064262045 -0.0021041010148532021 0 -0.031147332772271569 -0.0022348386876090997 0 -0.031021646916080264 -0.0017368661362911696 0 -0.030548684009124086 -0.0016124176051944862 0 -0.030696599064262045 -0.0021041010148532021 0 -0.031021646916080264 -0.0017368661362911696 0 -0.031476852836723433 -0.0019269823520194737 0 -0.031147332772271569 -0.0022348386876090997 0 -0.031476852836723433 -0.0019269823520194737 0 -0.031147332772271569 -0.0022348386876090997 0 -0.031478995363555404 -0.0024425751558695094 0 -0.031476852836723433 -0.0019269823520194737 0 -0.031854794117272808 -0.002125305121868001 0 -0.031478995363555404 -0.0024425751558695094 0 -0.031854794117272808 -0.002125305121868001 0 -0.032023470182561187 -0.0015620058446642437 0 -0.032459711002292203 -0.0019789580042067134 0 -0.031476852836723433 -0.0019269823520194737 0 -0.031854794117272808 -0.002125305121868001 0 -0.032023470182561187 -0.0015620058446642437 0 -0.032023470182561187 -0.0015620058446642437 0 -0.031414796806087705 -0.0013824850654239665 0 -0.031849926795172907 -0.00081949126519770482 0 -0.031476852836723433 -0.0019269823520194737 0 -0.032023470182561187 -0.0015620058446642437 0 -0.031414796806087705 -0.0013824850654239665 0 -0.031021646916080264 -0.0017368661362911696 0 -0.031476852836723433 -0.0019269823520194737 0 -0.031414796806087705 -0.0013824850654239665 0 -0.030684934118272049 -0.00083010501257762897 0 -0.031414796806087705 -0.0013824850654239665 0 -0.031849926795172907 -0.00081949126519770482 0 -0.030684934118272049 -0.00083010501257762897 0 -0.031466931660169048 -4.0199185570947964e-05 0 -0.031849926795172907 -0.00081949126519770482 0 -0.032296538326994584 -0.00012422837310569848 0 -0.031849926795172907 -0.00081949126519770482 0 -0.03267793453674691 -0.00059694269781021623 0 -0.031466931660169048 -4.0199185570947964e-05 0 -0.032296538326994584 -0.00012422837310569848 0 -0.031849926795172907 -0.00081949126519770482 0 -0.032023470182561187 -0.0015620058446642437 0 -0.031849926795172907 -0.00081949126519770482 0 -0.032488796325545917 -0.0011213954589031818 0 -0.031849926795172907 -0.00081949126519770482 0 -0.032488796325545917 -0.0011213954589031818 0 -0.03267793453674691 -0.00059694269781021623 0 -0.032488796325545917 -0.0011213954589031818 0 -0.03267793453674691 -0.00059694269781021623 0 -0.033107874532319635 -0.0010719009125068858 0 -0.03267793453674691 -0.00059694269781021623 0 -0.033272739528507227 -0.00051267390614814464 0 -0.033107874532319635 -0.0010719009125068858 0 -0.033049776397612578 0.0001509778292336386 0 -0.03267793453674691 -0.00059694269781021623 0 -0.033272739528507227 -0.00051267390614814464 0 -0.033049776397612578 0.0001509778292336386 0 -0.032296538326994584 -0.00012422837310569848 0 -0.03267793453674691 -0.00059694269781021623 0 -0.033049776397612578 0.0001509778292336386 0 -0.033650757981958476 5.0291894740828076e-05 0 -0.033272739528507227 -0.00051267390614814464 0 -0.033650757981958476 5.0291894740828076e-05 0 -0.033741922509906049 -0.00051655475409321432 0 -0.033272739528507227 -0.00051267390614814464 0 -0.033741922509906049 -0.00051655475409321432 0 -0.033272739528507227 -0.00051267390614814464 0 -0.033565947870152067 -0.00097579431682745478 0 -0.033272739528507227 -0.00051267390614814464 0 -0.033107874532319635 -0.0010719009125068858 0 -0.033565947870152067 -0.00097579431682745478 0 -0.033107874532319635 -0.0010719009125068858 0 -0.032677599277730444 -0.0015168018801321619 0 -0.033367247304973584 -0.0018243275429602342 0 -0.033107874532319635 -0.0010719009125068858 0 -0.033565947870152067 -0.00097579431682745478 0 -0.033367247304973584 -0.0018243275429602342 0 -0.033565947870152067 -0.00097579431682745478 0 -0.033367247304973584 -0.0018243275429602342 0 -0.034128325340645943 -0.00099540342788397105 0 -0.032677599277730444 -0.0015168018801321619 0 -0.032459711002292203 -0.0019789580042067134 0 -0.033367247304973584 -0.0018243275429602342 0 -0.032488796325545917 -0.0011213954589031818 0 -0.033107874532319635 -0.0010719009125068858 0 -0.032677599277730444 -0.0015168018801321619 0 -0.032023470182561187 -0.0015620058446642437 0 -0.032488796325545917 -0.0011213954589031818 0 -0.032677599277730444 -0.0015168018801321619 0 -0.032023470182561187 -0.0015620058446642437 0 -0.032677599277730444 -0.0015168018801321619 0 -0.032459711002292203 -0.0019789580042067134 0 -0.032459711002292203 -0.0019789580042067134 0 -0.033367247304973584 -0.0018243275429602342 0 -0.032400305458951957 -0.002625791996030248 0 -0.031854794117272808 -0.002125305121868001 0 -0.032459711002292203 -0.0019789580042067134 0 -0.032400305458951957 -0.002625791996030248 0 -0.035840198107834016 0.0021226822131195735 0 -0.03591845380569901 -0.00049404523159198477 0 -0.036895775727217403 0.00089954392965531057 0 -0.034404835215875791 0.00027423405302521079 0 -0.032946395868706416 -0.0013393951950855737 0 -0.035840198107834016 0.0021226822131195735 0 -0.03591845380569901 -0.00049404523159198477 0 -0.033586060967235383 -6.2396081045737941e-05 0 -0.03591845380569901 -0.00049404523159198477 0 -0.033264280627079409 -0.0018990985373679059 0 -0.035884601554742782 -0.0020176408042381759 0 -0.03591845380569901 -0.00049404523159198477 0 -0.035884601554742782 -0.0020176408042381759 0 -0.03719655487277166 -0.0017993515114433348 0 -0.032946395868706416 -0.0013393951950855737 0 -0.031079890369000305 -0.0027246291955877943 0 -0.03591845380569901 -0.00049404523159198477 0 -0.033586060967235383 -6.2396081045737941e-05 0 -0.033264280627079409 -0.0018990985373679059 0 -0.033586060967235383 -6.2396081045737941e-05 0 -0.033264280627079409 -0.0018990985373679059 0 -0.03082485840883625 -0.0027799338909870767 0 -0.033264280627079409 -0.0018990985373679059 0 -0.03547984117591392 -0.0032767454408659229 0 -0.030616260884801769 -0.0029608265097555877 0 -0.02978377754441135 -0.0025153436780828171 0 -0.030506444685603876 -0.0029494830167543134 0 -0.033264280627079409 -0.0018990985373679059 0 -0.035884601554742782 -0.0020176408042381759 0 -0.03547984117591392 -0.0032767454408659229 0 -0.035884601554742782 -0.0020176408042381759 0 -0.03547984117591392 -0.0032767454408659229 0 -0.036570855903497158 -0.0020954439494134526 0 -0.024416649072578463 -0.0021222031521012531 0 -0.02326985988144345 -0.00035786293972705688 0 -0.023300875496075041 0.00059791299504054164 0 -0.02326985988144345 -0.00035786293972705688 0 -0.023300875496075041 0.00059791299504054164 0 -0.023161231272487481 6.9295167172709208e-05 0 -0.02359193397965462 0.00051271300990294493 0 -0.024590625960177415 5.9890383879070198e-05 0 -0.023300875496075041 0.00059791299504054164 0 -0.020252105125147534 0.0013254570998650628 0 -0.021049667140978324 0.0001999537260335714 0 -0.024416649072578463 -0.0021222031521012531 0 -0.023300875496075041 0.00059791299504054164 0 -0.028854744336025109 -0.00085791728482204055 0 -0.024416649072578463 -0.0021222031521012531 0 -0.028854744336025109 -0.00085791728482204055 0 -0.030616260884801769 -0.0029608265097555877 0 -0.019514848545165324 0.00082321275863420583 0 -0.020252105125147534 0.0013254570998650628 0 -0.019145903756135611 0.00068525193313425769 0 -0.024590625960177415 5.9890383879070198e-05 0 -0.02543750483228328 -0.001094862218368037 0 -0.028854744336025109 -0.00085791728482204055 0 -0.031718735710404011 -0.0029157138274746356 0 -0.030616260884801769 -0.0029608265097555877 0 -0.019514848545165324 0.00082321275863420583 0 -0.020252105125147534 0.0013254570998650628 0 -0.019835002387305695 0.00044272064386534121 0 -0.020252105125147534 0.0013254570998650628 0 -0.019835002387305695 0.00044272064386534121 0 -0.021049667140978324 0.0001999537260335714 0 -0.019514848545165324 0.00082321275863420583 0 -0.019835002387305695 0.00044272064386534121 0 -0.019377896590634418 0.00046572636181403779 0 -0.019835002387305695 0.00044272064386534121 0 -0.01908270796150326 0.00011857793340551621 0 -0.019377896590634418 0.00046572636181403779 0 -0.01908270796150326 0.00011857793340551621 0 -0.019146379603889714 0.00042351638979567667 0 -0.018917723302773973 0.00015863813783049605 0 -0.01908270796150326 0.00011857793340551621 0 -0.019377896590634418 0.00046572636181403779 0 -0.019146379603889714 0.00042351638979567667 0 -0.019514848545165324 0.00082321275863420583 0 -0.019377896590634418 0.00046572636181403779 0 -0.019146379603889714 0.00042351638979567667 0 -0.019514848545165324 0.00082321275863420583 0 -0.019178662788260119 0.00058172623442559837 0 -0.019145903756135611 0.00068525193313425769 0 -0.019146379603889714 0.00042351638979567667 0 -0.019178662788260119 0.00058172623442559837 0 -0.019011500386008649 0.00034113476989191887 0 -0.019514848545165324 0.00082321275863420583 0 -0.019146379603889714 0.00042351638979567667 0 -0.019178662788260119 0.00058172623442559837 0 -0.02543750483228328 -0.001094862218368037 0 -0.025228291591480292 -0.0013619112903253709 0 -0.031718735710404011 -0.0029157138274746356 0 -0.031407813988716463 -0.0027996762595087392 0 -0.031290585139939452 -0.002620005575104209 0 -0.019145903756135611 0.00068525193313425769 0 -0.019651102527750708 -0.00021398417970842752 0 -0.019249699632284529 0.0005065913247807518 0 -0.019178662788260119 0.00058172623442559837 0 -0.019145903756135611 0.00068525193313425769 0 -0.019249699632284529 0.0005065913247807518 0 -0.031718735710404011 -0.0029157138274746356 0 -0.030616260884801769 -0.0029608265097555877 0 -0.031202526330188728 -0.0028703529988997282 0 -0.030616260884801769 -0.0029608265097555877 0 -0.03082485840883625 -0.0027799338909870767 0 -0.031202526330188728 -0.0028703529988997282 0 -0.033264280627079409 -0.0018990985373679059 0 -0.030616260884801769 -0.0029608265097555877 0 -0.03082485840883625 -0.0027799338909870767 0 -0.031202526330188728 -0.0028703529988997282 0 -0.031407813988716463 -0.0027996762595087392 0 -0.031400463519862441 -0.0027441117346099189 0 -0.03082485840883625 -0.0027799338909870767 0 -0.031202526330188728 -0.0028703529988997282 0 -0.031400463519862441 -0.0027441117346099189 0 -0.031718735710404011 -0.0029157138274746356 0 -0.031202526330188728 -0.0028703529988997282 0 -0.031407813988716463 -0.0027996762595087392 0 -0.032400305458951957 -0.002625791996030248 0 -0.03082485840883625 -0.0027799338909870767 0 -0.031400463519862441 -0.0027441117346099189 0 -0.031407813988716463 -0.0027996762595087392 0 -0.031400463519862441 -0.0027441117346099189 0 -0.031709900857736908 -0.0025741216261531003 0 -0.032400305458951957 -0.002625791996030248 0 -0.031400463519862441 -0.0027441117346099189 0 -0.031709900857736908 -0.0025741216261531003 0 -0.031854794117272808 -0.002125305121868001 0 -0.032400305458951957 -0.002625791996030248 0 -0.031709900857736908 -0.0025741216261531003 0 -0.031854794117272808 -0.002125305121868001 0 -0.031709900857736908 -0.0025741216261531003 0 -0.031478995363555404 -0.0024425751558695094 0 -0.031407813988716463 -0.0027996762595087392 0 -0.031709900857736908 -0.0025741216261531003 0 -0.031478995363555404 -0.0024425751558695094 0 -0.031718735710404011 -0.0029157138274746356 0 -0.031290585139939452 -0.002620005575104209 0 -0.030830148075147109 -0.0026080473198335338 0 -0.031147332772271569 -0.0022348386876090997 0 -0.031290585139939452 -0.002620005575104209 0 -0.031054006762859642 -0.0024513918601484583 0 -0.031147332772271569 -0.0022348386876090997 0 -0.031478995363555404 -0.0024425751558695094 0 -0.031290585139939452 -0.002620005575104209 0 -0.031407813988716463 -0.0027996762595087392 0 -0.031478995363555404 -0.0024425751558695094 0 -0.031290585139939452 -0.002620005575104209 0 -0.019651102527750708 -0.00021398417970842752 0 -0.020178276695993664 -0.00018215919431598975 0 -0.019249699632284529 0.0005065913247807518 0 -0.031290585139939452 -0.002620005575104209 0 -0.030830148075147109 -0.0026080473198335338 0 -0.031054006762859642 -0.0024513918601484583 0 -0.030830148075147109 -0.0026080473198335338 0 -0.031054006762859642 -0.0024513918601484583 0 -0.030937066222734972 -0.0023572373209590305 0 -0.031147332772271569 -0.0022348386876090997 0 -0.031054006762859642 -0.0024513918601484583 0 -0.030937066222734972 -0.0023572373209590305 0 -0.030696599064262045 -0.0021041010148532021 0 -0.030830148075147109 -0.0026080473198335338 0 -0.030937066222734972 -0.0023572373209590305 0 -0.019754559228415625 -0.00080845209557334945 0 -0.019674242311167659 -0.0001462729271404101 0 -0.025952241737229296 -0.0018759519531259985 0 -0.025228291591480292 -0.0013619112903253709 0 -0.021159203752786942 -0.0014848691357274295 0 -0.019651102527750708 -0.00021398417970842752 0 -0.020178276695993664 -0.00018215919431598975 0 -0.018991683669013229 -0.00047555296838413456 0 -0.019028000988903612 -7.9834960441714883e-05 0 -0.018931591458685074 5.8923364517803025e-05 0 -0.018991683669013229 -0.00047555296838413456 0 -0.019028000988903612 -7.9834960441714883e-05 0 -0.019086857856222782 -0.00020613472677624079 0 -0.019028000988903612 -7.9834960441714883e-05 0 -0.019033965050510006 0.00011929123615501891 0 -0.019139399398510351 -5.9783809027631556e-05 0 -0.019028000988903612 -7.9834960441714883e-05 0 -0.018931591458685074 5.8923364517803025e-05 0 -0.019033965050510006 0.00011929123615501891 0 -0.019033965050510006 0.00011929123615501891 0 -0.019038893713800496 0.00026980278075464906 0 -0.019006445018160185 0.00021831541363855604 0 -0.018931591458685074 5.8923364517803025e-05 0 -0.019033965050510006 0.00011929123615501891 0 -0.019038893713800496 0.00026980278075464906 0 -0.019033965050510006 0.00011929123615501891 0 -0.019006445018160185 0.00021831541363855604 0 -0.019144110174011401 2.7700048519059856e-05 0 -0.019038893713800496 0.00026980278075464906 0 -0.019076066054971298 0.000361761979199111 0 -0.019006445018160185 0.00021831541363855604 0 -0.018931591458685074 5.8923364517803025e-05 0 -0.019038893713800496 0.00026980278075464906 0 -0.019249699632284529 0.0005065913247807518 0 -0.019674242311167659 -0.0001462729271404101 0 -0.019247893751850265 0.0004478166572576086 0 -0.019038893713800496 0.00026980278075464906 0 -0.019249699632284529 0.0005065913247807518 0 -0.019076066054971298 0.000361761979199111 0 -0.019178662788260119 0.00058172623442559837 0 -0.019249699632284529 0.0005065913247807518 0 -0.019076066054971298 0.000361761979199111 0 -0.019178662788260119 0.00058172623442559837 0 -0.019076066054971298 0.000361761979199111 0 -0.019011500386008649 0.00034113476989191887 0 -0.019076066054971298 0.000361761979199111 0 -0.019011500386008649 0.00034113476989191887 0 -0.019006445018160185 0.00021831541363855604 0 -0.019011500386008649 0.00034113476989191887 0 -0.018917723302773973 0.00015863813783049605 0 -0.01892470309971974 0.00016312334721776934 0 -0.019146379603889714 0.00042351638979567667 0 -0.019011500386008649 0.00034113476989191887 0 -0.018917723302773973 0.00015863813783049605 0 -0.018917723302773973 0.00015863813783049605 0 -0.01892470309971974 0.00016312334721776934 0 -0.018856441774913753 3.9994523667037437e-05 0 -0.01892470309971974 0.00016312334721776934 0 -0.019006445018160185 0.00021831541363855604 0 -0.019014705583816249 0.00010111089111512475 0 -0.019011500386008649 0.00034113476989191887 0 -0.01892470309971974 0.00016312334721776934 0 -0.019006445018160185 0.00021831541363855604 0 -0.019006445018160185 0.00021831541363855604 0 -0.019014705583816249 0.00010111089111512475 0 -0.019144110174011401 2.7700048519059856e-05 0 -0.019014705583816249 0.00010111089111512475 0 -0.019137325822205887 -1.6483250995810187e-05 0 -0.019144110174011401 2.7700048519059856e-05 0 -0.019014705583816249 0.00010111089111512475 0 -0.019063953215546093 5.1586054679221936e-05 0 -0.018917615809637189 0.00011359502208829112 0 -0.01892470309971974 0.00016312334721776934 0 -0.019014705583816249 0.00010111089111512475 0 -0.018917615809637189 0.00011359502208829112 0 -0.019014705583816249 0.00010111089111512475 0 -0.019063953215546093 5.1586054679221936e-05 0 -0.019137325822205887 -1.6483250995810187e-05 0 -0.019063953215546093 5.1586054679221936e-05 0 -0.019137325822205887 -1.6483250995810187e-05 0 -0.019261402310524485 -0.0001130736025023297 0 -0.019137325822205887 -1.6483250995810187e-05 0 -0.019258414857406175 -0.00014550465782572325 0 -0.019144110174011401 2.7700048519059856e-05 0 -0.019258414857406175 -0.00014550465782572325 0 -0.019144110174011401 2.7700048519059856e-05 0 -0.019382753178275845 -0.00012216328039395212 0 -0.019033965050510006 0.00011929123615501891 0 -0.019144110174011401 2.7700048519059856e-05 0 -0.019139399398510351 -5.9783809027631556e-05 0 -0.019144110174011401 2.7700048519059856e-05 0 -0.019139399398510351 -5.9783809027631556e-05 0 -0.019382753178275845 -0.00012216328039395212 0 -0.019139399398510351 -5.9783809027631556e-05 0 -0.019086857856222782 -0.00020613472677624079 0 -0.019216802888890973 -0.00027158056595200672 0 -0.019028000988903612 -7.9834960441714883e-05 0 -0.019139399398510351 -5.9783809027631556e-05 0 -0.019086857856222782 -0.00020613472677624079 0 -0.019139399398510351 -5.9783809027631556e-05 0 -0.019216802888890973 -0.00027158056595200672 0 -0.019382753178275845 -0.00012216328039395212 0 -0.019258414857406175 -0.00014550465782572325 0 -0.019382753178275845 -0.00012216328039395212 0 -0.019335860914462297 -0.00027431456239395736 0 -0.038119708260282791 -0.00027292233348430233 0 -0.038572405258593297 -0.00019357709368872969 0 -0.037824455840937139 -0.00026478352242000151 0 -0.037729342036243868 -0.00035288451623691371 0 -0.037915986002156954 -0.00027249373749245535 0 -0.038417916715873766 -0.00027345714009418751 0 -0.038187851643998585 5.5766011962155151e-05 0 -0.037864776985876106 -0.0003279999051903395 0 -0.038417916715873766 -0.00027345714009418751 0 -0.038619329735412856 -2.2748142716415027e-05 0 -0.038187851643998585 5.5766011962155151e-05 0 -0.038119708260282791 -0.00027292233348430233 0 -0.037763943132441198 -0.00068380459404707454 0 -0.038417916715873766 -0.00027345714009418751 0 -0.037864776985876106 -0.0003279999051903395 0 -0.037724857830000069 -0.00072754994728396825 0 -0.037824455840937139 -0.00026478352242000151 0 -0.037724857830000069 -0.00072754994728396825 0 -0.037875486591695061 -0.0003905053669333345 0 -0.037803490002809477 -0.00018083639986100721 0 -0.037875486591695061 -0.0003905053669333345 0 -0.037514172516287067 0.00031352855592515409 0 -0.037824455840937139 -0.00026478352242000151 0 -0.037803490002809477 -0.00018083639986100721 0 -0.037729342036243868 -0.00035288451623691371 0 -0.037824455840937139 -0.00026478352242000151 0 -0.037803490002809477 -0.00018083639986100721 0 -0.037875486591695061 -0.0003905053669333345 0 -0.036978688043535365 -0.00033961742710218078 0 -0.037729342036243868 -0.00035288451623691371 0 -0.037514172516287067 0.00031352855592515409 0 -0.037803490002809477 -0.00018083639986100721 0 -0.037729342036243868 -0.00035288451623691371 0 -0.037514172516287067 0.00031352855592515409 0 -0.034607880708878623 -2.9463725976842622e-08 0 -0.035376605261788777 -0.0001512923364319167 0 -0.034612900273984747 1.9601249070179303e-06 0 -0.036978688043535365 -0.00033961742710218078 0 -0.037514172516287067 0.00031352855592515409 0 -0.034612900273984747 1.9601249070179303e-06 0 -0.037549605547386671 -1.6800881984896676e-06 0 -0.036978688043535365 -0.00033961742710218078 0 -0.037549605547386671 -1.6800881984896676e-06 0 -0.036978688043535365 -0.00033961742710218078 0 -0.037916082325291804 -0.00034564641465461063 0 -0.037729342036243868 -0.00035288451623691371 0 -0.037916082325291804 -0.00034564641465461063 0 -0.037915986002156954 -0.00027249373749245535 0 -0.036978688043535365 -0.00033961742710218078 0 -0.037729342036243868 -0.00035288451623691371 0 -0.037916082325291804 -0.00034564641465461063 0 -0.037916082325291804 -0.00034564641465461063 0 -0.037915986002156954 -0.00027249373749245535 0 -0.038916216860800566 -0.00021140937722025608 0 -0.037549605547386671 -1.6800881984896676e-06 0 -0.037916082325291804 -0.00034564641465461063 0 -0.038916216860800566 -0.00021140937722025608 0 -0.037549605547386671 -1.6800881984896676e-06 0 -0.038916216860800566 -0.00021140937722025608 0 -0.040493421103225166 -3.0946911760621344e-07 0 -0.040171380069041279 0.00016451966451163378 0 -0.038916216860800566 -0.00021140937722025608 0 -0.040493421103225166 -3.0946911760621344e-07 0 -0.039937601988813756 0.00019851427426402038 0 -0.038572405258593297 -0.00019357709368872969 0 -0.040171380069041279 0.00016451966451163378 0 -0.037915986002156954 -0.00027249373749245535 0 -0.038916216860800566 -0.00021140937722025608 0 -0.040171380069041279 0.00016451966451163378 0 -0.039031175700997942 -4.4524491350137453e-05 0 -0.039412692406401988 0.00017619926813430755 0 -0.039695754037752738 0.00043630567123922648 0 -0.039412692406401988 0.00017619926813430755 0 -0.038847121152068675 0.00016250355566618723 0 -0.041884073754563572 0.00025369606522658279 0 -0.041708639099760837 0.00030540973538209683 0 -0.039695754037752738 0.00043630567123922648 0 -0.040171380069041279 0.00016451966451163378 0 -0.039412692406401988 0.00017619926813430755 0 -0.044468836624460301 0.00034837826649969096 0 -0.044061589526128722 0.00037574756069637638 0 -0.044611371349598312 0.0004687114042852978 0 -0.044468836624460301 0.00034837826649969096 0 -0.044618815772306017 0.00040371914375929578 0 -0.044611371349598312 0.0004687114042852978 0 -0.044618815772306017 0.00040371914375929578 0 -0.044611371349598312 0.0004687114042852978 0 -0.044639500046353808 0.00038954914176079879 0 -0.039031175700997942 -4.4524491350137453e-05 0 -0.039412692406401988 0.00017619926813430755 0 -0.038847121152068675 0.00016250355566618723 0 -0.038417916715873766 -0.00027345714009418751 0 -0.039031175700997942 -4.4524491350137453e-05 0 -0.038619329735412856 -2.2748142716415027e-05 0 -0.039031175700997942 -4.4524491350137453e-05 0 -0.038847121152068675 0.00016250355566618723 0 -0.038619329735412856 -2.2748142716415027e-05 0 -0.041708639099760837 0.00030540973538209683 0 -0.041354366260116356 -3.0501130828933439e-05 0 -0.038847121152068675 0.00016250355566618723 0 -0.038619329735412856 -2.2748142716415027e-05 0 -0.038187851643998585 5.5766011962155151e-05 0 -0.044611371349598312 0.0004687114042852978 0 -0.044637054637453627 -5.9054507523535128e-05 0 -0.044628935570544787 0.00025466127883893235 0 -0.044637054637453627 -5.9054507523535128e-05 0 -0.044628935570544787 0.00025466127883893235 0 -0.04448835587147569 0.00021527943388667691 0 -0.044660336076384449 0.00028243250025014323 0 -0.044618815772306017 0.00040371914375929578 0 -0.044666680109761048 0.00045869636178644431 0 -0.044628935570544787 0.00025466127883893235 0 -0.044639500046353808 0.00038954914176079879 0 -0.044666680109761048 0.00045869636178644431 0 -0.044611371349598312 0.0004687114042852978 0 -0.044628935570544787 0.00025466127883893235 0 -0.044639500046353808 0.00038954914176079879 0 -0.044628935570544787 0.00025466127883893235 0 -0.044666680109761048 0.00045869636178644431 0 -0.04448835587147569 0.00021527943388667691 0 -0.044618815772306017 0.00040371914375929578 0 -0.044639500046353808 0.00038954914176079879 0 -0.044666680109761048 0.00045869636178644431 0 -0.044877099932568026 0.00071600712690767421 0 -0.044666680109761048 0.00045869636178644431 0 -0.044503687255953155 0.00041009736318940992 0 -0.044666680109761048 0.00045869636178644431 0 -0.044503687255953155 0.00041009736318940992 0 -0.04448835587147569 0.00021527943388667691 0 -0.044503687255953155 0.00041009736318940992 0 -0.04448835587147569 0.00021527943388667691 0 -0.044120452975682192 0.00010108437860107108 0 -0.044503687255953155 0.00041009736318940992 0 -0.043850112242198737 0.00043385107494314193 0 -0.044120452975682192 0.00010108437860107108 0 -0.044877099932568026 0.00071600712690767421 0 -0.044503687255953155 0.00041009736318940992 0 -0.043850112242198737 0.00043385107494314193 0 -0.043850112242198737 0.00043385107494314193 0 -0.041851142134438787 0.00027629980151499953 0 -0.04165534354911956 5.1962908257910299e-07 0 -0.043850112242198737 0.00043385107494314193 0 -0.042528935666875399 0.00077619955929092302 0 -0.041851142134438787 0.00027629980151499953 0 -0.043463339222214292 0.0013167145898472597 0 -0.043850112242198737 0.00043385107494314193 0 -0.042528935666875399 0.00077619955929092302 0 -0.043850112242198737 0.00043385107494314193 0 -0.04165534354911956 5.1962908257910299e-07 0 -0.041363878468496068 -0.00023778980864200996 0 -0.044194290021229023 -7.786262686792185e-05 0 -0.044120452975682192 0.00010108437860107108 0 -0.043661721688043914 -0.0003301794161346615 0 -0.043581446061547929 0.00046014203777420203 0 -0.042975829459693179 -7.9635743262127998e-05 0 -0.043850112242198737 0.00043385107494314193 0 -0.044120452975682192 0.00010108437860107108 0 -0.043661721688043914 -0.0003301794161346615 0 -0.044637054637453627 -5.9054507523535128e-05 0 -0.044194290021229023 -7.786262686792185e-05 0 -0.044045209237392642 -0.00033636072756798065 0 -0.044637054637453627 -5.9054507523535128e-05 0 -0.044194290021229023 -7.786262686792185e-05 0 -0.04448835587147569 0.00021527943388667691 0 -0.044194290021229023 -7.786262686792185e-05 0 -0.04448835587147569 0.00021527943388667691 0 -0.044120452975682192 0.00010108437860107108 0 -0.033650757981958476 5.0291894740828076e-05 0 -0.033741922509906049 -0.00051655475409321432 0 -0.034124086425041465 -0.00010501743514840922 0 -0.041626835944889327 0.00059313531987038566 0 -0.041851142134438787 0.00027629980151499953 0 -0.041098684694821482 0.00019877751330722791 0 -0.040638357210790288 0.00064626103804522558 0 -0.041626835944889327 0.00059313531987038566 0 -0.041098684694821482 0.00019877751330722791 0 -0.041922792536172017 0.0015003613535728821 0 -0.040638357210790288 0.00064626103804522558 0 -0.041626835944889327 0.00059313531987038566 0 -0.041922792536172017 0.0015003613535728821 0 -0.042528935666875399 0.00077619955929092302 0 -0.041626835944889327 0.00059313531987038566 0 -0.042528935666875399 0.00077619955929092302 0 -0.041626835944889327 0.00059313531987038566 0 -0.041851142134438787 0.00027629980151499953 0 -0.041851142134438787 0.00027629980151499953 0 -0.04165534354911956 5.1962908257910299e-07 0 -0.041095660953154027 -6.4315834543753642e-06 0 -0.04165534354911956 5.1962908257910299e-07 0 -0.041095660953154027 -6.4315834543753642e-06 0 -0.040729710171694612 -0.00015132048305377795 0 -0.04165534354911956 5.1962908257910299e-07 0 -0.040729710171694612 -0.00015132048305377795 0 -0.041363878468496068 -0.00023778980864200996 0 -0.041095660953154027 -6.4315834543753642e-06 0 -0.040594068971826755 -7.4572792624984165e-05 0 -0.040729710171694612 -0.00015132048305377795 0 -0.041095660953154027 -6.4315834543753642e-06 0 -0.040812949345819138 -2.2396628917022942e-05 0 -0.040594068971826755 -7.4572792624984165e-05 0 -0.041095660953154027 -6.4315834543753642e-06 0 -0.040812949345819138 -2.2396628917022942e-05 0 -0.041098684694821482 0.00019877751330722791 0 -0.041851142134438787 0.00027629980151499953 0 -0.041095660953154027 -6.4315834543753642e-06 0 -0.041098684694821482 0.00019877751330722791 0 -0.040638357210790288 0.00064626103804522558 0 -0.041098684694821482 0.00019877751330722791 0 -0.040648759309637586 -3.8163147088579767e-05 0 -0.040638357210790288 0.00064626103804522558 0 -0.040540543466390681 -0.00015491222183843922 0 -0.040648759309637586 -3.8163147088579767e-05 0 -0.033741922509906049 -0.00051655475409321432 0 -0.034124086425041465 -0.00010501743514840922 0 -0.034128325340645943 -0.00099540342788397105 0 -0.037369754806688228 3.1904944392229849e-05 0 -0.037770697786726343 0.00066787082715063324 0 -0.040812949345819138 -2.2396628917022942e-05 0 -0.041098684694821482 0.00019877751330722791 0 -0.040648759309637586 -3.8163147088579767e-05 0 -0.040812949345819138 -2.2396628917022942e-05 0 -0.040648759309637586 -3.8163147088579767e-05 0 -0.040594068971826755 -7.4572792624984165e-05 0 -0.040529713927836615 -4.4269427372331642e-05 0 -0.040648759309637586 -3.8163147088579767e-05 0 -0.040594068971826755 -7.4572792624984165e-05 0 -0.037770697786726343 0.00066787082715063324 0 -0.038432200549332621 0.00084565350533136673 0 -0.033741922509906049 -0.00051655475409321432 0 -0.033565947870152067 -0.00097579431682745478 0 -0.034128325340645943 -0.00099540342788397105 0 -0.035840198107834016 0.0021226822131195735 0 -0.037986320249514746 0.0047089739397598281 0 -0.037939174367872038 0.0023709519848147927 0 -0.034404835215875791 0.00027423405302521079 0 -0.037770697786726343 0.00066787082715063324 0 -0.040529713927836615 -4.4269427372331642e-05 0 -0.039764513378975054 -9.0847659377392035e-05 0 -0.040594068971826755 -7.4572792624984165e-05 0 -0.037770697786726343 0.00066787082715063324 0 -0.038795836012216367 0.0012976596659890482 0 -0.039764513378975054 -9.0847659377392035e-05 0 -0.040594068971826755 -7.4572792624984165e-05 0 -0.040729710171694612 -0.00015132048305377795 0 -0.039764513378975054 -9.0847659377392035e-05 0 -0.040729710171694612 -0.00015132048305377795 0 -0.040263768005706947 -0.00021905223978881927 0 -0.040729710171694612 -0.00015132048305377795 0 -0.040263768005706947 -0.00021905223978881927 0 -0.041363878468496068 -0.00023778980864200996 0 -0.039321538575653188 -0.0012998852078953736 0 -0.042975829459693179 -7.9635743262127998e-05 0 -0.040241872891046457 -0.00058167152007389397 0 -0.040263768005706947 -0.00021905223978881927 0 -0.041363878468496068 -0.00023778980864200996 0 -0.040241872891046457 -0.00058167152007389397 0 -0.039269325605559312 -0.00029661835104301037 0 -0.040263768005706947 -0.00021905223978881927 0 -0.039764513378975054 -9.0847659377392035e-05 0 -0.039269325605559312 -0.00029661835104301037 0 -0.038035706612911703 -0.00034656827218647958 0 -0.037939174367872038 0.0023709519848147927 0 -0.036895775727217403 0.00089954392965531057 0 -0.038035706612911703 -0.00034656827218647958 0 -0.038795836012216367 0.0012976596659890482 0 -0.038290605328495979 -0.00042095304092403787 0 -0.039764513378975054 -9.0847659377392035e-05 0 -0.039269325605559312 -0.00029661835104301037 0 -0.040263768005706947 -0.00021905223978881927 0 -0.035840198107834016 0.0021226822131195735 0 -0.037939174367872038 0.0023709519848147927 0 -0.036895775727217403 0.00089954392965531057 0 -0.044637054637453627 -5.9054507523535128e-05 0 -0.044045209237392642 -0.00033636072756798065 0 -0.04402688938420319 -0.00075168761421317795 0 -0.041354366260116356 -3.0501130828933439e-05 0 -0.040764665585150829 -0.00040935845170507446 0 -0.038187851643998585 5.5766011962155151e-05 0 -0.037388178326419254 -0.00013164951370213553 0 -0.037864776985876106 -0.0003279999051903395 0 -0.044194290021229023 -7.786262686792185e-05 0 -0.044045209237392642 -0.00033636072756798065 0 -0.043661721688043914 -0.0003301794161346615 0 -0.044045209237392642 -0.00033636072756798065 0 -0.043661721688043914 -0.0003301794161346615 0 -0.04402688938420319 -0.00075168761421317795 0 -0.037388178326419254 -0.00013164951370213553 0 -0.037541153913581808 -0.00061874391556740764 0 -0.036983271840167982 -0.00082551689296783844 0 -0.036181444624034907 -0.00084818685988436978 0 -0.037388178326419254 -0.00013164951370213553 0 -0.036983271840167982 -0.00082551689296783844 0 -0.039321538575653188 -0.0012998852078953736 0 -0.040764665585150829 -0.00040935845170507446 0 -0.043224171952235643 -0.0013832253524435659 0 -0.043661721688043914 -0.0003301794161346615 0 -0.04402688938420319 -0.00075168761421317795 0 -0.037541153913581808 -0.00061874391556740764 0 -0.037864776985876106 -0.0003279999051903395 0 -0.037724857830000069 -0.00072754994728396825 0 -0.037388178326419254 -0.00013164951370213553 0 -0.037541153913581808 -0.00061874391556740764 0 -0.037864776985876106 -0.0003279999051903395 0 -0.034862584528082358 -0.0017349165353559228 0 -0.034902581080470917 -0.0012713097304445642 0 -0.034291525787357016 -0.0011636010329928309 0 -0.034862584528082358 -0.0017349165353559228 0 -0.035138397817898841 -0.0014740272692676647 0 -0.034902581080470917 -0.0012713097304445642 0 -0.034862584528082358 -0.0017349165353559228 0 -0.035138397817898841 -0.0014740272692676647 0 -0.035501751854395025 -0.0015283847497903559 0 -0.037541153913581808 -0.00061874391556740764 0 -0.037621525378284483 -0.0010253102692709506 0 -0.036983271840167982 -0.00082551689296783844 0 -0.037541153913581808 -0.00061874391556740764 0 -0.037724857830000069 -0.00072754994728396825 0 -0.037621525378284483 -0.0010253102692709506 0 -0.036217742805119704 -0.0013450279275873779 0 -0.036193192305127464 -0.0015599489707381672 0 -0.037621525378284483 -0.0010253102692709506 0 -0.036983271840167982 -0.00082551689296783844 0 -0.036207828422742686 -0.0015920685807878749 0 -0.034862584528082358 -0.0017349165353559228 0 -0.035501751854395025 -0.0015283847497903559 0 -0.036207828422742686 -0.0015920685807878749 0 -0.036181444624034907 -0.00084818685988436978 0 -0.036983271840167982 -0.00082551689296783844 0 -0.036207828422742686 -0.0015920685807878749 0 -0.035501751854395025 -0.0015283847497903559 0 -0.035870032984366002 -0.0014940956479700394 0 -0.036207828422742686 -0.0015920685807878749 0 -0.035138397817898841 -0.0014740272692676647 0 -0.035501751854395025 -0.0015283847497903559 0 -0.035287579361359907 -0.0013614456305163789 0 -0.035501751854395025 -0.0015283847497903559 0 -0.035287579361359907 -0.0013614456305163789 0 -0.035614830191043556 -0.0013546298955214777 0 -0.035287579361359907 -0.0013614456305163789 0 -0.035614830191043556 -0.0013546298955214777 0 -0.03529250326645348 -0.0011559499596912764 0 -0.035870032984366002 -0.0014940956479700394 0 -0.035614830191043556 -0.0013546298955214777 0 -0.0359514389337817 -0.0014428843032129005 0 -0.035501751854395025 -0.0015283847497903559 0 -0.035870032984366002 -0.0014940956479700394 0 -0.035614830191043556 -0.0013546298955214777 0 -0.035640887489110547 -0.0011766530415014142 0 -0.0359514389337817 -0.0014428843032129005 0 -0.036027920477399965 -0.0013060371012812157 0 -0.035614830191043556 -0.0013546298955214777 0 -0.035640887489110547 -0.0011766530415014142 0 -0.0359514389337817 -0.0014428843032129005 0 -0.035614830191043556 -0.0013546298955214777 0 -0.035640887489110547 -0.0011766530415014142 0 -0.03529250326645348 -0.0011559499596912764 0 -0.034900042586012807 -0.00097920201893277091 0 -0.034560854321951398 -0.00096109932903117804 0 -0.034902581080470917 -0.0012713097304445642 0 -0.03529250326645348 -0.0011559499596912764 0 -0.034900042586012807 -0.00097920201893277091 0 -0.035165155602378304 -0.00080581710894945006 0 -0.03529250326645348 -0.0011559499596912764 0 -0.034900042586012807 -0.00097920201893277091 0 -0.034902581080470917 -0.0012713097304445642 0 -0.034900042586012807 -0.00097920201893277091 0 -0.034560854321951398 -0.00096109932903117804 0 -0.034596013080877078 -0.00063667182784989021 0 -0.034560854321951398 -0.00096109932903117804 0 -0.034596013080877078 -0.00063667182784989021 0 -0.034144685089599836 -0.00075260099487575499 0 -0.034560854321951398 -0.00096109932903117804 0 -0.034902581080470917 -0.0012713097304445642 0 -0.034291525787357016 -0.0011636010329928309 0 -0.035138397817898841 -0.0014740272692676647 0 -0.035287579361359907 -0.0013614456305163789 0 -0.034902581080470917 -0.0012713097304445642 0 -0.035287579361359907 -0.0013614456305163789 0 -0.03529250326645348 -0.0011559499596912764 0 -0.034902581080470917 -0.0012713097304445642 0 -0.039269325605559312 -0.00029661835104301037 0 -0.038035706612911703 -0.00034656827218647958 0 -0.03719655487277166 -0.0017993515114433348 0 -0.03591845380569901 -0.00049404523159198477 0 -0.038035706612911703 -0.00034656827218647958 0 -0.03719655487277166 -0.0017993515114433348 0 -0.03591845380569901 -0.00049404523159198477 0 -0.036895775727217403 0.00089954392965531057 0 -0.038035706612911703 -0.00034656827218647958 0 -0.036433356509719475 -0.0025524203591972185 0 -0.036593292944096939 -0.0019445280837836155 0 -0.03719655487277166 -0.0017993515114433348 0 -0.039321538575653188 -0.0012998852078953736 0 -0.036984485250506835 -0.0019759838851501734 0 -0.040241872891046457 -0.00058167152007389397 0 -0.039269325605559312 -0.00029661835104301037 0 -0.03719655487277166 -0.0017993515114433348 0 -0.039321538575653188 -0.0012998852078953736 0 -0.036370153874090559 -0.0019758940013032619 0 -0.036181444624034907 -0.00084818685988436978 0 -0.036054539592305673 -0.0016622762587805823 0 -0.036207828422742686 -0.0015920685807878749 0 -0.035870032984366002 -0.0014940956479700394 0 -0.036207828422742686 -0.0015920685807878749 0 -0.036095394198187122 -0.0016024450888499769 0 -0.036054539592305673 -0.0016622762587805823 0 -0.036207828422742686 -0.0015920685807878749 0 -0.036095394198187122 -0.0016024450888499769 0 -0.035870032984366002 -0.0014940956479700394 0 -0.036095394198187122 -0.0016024450888499769 0 -0.0359514389337817 -0.0014428843032129005 0 -0.0359514389337817 -0.0014428843032129005 0 -0.036525805137967111 -0.001660547319066597 0 -0.036027920477399965 -0.0013060371012812157 0 -0.036095394198187122 -0.0016024450888499769 0 -0.0359514389337817 -0.0014428843032129005 0 -0.036525805137967111 -0.001660547319066597 0 -0.036593292944096939 -0.0019445280837836155 0 -0.036525805137967111 -0.001660547319066597 0 -0.036806012005450188 -0.0018119994463779358 0 -0.036054539592305673 -0.0016622762587805823 0 -0.036095394198187122 -0.0016024450888499769 0 -0.036525805137967111 -0.001660547319066597 0 -0.036370153874090559 -0.0019758940013032619 0 -0.036501660445095147 -0.0015666702725685299 0 -0.036593292944096939 -0.0019445280837836155 0 -0.036806012005450188 -0.0018119994463779358 0 -0.03719655487277166 -0.0017993515114433348 0 -0.036806012005450188 -0.0018119994463779358 0 -0.036570855903497158 -0.0020954439494134526 0 -0.03719655487277166 -0.0017993515114433348 0 -0.036525805137967111 -0.001660547319066597 0 -0.036806012005450188 -0.0018119994463779358 0 -0.036570855903497158 -0.0020954439494134526 0 -0.035884601554742782 -0.0020176408042381759 0 -0.036570855903497158 -0.0020954439494134526 0 -0.03719655487277166 -0.0017993515114433348 0 -0.03547984117591392 -0.0032767454408659229 0 -0.036570855903497158 -0.0020954439494134526 0 -0.036649880927092919 -0.0014488688749291613 0 -0.02978377754441135 -0.0025153436780828171 0 -0.02998845812300352 -0.0012489049265809692 0 -0.024416649072578463 -0.0021222031521012531 0 -0.02326985988144345 -0.00035786293972705688 0 -0.022415708173400047 -0.00069540664036867505 0 -0.036525805137967111 -0.001660547319066597 0 -0.036570855903497158 -0.0020954439494134526 0 -0.036649880927092919 -0.0014488688749291613 0 -0.036649880927092919 -0.0014488688749291613 0 -0.036072317186245706 -0.0011261961342994885 0 -0.035407399374137054 -8.08301057663166e-05 0 -0.036525805137967111 -0.001660547319066597 0 -0.036649880927092919 -0.0014488688749291613 0 -0.036072317186245706 -0.0011261961342994885 0 -0.036027920477399965 -0.0013060371012812157 0 -0.036072317186245706 -0.0011261961342994885 0 -0.035626360336291706 -0.00086276628429175035 0 -0.036525805137967111 -0.001660547319066597 0 -0.036027920477399965 -0.0013060371012812157 0 -0.036072317186245706 -0.0011261961342994885 0 -0.02998845812300352 -0.0012489049265809692 0 -0.026410663106614531 -2.7782013037237511e-05 0 -0.022414042652957513 -0.00054757390504828131 0 -0.022294546372744813 -0.00047437100824402928 0 -0.022342263957778222 -0.00042980153051934438 0 -0.022854804938341002 -0.00083992328624283479 0 -0.016142804237837639 -0.0013545757338498943 0 -0.022415708173400047 -0.00069540664036867505 0 -0.022414042652957513 -0.00054757390504828131 0 -0.022294546372744813 -0.00047437100824402928 0 -0.022478489087554874 -3.842371251617385e-05 0 -0.022414042652957513 -0.00054757390504828131 0 -0.022260696606946198 0.00018239944245476868 0 -0.022478489087554874 -3.842371251617385e-05 0 -0.022414042652957513 -0.00054757390504828131 0 -0.022638320642644941 -0.00024744246831930191 0 -0.022478489087554874 -3.842371251617385e-05 0 -0.022638320642644941 -0.00024744246831930191 0 -0.022829046410388035 -4.0232770075874626e-05 0 -0.02326985988144345 -0.00035786293972705688 0 -0.022415708173400047 -0.00069540664036867505 0 -0.022793345811924621 -0.00027625926166760176 0 -0.022414042652957513 -0.00054757390504828131 0 -0.022793345811924621 -0.00027625926166760176 0 -0.022638320642644941 -0.00024744246831930191 0 -0.022415708173400047 -0.00069540664036867505 0 -0.022414042652957513 -0.00054757390504828131 0 -0.022793345811924621 -0.00027625926166760176 0 -0.022793345811924621 -0.00027625926166760176 0 -0.023161231272487481 6.9295167172709208e-05 0 -0.022829046410388035 -4.0232770075874626e-05 0 -0.022793345811924621 -0.00027625926166760176 0 -0.022638320642644941 -0.00024744246831930191 0 -0.022829046410388035 -4.0232770075874626e-05 0 -0.02326985988144345 -0.00035786293972705688 0 -0.022793345811924621 -0.00027625926166760176 0 -0.023161231272487481 6.9295167172709208e-05 0 -0.034850406063737349 -0.00046563989200316925 0 -0.035111552117069143 -0.00028572986732779555 0 -0.034560834520867098 -0.00014999074679765558 0 -0.034850406063737349 -0.00046563989200316925 0 -0.035165155602378304 -0.00080581710894945006 0 -0.035111552117069143 -0.00028572986732779555 0 -0.034596013080877078 -0.00063667182784989021 0 -0.034560834520867098 -0.00014999074679765558 0 -0.034025347879851092 -0.00027054167833119326 0 -0.034850406063737349 -0.00046563989200316925 0 -0.034596013080877078 -0.00063667182784989021 0 -0.034560834520867098 -0.00014999074679765558 0 -0.034900042586012807 -0.00097920201893277091 0 -0.034596013080877078 -0.00063667182784989021 0 -0.035165155602378304 -0.00080581710894945006 0 -0.034850406063737349 -0.00046563989200316925 0 -0.034596013080877078 -0.00063667182784989021 0 -0.035165155602378304 -0.00080581710894945006 0 -0.035640887489110547 -0.0011766530415014142 0 -0.035165155602378304 -0.00080581710894945006 0 -0.035626360336291706 -0.00086276628429175035 0 -0.035640887489110547 -0.0011766530415014142 0 -0.03529250326645348 -0.0011559499596912764 0 -0.035165155602378304 -0.00080581710894945006 0 -0.035640887489110547 -0.0011766530415014142 0 -0.036027920477399965 -0.0013060371012812157 0 -0.035626360336291706 -0.00086276628429175035 0 -0.036072317186245706 -0.0011261961342994885 0 -0.035626360336291706 -0.00086276628429175035 0 -0.035407399374137054 -8.08301057663166e-05 0 -0.035165155602378304 -0.00080581710894945006 0 -0.035626360336291706 -0.00086276628429175035 0 -0.035111552117069143 -0.00028572986732779555 0 -0.035626360336291706 -0.00086276628429175035 0 -0.035111552117069143 -0.00028572986732779555 0 -0.035407399374137054 -8.08301057663166e-05 0 -0.031818994847675197 0.0019713080813120458 0 -0.026410663106614531 -2.7782013037237511e-05 0 -0.026410663106614531 -2.7782013037237511e-05 0 -0.016142804237837639 -0.0013545757338498943 0 -0.014924324038198412 0.0020344741302350646 0 -0.014734238470705891 0.001712961036288592 0 -0.014553479529439731 0.0016516472943310398 0 -0.014924324038198412 0.0020344741302350646 0 -0.014734238470705891 0.001712961036288592 0 -0.015055530885260793 0.0017132787222417453 0 -0.035289842795236802 -3.4496368150949501e-05 0 -0.034560834520867098 -0.00014999074679765558 0 -0.034035519627109781 0.00043160557263267793 0 -0.026410663106614531 -2.7782013037237511e-05 0 -0.022928007234931096 0.0015592862758315395 0 -0.014924324038198412 0.0020344741302350646 0 -0.015705452020693299 0.0018057530166199409 0 -0.015055530885260793 0.0017132787222417453 0 -0.035111552117069143 -0.00028572986732779555 0 -0.035289842795236802 -3.4496368150949501e-05 0 -0.034560834520867098 -0.00014999074679765558 0 -0.034560834520867098 -0.00014999074679765558 0 -0.034025347879851092 -0.00027054167833119326 0 -0.034035519627109781 0.00043160557263267793 0 -0.03331852463955922 -7.7183479679502156e-05 0 -0.034025347879851092 -0.00027054167833119326 0 -0.034035519627109781 0.00043160557263267793 0 -0.031356355027815544 0.0010339575133180554 0 -0.022928007234931096 0.0015592862758315395 0 -0.026878542338649846 0.0018093501024208703 0 -0.027064958622850667 -0.00035258523397049748 0 -0.024805601113477689 0.00043480024792516266 0 -0.03331852463955922 -7.7183479679502156e-05 0 -0.033728931935848694 -0.00045333402817386955 0 -0.033526412260987279 -0.00073626847544550219 0 -0.03331852463955922 -7.7183479679502156e-05 0 -0.033728931935848694 -0.00045333402817386955 0 -0.034025347879851092 -0.00027054167833119326 0 -0.033728931935848694 -0.00045333402817386955 0 -0.034025347879851092 -0.00027054167833119326 0 -0.034144685089599836 -0.00075260099487575499 0 -0.034596013080877078 -0.00063667182784989021 0 -0.034025347879851092 -0.00027054167833119326 0 -0.034144685089599836 -0.00075260099487575499 0 -0.034560854321951398 -0.00096109932903117804 0 -0.034144685089599836 -0.00075260099487575499 0 -0.034291525787357016 -0.0011636010329928309 0 -0.034144685089599836 -0.00075260099487575499 0 -0.034291525787357016 -0.0011636010329928309 0 -0.033526412260987279 -0.00073626847544550219 0 -0.033728931935848694 -0.00045333402817386955 0 -0.034144685089599836 -0.00075260099487575499 0 -0.033526412260987279 -0.00073626847544550219 0 -0.035842037827799871 -0.00078532348137005101 0 -0.035376605261788777 -0.0001512923364319167 0 -0.033526412260987279 -0.00073626847544550219 0 -0.033796488513428438 -0.0012146458494212088 0 -0.033233514042495173 -0.00049784534344361807 0 -0.034862584528082358 -0.0017349165353559228 0 -0.034291525787357016 -0.0011636010329928309 0 -0.033796488513428438 -0.0012146458494212088 0 -0.037724857830000069 -0.00072754994728396825 0 -0.037621525378284483 -0.0010253102692709506 0 -0.037875486591695061 -0.0003905053669333345 0 -0.036217742805119704 -0.0013450279275873779 0 -0.035842037827799871 -0.00078532348137005101 0 -0.034291525787357016 -0.0011636010329928309 0 -0.033526412260987279 -0.00073626847544550219 0 -0.033796488513428438 -0.0012146458494212088 0 -0.03460092458371123 -1.4637409344519864e-06 0 -0.033061654635547104 -0.000577713280246524 0 -0.03247755189763598 -0.00017599531919091922 0 -0.03460092458371123 -1.4637409344519864e-06 0 -0.03247755189763598 -0.00017599531919091922 0 -0.031656024132740809 2.4528991051892382e-07 0 -0.03460092458371123 -1.4637409344519864e-06 0 -0.033233514042495173 -0.00049784534344361807 0 -0.033061654635547104 -0.000577713280246524 0 -0.033526412260987279 -0.00073626847544550219 0 -0.033233514042495173 -0.00049784534344361807 0 -0.033061654635547104 -0.000577713280246524 0 -0.03331852463955922 -7.7183479679502156e-05 0 -0.033526412260987279 -0.00073626847544550219 0 -0.033061654635547104 -0.000577713280246524 0 -0.033061654635547104 -0.000577713280246524 0 -0.032673559690646954 -0.00018157945341096669 0 -0.03247755189763598 -0.00017599531919091922 0 -0.033008265519119555 0.0010041595255658401 0 -0.03247755189763598 -0.00017599531919091922 0 -0.031656024132740809 2.4528991051892382e-07 0 -0.030587261966497237 0.00088957158553478496 0 -0.031745097296779289 0.00042253638371537999 0 -0.030587261966497237 0.00088957158553478496 0 -0.031648334948274737 9.0708805768878099e-07 0 -0.030178614761840906 6.0064196914612708e-05 0 -0.031645855563449357 1.768141142312027e-06 0 -0.02845389065980403 -1.7195386822879105e-06 0 -0.030587261966497237 0.00088957158553478496 0 -0.028458943175471128 0.0006210154526060267 0 -0.030178614761840906 6.0064196914612708e-05 0 -0.028120644381143835 -0.00010397978756863604 0 -0.02845389065980403 -1.7195386822879105e-06 0 -0.026878542338649846 0.0018093501024208703 0 -0.02892406474452501 0.0031417986841826679 0 -0.027997141164266028 0.0014130887305784431 0 -0.031356355027815544 0.0010339575133180554 0 -0.030587261966497237 0.00088957158553478496 0 -0.03331852463955922 -7.7183479679502156e-05 0 -0.033061654635547104 -0.000577713280246524 0 -0.032673559690646954 -0.00018157945341096669 0 -0.028458943175471128 0.0006210154526060267 0 -0.023098878405236351 0.0010759851446327422 0 -0.026878542338649846 0.0018093501024208703 0 -0.027997141164266028 0.0014130887305784431 0 -0.027064958622850667 -0.00035258523397049748 0 -0.028120644381143835 -0.00010397978756863604 0 -0.02845389065980403 -1.7195386822879105e-06 0 -0.027583082275020442 -0.00014253492527626889 0 -0.027583082275020442 -0.00014253492527626889 0 -0.027418618956728841 0.00026551613405394713 0 -0.025262911798235248 1.7070321876075358e-06 0 -0.02845389065980403 -1.7195386822879105e-06 0 -0.027583082275020442 -0.00014253492527626889 0 -0.025262911798235248 1.7070321876075358e-06 0 -0.027583082275020442 -0.00014253492527626889 0 -0.027418618956728841 0.00026551613405394713 0 -0.027838119102568889 2.7841863340260925e-05 0 -0.028120644381143835 -0.00010397978756863604 0 -0.027583082275020442 -0.00014253492527626889 0 -0.027838119102568889 2.7841863340260925e-05 0 -0.025754087565516077 0.00023187768339245121 0 -0.023098878405236351 0.0010759851446327422 0 -0.022981523344808533 0.00019174648953762112 0 -0.022677229284604149 0.00033066157898506161 0 -0.022765516304292133 -0.00018494290925610417 0 -0.023430580174427187 0.00068443878594136125 0 -0.022981523344808533 0.00019174648953762112 0 -0.023383892594157244 -0.00016953965649422838 0 -0.023430580174427187 0.00068443878594136125 0 -0.022788437502011333 0.00075030882423446994 0 -0.022981523344808533 0.00019174648953762112 0 -0.022788437502011333 0.00075030882423446994 0 -0.022981523344808533 0.00019174648953762112 0 -0.022677229284604149 0.00033066157898506161 0 -0.023430580174427187 0.00068443878594136125 0 -0.025255457050246868 2.0162968231310475e-06 0 -0.023383892594157244 -0.00016953965649422838 0 -0.025754087565516077 0.00023187768339245121 0 -0.025259405249812478 3.0952279168823094e-07 0 -0.015586464424112335 0.0019188300085548054 0 -0.015685801467082532 0.0014263140550163634 0 -0.015314926520152221 0.0013671253917473651 0 -0.015586464424112335 0.0019188300085548054 0 -0.015973331209287123 0.0016222737031524684 0 -0.015685801467082532 0.0014263140550163634 0 -0.023098878405236351 0.0010759851446327422 0 -0.022928007234931096 0.0015592862758315395 0 -0.016391136000081376 0.0016952874686671148 0 -0.015586464424112335 0.0019188300085548054 0 -0.015973331209287123 0.0016222737031524684 0 -0.015973331209287123 0.0016222737031524684 0 -0.016148412088883207 0.0015475263032278855 0 -0.016028045150007577 0.0014621573165893476 0 -0.023098878405236351 0.0010759851446327422 0 -0.018287220967235337 0.00072830616205426244 0 -0.016391136000081376 0.0016952874686671148 0 -0.015973331209287123 0.0016222737031524684 0 -0.016148412088883207 0.0015475263032278855 0 -0.016391136000081376 0.0016952874686671148 0 -0.016148412088883207 0.0015475263032278855 0 -0.016209168295975282 0.0014004862014475438 0 -0.016148412088883207 0.0015475263032278855 0 -0.016209168295975282 0.0014004862014475438 0 -0.016028045150007577 0.0014621573165893476 0 -0.018287220967235337 0.00072830616205426244 0 -0.01627569303679743 0.00093388632290699203 0 -0.016209168295975282 0.0014004862014475438 0 -0.015911876102437529 0.0013005560805747858 0 -0.016002451270634072 0.001072463626900883 0 -0.015911876102437529 0.0013005560805747858 0 -0.015624702174382521 0.0011499758713901882 0 -0.016002451270634072 0.001072463626900883 0 -0.015911876102437529 0.0013005560805747858 0 -0.016028045150007577 0.0014621573165893476 0 -0.015685801467082532 0.0014263140550163634 0 -0.015973331209287123 0.0016222737031524684 0 -0.016028045150007577 0.0014621573165893476 0 -0.015685801467082532 0.0014263140550163634 0 -0.016209168295975282 0.0014004862014475438 0 -0.015911876102437529 0.0013005560805747858 0 -0.016028045150007577 0.0014621573165893476 0 -0.015911876102437529 0.0013005560805747858 0 -0.015685801467082532 0.0014263140550163634 0 -0.015624702174382521 0.0011499758713901882 0 -0.015624702174382521 0.0011499758713901882 0 -0.015234875833081741 0.0010453729516877684 0 -0.015314926520152221 0.0013671253917473651 0 -0.015685801467082532 0.0014263140550163634 0 -0.015624702174382521 0.0011499758713901882 0 -0.015314926520152221 0.0013671253917473651 0 -0.015632103859934583 0.00076709337326909201 0 -0.015234875833081741 0.0010453729516877684 0 -0.015150595002271049 0.00075678309250537697 0 -0.015624702174382521 0.0011499758713901882 0 -0.015632103859934583 0.00076709337326909201 0 -0.015234875833081741 0.0010453729516877684 0 -0.015624702174382521 0.0011499758713901882 0 -0.015632103859934583 0.00076709337326909201 0 -0.016002451270634072 0.001072463626900883 0 -0.016245929048214935 0.0015205920591272945 0 -0.016002451270634072 0.001072463626900883 0 -0.016733046519146696 0.00059337979999141675 0 -0.015632103859934583 0.00076709337326909201 0 -0.016002451270634072 0.001072463626900883 0 -0.016098988954776548 0.00049718596548940406 0 -0.016002451270634072 0.001072463626900883 0 -0.016098988954776548 0.00049718596548940406 0 -0.016733046519146696 0.00059337979999141675 0 -0.014785713276690463 0.00059237912815265567 0 -0.01511810558765473 0.00074588429314751336 0 -0.016098988954776548 0.00049718596548940406 0 -0.01552100264165656 0.00021214960622793977 0 -0.016369318177514504 -7.8041569465484636e-05 0 -0.015632103859934583 0.00076709337326909201 0 -0.016098988954776548 0.00049718596548940406 0 -0.01552100264165656 0.00021214960622793977 0 -0.015632103859934583 0.00076709337326909201 0 -0.01552100264165656 0.00021214960622793977 0 -0.015150595002271049 0.00075678309250537697 0 -0.025255457050246868 2.0162968231310475e-06 0 -0.023383892594157244 -0.00016953965649422838 0 -0.022190338174576923 -1.9624714031412228e-06 0 -0.023383892594157244 -0.00016953965649422838 0 -0.022765516304292133 -0.00018494290925610417 0 -0.022190338174576923 -1.9624714031412228e-06 0 -0.018287220967235337 0.00072830616205426244 0 -0.020026049060191693 4.0826472868410219e-05 0 -0.022981523344808533 0.00019174648953762112 0 -0.023383892594157244 -0.00016953965649422838 0 -0.022765516304292133 -0.00018494290925610417 0 -0.016733046519146696 0.00059337979999141675 0 -0.017230648648182464 -0.00036103646092289042 0 -0.016369318177514504 -7.8041569465484636e-05 0 -0.016098988954776548 0.00049718596548940406 0 -0.016733046519146696 0.00059337979999141675 0 -0.016369318177514504 -7.8041569465484636e-05 0 -0.020026049060191693 4.0826472868410219e-05 0 -0.017965027337278776 0.00016981308491776552 0 -0.022765516304292133 -0.00018494290925610417 0 -0.022190338174576923 -1.9624714031412228e-06 0 -0.020313241788495338 5.6667278865320909e-05 0 -0.022190338174576923 -1.9624714031412228e-06 0 -0.020313241788495338 5.6667278865320909e-05 0 -0.019124319600021672 1.9377978954820613e-06 0 -0.017965027337278776 0.00016981308491776552 0 -0.019121202014670598 -2.3954493305215101e-07 0 -0.017965027337278776 0.00016981308491776552 0 -0.01789164987022316 0.00015979892900855729 0 -0.019390479585476326 1.1756449377074134e-06 0 -0.01911838927658711 1.5886971146164915e-08 0 -0.017845693590645303 -1.3370845869718685e-08 0 -0.016138137007783299 0.0017493044450714954 0 -0.015458189024732302 0.0006151312529029013 0 -0.014730911108797954 0.00094351755658617748 0 -0.016138137007783299 0.0017493044450714954 0 -0.015458189024732302 0.0006151312529029013 0 -0.01783883947800553 2.6457922720942079e-06 0 -0.015458189024732302 0.0006151312529029013 0 -0.01783883947800553 2.6457922720942079e-06 0 -0.015446789245520119 0.00010625283443431536 0 -0.014422742500531256 0.0003552822478024911 0 -0.014730911108797954 0.00094351755658617748 0 -0.013909059588409184 0.00074120568232442286 0 -0.015458189024732302 0.0006151312529029013 0 -0.014422742500531256 0.0003552822478024911 0 -0.015446789245520119 0.00010625283443431536 0 -0.015458189024732302 0.0006151312529029013 0 -0.014422742500531256 0.0003552822478024911 0 -0.014730911108797954 0.00094351755658617748 0 -0.017965027337278776 0.00016981308491776552 0 -0.01511810558765473 0.00074588429314751336 0 -0.016138137007783299 0.0017493044450714954 0 -0.014730911108797954 0.00094351755658617748 0 -0.014284284304685896 0.0013712901962624287 0 -0.014730911108797954 0.00094351755658617748 0 -0.014284284304685896 0.0013712901962624287 0 -0.013909059588409184 0.00074120568232442286 0 -0.013867616557565134 0.00096211365404635929 0 -0.014284284304685896 0.0013712901962624287 0 -0.013909059588409184 0.00074120568232442286 0 -0.013867616557565134 0.00096211365404635929 0 -0.013909059588409184 0.00074120568232442286 0 -0.013711756036394018 0.00086077438013491142 0 -0.0092954631515797023 -0.0011337394834445083 0 -0.0097058950491950065 -0.00075062010979896237 0 -0.013909059588409184 0.00074120568232442286 0 -0.013451064190773862 0.00011486294684922516 0 -0.013711756036394018 0.00086077438013491142 0 -0.014422742500531256 0.0003552822478024911 0 -0.013909059588409184 0.00074120568232442286 0 -0.013747704741346036 -5.7990777383643999e-06 0 -0.013909059588409184 0.00074120568232442286 0 -0.013747704741346036 -5.7990777383643999e-06 0 -0.013451064190773862 0.00011486294684922516 0 -0.005138513200461341 -0.0023961922531639478 0 -0.0044217404513162287 -0.001940733181981433 0 -0.0049792375612432525 -0.0017496193911133748 0 -0.0092954631515797023 -0.0011337394834445083 0 -0.0087296160944981133 -0.0011809530279555218 0 -0.013747704741346036 -5.7990777383643999e-06 0 -0.013451064190773862 0.00011486294684922516 0 -0.013076608644271256 -0.00040921197647653899 0 -0.013747704741346036 -5.7990777383643999e-06 0 -0.013936544040809564 -0.00029226355697169865 0 -0.013076608644271256 -0.00040921197647653899 0 -0.013936544040809564 -0.00029226355697169865 0 -0.016287743547511131 -1.0207786413129151e-06 0 -0.013454674927371745 -6.5698115234919467e-07 0 -0.013936544040809564 -0.00029226355697169865 0 -0.016287743547511131 -1.0207786413129151e-06 0 -0.015446789245520119 0.00010625283443431536 0 -0.01783883947800553 2.6457922720942079e-06 0 -0.016287743547511131 -1.0207786413129151e-06 0 -0.015446789245520119 0.00010625283443431536 0 -0.014422742500531256 0.0003552822478024911 0 -0.013747704741346036 -5.7990777383643999e-06 0 -0.013936544040809564 -0.00029226355697169865 0 -0.014422742500531256 0.0003552822478024911 0 -0.013936544040809564 -0.00029226355697169865 0 -0.015446789245520119 0.00010625283443431536 0 -0.0065826196627519528 -0.0011178763951122783 0 -0.0065734195169845815 -0.001161623592378033 0 -0.0068703134962585346 -0.00099932751825106657 0 -0.0086488571426267535 0.0020341758296931419 0 -0.0092348697206805774 -8.6034333228460921e-05 0 -0.011076894337315331 0.00076074745299421146 0 -0.0076642435865143296 0.00038577291873849245 0 -0.0081619115160352744 0.002177175049388057 0 -0.0065826196627519528 -0.0011178763951122783 0 -0.0063935618840798118 -0.0012489973967292857 0 -0.0065278012128389693 -0.0012180333859202492 0 -0.0065826196627519528 -0.0011178763951122783 0 -0.0065734195169845815 -0.001161623592378033 0 -0.0063935618840798118 -0.0012489973967292857 0 -0.0065734195169845815 -0.001161623592378033 0 -0.0063092931546185763 -0.0012785679353344976 0 -0.0063935618840798118 -0.0012489973967292857 0 -0.0065734195169845815 -0.001161623592378033 0 -0.0067056210604666266 -0.0010614479871410389 0 -0.0063092931546185763 -0.0012785679353344976 0 -0.005138513200461341 -0.0023961922531639478 0 -0.0049792375612432525 -0.0017496193911133748 0 -0.0054700974487467881 -0.0020268857305313051 0 -0.005138513200461341 -0.0023961922531639478 0 -0.0055368592730637078 -0.0023581473063661014 0 -0.0054700974487467881 -0.0020268857305313051 0 -0.006106956741430831 -0.0017030145046014276 0 -0.0058783734124362545 -0.0016015753825964908 0 -0.005138513200461341 -0.0023961922531639478 0 -0.0055368592730637078 -0.0023581473063661014 0 -0.0056912805196980666 -0.0023600140094062207 0 -0.0065734195169845815 -0.001161623592378033 0 -0.0067056210604666266 -0.0010614479871410389 0 -0.0068703134962585346 -0.00099932751825106657 0 -0.006106956741430831 -0.0017030145046014276 0 -0.0062356444294519335 -0.0017502065600029388 0 -0.0067056210604666266 -0.0010614479871410389 0 -0.0068703134962585346 -0.00099932751825106657 0 -0.0066995465076462 -0.0010650943050698565 0 -0.0068703134962585346 -0.00099932751825106657 0 -0.0066995465076462 -0.0010650943050698565 0 -0.0069838971352126642 -0.0010889002502181555 0 -0.0068703134962585346 -0.00099932751825106657 0 -0.0069838971352126642 -0.0010889002502181555 0 -0.0073121752367097037 -0.00096752896606305231 0 -0.0055368592730637078 -0.0023581473063661014 0 -0.0057484067971249929 -0.002332365775366523 0 -0.0056912805196980666 -0.0023600140094062207 0 -0.0056912805196980666 -0.0023600140094062207 0 -0.0062874834116263354 -0.0020520670598685397 0 -0.0063906073921714398 -0.0020229502388458176 0 -0.0097058950491950065 -0.00075062010979896237 0 -0.010400182115659191 -0.00068370643355464896 0 -0.013867616557565134 0.00096211365404635929 0 -0.013711756036394018 0.00086077438013491142 0 -0.014425555222429821 0.00070648720320349234 0 -0.0057484067971249929 -0.002332365775366523 0 -0.0056912805196980666 -0.0023600140094062207 0 -0.0063906073921714398 -0.0020229502388458176 0 -0.0062356444294519335 -0.0017502065600029388 0 -0.0063538796852989137 -0.0020555613981611959 0 -0.0066995465076462 -0.0010650943050698565 0 -0.0070811642775030267 -0.0014719541166421574 0 -0.0063906073921714398 -0.0020229502388458176 0 -0.0069838971352126642 -0.0010889002502181555 0 -0.0070811642775030267 -0.0014719541166421574 0 -0.0073121752367097037 -0.00096752896606305231 0 -0.0066995465076462 -0.0010650943050698565 0 -0.0069838971352126642 -0.0010889002502181555 0 -0.0070811642775030267 -0.0014719541166421574 0 -0.0070811642775030267 -0.0014719541166421574 0 -0.0084273804450816277 -0.0022202454921764624 0 -0.0070891165611096391 -0.0019480816048466313 0 -0.0070811642775030267 -0.0014719541166421574 0 -0.0073121752367097037 -0.00096752896606305231 0 -0.0084273804450816277 -0.0022202454921764624 0 -0.0073121752367097037 -0.00096752896606305231 0 -0.0092348697206805774 -8.6034333228460921e-05 0 -0.0084273804450816277 -0.0022202454921764624 0 -0.0065826196627519528 -0.0011178763951122783 0 -0.0068703134962585346 -0.00099932751825106657 0 -0.0073121752367097037 -0.00096752896606305231 0 -0.0086488571426267535 0.0020341758296931419 0 -0.0073121752367097037 -0.00096752896606305231 0 -0.0092348697206805774 -8.6034333228460921e-05 0 -0.0076642435865143296 0.00038577291873849245 0 -0.0072669701945930441 -0.00088557906484371834 0 -0.009820265294108255 -0.0010770446975520553 0 -0.012703396334182441 5.3233529948368856e-05 0 -0.0092348697206805774 -8.6034333228460921e-05 0 -0.0084273804450816277 -0.0022202454921764624 0 -0.011028363170612265 -0.001294064483855785 0 -0.011149910900548397 0.0001627290378318705 0 -0.013572291446616759 -0.00099123169446995309 0 -0.014456810799805965 0.00143474337401476 0 -0.011149910900548397 0.0001627290378318705 0 -0.011129127530467327 -0.0027266094173845285 0 -0.013572291446616759 -0.00099123169446995309 0 -0.0084273804450816277 -0.0022202454921764624 0 -0.0070891165611096391 -0.0019480816048466313 0 -0.0075341817442405061 -0.0023316433567097338 0 -0.011149910900548397 0.0001627290378318705 0 -0.0097313306525019568 -0.0021106678512497271 0 -0.0075341817442405061 -0.0023316433567097338 0 -0.011149910900548397 0.0001627290378318705 0 -0.0097313306525019568 -0.0021106678512497271 0 -0.011129127530467327 -0.0027266094173845285 0 -0.009820265294108255 -0.0010770446975520553 0 -0.0077154073320215254 -0.0022244476723505525 0 -0.0097313306525019568 -0.0021106678512497271 0 -0.0091359186875658582 -0.0034289030547955046 0 -0.0075341817442405061 -0.0023316433567097338 0 -0.0097313306525019568 -0.0021106678512497271 0 -0.0091359186875658582 -0.0034289030547955046 0 -0.011129127530467327 -0.0027266094173845285 0 -0.0091359186875658582 -0.0034289030547955046 0 -0.010353425809887138 -0.0047478988229158851 0 -0.011129127530467327 -0.0027266094173845285 0 -0.0091359186875658582 -0.0034289030547955046 0 -0.010353425809887138 -0.0047478988229158851 0 -0.0074133895417822946 -0.0049068495446892135 0 -0.010353425809887138 -0.0047478988229158851 0 -0.011129127530467327 -0.0027266094173845285 0 -0.014192533507551787 -0.0037818756751499777 0 -0.011129127530467327 -0.0027266094173845285 0 -0.013572291446616759 -0.00099123169446995309 0 -0.014192533507551787 -0.0037818756751499777 0 -0.014785713276690463 0.00059237912815265567 0 -0.014494678605632097 0.00072220080121789866 0 -0.01552100264165656 0.00021214960622793977 0 -0.014511028681869348 0.00074254811775698178 0 -0.015150595002271049 0.00075678309250537697 0 -0.013867616557565134 0.00096211365404635929 0 -0.014425555222429821 0.00070648720320349234 0 -0.014511028681869348 0.00074254811775698178 0 -0.0062874834116263354 -0.0020520670598685397 0 -0.0063906073921714398 -0.0020229502388458176 0 -0.0075341817442405061 -0.0023316433567097338 0 -0.0070811642775030267 -0.0014719541166421574 0 -0.0063906073921714398 -0.0020229502388458176 0 -0.0070891165611096391 -0.0019480816048466313 0 -0.0063906073921714398 -0.0020229502388458176 0 -0.0070891165611096391 -0.0019480816048466313 0 -0.0075341817442405061 -0.0023316433567097338 0 -0.014425555222429821 0.00070648720320349234 0 -0.014511028681869348 0.00074254811775698178 0 -0.01471538089994919 0.0010631086313420957 0 -0.010400182115659191 -0.00068370643355464896 0 -0.010533356954780172 -0.0022349278606100835 0 -0.0062874834116263354 -0.0020520670598685397 0 -0.0075341817442405061 -0.0023316433567097338 0 -0.0074133895417822946 -0.0049068495446892135 0 -0.014511028681869348 0.00074254811775698178 0 -0.01486709286001041 0.00097800304352084889 0 -0.01471538089994919 0.0010631086313420957 0 -0.0091359186875658582 -0.0034289030547955046 0 -0.0075341817442405061 -0.0023316433567097338 0 -0.0074133895417822946 -0.0049068495446892135 0 -0.014511028681869348 0.00074254811775698178 0 -0.01486709286001041 0.00097800304352084889 0 -0.015150595002271049 0.00075678309250537697 0 -0.01486709286001041 0.00097800304352084889 0 -0.015234875833081741 0.0010453729516877684 0 -0.015150595002271049 0.00075678309250537697 0 -0.01486709286001041 0.00097800304352084889 0 -0.015234875833081741 0.0010453729516877684 0 -0.015001902453842204 0.0012427580351713618 0 -0.015314926520152221 0.0013671253917473651 0 -0.015001902453842204 0.0012427580351713618 0 -0.015114440015878345 0.0015194462279624428 0 -0.015234875833081741 0.0010453729516877684 0 -0.015314926520152221 0.0013671253917473651 0 -0.015001902453842204 0.0012427580351713618 0 -0.015001902453842204 0.0012427580351713618 0 -0.014869212132209547 0.001522291604240705 0 -0.015114440015878345 0.0015194462279624428 0 -0.015001902453842204 0.0012427580351713618 0 -0.01471538089994919 0.0010631086313420957 0 -0.014869212132209547 0.001522291604240705 0 -0.010533356954780172 -0.0022349278606100835 0 -0.016142804237837639 -0.0013545757338498943 0 -0.01486709286001041 0.00097800304352084889 0 -0.015001902453842204 0.0012427580351713618 0 -0.01471538089994919 0.0010631086313420957 0 -0.01471538089994919 0.0010631086313420957 0 -0.014869212132209547 0.001522291604240705 0 -0.014557551371657708 0.0016604358070798208 0 -0.014734238470705891 0.001712961036288592 0 -0.014869212132209547 0.001522291604240705 0 -0.014557551371657708 0.0016604358070798208 0 -0.014734238470705891 0.001712961036288592 0 -0.014869212132209547 0.001522291604240705 0 -0.015055530885260793 0.0017132787222417453 0 -0.014869212132209547 0.001522291604240705 0 -0.015114440015878345 0.0015194462279624428 0 -0.015055530885260793 0.0017132787222417453 0 -0.022928007234931096 0.0015592862758315395 0 -0.013049067480100342 0.00071172543080573057 0 -0.015586464424112335 0.0019188300085548054 0 -0.015314926520152221 0.0013671253917473651 0 -0.015114440015878345 0.0015194462279624428 0 -0.015705452020693299 0.0018057530166199409 0 -0.015114440015878345 0.0015194462279624428 0 -0.015055530885260793 0.0017132787222417453 0 -0.012868998318410521 -0.0047457041003603527 0 -0.015429326071555135 -0.0021123881625685318 0 -0.015811779050307159 -0.00149473372371949 0 -0.016275212726074857 -0.0013922485177784913 0 -0.016353920381069857 -0.00087759668316000612 0 -0.010353425809887138 -0.0047478988229158851 0 -0.011550835593457898 -0.0063492378612295336 0 -0.014192533507551787 -0.0037818756751499777 0 -0.015811779050307159 -0.00149473372371949 0 -0.016066558445413586 -0.0018069994670386236 0 -0.016275212726074857 -0.0013922485177784913 0 -0.010353425809887138 -0.0047478988229158851 0 -0.011550835593457898 -0.0063492378612295336 0 -0.0095184641537812264 -0.0067081718067907564 0 -0.0074133895417822946 -0.0049068495446892135 0 -0.0095184641537812264 -0.0067081718067907564 0 -0.0091614613916209432 -0.0086736811975298006 0 -0.010353425809887138 -0.0047478988229158851 0 -0.0074133895417822946 -0.0049068495446892135 0 -0.0095184641537812264 -0.0067081718067907564 0 -0.012868998318410521 -0.0047457041003603527 0 -0.016142804237837639 -0.0013545757338498943 0 -0.011550835593457898 -0.0063492378612295336 0 -0.0095184641537812264 -0.0067081718067907564 0 -0.0091614613916209432 -0.0086736811975298006 0 -0.015189602190919275 -0.00014416191115408357 0 -0.016142804237837639 -0.0013545757338498943 0 -0.022478489087554874 -3.842371251617385e-05 0 -0.022260696606946198 0.00018239944245476868 0 -0.022829046410388035 -4.0232770075874626e-05 0 -0.022260696606946198 0.00018239944245476868 0 -0.022829046410388035 -4.0232770075874626e-05 0 -0.023317854659300013 -4.6526842685713494e-05 0 -0.015811779050307159 -0.00149473372371949 0 -0.015323572904538585 -0.0019958970944090105 0 -0.016066558445413586 -0.0018069994670386236 0 -0.016142804237837639 -0.0013545757338498943 0 -0.020187297511851856 -0.0008402657945931327 0 -0.023161231272487481 6.9295167172709208e-05 0 -0.022829046410388035 -4.0232770075874626e-05 0 -0.023317854659300013 -4.6526842685713494e-05 0 -0.023300875496075041 0.00059791299504054164 0 -0.023161231272487481 6.9295167172709208e-05 0 -0.023317854659300013 -4.6526842685713494e-05 0 -0.020187297511851856 -0.0008402657945931327 0 -0.019188484315145589 -0.0013265347789801732 0 -0.023300875496075041 0.00059791299504054164 0 -0.023317854659300013 -4.6526842685713494e-05 0 -0.021842801040788278 -0.0011567579535883886 0 -0.016275212726074857 -0.0013922485177784913 0 -0.016855865468100802 -0.0016338272100194071 0 -0.016353920381069857 -0.00087759668316000612 0 -0.016066558445413586 -0.0018069994670386236 0 -0.016275212726074857 -0.0013922485177784913 0 -0.016855865468100802 -0.0016338272100194071 0 -0.016855865468100802 -0.0016338272100194071 0 -0.016353920381069857 -0.00087759668316000612 0 -0.017057338071282447 -0.00084618694665609311 0 -0.016855865468100802 -0.0016338272100194071 0 -0.018506433019237944 -0.0010769949789224576 0 -0.017057338071282447 -0.00084618694665609311 0 -0.021842801040788278 -0.0011567579535883886 0 -0.021049667140978324 0.0001999537260335714 0 -0.019674573597057887 -0.00026796186799591949 0 -0.023300875496075041 0.00059791299504054164 0 -0.021842801040788278 -0.0011567579535883886 0 -0.021049667140978324 0.0001999537260335714 0 -0.019835002387305695 0.00044272064386534121 0 -0.021049667140978324 0.0001999537260335714 0 -0.019674573597057887 -0.00026796186799591949 0 -0.019835002387305695 0.00044272064386534121 0 -0.01908270796150326 0.00011857793340551621 0 -0.019674573597057887 -0.00026796186799591949 0 -0.01908270796150326 0.00011857793340551621 0 -0.019674573597057887 -0.00026796186799591949 0 -0.01872571966622167 -0.00047297373238429336 0 -0.019674573597057887 -0.00026796186799591949 0 -0.01872571966622167 -0.00047297373238429336 0 -0.018506433019237944 -0.0010769949789224576 0 -0.01908270796150326 0.00011857793340551621 0 -0.01872571966622167 -0.00047297373238429336 0 -0.018812444743003656 -0.00012020900509682543 0 -0.01908270796150326 0.00011857793340551621 0 -0.018917723302773973 0.00015863813783049605 0 -0.018812444743003656 -0.00012020900509682543 0 -0.018685406596703341 -0.00040981018981945164 0 -0.01845771252040088 -0.00021102437925426176 0 -0.01872571966622167 -0.00047297373238429336 0 -0.018506433019237944 -0.0010769949789224576 0 -0.018122917911997043 -0.00066767868583300573 0 -0.01872571966622167 -0.00047297373238429336 0 -0.018812444743003656 -0.00012020900509682543 0 -0.018823289716886005 9.8173543551740154e-05 0 -0.01872571966622167 -0.00047297373238429336 0 -0.018122917911997043 -0.00066767868583300573 0 -0.018045185088250974 -0.00048226402127377364 0 -0.019188484315145589 -0.0013265347789801732 0 -0.018695089672408009 -0.0011596751762758706 0 -0.021842801040788278 -0.0011567579535883886 0 -0.019674573597057887 -0.00026796186799591949 0 -0.018506433019237944 -0.0010769949789224576 0 -0.018506433019237944 -0.0010769949789224576 0 -0.017573508855986388 -0.00050764128448037879 0 -0.017057338071282447 -0.00084618694665609311 0 -0.018506433019237944 -0.0010769949789224576 0 -0.017573508855986388 -0.00050764128448037879 0 -0.018122917911997043 -0.00066767868583300573 0 -0.018122917911997043 -0.00066767868583300573 0 -0.017730067957586023 8.537970133382295e-05 0 -0.018032155503653322 -0.00016309849548373895 0 -0.017573508855986388 -0.00050764128448037879 0 -0.018122917911997043 -0.00066767868583300573 0 -0.017730067957586023 8.537970133382295e-05 0 -0.017573508855986388 -0.00050764128448037879 0 -0.017151499922943757 6.6227697031918473e-05 0 -0.016493443466534672 -0.00065988913863995302 0 -0.017573508855986388 -0.00050764128448037879 0 -0.017730067957586023 8.537970133382295e-05 0 -0.017151499922943757 6.6227697031918473e-05 0 -0.017151499922943757 6.6227697031918473e-05 0 -0.016493443466534672 -0.00065988913863995302 0 -0.016491113573274034 0.00069672691366642501 0 -0.016493443466534672 -0.00065988913863995302 0 -0.013572291446616759 -0.00099123169446995309 0 -0.014456810799805965 0.00143474337401476 0 -0.016493443466534672 -0.00065988913863995302 0 -0.013572291446616759 -0.00099123169446995309 0 -0.014192533507551787 -0.0037818756751499777 0 -0.016348146677761442 -0.00091576535616110671 0 -0.015429326071555135 -0.0021123881625685318 0 -0.016493443466534672 -0.00065988913863995302 0 -0.016353920381069857 -0.00087759668316000612 0 -0.017057338071282447 -0.00084618694665609311 0 -0.017573508855986388 -0.00050764128448037879 0 -0.016493443466534672 -0.00065988913863995302 0 -0.017057338071282447 -0.00084618694665609311 0 -0.018990336371522351 0.00016831475898294128 0 -0.018850975394239113 0.00030080927387425869 0 -0.019024921316657003 0.00031849711869460866 0 -0.018990336371522351 0.00016831475898294128 0 -0.018881055374073905 0.00020024006531296748 0 -0.018850975394239113 0.00030080927387425869 0 -0.019063953215546093 5.1586054679221936e-05 0 -0.018990336371522351 0.00016831475898294128 0 -0.018917615809637189 0.00011359502208829112 0 -0.018990336371522351 0.00016831475898294128 0 -0.018917615809637189 0.00011359502208829112 0 -0.018881055374073905 0.00020024006531296748 0 -0.018917615809637189 0.00011359502208829112 0 -0.018881055374073905 0.00020024006531296748 0 -0.018860927294120707 0.0001414221358999394 0 -0.018881055374073905 0.00020024006531296748 0 -0.018860927294120707 0.0001414221358999394 0 -0.01882790135959312 0.00026331923735283588 0 -0.018860927294120707 0.0001414221358999394 0 -0.018823289716886005 9.8173543551740154e-05 0 -0.01882790135959312 0.00026331923735283588 0 -0.018860927294120707 0.0001414221358999394 0 -0.018856441774913753 3.9994523667037437e-05 0 -0.018823289716886005 9.8173543551740154e-05 0 -0.018917615809637189 0.00011359502208829112 0 -0.018860927294120707 0.0001414221358999394 0 -0.018856441774913753 3.9994523667037437e-05 0 -0.01892470309971974 0.00016312334721776934 0 -0.018917615809637189 0.00011359502208829112 0 -0.018856441774913753 3.9994523667037437e-05 0 -0.018856441774913753 3.9994523667037437e-05 0 -0.018812444743003656 -0.00012020900509682543 0 -0.018823289716886005 9.8173543551740154e-05 0 -0.018917723302773973 0.00015863813783049605 0 -0.018856441774913753 3.9994523667037437e-05 0 -0.018812444743003656 -0.00012020900509682543 0 -0.018122917911997043 -0.00066767868583300573 0 -0.018045185088250974 -0.00048226402127377364 0 -0.018032155503653322 -0.00016309849548373895 0 -0.017730067957586023 8.537970133382295e-05 0 -0.018032155503653322 -0.00016309849548373895 0 -0.018013824626117968 0.00041835047816582362 0 -0.018013824626117968 0.00041835047816582362 0 -0.0183026615665049 -5.5683559614149076e-05 0 -0.018304945753804324 0.00053137693555193927 0 -0.018032155503653322 -0.00016309849548373895 0 -0.018013824626117968 0.00041835047816582362 0 -0.0183026615665049 -5.5683559614149076e-05 0 -0.01845771252040088 -0.00021102437925426176 0 -0.018556165527137396 0.00011594807543997533 0 -0.018045185088250974 -0.00048226402127377364 0 -0.018032155503653322 -0.00016309849548373895 0 -0.0183026615665049 -5.5683559614149076e-05 0 -0.018881055374073905 0.00020024006531296748 0 -0.01882790135959312 0.00026331923735283588 0 -0.018850975394239113 0.00030080927387425869 0 -0.018556165527137396 0.00011594807543997533 0 -0.018705696675598554 0.00042778296082383491 0 -0.0183026615665049 -5.5683559614149076e-05 0 -0.018304945753804324 0.00053137693555193927 0 -0.018694101969921783 0.00047724869574344419 0 -0.018694101969921783 0.00047724869574344419 0 -0.018465126497340313 0.00085974903711025881 0 -0.018884241142745839 0.00062906367284309007 0 -0.018304945753804324 0.00053137693555193927 0 -0.018694101969921783 0.00047724869574344419 0 -0.018465126497340313 0.00085974903711025881 0 -0.018694101969921783 0.00047724869574344419 0 -0.018850975394239113 0.00030080927387425869 0 -0.019024921316657003 0.00031849711869460866 0 -0.01882790135959312 0.00026331923735283588 0 -0.018694101969921783 0.00047724869574344419 0 -0.018850975394239113 0.00030080927387425869 0 -0.018387316577725972 0.001297992082486976 0 -0.018465126497340313 0.00085974903711025881 0 -0.018199988289739635 0.0012088657052796322 0 -0.018387316577725972 0.001297992082486976 0 -0.018199988289739635 0.0012088657052796322 0 -0.018126817055552465 0.001597501225390745 0 -0.018304945753804324 0.00053137693555193927 0 -0.018465126497340313 0.00085974903711025881 0 -0.018103545593120447 0.00090770656710401857 0 -0.018103545593120447 0.00090770656710401857 0 -0.018199988289739635 0.0012088657052796322 0 -0.017910584044917917 0.00136514717881288 0 -0.018465126497340313 0.00085974903711025881 0 -0.018103545593120447 0.00090770656710401857 0 -0.018199988289739635 0.0012088657052796322 0 -0.018103545593120447 0.00090770656710401857 0 -0.017741003684929584 0.0010891733992115392 0 -0.017910584044917917 0.00136514717881288 0 -0.018013824626117968 0.00041835047816582362 0 -0.018304945753804324 0.00053137693555193927 0 -0.018103545593120447 0.00090770656710401857 0 -0.018013824626117968 0.00041835047816582362 0 -0.018103545593120447 0.00090770656710401857 0 -0.017741003684929584 0.0010891733992115392 0 -0.018013824626117968 0.00041835047816582362 0 -0.017741003684929584 0.0010891733992115392 0 -0.017651402865212121 0.00072807924277156345 0 -0.017730067957586023 8.537970133382295e-05 0 -0.018013824626117968 0.00041835047816582362 0 -0.017651402865212121 0.00072807924277156345 0 -0.017741003684929584 0.0010891733992115392 0 -0.017651402865212121 0.00072807924277156345 0 -0.017369906239218368 0.001240685117570494 0 -0.017741003684929584 0.0010891733992115392 0 -0.017540948221914893 0.0015144482281801896 0 -0.017059219740865422 0.001438478482381009 0 -0.01770523590374104 0.0011630655656475093 0 -0.01730638947294038 0.001713575618710934 0 -0.017540948221914893 0.0015144482281801896 0 -0.017143272881844446 0.0018904038476651322 0 -0.017505770384035411 0.0018261434968595638 0 -0.017540948221914893 0.0015144482281801896 0 -0.017143272881844446 0.0018904038476651322 0 -0.017059219740865422 0.001438478482381009 0 -0.017505770384035411 0.0018261434968595638 0 -0.017781023022801243 0.0017485084936911626 0 -0.017634766924962277 0.0020809447690034854 0 -0.017540948221914893 0.0015144482281801896 0 -0.017505770384035411 0.0018261434968595638 0 -0.017781023022801243 0.0017485084936911626 0 -0.017741003684929584 0.0010891733992115392 0 -0.017540948221914893 0.0015144482281801896 0 -0.017910584044917917 0.00136514717881288 0 -0.017540948221914893 0.0015144482281801896 0 -0.017910584044917917 0.00136514717881288 0 -0.017781023022801243 0.0017485084936911626 0 -0.017910584044917917 0.00136514717881288 0 -0.017781023022801243 0.0017485084936911626 0 -0.018126817055552465 0.001597501225390745 0 -0.018199988289739635 0.0012088657052796322 0 -0.017910584044917917 0.00136514717881288 0 -0.018126817055552465 0.001597501225390745 0 -0.017781023022801243 0.0017485084936911626 0 -0.01794020701776405 0.0019189886568435105 0 -0.018126817055552465 0.001597501225390745 0 -0.017781023022801243 0.0017485084936911626 0 -0.01794020701776405 0.0019189886568435105 0 -0.017634766924962277 0.0020809447690034854 0 -0.01794020701776405 0.0019189886568435105 0 -0.018126817055552465 0.001597501225390745 0 -0.018344272635574276 0.0018927807746777 0 -0.01794020701776405 0.0019189886568435105 0 -0.018088390069035613 0.0021092608440989959 0 -0.018344272635574276 0.0018927807746777 0 -0.018387316577725972 0.001297992082486976 0 -0.018126817055552465 0.001597501225390745 0 -0.018344272635574276 0.0018927807746777 0 -0.01506719465443003 0.00089308205164380979 0 -0.012703396334182441 5.3233529948368856e-05 0 -0.013844607953764637 6.7627546952480223e-05 0 -0.011076894337315331 0.00076074745299421146 0 -0.011028363170612265 -0.001294064483855785 0 -0.0092348697206805774 -8.6034333228460921e-05 0 -0.011076894337315331 0.00076074745299421146 0 -0.011028363170612265 -0.001294064483855785 0 -0.01634614459249184 0.0016435018484374404 0 -0.014456810799805965 0.00143474337401476 0 -0.016491113573274034 0.00069672691366642501 0 -0.016493443466534672 -0.00065988913863995302 0 -0.014456810799805965 0.00143474337401476 0 -0.016491113573274034 0.00069672691366642501 0 -0.017151499922943757 6.6227697031918473e-05 0 -0.016491113573274034 0.00069672691366642501 0 -0.017134400375004497 0.00083295327434511921 0 -0.01634614459249184 0.0016435018484374404 0 -0.016491113573274034 0.00069672691366642501 0 -0.017134400375004497 0.00083295327434511921 0 -0.017730067957586023 8.537970133382295e-05 0 -0.017151499922943757 6.6227697031918473e-05 0 -0.017134400375004497 0.00083295327434511921 0 -0.017730067957586023 8.537970133382295e-05 0 -0.017134400375004497 0.00083295327434511921 0 -0.017651402865212121 0.00072807924277156345 0 -0.017741003684929584 0.0010891733992115392 0 -0.017369906239218368 0.001240685117570494 0 -0.017630161218663377 0.0018975654937095597 0 -0.017134400375004497 0.00083295327434511921 0 -0.017651402865212121 0.00072807924277156345 0 -0.017369906239218368 0.001240685117570494 0 -0.017369906239218368 0.001240685117570494 0 -0.016884226983558164 0.0013775490053499187 0 -0.01674985688889135 0.001746379092230216 0 -0.01634614459249184 0.0016435018484374404 0 -0.016884226983558164 0.0013775490053499187 0 -0.01674985688889135 0.001746379092230216 0 -0.01634614459249184 0.0016435018484374404 0 -0.017134400375004497 0.00083295327434511921 0 -0.016884226983558164 0.0013775490053499187 0 -0.017134400375004497 0.00083295327434511921 0 -0.017369906239218368 0.001240685117570494 0 -0.016884226983558164 0.0013775490053499187 0 -0.014813245491113531 0.0024073625291414881 0 -0.01674985688889135 0.001746379092230216 0 -0.016049421114473394 0.004040539761715276 0 -0.013844607953764637 6.7627546952480223e-05 0 -0.014813245491113531 0.0024073625291414881 0 -0.01674985688889135 0.001746379092230216 0 -0.01506719465443003 0.00089308205164380979 0 -0.016640136597973615 0.0016949334709950952 0 -0.01674985688889135 0.001746379092230216 0 -0.017630161218663377 0.0018975654937095597 0 -0.016049421114473394 0.004040539761715276 0 -0.017369906239218368 0.001240685117570494 0 -0.01674985688889135 0.001746379092230216 0 -0.017630161218663377 0.0018975654937095597 0 -0.017143272881844446 0.0018904038476651322 0 -0.017059219740865422 0.001438478482381009 0 -0.016615665854249857 0.0017700998754093034 0 -0.01730638947294038 0.001713575618710934 0 -0.016294082439536596 0.00286825203753562 0 -0.014813245491113531 0.0024073625291414881 0 -0.016049421114473394 0.004040539761715276 0 -0.012750583574801192 0.0031471406201238287 0 -0.016049421114473394 0.004040539761715276 0 -0.012750583574801192 0.0031471406201238287 0 -0.013818245562967294 0.0061956249607180314 0 -0.013844607953764637 6.7627546952480223e-05 0 -0.014813245491113531 0.0024073625291414881 0 -0.012750583574801192 0.0031471406201238287 0 -0.013844607953764637 6.7627546952480223e-05 0 -0.011076894337315331 0.00076074745299421146 0 -0.012750583574801192 0.0031471406201238287 0 -0.0086488571426267535 0.0020341758296931419 0 -0.011076894337315331 0.00076074745299421146 0 -0.012750583574801192 0.0031471406201238287 0 -0.0086488571426267535 0.0020341758296931419 0 -0.012750583574801192 0.0031471406201238287 0 -0.010217729899156468 0.0051635437973469173 0 -0.012750583574801192 0.0031471406201238287 0 -0.013818245562967294 0.0061956249607180314 0 -0.010217729899156468 0.0051635437973469173 0 -0.011117561386799849 0.0023209119140177215 0 -0.0081619115160352744 0.002177175049388057 0 -0.011739948525705196 0.0082265120873034302 0 -0.013818245562967294 0.0061956249607180314 0 -0.010217729899156468 0.0051635437973469173 0 -0.0067674190544613801 -0.00096982121480448176 0 -0.0066762757337044815 -0.00095125192544093912 0 -0.0065055018611175656 -0.0011124323806944712 0 -0.011117561386799849 0.0023209119140177215 0 -0.0073408212082745304 0.0001055522971279107 0 -0.0067674190544613801 -0.00096982121480448176 0 -0.0066762757337044815 -0.00095125192544093912 0 -0.0066856186009494629 -0.00087845797629849726 0 -0.0071720801907518891 -0.00050611668525156277 0 -0.0073408212082745304 0.0001055522971279107 0 -0.015788284417749338 0.002457443520082979 0 -0.016194074797302015 0.0021026049618825195 0 -0.016318054153661093 0.0025113352571239289 0 -0.011117561386799849 0.0023209119140177215 0 -0.015210608108401951 0.0044293425909712036 0 -0.016615665854249857 0.0017700998754093034 0 -0.016194074797302015 0.0021026049618825195 0 -0.01668467701972555 0.0021719767430591896 0 -0.016294082439536596 0.00286825203753562 0 -0.015210608108401951 0.0044293425909712036 0 -0.017143272881844446 0.0018904038476651322 0 -0.01668467701972555 0.0021719767430591896 0 -0.017128111568492914 0.0022590705842385128 0 -0.017143272881844446 0.0018904038476651322 0 -0.016615665854249857 0.0017700998754093034 0 -0.01668467701972555 0.0021719767430591896 0 -0.016637742443056117 0.002500990820396746 0 -0.01687083762405675 0.0027140976944637256 0 -0.017128111568492914 0.0022590705842385128 0 -0.01668467701972555 0.0021719767430591896 0 -0.016637742443056117 0.002500990820396746 0 -0.017128111568492914 0.0022590705842385128 0 -0.016861517065278733 0.0025742165710485 0 -0.017106187775069049 0.0022736019817465058 0 -0.016194074797302015 0.0021026049618825195 0 -0.01668467701972555 0.0021719767430591896 0 -0.016318054153661093 0.0025113352571239289 0 -0.01668467701972555 0.0021719767430591896 0 -0.016637742443056117 0.002500990820396746 0 -0.016318054153661093 0.0025113352571239289 0 -0.016637742443056117 0.002500990820396746 0 -0.016318054153661093 0.0025113352571239289 0 -0.016516803747542289 0.0027958938488975502 0 -0.016516803747542289 0.0027958938488975502 0 -0.01687083762405675 0.0027140976944637256 0 -0.016587377374290918 0.0031343485592428451 0 -0.016637742443056117 0.002500990820396746 0 -0.016516803747542289 0.0027958938488975502 0 -0.01687083762405675 0.0027140976944637256 0 -0.016909270900560609 0.0023855099783580466 0 -0.016872716201348812 0.0025365026110116158 0 -0.017024339709195421 0.0024743521058130397 0 -0.016882519980741913 0.0025409662766058844 0 -0.016982790458762689 0.0026872553660554363 0 -0.016872716201348812 0.0025365026110116158 0 -0.017024339709195421 0.0024743521058130397 0 -0.016838401571753436 0.0027126685341974694 0 -0.016909270900560609 0.0023855099783580466 0 -0.016872716201348812 0.0025365026110116158 0 -0.016690761239076111 0.0025918507455643621 0 -0.016861517065278733 0.0025742165710485 0 -0.016875921525888817 0.0028156955841792636 0 -0.017024339709195421 0.0024743521058130397 0 -0.01673948867656886 0.00279678116381229 0 -0.016489354832080881 0.0027459334923099332 0 -0.016872716201348812 0.0025365026110116158 0 -0.016690761239076111 0.0025918507455643621 0 -0.016838401571753436 0.0027126685341974694 0 -0.016587377374290918 0.0031343485592428451 0 -0.016061656094890728 0.0030019361896993944 0 -0.016309038186278303 0.0035410359223722581 0 -0.016516803747542289 0.0027958938488975502 0 -0.016587377374290918 0.0031343485592428451 0 -0.016061656094890728 0.0030019361896993944 0 -0.0099279354585956256 0.0017316052942348513 0 -0.0094859620994143141 0.0020248285494586329 0 -0.009433632789887323 0.0012223998157650546 0 -0.0081348687734206348 0.0015267826066552991 0 -0.0073408212082745304 0.0001055522971279107 0 -0.011117561386799849 0.0023209119140177215 0 -0.013128688926138124 0.0023501381838628242 0 -0.009607603259040913 0.0010553826057426231 0 -0.0099279354585956256 0.0017316052942348513 0 -0.009433632789887323 0.0012223998157650546 0 -0.016318054153661093 0.0025113352571239289 0 -0.016516803747542289 0.0027958938488975502 0 -0.016061656094890728 0.0030019361896993944 0 -0.015788284417749338 0.002457443520082979 0 -0.016318054153661093 0.0025113352571239289 0 -0.016061656094890728 0.0030019361896993944 0 -0.017908996357937332 0.0023276030358997664 0 -0.017834062177157207 0.0021554500673821196 0 -0.017583295180569967 0.0023019230541250183 0 -0.017908996357937332 0.0023276030358997664 0 -0.017583295180569967 0.0023019230541250183 0 -0.017641087255638042 0.0024373463111218669 0 -0.017908996357937332 0.0023276030358997664 0 -0.018088390069035613 0.0021092608440989959 0 -0.017834062177157207 0.0021554500673821196 0 -0.01794020701776405 0.0019189886568435105 0 -0.018088390069035613 0.0021092608440989959 0 -0.017834062177157207 0.0021554500673821196 0 -0.017834062177157207 0.0021554500673821196 0 -0.017634766924962277 0.0020809447690034854 0 -0.017583295180569967 0.0023019230541250183 0 -0.01794020701776405 0.0019189886568435105 0 -0.017834062177157207 0.0021554500673821196 0 -0.017634766924962277 0.0020809447690034854 0 -0.017634766924962277 0.0020809447690034854 0 -0.017583295180569967 0.0023019230541250183 0 -0.01737141591514298 0.0022458073287295213 0 -0.017583295180569967 0.0023019230541250183 0 -0.01737141591514298 0.0022458073287295213 0 -0.017306711134020349 0.0023607667240153904 0 -0.01737141591514298 0.0022458073287295213 0 -0.017200715513215573 0.0023305022793205297 0 -0.017306711134020349 0.0023607667240153904 0 -0.017634766924962277 0.0020809447690034854 0 -0.01737141591514298 0.0022458073287295213 0 -0.017380906820614821 0.0020848137736483923 0 -0.017505770384035411 0.0018261434968595638 0 -0.017634766924962277 0.0020809447690034854 0 -0.017380906820614821 0.0020848137736483923 0 -0.017143272881844446 0.0018904038476651322 0 -0.017380906820614821 0.0020848137736483923 0 -0.017128111568492914 0.0022590705842385128 0 -0.017143272881844446 0.0018904038476651322 0 -0.017505770384035411 0.0018261434968595638 0 -0.017380906820614821 0.0020848137736483923 0 -0.017128111568492914 0.0022590705842385128 0 -0.017200715513215573 0.0023305022793205297 0 -0.017067711429894942 0.0023660679599366735 0 -0.01737141591514298 0.0022458073287295213 0 -0.017380906820614821 0.0020848137736483923 0 -0.017128111568492914 0.0022590705842385128 0 -0.01737141591514298 0.0022458073287295213 0 -0.017128111568492914 0.0022590705842385128 0 -0.017200715513215573 0.0023305022793205297 0 -0.016909270900560609 0.0023855099783580466 0 -0.017128111568492914 0.0022590705842385128 0 -0.017067711429894942 0.0023660679599366735 0 -0.017200715513215573 0.0023305022793205297 0 -0.017067711429894942 0.0023660679599366735 0 -0.017133285642193203 0.0023919598069235353 0 -0.017067711429894942 0.0023660679599366735 0 -0.017024339709195421 0.0024743521058130397 0 -0.017133285642193203 0.0023919598069235353 0 -0.016909270900560609 0.0023855099783580466 0 -0.017067711429894942 0.0023660679599366735 0 -0.017024339709195421 0.0024743521058130397 0 -0.017024339709195421 0.0024743521058130397 0 -0.016961525430929096 0.002716696893068801 0 -0.017133285642193203 0.0023919598069235353 0 -0.016796438128344984 0.0026262055713013443 0 -0.017067840505243275 0.0024177987534945013 0 -0.017024339709195421 0.0024743521058130397 0 -0.016961525430929096 0.002716696893068801 0 -0.01673948867656886 0.00279678116381229 0 -0.01664798940048947 0.0025209114579859229 0 -0.017026013653253871 0.0024978285202404576 0 -0.017133285642193203 0.0023919598069235353 0 -0.017026013653253871 0.0024978285202404576 0 -0.017198752270831143 0.0024350593992738508 0 -0.017133285642193203 0.0023919598069235353 0 -0.017026013653253871 0.0024978285202404576 0 -0.01720020752538003 0.0025470933589742855 0 -0.016922691826840811 0.0026388620123888721 0 -0.017026013653253871 0.0024978285202404576 0 -0.017198752270831143 0.0024350593992738508 0 -0.01720020752538003 0.0025470933589742855 0 -0.017198752270831143 0.0024350593992738508 0 -0.017306711134020349 0.0023607667240153904 0 -0.017398380363367959 0.002427822820943391 0 -0.017198752270831143 0.0024350593992738508 0 -0.017133285642193203 0.0023919598069235353 0 -0.017306711134020349 0.0023607667240153904 0 -0.017200715513215573 0.0023305022793205297 0 -0.017133285642193203 0.0023919598069235353 0 -0.017306711134020349 0.0023607667240153904 0 -0.017583295180569967 0.0023019230541250183 0 -0.017306711134020349 0.0023607667240153904 0 -0.017398380363367959 0.002427822820943391 0 -0.017583295180569967 0.0023019230541250183 0 -0.017398380363367959 0.002427822820943391 0 -0.017641087255638042 0.0024373463111218669 0 -0.017398380363367959 0.002427822820943391 0 -0.017456567398069382 0.0025216484593198539 0 -0.017641087255638042 0.0024373463111218669 0 -0.017398380363367959 0.002427822820943391 0 -0.01720020752538003 0.0025470933589742855 0 -0.017456567398069382 0.0025216484593198539 0 -0.01720020752538003 0.0025470933589742855 0 -0.017456567398069382 0.0025216484593198539 0 -0.017374565684269778 0.0026486252323533331 0 -0.017198752270831143 0.0024350593992738508 0 -0.017398380363367959 0.002427822820943391 0 -0.01720020752538003 0.0025470933589742855 0 -0.017456567398069382 0.0025216484593198539 0 -0.017374565684269778 0.0026486252323533331 0 -0.01762607736675317 0.0025550261884868253 0 -0.017456567398069382 0.0025216484593198539 0 -0.017641087255638042 0.0024373463111218669 0 -0.01762607736675317 0.0025550261884868253 0 -0.017641087255638042 0.0024373463111218669 0 -0.017823806060942683 0.0024677975279488265 0 -0.01762607736675317 0.0025550261884868253 0 -0.017908996357937332 0.0023276030358997664 0 -0.017641087255638042 0.0024373463111218669 0 -0.017823806060942683 0.0024677975279488265 0 -0.017320407479228979 0.0028469435870212209 0 -0.017477274031843057 0.0026673530955103018 0 -0.017403482959484802 0.0026753809655300576 0 -0.017320407479228979 0.0028469435870212209 0 -0.017374565684269778 0.0026486252323533331 0 -0.017477274031843057 0.0026673530955103018 0 -0.017374565684269778 0.0026486252323533331 0 -0.017477274031843057 0.0026673530955103018 0 -0.01762607736675317 0.0025550261884868253 0 -0.01720020752538003 0.0025470933589742855 0 -0.017374565684269778 0.0026486252323533331 0 -0.017021338485190003 0.0027876040956891961 0 -0.017320407479228979 0.0028469435870212209 0 -0.017021338485190003 0.0027876040956891961 0 -0.016970829650573293 0.0031426194351348918 0 -0.017320407479228979 0.0028469435870212209 0 -0.017374565684269778 0.0026486252323533331 0 -0.017021338485190003 0.0027876040956891961 0 -0.017021338485190003 0.0027876040956891961 0 -0.016633793565650618 0.0030524223008209475 0 -0.016970829650573293 0.0031426194351348918 0 -0.017021338485190003 0.0027876040956891961 0 -0.016633793565650618 0.0030524223008209475 0 -0.016634484367657517 0.002772568891125662 0 -0.017021338485190003 0.0027876040956891961 0 -0.016922691826840811 0.0026388620123888721 0 -0.016634484367657517 0.002772568891125662 0 -0.01720020752538003 0.0025470933589742855 0 -0.017021338485190003 0.0027876040956891961 0 -0.016922691826840811 0.0026388620123888721 0 -0.01664798940048947 0.0025209114579859229 0 -0.017026013653253871 0.0024978285202404576 0 -0.016922691826840811 0.0026388620123888721 0 -0.016796438128344984 0.0026262055713013443 0 -0.016512426788422522 0.0031528331755729094 0 -0.01664798940048947 0.0025209114579859229 0 -0.016634484367657517 0.002772568891125662 0 -0.016136155382692106 0.0028538335574589493 0 -0.016961525430929096 0.002716696893068801 0 -0.01673948867656886 0.00279678116381229 0 -0.016683942449407393 0.0032150943774839945 0 -0.01664798940048947 0.0025209114579859229 0 -0.016922691826840811 0.0026388620123888721 0 -0.016634484367657517 0.002772568891125662 0 -0.016634484367657517 0.002772568891125662 0 -0.016396263317257482 0.0029537913532259358 0 -0.016136155382692106 0.0028538335574589493 0 -0.016633793565650618 0.0030524223008209475 0 -0.016634484367657517 0.002772568891125662 0 -0.016396263317257482 0.0029537913532259358 0 -0.016633793565650618 0.0030524223008209475 0 -0.016396263317257482 0.0029537913532259358 0 -0.016173530825767501 0.0031422094099565635 0 -0.016396263317257482 0.0029537913532259358 0 -0.016173530825767501 0.0031422094099565635 0 -0.016136155382692106 0.0028538335574589493 0 -0.016633793565650618 0.0030524223008209475 0 -0.016173530825767501 0.0031422094099565635 0 -0.016373642637139051 0.0034175957172912267 0 -0.016173530825767501 0.0031422094099565635 0 -0.016373642637139051 0.0034175957172912267 0 -0.01589962409599683 0.0033640427803936787 0 -0.016373642637139051 0.0034175957172912267 0 -0.016148683232262387 0.0038843358022947589 0 -0.01589962409599683 0.0033640427803936787 0 0.0097395535080253802 0.0053313413415747805 0 0.013512826014469334 0.0058255643524891291 0 0.011764269979459499 0.0029733859800345134 0 -0.0036083725245085437 0.0045444077912866442 0 -0.0015911239912590701 0.0049423443727904925 0 -0.016373642637139051 0.0034175957172912267 0 -0.016148683232262387 0.0038843358022947589 0 -0.016803401536464341 0.0035680037489344229 0 -0.016633793565650618 0.0030524223008209475 0 -0.016697694107152737 0.0032907866813689859 0 -0.016970829650573293 0.0031426194351348918 0 -0.016373642637139051 0.0034175957172912267 0 -0.016697694107152737 0.0032907866813689859 0 -0.016803401536464341 0.0035680037489344229 0 -0.016633793565650618 0.0030524223008209475 0 -0.016373642637139051 0.0034175957172912267 0 -0.016697694107152737 0.0032907866813689859 0 -0.016697694107152737 0.0032907866813689859 0 -0.016970829650573293 0.0031426194351348918 0 -0.016803401536464341 0.0035680037489344229 0 -0.016970829650573293 0.0031426194351348918 0 -0.016803401536464341 0.0035680037489344229 0 -0.017302459144482543 0.0034197241968800143 0 -0.0015911239912590701 0.0049423443727904925 0 0.00045437884137213707 0.0028588353642896836 0 0.013512826014469334 0.0058255643524891291 0 0.016320263619429707 0.0042095599494981258 0 0.014462296973101366 0.0033892507670131564 0 0.013512826014469334 0.0058255643524891291 0 0.017509092507408251 0.0063733872389779367 0 0.016320263619429707 0.0042095599494981258 0 0.00045437884137213707 0.0028588353642896836 0 0.020884773718956102 0.00031381305539138465 0 0.017509092507408251 0.0063733872389779367 0 0.016320263619429707 0.0042095599494981258 0 0.018732451563437225 0.0032313082255369268 0 -0.020421003057840934 0.0041944157571768585 0 0.00045437884137213707 0.0028588353642896836 0 -0.017320407479228979 0.0028469435870212209 0 -0.017230669726876285 0.0027419332046354555 0 -0.017403482959484802 0.0026753809655300576 0 -0.017320407479228979 0.0028469435870212209 0 -0.016970829650573293 0.0031426194351348918 0 -0.017302459144482543 0.0034197241968800143 0 -0.012012442493842399 0.0012990769594220634 0 -0.012393455531006556 0.002107434779314962 0 -0.010175021963445998 0.0041670182066010858 0 -0.01384591265744191 0.0026771151703458805 0 -0.0078973596445434217 0.0028560158508639409 0 -0.0098045493139229754 0.0024917847495744033 0 -0.0097893430951585814 0.0027949442251574796 0 -0.0098998740724842785 0.0029362294727943721 0 -0.0098045493139229754 0.0024917847495744033 0 -0.010253375190694808 0.0024180539561187344 0 -0.0098998740724842785 0.0029362294727943721 0 -0.011666442456724388 0.0011440969653577085 0 -0.0087785581595079751 0.0038633354501627797 0 -0.01003525726239007 0.0041702680982594244 0 -0.014026694400261329 0.0025782787509002337 0 -0.0078973596445434217 0.0028560158508639409 0 -0.0097893430951585814 0.0027949442251574796 0 -0.0095233080599275866 0.0028415347843055963 0 -0.0098998740724842785 0.0029362294727943721 0 -0.0098045493139229754 0.0024917847495744033 0 -0.0097893430951585814 0.0027949442251574796 0 -0.0095233080599275866 0.0028415347843055963 0 -0.0055355923726812155 0.0020136793317589033 0 -0.0078973596445434217 0.0028560158508639409 0 -0.0094859620994143141 0.0020248285494586329 0 -0.0098045493139229754 0.0024917847495744033 0 -0.0095233080599275866 0.0028415347843055963 0 -0.0081348687734206348 0.0015267826066552991 0 -0.0055355923726812155 0.0020136793317589033 0 -0.0060383484007761716 0.0007162810463844806 0 -0.0061309877774129535 0.0019833049655235691 0 -0.005332496977765987 0.0010128484581008216 0 -0.0099279354585956256 0.0017316052942348513 0 -0.0094859620994143141 0.0020248285494586329 0 -0.0098045493139229754 0.0024917847495744033 0 -0.013128688926138124 0.0023501381838628242 0 -0.01384591265744191 0.0026771151703458805 0 -0.0099279354585956256 0.0017316052942348513 0 -0.0098045493139229754 0.0024917847495744033 0 -0.010253375190694808 0.0024180539561187344 0 -0.016690761239076111 0.0025918507455643621 0 -0.016436606516070193 0.0029309707286597599 0 -0.016838401571753436 0.0027126685341974694 0 -0.016875921525888817 0.0028156955841792636 0 -0.01384591265744191 0.0026771151703458805 0 -0.016436606516070193 0.0029309707286597599 0 -0.016838401571753436 0.0027126685341974694 0 -0.016480521562491926 0.0030317157283599322 0 -0.016982790458762689 0.0026872553660554363 0 -0.014026694400261329 0.0025782787509002337 0 -0.016489354832080881 0.0027459334923099332 0 -0.016551837562131046 0.0029607728773113975 0 -0.01591126702948514 0.0032173577935110348 0 -0.01673948867656886 0.00279678116381229 0 -0.016551837562131046 0.0029607728773113975 0 -0.016683942449407393 0.0032150943774839945 0 -0.01673948867656886 0.00279678116381229 0 -0.016489354832080881 0.0027459334923099332 0 -0.016551837562131046 0.0029607728773113975 0 -0.016173530825767501 0.0031422094099565635 0 -0.016136155382692106 0.0028538335574589493 0 -0.015707521684195869 0.0033119609565754361 0 -0.016683942449407393 0.0032150943774839945 0 -0.016325481632497935 0.003550598839134147 0 -0.016394912752932232 0.0037641655327239972 0 -0.017129972151388895 0.0028704508559604515 0 -0.013709239639104679 0.0027951681333988521 0 -0.016551837562131046 0.0029607728773113975 0 -0.016401139970637805 0.0032177927524423464 0 -0.015994021541284296 0.0033390369256421346 0 -0.016512426788422522 0.0031528331755729094 0 -0.014426796651779044 0.0025513387267052951 0 -0.016551837562131046 0.0029607728773113975 0 -0.016683942449407393 0.0032150943774839945 0 -0.016401139970637805 0.0032177927524423464 0 -0.016683942449407393 0.0032150943774839945 0 -0.016401139970637805 0.0032177927524423464 0 -0.016364487680300913 0.0033527803692456285 0 -0.016683942449407393 0.0032150943774839945 0 -0.016364487680300913 0.0033527803692456285 0 -0.016325481632497935 0.003550598839134147 0 -0.016551837562131046 0.0029607728773113975 0 -0.01591126702948514 0.0032173577935110348 0 -0.015992666142756979 0.0033956309167545535 0 -0.014026694400261329 0.0025782787509002337 0 -0.013709239639104679 0.0027951681333988521 0 -0.01384591265744191 0.0026771151703458805 0 -0.014026694400261329 0.0025782787509002337 0 -0.016401139970637805 0.0032177927524423464 0 -0.016364487680300913 0.0033527803692456285 0 -0.015994021541284296 0.0033390369256421346 0 -0.016364487680300913 0.0033527803692456285 0 -0.015994021541284296 0.0033390369256421346 0 -0.016325481632497935 0.003550598839134147 0 -0.013709239639104679 0.0027951681333988521 0 -0.0072100608268288284 0.0026844340793292856 0 -0.011666442456724388 0.0011440969653577085 0 -0.01223015285943432 0.0023362310802735953 0 -0.01003525726239007 0.0041702680982594244 0 -0.0070792073102931875 0.0018047372146979676 0 -0.006133431806707881 0.0030080978784595876 0 -0.0040317293137991442 0.0010670813850036593 0 -0.010497237880251286 0.0028885600639056304 0 -0.0072100608268288284 0.0026844340793292856 0 -0.010615329981914586 0.0020645677452514337 0 -0.011216645234354469 0.0033402808491778315 0 -0.0095620157289121946 0.0029414909597036266 0 -0.013709239639104679 0.0027951681333988521 0 -0.010497237880251286 0.0028885600639056304 0 -0.015994021541284296 0.0033390369256421346 0 -0.016164474713423145 0.0037108676184303877 0 -0.016325481632497935 0.003550598839134147 0 -0.0070792073102931875 0.0018047372146979676 0 -0.006133431806707881 0.0030080978784595876 0 -0.0076895749143740793 0.0030852775009409705 0 -0.010497237880251286 0.0028885600639056304 0 -0.0088704365479006699 0.0021240260663422119 0 -0.006133431806707881 0.0030080978784595876 0 -0.0048041983201464354 0.003694503792335158 0 -0.0040317293137991442 0.0010670813850036593 0 -0.015264270649252962 0.0031944148636753348 0 -0.01589962409599683 0.0033640427803936787 0 -0.014738615340393864 0.0042138748177984377 0 -0.016173530825767501 0.0031422094099565635 0 -0.015707521684195869 0.0033119609565754361 0 -0.01589962409599683 0.0033640427803936787 0 -0.010497237880251286 0.0028885600639056304 0 -0.014426796651779044 0.0025513387267052951 0 -0.016164474713423145 0.0037108676184303877 0 -0.016325481632497935 0.003550598839134147 0 -0.016394912752932232 0.0037641655327239972 0 -0.0071161754626701008 0.0018279452350498657 0 -0.0085462568094084278 0.0021658428802722521 0 -0.0076895749143740793 0.0030852775009409705 0 -0.014426796651779044 0.0025513387267052951 0 -0.015958789904997581 0.0032062252171335365 0 -0.0036083725245085437 0.0045444077912866442 0 -0.0023762516849954326 0.0046243118176336152 0 -0.0085462568094084278 0.0021658428802722521 0 -0.0076895749143740793 0.0030852775009409705 0 -0.0070685354689528669 0.0053906554605409208 0 0.0097395535080253802 0.0053313413415747805 0 0.0060075265999169243 0.0048500813322304281 0 0.0076570069306503346 0.0035731922969184484 0 -0.016148683232262387 0.0038843358022947589 0 -0.01589962409599683 0.0033640427803936787 0 -0.014738615340393864 0.0042138748177984377 0 -0.014426796651779044 0.0025513387267052951 0 -0.0023762516849954326 0.0046243118176336152 0 -0.0023762516849954326 0.0046243118176336152 0 0.0012343798802022959 0.0044838169896183628 0 -0.0048041983201464354 0.003694503792335158 0 -0.0070685354689528669 0.0053906554605409208 0 -0.0033509885726914577 0.00584445753435134 0 -0.006133431806707881 0.0030080978784595876 0 -0.0048041983201464354 0.003694503792335158 0 -0.0070685354689528669 0.0053906554605409208 0 -0.006133431806707881 0.0030080978784595876 0 -0.0076895749143740793 0.0030852775009409705 0 -0.0070685354689528669 0.0053906554605409208 0 -0.0033509885726914577 0.00584445753435134 0 -0.0023083164032735386 0.0045554376512268622 0 -0.0010004623138114251 0.0052748811888212324 0 -0.0033509885726914577 0.00584445753435134 0 -0.0032219721812567783 0.0036505521605493842 0 -0.0023083164032735386 0.0045554376512268622 0 -0.0032219721812567783 0.0036505521605493842 0 -0.0023083164032735386 0.0045554376512268622 0 -0.001615245395392938 0.0030881005574625738 0 -0.0048041983201464354 0.003694503792335158 0 -0.0033509885726914577 0.00584445753435134 0 -0.0032219721812567783 0.0036505521605493842 0 -0.0048041983201464354 0.003694503792335158 0 -0.0032219721812567783 0.0036505521605493842 0 -0.0040317293137991442 0.0010670813850036593 0 -0.0072100608268288284 0.0026844340793292856 0 -0.0032878926409458638 0.0034455638186698364 0 -0.0032219721812567783 0.0036505521605493842 0 -0.0040317293137991442 0.0010670813850036593 0 -0.001615245395392938 0.0030881005574625738 0 -0.0078973596445434217 0.0028560158508639409 0 -0.0032878926409458638 0.0034455638186698364 0 -0.0060323994316962559 0.0019502379243593196 0 -0.0070994461139305357 0.00221044125919627 0 -0.0047625507733633585 0.0041696210374101879 0 -0.0078973596445434217 0.0028560158508639409 0 -0.0072100608268288284 0.0026844340793292856 0 -0.0016143563449762157 0.0011194020084414847 0 -0.0016563765631558438 0.0013888473432180971 0 -0.001413160952825453 0.0012804424284337537 0 -0.0078973596445434217 0.0028560158508639409 0 -0.0029316818293010395 0.0025651077230382227 0 -0.0049785030897527317 0.0019179287792370574 0 -0.0061993289373550057 0.0022157757251394525 0 -0.0050873340019171598 0.0032582781951707236 0 -0.0055355923726812155 0.0020136793317589033 0 -0.0029316818293010395 0.0025651077230382227 0 -0.0057627887655477593 0.0017126230519187422 0 -0.004612963185202777 0.0036943979480163086 0 -0.0039013603249385353 0.0034499867999099113 0 -0.0029316818293010395 0.0025651077230382227 0 -0.0022366983424604355 0.0033645693411088811 0 -0.004612963185202777 0.0036943979480163086 0 -0.0039013603249385353 0.0034499867999099113 0 -0.0039670471085745864 0.0042333269690747414 0 -0.0016563765631558438 0.0013888473432180971 0 -0.0013431358979558074 0.0014320707329572321 0 -0.001413160952825453 0.0012804424284337537 0 -0.0012107935249754352 0.002047270670248806 0 -0.0012520450777366481 0.0025676480168165439 0 -1.5814676111890664e-05 0.0031566756625742804 0 0.0012343798802022959 0.0044838169896183628 0 0.0020736754312691173 0.004170634251641746 0 -0.0033509885726914577 0.00584445753435134 0 -0.0010004623138114251 0.0052748811888212324 0 0.00033919309553948025 0.0062916480432077069 0 -0.0011510924999097883 0.0026419808283342479 0 -0.0011743228167433153 0.0029266818985459 0 0.00024261710112641091 0.0037946348379983594 0 -0.0029316818293010395 0.0025651077230382227 0 -0.00079827892586238158 0.0023333715015588009 0 -0.0012520450777366481 0.0025676480168165439 0 0.00024261710112641091 0.0037946348379983594 0 -1.5814676111890664e-05 0.0031566756625742804 0 -0.0016563765631558438 0.0013888473432180971 0 -0.0014402983946720524 0.0016243342884395785 0 -0.0013431358979558074 0.0014320707329572321 0 -0.0022366983424604355 0.0033645693411088811 0 0.00021864668194458394 0.00370467698373661 0 -0.0023083164032735386 0.0045554376512268622 0 -0.001615245395392938 0.0030881005574625738 0 -0.00091889899563088581 0.0042366851348837149 0 -0.0032878926409458638 0.0034455638186698364 0 -0.0018096942623860338 0.0038494813432309806 0 -0.0032878926409458638 0.0034455638186698364 0 -0.0022366983424604355 0.0033645693411088811 0 -0.0027145352142317562 0.0033013514408286055 0 -0.002402787450540316 0.0035629855194874039 0 -0.0024212652523309505 0.0037861103379948267 0 -0.0022366983424604355 0.0033645693411088811 0 -0.0018096942623860338 0.0038494813432309806 0 -0.0018096942623860338 0.0038494813432309806 0 -0.0016146126112057055 0.0045864722814036472 0 -0.0023083164032735386 0.0045554376512268622 0 -0.00091889899563088581 0.0042366851348837149 0 -0.0010004623138114251 0.0052748811888212324 0 -0.00091264501314461822 0.004229228025075955 0 -0.0010004623138114251 0.0052748811888212324 0 0.00033919309553948025 0.0062916480432077069 0 -0.0018096942623860338 0.0038494813432309806 0 0.0020736754312691173 0.004170634251641746 0 -0.0011743228167433153 0.0029266818985459 0 0.00024261710112641091 0.0037946348379983594 0 -0.00050141498896427109 0.0040386773843651639 0 -0.00079827892586238158 0.0023333715015588009 0 0.0018726010422508879 0.0027776701161394391 0 0.00024261710112641091 0.0037946348379983594 0 -1.5814676111890664e-05 0.0031566756625742804 0 0.0011360118862648895 0.0042524225280860303 0 -0.0011641973557980909 0.0016210009184426479 0 -0.0011100115678463723 0.0019876300986842255 0 -0.0011533766349653299 0.0019443680169186053 0 -0.0011641973557980909 0.0016210009184426479 0 -0.0014402983946720524 0.0016243342884395785 0 -0.0011533766349653299 0.0019443680169186053 0 -0.0011641973557980909 0.0016210009184426479 0 -0.0011869484090069951 0.0014330711830407873 0 -0.0013431358979558074 0.0014320707329572321 0 -0.0011641973557980909 0.0016210009184426479 0 -0.0014402983946720524 0.0016243342884395785 0 -0.0013431358979558074 0.0014320707329572321 0 -0.00060112469893755201 0.001842185022097643 0 -0.00089050921780764339 0.0013206870170280628 0 -0.0010960727296019206 0.0021721116101677618 0 -0.0011641973557980909 0.0016210009184426479 0 -0.00089050921780764339 0.0013206870170280628 0 -0.0011100115678463723 0.0019876300986842255 0 -0.0015987567172702924 0.0015001155203732625 0 0.0021976109904010012 0.0022548877669519769 0 -0.0011641973557980909 0.0016210009184426479 0 -0.0011869484090069951 0.0014330711830407873 0 -0.00089050921780764339 0.0013206870170280628 0 -0.00060112469893755201 0.001842185022097643 0 -0.00089050921780764339 0.0013206870170280628 0 -0.00039095734782520651 0.0014878475137680418 0 -0.0011288442619386578 0.0013065392934343851 0 -0.0010876500336545517 0.0011903321787908835 0 -0.0010213558787313529 0.0012121927329079387 0 -0.00089050921780764339 0.0013206870170280628 0 -0.0011288442619386578 0.0013065392934343851 0 -0.0002463399543454952 0.0011219161893547831 0 -0.0011910274366418482 0.0012992937790601757 0 -0.00039650512007889655 0.001160074748650833 0 -0.0011869484090069951 0.0014330711830407873 0 -0.00089050921780764339 0.0013206870170280628 0 -0.0011288442619386578 0.0013065392934343851 0 -0.0011288442619386578 0.0013065392934343851 0 -0.0010876500336545517 0.0011903321787908835 0 -0.0012499383156586226 0.0012095944397283757 0 -0.0016143563449762157 0.0011194020084414847 0 -0.0012499383156586226 0.0012095944397283757 0 -0.001413160952825453 0.0012804424284337537 0 -0.0013431358979558074 0.0014320707329572321 0 -0.0012655491262928639 0.0013086802518301852 0 -0.001413160952825453 0.0012804424284337537 0 -0.0011288442619386578 0.0013065392934343851 0 -0.0012655491262928639 0.0013086802518301852 0 -0.0012499383156586226 0.0012095944397283757 0 -0.0011869484090069951 0.0014330711830407873 0 -0.0013431358979558074 0.0014320707329572321 0 -0.0012655491262928639 0.0013086802518301852 0 -0.0011869484090069951 0.0014330711830407873 0 -0.0011288442619386578 0.0013065392934343851 0 -0.0012655491262928639 0.0013086802518301852 0 -0.0012655491262928639 0.0013086802518301852 0 -0.0012499383156586226 0.0012095944397283757 0 -0.001413160952825453 0.0012804424284337537 0 -0.0061309877774129535 0.0019833049655235691 0 -0.0050353651845594406 0.0017143224361871208 0 -0.005332496977765987 0.0010128484581008216 0 -0.0055355923726812155 0.0020136793317589033 0 -0.0025134163011981676 0.00130473766824466 0 -0.0016143563449762157 0.0011194020084414847 0 -0.0012499383156586226 0.0012095944397283757 0 -0.001173116016721344 0.0010814307124910288 0 -0.0025134163011981676 0.00130473766824466 0 -0.0037099762221699932 0.0010449413787434947 0 -0.0010876500336545517 0.0011903321787908835 0 -0.001173116016721344 0.0010814307124910288 0 -0.0010103507215259299 0.0010848268789652945 0 -0.0010876500336545517 0.0011903321787908835 0 -0.0012499383156586226 0.0012095944397283757 0 -0.001173116016721344 0.0010814307124910288 0 -0.0050353651845594406 0.0017143224361871208 0 -0.0046081145085206171 0.00077564288627730014 0 -0.005332496977765987 0.0010128484581008216 0 -0.0050353651845594406 0.0017143224361871208 0 -0.0046081145085206171 0.00077564288627730014 0 -0.0039424224268557913 0.0014439351889073816 0 -0.004772503021874608 0.0005072364951398486 0 -0.0048535180045359587 0.00018629029230545039 0 -0.0052616120844991149 0.00060748673379763959 0 -0.0048535180045359587 0.00018629029230545039 0 -0.0053816561846344582 0.00023051205421448345 0 -0.0052616120844991149 0.00060748673379763959 0 -0.004772503021874608 0.0005072364951398486 0 -0.0048535180045359587 0.00018629029230545039 0 -0.0042021795678167185 0.00033483463005533993 0 -0.004772503021874608 0.0005072364951398486 0 -0.0046002662507560335 0.00084535797289251116 0 -0.0042021795678167185 0.00033483463005533993 0 -0.0048535180045359587 0.00018629029230545039 0 -0.0045204507566955019 -8.7740447032422537e-05 0 -0.0052397948891916377 -0.00024883450705076896 0 -0.0048535180045359587 0.00018629029230545039 0 -0.0042021795678167185 0.00033483463005533993 0 -0.0045204507566955019 -8.7740447032422537e-05 0 -0.0048535180045359587 0.00018629029230545039 0 -0.0053816561846344582 0.00023051205421448345 0 -0.0052397948891916377 -0.00024883450705076896 0 -0.0060616394823462798 2.3078185082812492e-06 0 -0.0053816561846344582 0.00023051205421448345 0 -0.0054422472405416464 0.00064621421000181627 0 -0.0060616394823462798 2.3078185082812492e-06 0 -0.0053816561846344582 0.00023051205421448345 0 -0.0052397948891916377 -0.00024883450705076896 0 -0.0054662961309825562 0.00032534490690922906 0 -0.0037099762221699932 0.0010449413787434947 0 -0.0053816561846344582 0.00023051205421448345 0 -0.0052616120844991149 0.00060748673379763959 0 -0.0054422472405416464 0.00064621421000181627 0 -0.0044187078397992944 0.0010901444301929636 0 -0.0037099762221699932 0.0010449413787434947 0 -0.0010103507215259299 0.0010848268789652945 0 -0.00092216118614609974 0.0011854231219239196 0 -0.0010213558787313529 0.0012121927329079387 0 -0.0010876500336545517 0.0011903321787908835 0 -0.0010103507215259299 0.0010848268789652945 0 -0.0010213558787313529 0.0012121927329079387 0 -0.0037099762221699932 0.0010449413787434947 0 -0.001355512105159555 0.00092492195617730475 0 -0.0052616120844991149 0.00060748673379763959 0 -0.0054645071902121598 0.00065839827885050761 0 -0.0045260691742232944 0.0015804225070332929 0 -0.0052616120844991149 0.00060748673379763959 0 -0.0046002662507560335 0.00084535797289251116 0 -0.0045260691742232944 0.0015804225070332929 0 -0.004772503021874608 0.0005072364951398486 0 -0.0052616120844991149 0.00060748673379763959 0 -0.0046002662507560335 0.00084535797289251116 0 -0.001355512105159555 0.00092492195617730475 0 -0.00039650512007889655 0.001160074748650833 0 0.00058877371008849713 0.00096912147013662254 0 -0.0002463399543454952 0.0011219161893547831 0 0.00016152208527375034 0.0016591043104805529 0 -0.00089050921780764339 0.0013206870170280628 0 -0.0002463399543454952 0.0011219161893547831 0 -0.00039095734782520651 0.0014878475137680418 0 -0.00060112469893755201 0.001842185022097643 0 -0.00039095734782520651 0.0014878475137680418 0 0.00016152208527375034 0.0016591043104805529 0 -0.00060112469893755201 0.001842185022097643 0 0.00016152208527375034 0.0016591043104805529 0 -0.00016573159364978844 0.0022438679982897786 0 -0.0002463399543454952 0.0011219161893547831 0 -0.00039095734782520651 0.0014878475137680418 0 0.00016152208527375034 0.0016591043104805529 0 0.00058877371008849713 0.00096912147013662254 0 0.00016152208527375034 0.0016591043104805529 0 0.0012525823091577798 0.0016264190129403678 0 0.00016152208527375034 0.0016591043104805529 0 0.0012525823091577798 0.0016264190129403678 0 0.0007878268116180186 0.0023474119670740994 0 0.00026035298161433874 0.00080393339999592554 0 0.0006798024052731337 0.0010584776084635867 0 -0.0010485138913801464 -9.2075644659904711e-05 0 -0.0013957353207299679 0.00018743479065092911 0 -0.0012480785875111952 -0.00010567691135229593 0 -0.0010485138913801464 -9.2075644659904711e-05 0 -0.0012480785875111952 -0.00010567691135229593 0 -0.0011940701666229348 -0.00012890345655008041 0 -0.0010485138913801464 -9.2075644659904711e-05 0 -0.0010415178533283141 0.00052152708615877741 0 -0.0013957353207299679 0.00018743479065092911 0 -0.0010415178533283141 0.00052152708615877741 0 -0.0013957353207299679 0.00018743479065092911 0 -0.0020088476550690635 0.00069703782083052623 0 -0.00051597747505331844 0.00043101233425342397 0 -0.0010485138913801464 -9.2075644659904711e-05 0 -0.0010415178533283141 0.00052152708615877741 0 -0.001355512105159555 0.00092492195617730475 0 -0.0024752689162660401 0.00094348215414405596 0 -0.001355512105159555 0.00092492195617730475 0 0.00026035298161433874 0.00080393339999592554 0 -0.00012875735692015024 -1.0944042672189603e-06 0 -0.00095573755771277561 -0.00025336424447902205 0 -0.0021198539050697905 5.969160755937354e-07 0 -0.00095573755771277561 -0.00025336424447902205 0 -0.0016336789656826089 0.00020071465494519229 0 -0.0021198539050697905 5.969160755937354e-07 0 -0.0012480785875111952 -0.00010567691135229593 0 -0.00095573755771277561 -0.00025336424447902205 0 -0.0011940701666229348 -0.00012890345655008041 0 -0.0012480785875111952 -0.00010567691135229593 0 -0.00095573755771277561 -0.00025336424447902205 0 -0.0016336789656826089 0.00020071465494519229 0 -0.0013957353207299679 0.00018743479065092911 0 -0.0012480785875111952 -0.00010567691135229593 0 -0.0016336789656826089 0.00020071465494519229 0 -0.0013957353207299679 0.00018743479065092911 0 -0.0016336789656826089 0.00020071465494519229 0 -0.0020088476550690635 0.00069703782083052623 0 -0.0016336789656826089 0.00020071465494519229 0 -0.0021198539050697905 5.969160755937354e-07 0 -0.0018838765634994949 0.0005605094482663515 0 -0.0021242433514830289 -2.9195710285528654e-07 0 -0.003951559774131432 0.00017585821630083907 0 -0.0021246484082243274 5.1570681710780585e-07 0 -0.0058535780284235317 0.00016567795549979309 0 -0.0049575827840055049 4.5978729970731615e-07 0 -0.0016336789656826089 0.00020071465494519229 0 -0.0018838765634994949 0.0005605094482663515 0 -0.0020088476550690635 0.00069703782083052623 0 -0.0018838765634994949 0.0005605094482663515 0 -0.0020088476550690635 0.00069703782083052623 0 -0.00296744015798451 0.00039518326643541785 0 -0.003951559774131432 0.00017585821630083907 0 -0.0059512259177491094 -0.00018324005593601419 0 -0.0018838765634994949 0.0005605094482663515 0 -0.00296744015798451 0.00039518326643541785 0 -0.0026553998776448111 -0.00037206440918593705 0 -0.0058535780284235317 0.00016567795549979309 0 -0.0077898938728603231 -2.6088040081531409e-08 0 -0.0092248245899212329 0.00019458334473746082 0 -0.0058535780284235317 0.00016567795549979309 0 -0.0049575827840055049 4.5978729970731615e-07 0 -0.0077898938728603231 -2.6088040081531409e-08 0 -0.0039632292187540838 0.00090987945886729339 0 -0.00296744015798451 0.00039518326643541785 0 -0.0042021795678167185 0.00033483463005533993 0 -0.0045260691742232944 0.0015804225070332929 0 -0.0034399472067811331 0.0013467734225834584 0 -0.0039632292187540838 0.00090987945886729339 0 -0.0046002662507560335 0.00084535797289251116 0 -0.0039632292187540838 0.00090987945886729339 0 -0.0042021795678167185 0.00033483463005533993 0 -0.0046002662507560335 0.00084535797289251116 0 -0.0045260691742232944 0.0015804225070332929 0 -0.0039632292187540838 0.00090987945886729339 0 -0.0034399472067811331 0.0013467734225834584 0 -0.0039632292187540838 0.00090987945886729339 0 -0.00296744015798451 0.00039518326643541785 0 -0.0034399472067811331 0.0013467734225834584 0 -0.0020088476550690635 0.00069703782083052623 0 -0.00296744015798451 0.00039518326643541785 0 -0.0024752689162660401 0.00094348215414405596 0 -0.0019784952846208926 0.00075211995590234696 0 -0.00296744015798451 0.00039518326643541785 0 -0.0037347639328941451 -0.00015340411862230246 0 -0.0026553998776448111 -0.00037206440918593705 0 -0.00296744015798451 0.00039518326643541785 0 -0.0042021795678167185 0.00033483463005533993 0 -0.0037347639328941451 -0.00015340411862230246 0 -0.0042021795678167185 0.00033483463005533993 0 -0.0045204507566955019 -8.7740447032422537e-05 0 -0.0037347639328941451 -0.00015340411862230246 0 -0.0045005398104447109 -0.00052742985652871454 0 -0.0037347639328941451 -0.00015340411862230246 0 -0.0037782896193527126 -0.00071450253376670856 0 -0.0045204507566955019 -8.7740447032422537e-05 0 -0.0045005398104447109 -0.00052742985652871454 0 -0.0037347639328941451 -0.00015340411862230246 0 -0.0037347639328941451 -0.00015340411862230246 0 -0.0037782896193527126 -0.00071450253376670856 0 -0.0026553998776448111 -0.00037206440918593705 0 -0.0037782896193527126 -0.00071450253376670856 0 -0.0026553998776448111 -0.00037206440918593705 0 -0.0035691967095814381 -0.001232199083745403 0 -0.0037782896193527126 -0.00071450253376670856 0 -0.004537739652879646 -0.0012061056461743409 0 -0.0035691967095814381 -0.001232199083745403 0 -0.0045005398104447109 -0.00052742985652871454 0 -0.0037782896193527126 -0.00071450253376670856 0 -0.004537739652879646 -0.0012061056461743409 0 -0.0077898938728603231 -2.6088040081531409e-08 0 -0.0092248245899212329 0.00019458334473746082 0 -0.0099696373015025225 -7.7559720874335384e-05 0 -0.0092248245899212329 0.00019458334473746082 0 -0.0099696373015025225 -7.7559720874335384e-05 0 -0.011746634488119028 -0.00016098800324993064 0 -0.0059512259177491094 -0.00018324005593601419 0 -0.0076423570797563723 -0.00075485481921156101 0 -0.0077898938728603231 -2.6088040081531409e-08 0 -0.0099696373015025225 -7.7559720874335384e-05 0 -0.010622660581306216 -4.6470243120440557e-07 0 -0.0099696373015025225 -7.7559720874335384e-05 0 -0.010622660581306216 -4.6470243120440557e-07 0 -0.012131742853304683 -0.00029557025188568428 0 -0.010622660581306216 -4.6470243120440557e-07 0 -0.012131742853304683 -0.00029557025188568428 0 -0.013454674927371745 -6.5698115234919467e-07 0 -0.0099696373015025225 -7.7559720874335384e-05 0 -0.012131742853304683 -0.00029557025188568428 0 -0.011746634488119028 -0.00016098800324993064 0 -0.013936544040809564 -0.00029226355697169865 0 -0.012131742853304683 -0.00029557025188568428 0 -0.013076608644271256 -0.00040921197647653899 0 -0.013936544040809564 -0.00029226355697169865 0 -0.012131742853304683 -0.00029557025188568428 0 -0.013454674927371745 -6.5698115234919467e-07 0 -0.0076423570797563723 -0.00075485481921156101 0 -0.0087296160944981133 -0.0011809530279555218 0 -0.012131742853304683 -0.00029557025188568428 0 -0.011746634488119028 -0.00016098800324993064 0 -0.013076608644271256 -0.00040921197647653899 0 -0.004537739652879646 -0.0012061056461743409 0 -0.0035691967095814381 -0.001232199083745403 0 -0.0044217404513162287 -0.001940733181981433 0 -0.004537739652879646 -0.0012061056461743409 0 -0.0044217404513162287 -0.001940733181981433 0 -0.0049792375612432525 -0.0017496193911133748 0 -0.0049792375612432525 -0.0017496193911133748 0 -0.0054700974487467881 -0.0020268857305313051 0 -0.0055969213435401897 -0.0012663048924194476 0 -0.0058783734124362545 -0.0016015753825964908 0 -0.0056615241254415706 -0.0012466098785116756 0 -0.004537739652879646 -0.0012061056461743409 0 -0.0055969213435401897 -0.0012663048924194476 0 -0.0052578180106081802 -0.00079131682081895656 0 -0.004537739652879646 -0.0012061056461743409 0 -0.0049792375612432525 -0.0017496193911133748 0 -0.0055969213435401897 -0.0012663048924194476 0 -0.0055969213435401897 -0.0012663048924194476 0 -0.0059365021145338899 -0.001008357744406553 0 -0.0061229003462366987 -0.0012508200138552734 0 -0.0063092931546185763 -0.0012785679353344976 0 -0.0061229003462366987 -0.0012508200138552734 0 -0.0063935618840798118 -0.0012489973967292857 0 -0.0063092931546185763 -0.0012785679353344976 0 -0.0055969213435401897 -0.0012663048924194476 0 -0.0061229003462366987 -0.0012508200138552734 0 -0.0063935618840798118 -0.0012489973967292857 0 -0.0065055018611175656 -0.0011124323806944712 0 -0.006278819704124864 -0.0010848515363509987 0 -0.0061229003462366987 -0.0012508200138552734 0 -0.0063935618840798118 -0.0012489973967292857 0 -0.006278819704124864 -0.0010848515363509987 0 -0.0067674190544613801 -0.00096982121480448176 0 -0.0065278012128389693 -0.0012180333859202492 0 -0.0065055018611175656 -0.0011124323806944712 0 -0.0063935618840798118 -0.0012489973967292857 0 -0.0065278012128389693 -0.0012180333859202492 0 -0.0065055018611175656 -0.0011124323806944712 0 -0.0065055018611175656 -0.0011124323806944712 0 -0.006278819704124864 -0.0010848515363509987 0 -0.0064909765344032689 -0.00091714127090517959 0 -0.0066762757337044815 -0.00095125192544093912 0 -0.0067007943403561169 -0.00087792844258087629 0 -0.0064909765344032689 -0.00091714127090517959 0 -0.0066762757337044815 -0.00095125192544093912 0 -0.0065055018611175656 -0.0011124323806944712 0 -0.0064909765344032689 -0.00091714127090517959 0 -0.0059365021145338899 -0.001008357744406553 0 -0.0061229003462366987 -0.0012508200138552734 0 -0.006278819704124864 -0.0010848515363509987 0 -0.006278819704124864 -0.0010848515363509987 0 -0.0062300075232547599 -0.00084584816698063609 0 -0.0064909765344032689 -0.00091714127090517959 0 -0.0059365021145338899 -0.001008357744406553 0 -0.006278819704124864 -0.0010848515363509987 0 -0.0062300075232547599 -0.00084584816698063609 0 -0.0062300075232547599 -0.00084584816698063609 0 -0.0064858955104575046 -0.00053373091201790971 0 -0.0059044434839512147 -0.00058288973856500631 0 -0.0059365021145338899 -0.001008357744406553 0 -0.0062300075232547599 -0.00084584816698063609 0 -0.0059044434839512147 -0.00058288973856500631 0 -0.0067007943403561169 -0.00087792844258087629 0 -0.0064909765344032689 -0.00091714127090517959 0 -0.0064858955104575046 -0.00053373091201790971 0 -0.0062300075232547599 -0.00084584816698063609 0 -0.0064909765344032689 -0.00091714127090517959 0 -0.0064858955104575046 -0.00053373091201790971 0 -0.0073408212082745304 0.0001055522971279107 0 -0.0057714510540427524 -0.00022956331097861074 0 -0.0060383484007761716 0.0007162810463844806 0 -0.005332496977765987 0.0010128484581008216 0 -0.0052765788011485239 0.00011127554270855398 0 -0.0060383484007761716 0.0007162810463844806 0 -0.0059456560751852718 -0.00055058536802051546 0 -0.0052765788011485239 0.00011127554270855398 0 -0.0046081145085206171 0.00077564288627730014 0 -0.005332496977765987 0.0010128484581008216 0 -0.0052765788011485239 0.00011127554270855398 0 -0.0060616394823462798 2.3078185082812492e-06 0 -0.0064858955104575046 -0.00053373091201790971 0 -0.0059044434839512147 -0.00058288973856500631 0 -0.0054662961309825562 0.00032534490690922906 0 -0.0057714510540427524 -0.00022956331097861074 0 -0.0052397948891916377 -0.00024883450705076896 0 -0.0052578180106081802 -0.00079131682081895656 0 -0.0059044434839512147 -0.00058288973856500631 0 -0.0060616394823462798 2.3078185082812492e-06 0 -0.0052397948891916377 -0.00024883450705076896 0 -0.0059044434839512147 -0.00058288973856500631 0 -0.0045005398104447109 -0.00052742985652871454 0 -0.0052397948891916377 -0.00024883450705076896 0 -0.0052578180106081802 -0.00079131682081895656 0 -0.0045204507566955019 -8.7740447032422537e-05 0 -0.0045005398104447109 -0.00052742985652871454 0 -0.0052397948891916377 -0.00024883450705076896 0 -0.0045005398104447109 -0.00052742985652871454 0 -0.004537739652879646 -0.0012061056461743409 0 -0.0052578180106081802 -0.00079131682081895656 0 -0.0059365021145338899 -0.001008357744406553 0 -0.0052578180106081802 -0.00079131682081895656 0 -0.0059044434839512147 -0.00058288973856500631 0 -0.0055969213435401897 -0.0012663048924194476 0 -0.0059365021145338899 -0.001008357744406553 0 -0.0052578180106081802 -0.00079131682081895656 0 -0.022040880464992481 -0.00078587892067659816 0 -0.022127040735661043 -0.00068491279018155938 0 -0.022101677686039684 -0.00064037013625238949 0 -0.022040880464992481 -0.00078587892067659816 0 -0.022058669761752317 -0.00082087274727036218 0 -0.022127040735661043 -0.00068491279018155938 0 -0.022040880464992481 -0.00078587892067659816 0 -0.022049965872550308 -0.00072424051722629989 0 -0.02194871727999459 -0.00089283319106959655 0 -0.022040880464992481 -0.00078587892067659816 0 -0.022101677686039684 -0.00064037013625238949 0 -0.022049965872550308 -0.00072424051722629989 0 -0.022040880464992481 -0.00078587892067659816 0 -0.02194871727999459 -0.00089283319106959655 0 -0.021942106010271703 -0.00088682416660259243 0 -0.022040880464992481 -0.00078587892067659816 0 -0.021997242865767125 -0.00086800790581783921 0 -0.021942106010271703 -0.00088682416660259243 0 -0.022058669761752317 -0.00082087274727036218 0 -0.022116793967466075 -0.00084863774024832831 0 -0.022127040735661043 -0.00068491279018155938 0 -0.022040880464992481 -0.00078587892067659816 0 -0.021997242865767125 -0.00086800790581783921 0 -0.022058669761752317 -0.00082087274727036218 0 -0.018784036900581152 0.001902440392508535 0 -0.022076329985221223 0.0017650745206967832 0 -0.021029610479208535 0.0052337965194531495 0 -0.020187862125463082 0.0046618619444620188 0 -0.021273576721655113 0.0041970801862908436 0 -0.016980228499812931 0.002546977086570327 0 -0.017155396298884202 0.0025412597152437064 0 -0.017180932399419854 0.0026323405446817506 0 -0.017300140249685469 0.0022362720854907482 0 -0.017751473100578091 0.0030907607385631639 0 -0.015506945303740083 0.0021096943493543376 0 -0.01786635848678908 0.0038047664647906936 0 -0.016961757819285106 0.0017746329208902299 0 -0.018784036900581152 0.001902440392508535 0 -0.019150797647158761 0.0046269555285945686 0 -0.01786635848678908 0.0038047664647906936 0 -0.016961757819285106 0.0017746329208902299 0 -0.018498155106355184 0.0036545224086355875 0 -0.020187862125463082 0.0046618619444620188 0 -0.021273576721655113 0.0041970801862908436 0 -0.020428263705988766 0.0036338774316740947 0 -0.021273576721655113 0.0041970801862908436 0 -0.020428263705988766 0.0036338774316740947 0 -0.021524321047331509 0.0030667286251662958 0 -0.020428263705988766 0.0036338774316740947 0 -0.019517638189231058 0.0031320936410469979 0 -0.020692835460639974 0.0028513829225032634 0 -0.020428263705988766 0.0036338774316740947 0 -0.021524321047331509 0.0030667286251662958 0 -0.020692835460639974 0.0028513829225032634 0 -0.02207705263048956 -0.00064334704823709211 0 -0.022101677686039684 -0.00064037013625238949 0 -0.022128011684233104 -0.00068442011003730504 0 -0.022076329985221223 0.0017650745206967832 0 -0.021754648070923106 0.0012324611496968268 0 -0.022127040735661043 -0.00068491279018155938 0 -0.02207705263048956 -0.00064334704823709211 0 -0.022101677686039684 -0.00064037013625238949 0 -0.022101677686039684 -0.00064037013625238949 0 -0.022049965872550308 -0.00072424051722629989 0 -0.022141760089117057 -0.00056813715474841951 0 -0.022141760089117057 -0.00056813715474841951 0 -0.022128011684233104 -0.00068442011003730504 0 -0.02235872376919101 -0.00075742547525988759 0 -0.022101677686039684 -0.00064037013625238949 0 -0.022141760089117057 -0.00056813715474841951 0 -0.022128011684233104 -0.00068442011003730504 0 -0.022141760089117057 -0.00056813715474841951 0 -0.022692239677912618 -0.00050713009312039687 0 -0.02235872376919101 -0.00075742547525988759 0 -0.022197351982670116 -0.00054890594726736733 0 -0.022164472003144389 -0.00055123216165440538 0 -0.021797363920857456 -0.00048626983682296271 0 -0.021908797329716637 -0.000723573639442973 0 -0.021676389958058796 -0.00082047116243302311 0 -0.022141760089117057 -0.00056813715474841951 0 -0.021797363920857456 -0.00048626983682296271 0 -0.021908797329716637 -0.000723573639442973 0 -0.022049965872550308 -0.00072424051722629989 0 -0.022141760089117057 -0.00056813715474841951 0 -0.021908797329716637 -0.000723573639442973 0 -0.021542128660028796 -0.0006466280793985909 0 -0.021497269057772932 -0.00039748543513452107 0 -0.021306597265101892 -0.00072844222724682741 0 -0.022033725428806855 7.8174651884860884e-05 0 -0.021638811206989118 0.00020696087633029531 0 -0.0216414665501201 -0.00051075950998674224 0 -0.0227493940148559 -3.7571166836021008e-05 0 -0.021306152897297519 -0.00069077602680374861 0 -0.022164472003144389 -0.00055123216165440538 0 -0.0227493940148559 -3.7571166836021008e-05 0 -0.021797363920857456 -0.00048626983682296271 0 -0.021542128660028796 -0.0006466280793985909 0 -0.021497269057772932 -0.00039748543513452107 0 -0.021797363920857456 -0.00048626983682296271 0 -0.021542128660028796 -0.0006466280793985909 0 -0.021676389958058796 -0.00082047116243302311 0 -0.021542128660028796 -0.0006466280793985909 0 -0.021493098321767511 -0.00084845084843967414 0 -0.021676389958058796 -0.00082047116243302311 0 -0.021542128660028796 -0.0006466280793985909 0 -0.021493098321767511 -0.00084845084843967414 0 -0.021306597265101892 -0.00072844222724682741 0 -0.021362230449861182 -0.0010206524789530518 0 -0.021493098321767511 -0.00084845084843967414 0 -0.021306597265101892 -0.00072844222724682741 0 -0.021362230449861182 -0.0010206524789530518 0 -0.021493098321767511 -0.00084845084843967414 0 -0.021548947146360253 -0.0010388640250117488 0 -0.021676389958058796 -0.00082047116243302311 0 -0.021548947146360253 -0.0010388640250117488 0 -0.021759100629659418 -0.00096154679214672384 0 -0.021493098321767511 -0.00084845084843967414 0 -0.021676389958058796 -0.00082047116243302311 0 -0.021548947146360253 -0.0010388640250117488 0 -0.021548947146360253 -0.0010388640250117488 0 -0.021675115762166994 -0.001171835756479663 0 -0.02151044809963935 -0.0012837483246558147 0 -0.021548947146360253 -0.0010388640250117488 0 -0.021759100629659418 -0.00096154679214672384 0 -0.021675115762166994 -0.001171835756479663 0 -0.021362230449861182 -0.0010206524789530518 0 -0.021548947146360253 -0.0010388640250117488 0 -0.021390686439170681 -0.0012009528769803817 0 -0.021548947146360253 -0.0010388640250117488 0 -0.021390686439170681 -0.0012009528769803817 0 -0.02151044809963935 -0.0012837483246558147 0 -0.021362230449861182 -0.0010206524789530518 0 -0.021390686439170681 -0.0012009528769803817 0 -0.02125610734945858 -0.0012274091163759619 0 -0.022049965872550308 -0.00072424051722629989 0 -0.021908797329716637 -0.000723573639442973 0 -0.02194871727999459 -0.00089283319106959655 0 -0.021908797329716637 -0.000723573639442973 0 -0.02194871727999459 -0.00089283319106959655 0 -0.021759100629659418 -0.00096154679214672384 0 -0.021908797329716637 -0.000723573639442973 0 -0.021676389958058796 -0.00082047116243302311 0 -0.021759100629659418 -0.00096154679214672384 0 -0.02194871727999459 -0.00089283319106959655 0 -0.021759100629659418 -0.00096154679214672384 0 -0.021829486008666563 -0.001090551211697096 0 -0.021759100629659418 -0.00096154679214672384 0 -0.021675115762166994 -0.001171835756479663 0 -0.021829486008666563 -0.001090551211697096 0 -0.021675115762166994 -0.001171835756479663 0 -0.021829486008666563 -0.001090551211697096 0 -0.021791197502785863 -0.0012666308008990709 0 -0.021829486008666563 -0.001090551211697096 0 -0.022001124985880652 -0.0011667381064256863 0 -0.021791197502785863 -0.0012666308008990709 0 -0.02194871727999459 -0.00089283319106959655 0 -0.021829486008666563 -0.001090551211697096 0 -0.022001124985880652 -0.0011667381064256863 0 -0.021915460305359079 -0.00085303712429490343 0 -0.021982712860429732 -0.0012303750864471391 0 -0.021886388182739025 -0.0013199264409724384 0 -0.021791197502785863 -0.0012666308008990709 0 -0.021719724818970859 -0.0014732940563379636 0 -0.022001124985880652 -0.0011667381064256863 0 -0.021886388182739025 -0.0013199264409724384 0 -0.022036666929361598 -0.0013656927710555648 0 -0.021886388182739025 -0.0013199264409724384 0 -0.021719724818970859 -0.0014732940563379636 0 -0.022036666929361598 -0.0013656927710555648 0 -0.022001124985880652 -0.0011667381064256863 0 -0.021886388182739025 -0.0013199264409724384 0 -0.021791197502785863 -0.0012666308008990709 0 -0.021791197502785863 -0.0012666308008990709 0 -0.021635483079607824 -0.0013326067767871735 0 -0.021719724818970859 -0.0014732940563379636 0 -0.021675115762166994 -0.001171835756479663 0 -0.021791197502785863 -0.0012666308008990709 0 -0.021635483079607824 -0.0013326067767871735 0 -0.004300350588724999 -0.0099422455153457111 0 -0.0070121870546772935 -0.0072577407439671721 0 -0.00436664860083866 -0.0074174436862022557 0 -0.004300350588724999 -0.0099422455153457111 0 -0.0029132489178122032 -0.0087435154289513123 0 -0.00436664860083866 -0.0074174436862022557 0 -0.004300350588724999 -0.0099422455153457111 0 -0.0029132489178122032 -0.0087435154289513123 0 -0.0015150577773952551 -0.0093232057109661412 0 -0.013432492140607093 -0.0040889394307837175 0 -0.0119880823783719 -0.0038930032761672331 0 -0.011070824363220072 -0.0048444430309064982 0 -0.0029132489178122032 -0.0087435154289513123 0 -0.0015700119212387603 -0.0082757413037918282 0 -0.00436664860083866 -0.0074174436862022557 0 -0.014260638637920478 -0.0044802702370977405 0 -0.018355963007229279 -0.0014425357920702913 0 -0.0029132489178122032 -0.0087435154289513123 0 -0.0015700119212387603 -0.0082757413037918282 0 -0.0015150577773952551 -0.0093232057109661412 0 -0.014260638637920478 -0.0044802702370977405 0 -0.0062718108521683177 -0.0063430871885402345 0 -0.021390686439170681 -0.0012009528769803817 0 -0.02151044809963935 -0.0012837483246558147 0 -0.021242087416345902 -0.0014988895312722848 0 -0.02151044809963935 -0.0012837483246558147 0 -0.021490028664432313 -0.0014489484316220378 0 -0.021242087416345902 -0.0014988895312722848 0 -0.021635483079607824 -0.0013326067767871735 0 -0.02151044809963935 -0.0012837483246558147 0 -0.021490028664432313 -0.0014489484316220378 0 -0.021675115762166994 -0.001171835756479663 0 -0.021635483079607824 -0.0013326067767871735 0 -0.02151044809963935 -0.0012837483246558147 0 -0.014260638637920478 -0.0044802702370977405 0 -0.013793917377933161 -0.0052273220639426918 0 -0.021635483079607824 -0.0013326067767871735 0 -0.021719724818970859 -0.0014732940563379636 0 -0.021490028664432313 -0.0014489484316220378 0 -0.017506374170222168 -0.0024679579801125994 0 -0.018458220291829308 -0.002550075769456405 0 -0.018569833632882803 -0.0021827094715396382 0 -0.014260638637920478 -0.0044802702370977405 0 -0.02108024919758085 -0.0018019090378126182 0 -0.004300350588724999 -0.0099422455153457111 0 -0.01069186841594652 -0.0075747098207118394 0 -0.0070121870546772935 -0.0072577407439671721 0 -0.018458220291829308 -0.002550075769456405 0 -0.018569833632882803 -0.0021827094715396382 0 -0.019122223432595196 -0.0024554082167511956 0 -0.02108024919758085 -0.0018019090378126182 0 -0.019922361488291681 -0.0019847752549949152 0 -0.01069186841594652 -0.0075747098207118394 0 -0.012833239594991519 -0.0040233134225193656 0 -0.015717788234292023 -0.0050323387511883458 0 -0.01069186841594652 -0.0075747098207118394 0 -0.0093111397348242357 -0.005233643710801106 0 -0.012833239594991519 -0.0040233134225193656 0 -0.013793917377933161 -0.0052273220639426918 0 -0.017607909231580145 -0.0034902617630219739 0 -0.0093111397348242357 -0.005233643710801106 0 -0.0091152878236338448 -0.0017485854524673372 0 -0.0060287536385658369 -0.0061900888666975087 0 -0.01069186841594652 -0.0075747098207118394 0 -0.0093111397348242357 -0.005233643710801106 0 -0.0070121870546772935 -0.0072577407439671721 0 -0.0093111397348242357 -0.005233643710801106 0 -0.0070121870546772935 -0.0072577407439671721 0 -0.0060287536385658369 -0.0061900888666975087 0 -0.0091152878236338448 -0.0017485854524673372 0 -0.012833239594991519 -0.0040233134225193656 0 -0.014391231462337334 -0.00053437503260283885 0 -0.0093111397348242357 -0.005233643710801106 0 -0.0091152878236338448 -0.0017485854524673372 0 -0.012833239594991519 -0.0040233134225193656 0 0.0016853415467448023 -0.0091205168983043011 0 -0.00079608443928867734 -0.0055048408405411406 0 -0.00436664860083866 -0.0074174436862022557 0 0.0013647505905204039 -0.0088806007423261491 0 -0.0042347679855989761 -0.007549575609180746 0 -0.00079608443928867734 -0.0055048408405411406 0 -0.0013922281499285402 -0.0019752441868678668 0 0.0030392670619240566 -0.0029189593684050409 0 -0.00079608443928867734 -0.0055048408405411406 0 0.0029120453903315317 -0.0061225038765702101 0 0.0030392670619240566 -0.0029189593684050409 0 0.0016853415467448023 -0.0091205168983043011 0 0.0029120453903315317 -0.0061225038765702101 0 0.0047134229517580466 -0.0075067559003658517 0 0.0016853415467448023 -0.0091205168983043011 0 -0.00079608443928867734 -0.0055048408405411406 0 0.0029120453903315317 -0.0061225038765702101 0 -0.00079608443928867734 -0.0055048408405411406 0 -0.00436664860083866 -0.0074174436862022557 0 -0.0060287536385658369 -0.0061900888666975087 0 -0.0070121870546772935 -0.0072577407439671721 0 -0.00436664860083866 -0.0074174436862022557 0 -0.0060287536385658369 -0.0061900888666975087 0 -0.00079608443928867734 -0.0055048408405411406 0 -0.0060287536385658369 -0.0061900888666975087 0 -0.0013922281499285402 -0.0019752441868678668 0 -0.006126286652869779 -0.0061876425843477492 0 0.0019232764263938907 -0.0048279749711056053 0 -0.0091152878236338448 -0.0017485854524673372 0 -0.0060287536385658369 -0.0061900888666975087 0 -0.003201227687574611 -0.0036881955938030146 0 0.0031558123214831977 -0.008744544397208379 0 0.008193004153941922 -0.010353598195013443 0 0.0074882275237122507 -0.006657293062167096 0 -0.0027964478120107274 -0.0056103064030324683 0 0.0019232764263938907 -0.0048279749711056053 0 0.008193004153941922 -0.010353598195013443 0 0.01079446883121768 -0.0079054139569712106 0 0.0074882275237122507 -0.006657293062167096 0 -0.0013922281499285402 -0.0019752441868678668 0 0.0030392670619240566 -0.0029189593684050409 0 0.0038763879897391225 0.0026025171775911787 0 0.0019232764263938907 -0.0048279749711056053 0 0.0070646790895719227 -0.0029788778087445921 0 0.0038763879897391225 0.0026025171775911787 0 0.0085924908974109714 0.00062582752993603909 0 0.0069294711049700244 -0.0021933849511959987 0 0.0038763879897391225 0.0026025171775911787 0 0.0085924908974109714 0.00062582752993603909 0 0.0092218650272737953 0.0032997179841463883 0 0.0085924908974109714 0.00062582752993603909 0 0.011009859372714887 0.0015786846135284428 0 0.0092218650272737953 0.0032997179841463883 0 0.0085924908974109714 0.00062582752993603909 0 0.0069294711049700244 -0.0021933849511959987 0 0.010716283782133434 -0.0036310819478559413 0 0.0030392670619240566 -0.0029189593684050409 0 0.0038763879897391225 0.0026025171775911787 0 0.0069294711049700244 -0.0021933849511959987 0 0.0058565425589700536 -0.0028515472987850885 0 0.0073042676439832588 0.0018449012494611032 0 0.0013350627776587854 -0.00092112110031261814 0 0.00024464744849611478 -0.0019673242303750857 0 0.0013778318046005515 0.00060943756325123808 0 0.011009859372714887 0.0015786846135284428 0 0.010716283782133434 -0.0036310819478559413 0 0.013598086690809934 0.0031692745969844069 0 0.0018981363505714867 -0.00034503779546636061 0 0.0025088945708644657 -3.46847536166416e-05 0 0.0013778318046005515 0.00060943756325123808 0 0.0018981363505714867 -0.00034503779546636061 0 0.0013350627776587854 -0.00092112110031261814 0 0.0013778318046005515 0.00060943756325123808 0 0.0085924908974109714 0.00062582752993603909 0 0.011009859372714887 0.0015786846135284428 0 0.010716283782133434 -0.0036310819478559413 0 0.0013350627776587854 -0.00092112110031261814 0 0.0017883464273681815 -0.0021702215650975633 0 0.0023551412531020517 -0.0010096973513970008 0 0.0013350627776587854 -0.00092112110031261814 0 0.0017883464273681815 -0.0021702215650975633 0 0.00024464744849611478 -0.0019673242303750857 0 0.0018981363505714867 -0.00034503779546636061 0 0.0013350627776587854 -0.00092112110031261814 0 0.0023551412531020517 -0.0010096973513970008 0 0.00024464744849611478 -0.0019673242303750857 0 0.00094610512516124111 -0.0034064184660481593 0 -0.00087319334813237089 -0.0044379197423960797 0 0.0017883464273681815 -0.0021702215650975633 0 0.00024464744849611478 -0.0019673242303750857 0 0.00094610512516124111 -0.0034064184660481593 0 0.0017883464273681815 -0.0021702215650975633 0 0.00094610512516124111 -0.0034064184660481593 0 0.0026035856866790767 -0.0031758282249392971 0 0.00094610512516124111 -0.0034064184660481593 0 0.0016697267184001673 -0.0042691566765634395 0 0.0026035856866790767 -0.0031758282249392971 0 0.0058565425589700536 -0.0028515472987850885 0 -0.0035381732647219687 -0.0048952359120181472 0 0.010716283782133434 -0.0036310819478559413 0 0.0077427327859259047 -0.005649916813697353 0 0.0076020659425482329 -0.010440594231510057 0 0.0029120453903315317 -0.0061225038765702101 0 0.0030392670619240566 -0.0029189593684050409 0 0.0055864656165327984 -0.0053010243605754702 0 0.0030392670619240566 -0.0029189593684050409 0 0.0069294711049700244 -0.0021933849511959987 0 0.0055864656165327984 -0.0053010243605754702 0 0.0069294711049700244 -0.0021933849511959987 0 0.0055864656165327984 -0.0053010243605754702 0 0.0077427327859259047 -0.005649916813697353 0 0.0069294711049700244 -0.0021933849511959987 0 0.010716283782133434 -0.0036310819478559413 0 0.0077427327859259047 -0.005649916813697353 0 0.0077427327859259047 -0.005649916813697353 0 0.0064920127816188661 -0.0075493282797000757 0 0.0076020659425482329 -0.010440594231510057 0 0.0064920127816188661 -0.0075493282797000757 0 0.0047134229517580466 -0.0075067559003658517 0 0.0051236796995536397 -0.0086540237310622249 0 0.0016853415467448023 -0.0091205168983043011 0 0.0047134229517580466 -0.0075067559003658517 0 0.0051236796995536397 -0.0086540237310622249 0 0.0055864656165327984 -0.0053010243605754702 0 0.0077427327859259047 -0.005649916813697353 0 0.0064920127816188661 -0.0075493282797000757 0 0.0055864656165327984 -0.0053010243605754702 0 0.0064920127816188661 -0.0075493282797000757 0 0.0047134229517580466 -0.0075067559003658517 0 0.0029120453903315317 -0.0061225038765702101 0 0.0055864656165327984 -0.0053010243605754702 0 0.0047134229517580466 -0.0075067559003658517 0 0.0064920127816188661 -0.0075493282797000757 0 0.0051236796995536397 -0.0086540237310622249 0 0.0076020659425482329 -0.010440594231510057 0 -0.0119880823783719 -0.0038930032761672331 0 -0.010702919267409603 -0.0040610630283207947 0 -0.010476153029227367 -0.0035852553038844136 0 0.0016853415467448023 -0.0091205168983043011 0 0.0051236796995536397 -0.0086540237310622249 0 0.0076020659425482329 -0.010440594231510057 0 -0.0062718108521683177 -0.0063430871885402345 0 -0.0035381732647219687 -0.0048952359120181472 0 0.0013647505905204039 -0.0088806007423261491 0 -0.0035381732647219687 -0.0048952359120181472 0 -0.0015700119212387603 -0.0082757413037918282 0 -0.0015150577773952551 -0.0093232057109661412 0 0.00077295266777864492 -0.0087759814634346851 0 -0.0119880823783719 -0.0038930032761672331 0 -0.010702919267409603 -0.0040610630283207947 0 -0.011070824363220072 -0.0048444430309064982 0 -0.013947680294421293 -0.0028920048231048864 0 -0.018355963007229279 -0.0014425357920702913 0 -0.011825097604252694 -0.00051856301572588564 0 -0.012497548251341993 -0.001054120332215406 0 -0.013695948584947685 0.00086014336781439034 0 -0.0055805616355641468 -0.003131710961135516 0 -0.0035381732647219687 -0.0048952359120181472 0 -0.011825097604252694 -0.00051856301572588564 0 -0.012497548251341993 -0.001054120332215406 0 -0.01209163391589502 -0.0011492803330465124 0 -0.013947680294421293 -0.0028920048231048864 0 -0.0035381732647219687 -0.0048952359120181472 0 -0.0055805616355641468 -0.003131710961135516 0 -0.0038805848326707994 -0.0022533232944489702 0 0.00094610512516124111 -0.0034064184660481593 0 -0.00045619891169443609 -0.0045285501828423325 0 -0.00087319334813237089 -0.0044379197423960797 0 -0.0047900768362850003 -0.0018620125536954989 0 -0.0086816264524360795 -0.0023268445646828944 0 -0.010102419125926309 -0.00063935485954315623 0 -0.012497548251341993 -0.001054120332215406 0 -0.013695948584947685 0.00086014336781439034 0 -0.01522482138665987 -0.00039254898244982478 0 0.00094610512516124111 -0.0034064184660481593 0 -0.00045619891169443609 -0.0045285501828423325 0 0.0016337523509478487 -0.0042422874544819173 0 -0.0055805616355641468 -0.003131710961135516 0 -0.013517109073886834 0.0012711707898040623 0 -1.2920795870311427e-05 -0.0046171422780931998 0 -0.0038805848326707994 -0.0022533232944489702 0 -0.013947680294421293 -0.0028920048231048864 0 -0.018264842090287361 0.00024649967948629781 0 -0.022058669761752317 -0.00082087274727036218 0 -0.022116793967466075 -0.00084863774024832831 0 -0.022027409594542819 -0.00092756045748752054 0 -0.021997242865767125 -0.00086800790581783921 0 -0.022058669761752317 -0.00082087274727036218 0 -0.022027409594542819 -0.00092756045748752054 0 -0.018784036900581152 0.001902440392508535 0 -0.018264842090287361 0.00024649967948629781 0 -0.021997242865767125 -0.00086800790581783921 0 -0.022027409594542819 -0.00092756045748752054 0 -0.021973293706983713 -0.00092110304862372196 0 -0.021997242865767125 -0.00086800790581783921 0 -0.021948183860451283 -0.00091338795896665033 0 -0.021973293706983713 -0.00092110304862372196 0 -0.021982712860429732 -0.0012303750864471391 0 -0.018355963007229279 -0.0014425357920702913 0 -0.021942106010271703 -0.00088682416660259243 0 -0.021948183860451283 -0.00091338795896665033 0 -0.021915708606835706 -0.00094612112579963803 0 -0.021997242865767125 -0.00086800790581783921 0 -0.021942106010271703 -0.00088682416660259243 0 -0.021948183860451283 -0.00091338795896665033 0 -0.021948183860451283 -0.00091338795896665033 0 -0.021920422953228155 -0.00094562154152699274 0 -0.021915708606835706 -0.00094612112579963803 0 -0.021904724309486822 -0.0010145515690097764 0 -0.021920422953228155 -0.00094562154152699274 0 -0.021902193806085525 -0.00095061973318086507 0 -0.018788546636063597 -0.0013224353901453573 0 -0.018355963007229279 -0.0014425357920702913 0 -0.021904724309486822 -0.0010145515690097764 0 -0.021920422953228155 -0.00094562154152699274 0 -0.021973293706983713 -0.00092110304862372196 0 -0.021904724309486822 -0.0010145515690097764 0 -0.022027409594542819 -0.00092756045748752054 0 -0.021973293706983713 -0.00092110304862372196 0 -0.021948183860451283 -0.00091338795896665033 0 -0.021920422953228155 -0.00094562154152699274 0 -0.021973293706983713 -0.00092110304862372196 0 -0.016980228499812931 0.002546977086570327 0 -0.016675881228486414 0.0022720321139469766 0 -0.017039011380961176 0.0023720473259549535 0 -0.016980228499812931 0.002546977086570327 0 -0.017039011380961176 0.0023720473259549535 0 -0.017155396298884202 0.0025412597152437064 0 -0.016961757819285106 0.0017746329208902299 0 -0.015551756330059207 0.0017285323163101578 0 -0.01522482138665987 -0.00039254898244982478 0 -0.013695948584947685 0.00086014336781439034 0 -0.015551756330059207 0.0017285323163101578 0 -0.01522482138665987 -0.00039254898244982478 0 -0.017300140249685469 0.0022362720854907482 0 -0.013517109073886834 0.0012711707898040623 0 -0.015506945303740083 0.0021096943493543376 0 -0.016961757819285106 0.0017746329208902299 0 -0.015551756330059207 0.0017285323163101578 0 -0.015481526932461256 0.0021419153618309102 0 -0.013695948584947685 0.00086014336781439034 0 -0.015551756330059207 0.0017285323163101578 0 -0.018784036900581152 0.001902440392508535 0 -0.018389450372923721 0.0020342120060964117 0 -0.0038805848326707994 -0.0022533232944489702 0 -0.0042114739560774129 -0.0012503507395231 0 -0.010376827849510172 0.0013794303949949092 0 -0.012140123936015719 0.0018758225154683077 0 -0.013550403883206679 0.0011407081445299597 0 -0.011077818680176762 0.0022327577653169419 0 -0.012140123936015719 0.0018758225154683077 0 -0.013520427959384637 0.002707725175538714 0 -0.013517109073886834 0.0012711707898040623 0 -0.015356776047767437 0.0026095223134354256 0 -0.010376827849510172 0.0013794303949949092 0 -0.011077818680176762 0.0022327577653169419 0 -0.012140123936015719 0.0018758225154683077 0 -0.0038805848326707994 -0.0022533232944489702 0 -0.013517109073886834 0.0012711707898040623 0 -0.012140123936015719 0.0018758225154683077 0 -0.013520427959384637 0.002707725175538714 0 -0.013550403883206679 0.0011407081445299597 0 -0.013520427959384637 0.002707725175538714 0 -0.013550403883206679 0.0011407081445299597 0 -0.014989335205994415 0.0020042742470246827 0 0.0048885812126579394 -0.0021878209996973974 0 0.0067569695528445434 -0.00043228976322862915 0 0.0061364931863002918 -0.0025890678887852611 0 0.0052649715851368281 -0.0038615407071890566 0 0.0048885812126579394 -0.0021878209996973974 0 0.0061364931863002918 -0.0025890678887852611 0 0.0052649715851368281 -0.0038615407071890566 0 0.0048885812126579394 -0.0021878209996973974 0 0.0033296507873016236 -0.0021750670780601952 0 0.0016697267184001673 -0.0042691566765634395 0 0.0052649715851368281 -0.0038615407071890566 0 0.0026035856866790767 -0.0031758282249392971 0 0.0052649715851368281 -0.0038615407071890566 0 0.0026035856866790767 -0.0031758282249392971 0 0.0033296507873016236 -0.0021750670780601952 0 0.0017883464273681815 -0.0021702215650975633 0 0.0026035856866790767 -0.0031758282249392971 0 0.0033296507873016236 -0.0021750670780601952 0 0.0017883464273681815 -0.0021702215650975633 0 0.0033296507873016236 -0.0021750670780601952 0 0.0023551412531020517 -0.0010096973513970008 0 0.0033296507873016236 -0.0021750670780601952 0 0.0023551412531020517 -0.0010096973513970008 0 0.0034336593349850366 -0.00055703829181486301 0 0.0033296507873016236 -0.0021750670780601952 0 0.0034336593349850366 -0.00055703829181486301 0 0.0046518431934241692 -0.00048317408052064203 0 0.0034336593349850366 -0.00055703829181486301 0 0.0025088945708644657 -3.46847536166416e-05 0 0.0039646270431389465 0.0010983496749339969 0 0.0034336593349850366 -0.00055703829181486301 0 0.0046518431934241692 -0.00048317408052064203 0 0.0039646270431389465 0.0010983496749339969 0 0.0023551412531020517 -0.0010096973513970008 0 0.0034336593349850366 -0.00055703829181486301 0 0.0025088945708644657 -3.46847536166416e-05 0 0.0018981363505714867 -0.00034503779546636061 0 0.0023551412531020517 -0.0010096973513970008 0 0.0025088945708644657 -3.46847536166416e-05 0 0.0048885812126579394 -0.0021878209996973974 0 0.0046518431934241692 -0.00048317408052064203 0 0.0067569695528445434 -0.00043228976322862915 0 0.0048885812126579394 -0.0021878209996973974 0 0.0033296507873016236 -0.0021750670780601952 0 0.0046518431934241692 -0.00048317408052064203 0 0.0068318433879594551 -0.00012651316458381213 0 0.0088702399400150452 -0.0012636690266133576 0 0.0096838588418196661 0.0022986024302114271 0 0.0068318433879594551 -0.00012651316458381213 0 0.0075453380562928432 -0.0032640218159718962 0 0.0088702399400150452 -0.0012636690266133576 0 0.0067569695528445434 -0.00043228976322862915 0 0.0061364931863002918 -0.0025890678887852611 0 0.0075453380562928432 -0.0032640218159718962 0 0.0052649715851368281 -0.0038615407071890566 0 0.0075453380562928432 -0.0032640218159718962 0 0.0092060820290095716 -0.0034828750034524869 0 -0.0042114739560774129 -0.0012503507395231 0 -0.0033531520692324647 -0.0010828535823397074 0 0.0063033346406833205 0.00028761190731694408 0 0.0075978477583149122 -0.0032855481381775993 0 0.0052649715851368281 -0.0038615407071890566 0 0.0061364931863002918 -0.0025890678887852611 0 0.0075453380562928432 -0.0032640218159718962 0 0.0075453380562928432 -0.0032640218159718962 0 0.0092060820290095716 -0.0034828750034524869 0 0.0088702399400150452 -0.0012636690266133576 0 0.0092060820290095716 -0.0034828750034524869 0 0.010695196435112077 -0.0020849900991988177 0 0.0088702399400150452 -0.0012636690266133576 0 0.0088702399400150452 -0.0012636690266133576 0 0.011171118145058324 -0.00055226158996940315 0 0.0096838588418196661 0.0022986024302114271 0 0.010695196435112077 -0.0020849900991988177 0 0.0088702399400150452 -0.0012636690266133576 0 0.011171118145058324 -0.00055226158996940315 0 0.013356078562875061 -0.00064778349785406622 0 0.011171118145058324 -0.00055226158996940315 0 0.013485029183591776 0.0016618281563790967 0 0.013356078562875061 -0.00064778349785406622 0 0.011171118145058324 -0.00055226158996940315 0 0.013599772135786248 -0.0030767385181631685 0 0.015188701912527358 -0.00064585273333188581 0 0.017510445512833959 0.0008257941012238722 0 0.013485029183591776 0.0016618281563790967 0 0.013356078562875061 -0.00064778349785406622 0 0.015188701912527358 -0.00064585273333188581 0 0.013485029183591776 0.0016618281563790967 0 0.013356078562875061 -0.00064778349785406622 0 0.015188701912527358 -0.00064585273333188581 0 0.013599772135786248 -0.0030767385181631685 0 -0.0017408892980662536 -0.00059832971115927121 0 0.00039059115412584574 2.2817565612264472e-05 0 0.015188701912527358 -0.00064585273333188581 0 0.013599772135786248 -0.0030767385181631685 0 0.018323315485840732 -0.0023488557451474923 0 -0.016054611076613566 0.0013096778589829106 0 -0.017186388211925585 0.0018832620496847037 0 -0.016835222332748208 0.0020920701639283172 0 0.0092060820290095716 -0.0034828750034524869 0 0.010695196435112077 -0.0020849900991988177 0 0.013599772135786248 -0.0030767385181631685 0 0.010695196435112077 -0.0020849900991988177 0 0.011171118145058324 -0.00055226158996940315 0 0.013599772135786248 -0.0030767385181631685 0 -0.0033531520692324647 -0.0010828535823397074 0 -0.0017408892980662536 -0.00059832971115927121 0 -0.017186388211925585 0.0018832620496847037 0 -0.016835222332748208 0.0020920701639283172 0 -0.017290969626776637 0.0023335662928593388 0 -0.016835222332748208 0.0020920701639283172 0 -0.017290969626776637 0.0023335662928593388 0 -0.017118204137877301 0.0025994654029242704 0 -0.017186388211925585 0.0018832620496847037 0 -0.017290969626776637 0.0023335662928593388 0 -0.017539643256513009 0.002385453774362356 0 -0.017290969626776637 0.0023335662928593388 0 -0.017118204137877301 0.0025994654029242704 0 -0.017536846644750692 0.0025277942221112581 0 -0.017290969626776637 0.0023335662928593388 0 -0.017539643256513009 0.002385453774362356 0 -0.017536846644750692 0.0025277942221112581 0 -0.017118204137877301 0.0025994654029242704 0 -0.017221205113784856 0.0025159504490497556 0 -0.017262439349382229 0.0025621737699125808 0 -0.017015859356395002 0.0026479202971214457 0 -0.01633161443903524 0.0026632746435350792 0 -0.017118204137877301 0.0025994654029242704 0 -0.015546892158125818 0.0028972520983729104 0 -0.016187479911040217 0.002227302866003852 0 -0.017155396298884202 0.0025412597152437064 0 -0.017221205113784856 0.0025159504490497556 0 -0.017262439349382229 0.0025621737699125808 0 -0.017039011380961176 0.0023720473259549535 0 -0.017155396298884202 0.0025412597152437064 0 -0.017221205113784856 0.0025159504490497556 0 -0.015356776047767437 0.0026095223134354256 0 -0.01633161443903524 0.0026632746435350792 0 -0.015546892158125818 0.0028972520983729104 0 -0.014989335205994415 0.0020042742470246827 0 -0.016187479911040217 0.002227302866003852 0 -0.013550403883206679 0.0011407081445299597 0 -0.016054611076613566 0.0013096778589829106 0 -0.014989335205994415 0.0020042742470246827 0 -0.013520427959384637 0.002707725175538714 0 -0.015546892158125818 0.0028972520983729104 0 -0.014989335205994415 0.0020042742470246827 0 -0.016054611076613566 0.0013096778589829106 0 -0.014989335205994415 0.0020042742470246827 0 -0.016187479911040217 0.002227302866003852 0 -0.016835222332748208 0.0020920701639283172 0 -0.017118204137877301 0.0025994654029242704 0 -0.016187479911040217 0.002227302866003852 0 -0.016054611076613566 0.0013096778589829106 0 -0.016835222332748208 0.0020920701639283172 0 -0.016187479911040217 0.002227302866003852 0 0.00045437884137213707 0.0028588353642896836 0 0.0021411265946282747 0.00058982282721523971 0 -0.017230669726876285 0.0027419332046354555 0 -0.017351689541598523 0.002601639902961909 0 -0.017403482959484802 0.0026753809655300576 0 0.020346356594658162 -0.00043011084061895957 0 0.021047940791749074 -0.00074261822714341498 0 0.020534154683189372 -0.0010791984793372315 0 0.020346356594658162 -0.00043011084061895957 0 0.021047940791749074 -0.00074261822714341498 0 0.021342350337273171 -0.00093615626503722302 0 0.021047940791749074 -0.00074261822714341498 0 0.021199865128746814 -0.00030348495242329309 0 0.021342350337273171 -0.00093615626503722302 0 -0.017351689541598523 0.002601639902961909 0 -0.017521964932921543 0.0024768217827896596 0 -0.017461353262715092 0.002580922325906794 0 -0.017351689541598523 0.002601639902961909 0 -0.017461353262715092 0.002580922325906794 0 -0.017403482959484802 0.0026753809655300576 0 0.0021411265946282747 0.00058982282721523971 0 0.00039059115412584574 2.2817565612264472e-05 0 -0.017351689541598523 0.002601639902961909 0 -0.017395646838686291 0.0022794139476492365 0 -0.017521964932921543 0.0024768217827896596 0 0.021199865128746814 -0.00030348495242329309 0 0.017510445512833959 0.0008257941012238722 0 0.018323315485840732 -0.0023488557451474923 0 0.021158183272141425 -0.00023476325784410143 0 0.020540143505609922 -2.8046761959793799e-06 0 0.021199865128746814 -0.00030348495242329309 0 0.021342350337273171 -0.00093615626503722302 0 0.018323315485840732 -0.0023488557451474923 0 0.015188701912527358 -0.00064585273333188581 0 0.017510445512833959 0.0008257941012238722 0 0.018323315485840732 -0.0023488557451474923 0 -0.017186388211925585 0.0018832620496847037 0 -0.017395646838686291 0.0022794139476492365 0 -0.017539643256513009 0.002385453774362356 0 -0.017539643256513009 0.002385453774362356 0 -0.017739018231600154 0.002508842107934835 0 -0.017536846644750692 0.0025277942221112581 0 -0.017539643256513009 0.002385453774362356 0 -0.017656899570284088 0.0025048840413792219 0 -0.017739018231600154 0.002508842107934835 0 -0.017539643256513009 0.002385453774362356 0 -0.017656899570284088 0.0025048840413792219 0 -0.017521964932921543 0.0024768217827896596 0 -0.017395646838686291 0.0022794139476492365 0 -0.017539643256513009 0.002385453774362356 0 -0.017521964932921543 0.0024768217827896596 0 -0.017521964932921543 0.0024768217827896596 0 -0.017461353262715092 0.002580922325906794 0 -0.017581465732155653 0.0025800630352519442 0 -0.017656899570284088 0.0025048840413792219 0 -0.017521964932921543 0.0024768217827896596 0 -0.017581465732155653 0.0025800630352519442 0 -0.017461353262715092 0.002580922325906794 0 -0.017581465732155653 0.0025800630352519442 0 -0.017403482959484802 0.0026753809655300576 0 -0.017656899570284088 0.0025048840413792219 0 -0.017581465732155653 0.0025800630352519442 0 -0.017819888174084232 0.0025215732428335125 0 -0.017581465732155653 0.0025800630352519442 0 -0.01762607736675317 0.0025550261884868253 0 -0.017819888174084232 0.0025215732428335125 0 -0.017581465732155653 0.0025800630352519442 0 -0.017477274031843057 0.0026673530955103018 0 -0.01762607736675317 0.0025550261884868253 0 -0.017581465732155653 0.0025800630352519442 0 -0.017477274031843057 0.0026673530955103018 0 -0.017403482959484802 0.0026753809655300576 0 -0.017823806060942683 0.0024677975279488265 0 -0.01762607736675317 0.0025550261884868253 0 -0.017819888174084232 0.0025215732428335125 0 -0.017819888174084232 0.0025215732428335125 0 -0.018049406620605842 0.0025207200903340451 0 -0.018062414087705751 0.002457640929327605 0 -0.017823806060942683 0.0024677975279488265 0 -0.017819888174084232 0.0025215732428335125 0 -0.018062414087705751 0.002457640929327605 0 -0.018049406620605842 0.0025207200903340451 0 -0.017739018231600154 0.002508842107934835 0 -0.017852330813434774 0.0025439998020787931 0 -0.017656899570284088 0.0025048840413792219 0 -0.017819888174084232 0.0025215732428335125 0 -0.017739018231600154 0.002508842107934835 0 -0.017819888174084232 0.0025215732428335125 0 -0.018049406620605842 0.0025207200903340451 0 -0.017739018231600154 0.002508842107934835 0 -0.017739018231600154 0.002508842107934835 0 -0.017852330813434774 0.0025439998020787931 0 -0.017536846644750692 0.0025277942221112581 0 -0.018049406620605842 0.0025207200903340451 0 -0.017852330813434774 0.0025439998020787931 0 -0.018136733254895347 0.0025707067800302612 0 -0.018136733254895347 0.0025707067800302612 0 -0.017843280315453989 0.002617378599250464 0 -0.018001307768024097 0.0026706589728485611 0 -0.017852330813434774 0.0025439998020787931 0 -0.018136733254895347 0.0025707067800302612 0 -0.017843280315453989 0.002617378599250464 0 -0.018579610411375631 0.0027328209515948866 0 -0.018807398824357599 0.0028285988443147677 0 -0.018544366853875036 0.0026935618177581773 0 -0.019831424099926633 0.002832909140014704 0 -0.01929521084697413 0.0025124977881226837 0 -0.018544366853875036 0.0026935618177581773 0 -0.018001307768024097 0.0026706589728485611 0 -0.017726561455843219 0.0028944156190055521 0 -0.018136733254895347 0.0025707067800302612 0 -0.018544366853875036 0.0026935618177581773 0 -0.018001307768024097 0.0026706589728485611 0 -0.018136733254895347 0.0025707067800302612 0 -0.018544366853875036 0.0026935618177581773 0 -0.018317800459288144 0.0025115562273303033 0 -0.018544366853875036 0.0026935618177581773 0 -0.018317800459288144 0.0025115562273303033 0 -0.018559446989401828 0.0022919089039568907 0 -0.018049406620605842 0.0025207200903340451 0 -0.018136733254895347 0.0025707067800302612 0 -0.018317800459288144 0.0025115562273303033 0 -0.018317800459288144 0.0025115562273303033 0 -0.018062414087705751 0.002457640929327605 0 -0.018234819088719635 0.0022951517047398056 0 -0.018049406620605842 0.0025207200903340451 0 -0.018317800459288144 0.0025115562273303033 0 -0.018062414087705751 0.002457640929327605 0 -0.018317800459288144 0.0025115562273303033 0 -0.018234819088719635 0.0022951517047398056 0 -0.018559446989401828 0.0022919089039568907 0 -0.017908996357937332 0.0023276030358997664 0 -0.018088390069035613 0.0021092608440989959 0 -0.018234819088719635 0.0022951517047398056 0 -0.017908996357937332 0.0023276030358997664 0 -0.018062414087705751 0.002457640929327605 0 -0.018234819088719635 0.0022951517047398056 0 -0.017908996357937332 0.0023276030358997664 0 -0.017823806060942683 0.0024677975279488265 0 -0.018062414087705751 0.002457640929327605 0 -0.017262439349382229 0.0025621737699125808 0 -0.017429377963859582 0.0025824123006322262 0 -0.017357247485745179 0.0026976285933551286 0 -0.019150797647158761 0.0046269555285945686 0 -0.01886717591308771 0.0039793477662049687 0 -0.017180932399419854 0.0026323405446817506 0 -0.017262439349382229 0.0025621737699125808 0 -0.017357247485745179 0.0026976285933551286 0 -0.017751473100578091 0.0030907607385631639 0 -0.01886717591308771 0.0039793477662049687 0 -0.01786635848678908 0.0038047664647906936 0 -0.018498155106355184 0.0036545224086355875 0 -0.01991081988388323 0.0052797470029837239 0 -0.017155396298884202 0.0025412597152437064 0 -0.017180932399419854 0.0026323405446817506 0 -0.017262439349382229 0.0025621737699125808 0 -0.017118204137877301 0.0025994654029242704 0 -0.017262439349382229 0.0025621737699125808 0 -0.017429377963859582 0.0025824123006322262 0 -0.017118204137877301 0.0025994654029242704 0 -0.017536846644750692 0.0025277942221112581 0 -0.017429377963859582 0.0025824123006322262 0 -0.017536846644750692 0.0025277942221112581 0 -0.017638564419539357 0.0025662285623229294 0 -0.017429377963859582 0.0025824123006322262 0 -0.017852330813434774 0.0025439998020787931 0 -0.017536846644750692 0.0025277942221112581 0 -0.017638564419539357 0.0025662285623229294 0 -0.017638564419539357 0.0025662285623229294 0 -0.017571722806178306 0.0026687426082102981 0 -0.017843280315453989 0.002617378599250464 0 -0.017852330813434774 0.0025439998020787931 0 -0.017638564419539357 0.0025662285623229294 0 -0.017843280315453989 0.002617378599250464 0 -0.017638564419539357 0.0025662285623229294 0 -0.017429377963859582 0.0025824123006322262 0 -0.017571722806178306 0.0026687426082102981 0 -0.017429377963859582 0.0025824123006322262 0 -0.017571722806178306 0.0026687426082102981 0 -0.017357247485745179 0.0026976285933551286 0 -0.017571722806178306 0.0026687426082102981 0 -0.017782691680393346 0.002781165060443137 0 -0.017572999922223331 0.0027990320089098276 0 -0.017571722806178306 0.0026687426082102981 0 -0.017843280315453989 0.002617378599250464 0 -0.017782691680393346 0.002781165060443137 0 -0.017843280315453989 0.002617378599250464 0 -0.018001307768024097 0.0026706589728485611 0 -0.017782691680393346 0.002781165060443137 0 -0.018001307768024097 0.0026706589728485611 0 -0.017782691680393346 0.002781165060443137 0 -0.017726561455843219 0.0028944156190055521 0 -0.017782691680393346 0.002781165060443137 0 -0.018009604967353644 0.0028482497428753369 0 -0.017726561455843219 0.0028944156190055521 0 -0.017782691680393346 0.002781165060443137 0 -0.017572999922223331 0.0027990320089098276 0 -0.018009604967353644 0.0028482497428753369 0 -0.018616273983864725 0.0034645925022505544 0 -0.018634216835996108 0.0029840596827613842 0 -0.018009604967353644 0.0028482497428753369 0 -0.017989243811217429 0.0029815468263481651 0 -0.018020015611146502 0.002915710023252663 0 -0.018616273983864725 0.0034645925022505544 0 -0.018634216835996108 0.0029840596827613842 0 -0.019517638189231058 0.0031320936410469979 0 -0.018634216835996108 0.0029840596827613842 0 -0.019517638189231058 0.0031320936410469979 0 -0.018841851180135476 0.0025589982949102783 0 -0.018616273983864725 0.0034645925022505544 0 -0.019221481578436322 0.0040601584416784138 0 -0.019517638189231058 0.0031320936410469979 0 -0.017989243811217429 0.0029815468263481651 0 -0.01886717591308771 0.0039793477662049687 0 -0.017571722806178306 0.0026687426082102981 0 -0.017572999922223331 0.0027990320089098276 0 -0.017357247485745179 0.0026976285933551286 0 -0.020428263705988766 0.0036338774316740947 0 -0.019221481578436322 0.0040601584416784138 0 -0.019517638189231058 0.0031320936410469979 0 -0.020187862125463082 0.0046618619444620188 0 -0.020428263705988766 0.0036338774316740947 0 -0.019221481578436322 0.0040601584416784138 0 -0.02058938618377348 0.002387152332320053 0 -0.019716209000676794 0.0026182136636832866 0 -0.019517638189231058 0.0031320936410469979 0 -0.020088657422644127 0.0023259242996633007 0 -0.018841851180135476 0.0025589982949102783 0 -0.021108048896869652 0.0024315220745911759 0 -0.020704441035482388 0.0023093088206546835 0 -0.021159431215496734 0.0021760660932991964 0 -0.021108048896869652 0.0024315220745911759 0 -0.020704441035482388 0.0023093088206546835 0 -0.020610096600369048 0.0026682750124022996 0 -0.020704441035482388 0.0023093088206546835 0 -0.020610096600369048 0.0026682750124022996 0 -0.020239455943167735 0.0024917216536041514 0 -0.019716209000676794 0.0026182136636832866 0 -0.018807398824357599 0.0028285988443147677 0 -0.018634216835996108 0.0029840596827613842 0 -0.018841851180135476 0.0025589982949102783 0 -0.018009604967353644 0.0028482497428753369 0 -0.018841851180135476 0.0025589982949102783 0 -0.018009604967353644 0.0028482497428753369 0 -0.017726561455843219 0.0028944156190055521 0 -0.020610096600369048 0.0026682750124022996 0 -0.020239455943167735 0.0024917216536041514 0 -0.019831424099926633 0.002832909140014704 0 -0.019831424099926633 0.002832909140014704 0 -0.019770900557253977 0.0024055822911858878 0 -0.01929521084697413 0.0025124977881226837 0 -0.020239455943167735 0.0024917216536041514 0 -0.019831424099926633 0.002832909140014704 0 -0.019770900557253977 0.0024055822911858878 0 -0.019770900557253977 0.0024055822911858878 0 -0.019721852787248903 0.0020675550652198144 0 -0.020171591501680235 0.002276806481257308 0 -0.019770900557253977 0.0024055822911858878 0 -0.019721852787248903 0.0020675550652198144 0 -0.019132182148729235 0.0022023132065990239 0 -0.020704441035482388 0.0023093088206546835 0 -0.020239455943167735 0.0024917216536041514 0 -0.020171591501680235 0.002276806481257308 0 -0.020704441035482388 0.0023093088206546835 0 -0.020171591501680235 0.002276806481257308 0 -0.020390863594516927 0.0020774173485905603 0 -0.019721852787248903 0.0020675550652198144 0 -0.020171591501680235 0.002276806481257308 0 -0.020390863594516927 0.0020774173485905603 0 -0.020239455943167735 0.0024917216536041514 0 -0.019770900557253977 0.0024055822911858878 0 -0.020171591501680235 0.002276806481257308 0 -0.020390863594516927 0.0020774173485905603 0 -0.02004536543203074 0.0019084012959272229 0 -0.020596607205182287 0.0018208667897827472 0 -0.019721852787248903 0.0020675550652198144 0 -0.020390863594516927 0.0020774173485905603 0 -0.02004536543203074 0.0019084012959272229 0 -0.019721852787248903 0.0020675550652198144 0 -0.02004536543203074 0.0019084012959272229 0 -0.019357214546474422 0.0018218609103030933 0 -0.02004536543203074 0.0019084012959272229 0 -0.019643753999684412 0.0015016187399314476 0 -0.020109130132427343 0.0015873074304983033 0 -0.02004536543203074 0.0019084012959272229 0 -0.019357214546474422 0.0018218609103030933 0 -0.019643753999684412 0.0015016187399314476 0 -0.02004536543203074 0.0019084012959272229 0 -0.020596607205182287 0.0018208667897827472 0 -0.020109130132427343 0.0015873074304983033 0 -0.020596607205182287 0.0018208667897827472 0 -0.021171355754023829 0.0019085770825066045 0 -0.02094211835239386 0.0020300346539119489 0 -0.021171355754023829 0.0019085770825066045 0 -0.02094211835239386 0.0020300346539119489 0 -0.021309798204590835 0.0019354812173765447 0 -0.02094211835239386 0.0020300346539119489 0 -0.021309798204590835 0.0019354812173765447 0 -0.021159431215496734 0.0021760660932991964 0 -0.020704441035482388 0.0023093088206546835 0 -0.02094211835239386 0.0020300346539119489 0 -0.021159431215496734 0.0021760660932991964 0 -0.020390863594516927 0.0020774173485905603 0 -0.020596607205182287 0.0018208667897827472 0 -0.02094211835239386 0.0020300346539119489 0 -0.020704441035482388 0.0023093088206546835 0 -0.020390863594516927 0.0020774173485905603 0 -0.02094211835239386 0.0020300346539119489 0 -0.018387316577725972 0.001297992082486976 0 -0.018565900224218827 0.0015475709911870225 0 -0.018344272635574276 0.0018927807746777 0 -0.018088390069035613 0.0021092608440989959 0 -0.018234819088719635 0.0022951517047398056 0 -0.018344272635574276 0.0018927807746777 0 -0.018344272635574276 0.0018927807746777 0 -0.018884227335355743 0.0018869107519218686 0 -0.018559446989401828 0.0022919089039568907 0 -0.018234819088719635 0.0022951517047398056 0 -0.018344272635574276 0.0018927807746777 0 -0.018559446989401828 0.0022919089039568907 0 -0.018565900224218827 0.0015475709911870225 0 -0.018344272635574276 0.0018927807746777 0 -0.018884227335355743 0.0018869107519218686 0 -0.018884227335355743 0.0018869107519218686 0 -0.019132182148729235 0.0022023132065990239 0 -0.019357214546474422 0.0018218609103030933 0 -0.018544366853875036 0.0026935618177581773 0 -0.018559446989401828 0.0022919089039568907 0 -0.019132182148729235 0.0022023132065990239 0 -0.018884227335355743 0.0018869107519218686 0 -0.018559446989401828 0.0022919089039568907 0 -0.019132182148729235 0.0022023132065990239 0 -0.018544366853875036 0.0026935618177581773 0 -0.01929521084697413 0.0025124977881226837 0 -0.019132182148729235 0.0022023132065990239 0 -0.019770900557253977 0.0024055822911858878 0 -0.01929521084697413 0.0025124977881226837 0 -0.019132182148729235 0.0022023132065990239 0 -0.019721852787248903 0.0020675550652198144 0 -0.019132182148729235 0.0022023132065990239 0 -0.019357214546474422 0.0018218609103030933 0 -0.019357214546474422 0.0018218609103030933 0 -0.019280820628008514 0.0014587122822156168 0 -0.019643753999684412 0.0015016187399314476 0 -0.019357214546474422 0.0018218609103030933 0 -0.019077877298856315 0.001677255232936123 0 -0.019280820628008514 0.0014587122822156168 0 -0.018884227335355743 0.0018869107519218686 0 -0.019357214546474422 0.0018218609103030933 0 -0.019077877298856315 0.001677255232936123 0 -0.018933234503749435 0.0018408239650536651 0 -0.01909321447778714 0.0013488189641289593 0 -0.018884227335355743 0.0018869107519218686 0 -0.019178653601561717 0.00096096846682420807 0 -0.018735477136615258 0.0010912892414058331 0 -0.018565900224218827 0.0015475709911870225 0 -0.018884227335355743 0.0018869107519218686 0 -0.018735477136615258 0.0010912892414058331 0 -0.019178653601561717 0.00096096846682420807 0 -0.018735477136615258 0.0010912892414058331 0 -0.018884241142745839 0.00062906367284309007 0 -0.018465126497340313 0.00085974903711025881 0 -0.018735477136615258 0.0010912892414058331 0 -0.018884241142745839 0.00062906367284309007 0 -0.018387316577725972 0.001297992082486976 0 -0.018565900224218827 0.0015475709911870225 0 -0.018735477136615258 0.0010912892414058331 0 -0.018387316577725972 0.001297992082486976 0 -0.018465126497340313 0.00085974903711025881 0 -0.018735477136615258 0.0010912892414058331 0 -0.018694101969921783 0.00047724869574344419 0 -0.019024921316657003 0.00031849711869460866 0 -0.018884241142745839 0.00062906367284309007 0 -0.018946401256719061 0.00055146217435526662 0 -0.019222685690294113 0.00070602398581710022 0 -0.019178653601561717 0.00096096846682420807 0 -0.018884241142745839 0.00062906367284309007 0 -0.019208649469039368 0.00043398913123079714 0 -0.019024921316657003 0.00031849711869460866 0 -0.018884241142745839 0.00062906367284309007 0 -0.019280897507558025 0.00046151071010558484 0 -0.019222685690294113 0.00070602398581710022 0 -0.019523875471230887 0.00074117014900136255 0 -0.019077230254944177 0.0011899394743793508 0 -0.019280820628008514 0.0014587122822156168 0 -0.019408388870599712 0.00094806395282936019 0 -0.01909321447778714 0.0013488189641289593 0 -0.019222685690294113 0.00070602398581710022 0 -0.019077877298856315 0.001677255232936123 0 -0.019077230254944177 0.0011899394743793508 0 -0.019280820628008514 0.0014587122822156168 0 -0.019280820628008514 0.0014587122822156168 0 -0.019643753999684412 0.0015016187399314476 0 -0.019408388870599712 0.00094806395282936019 0 -0.019408388870599712 0.00094806395282936019 0 -0.019841179612866244 0.0011510612420352864 0 -0.019801979981651171 0.00060621458788687719 0 -0.019643753999684412 0.0015016187399314476 0 -0.019408388870599712 0.00094806395282936019 0 -0.019841179612866244 0.0011510612420352864 0 -0.019670206870190443 0.00049603994001096272 0 -0.019702761443031055 5.5728900979701083e-05 0 -0.019962623297279141 0.00031644799529207963 0 -0.019523875471230887 0.00074117014900136255 0 -0.019904834547327593 0.00044521546002247844 0 -0.019702761443031055 5.5728900979701083e-05 0 -0.019962623297279141 0.00031644799529207963 0 -0.020029172717620551 -0.00019782520987139917 0 -0.019702761443031055 5.5728900979701083e-05 0 -0.019375468616428478 0.00015983314458507231 0 -0.019488117422441369 -0.00011537545697758864 0 -0.019371430891827957 0.00069470459175901948 0 -0.019670206870190443 0.00049603994001096272 0 -0.019375468616428478 0.00015983314458507231 0 -0.019222685690294113 0.00070602398581710022 0 -0.019396773077004919 0.0001156261642864795 0 -0.019670206870190443 0.00049603994001096272 0 -0.019702761443031055 5.5728900979701083e-05 0 -0.019375468616428478 0.00015983314458507231 0 -0.019024921316657003 0.00031849711869460866 0 -0.019280897507558025 0.00046151071010558484 0 -0.019375468616428478 0.00015983314458507231 0 -0.019024921316657003 0.00031849711869460866 0 -0.019375468616428478 0.00015983314458507231 0 -0.019184250856586784 7.6854272486607476e-05 0 -0.019375468616428478 0.00015983314458507231 0 -0.019184250856586784 7.6854272486607476e-05 0 -0.019488117422441369 -0.00011537545697758864 0 -0.019063953215546093 5.1586054679221936e-05 0 -0.018990336371522351 0.00016831475898294128 0 -0.019184250856586784 7.6854272486607476e-05 0 -0.018990336371522351 0.00016831475898294128 0 -0.019024921316657003 0.00031849711869460866 0 -0.019184250856586784 7.6854272486607476e-05 0 -0.020957166042182167 0.0015551330840865409 0 -0.02160931190142143 0.0019155571855092222 0 -0.021203316671568946 0.00087597570310900448 0 -0.020957166042182167 0.0015551330840865409 0 -0.020390469274344906 0.0009500567440306006 0 -0.021203316671568946 0.00087597570310900448 0 -0.02160931190142143 0.0019155571855092222 0 -0.021203316671568946 0.00087597570310900448 0 -0.022605163821682654 0.0011026979920115041 0 -0.021171355754023829 0.0019085770825066045 0 -0.02160931190142143 0.0019155571855092222 0 -0.021309798204590835 0.0019354812173765447 0 -0.021171355754023829 0.0019085770825066045 0 -0.020957166042182167 0.0015551330840865409 0 -0.02160931190142143 0.0019155571855092222 0 -0.020596607205182287 0.0018208667897827472 0 -0.021171355754023829 0.0019085770825066045 0 -0.020957166042182167 0.0015551330840865409 0 -0.020596607205182287 0.0018208667897827472 0 -0.020413831801384296 0.0014454105590737468 0 -0.020109130132427343 0.0015873074304983033 0 -0.020596607205182287 0.0018208667897827472 0 -0.020957166042182167 0.0015551330840865409 0 -0.020413831801384296 0.0014454105590737468 0 -0.019643753999684412 0.0015016187399314476 0 -0.020109130132427343 0.0015873074304983033 0 -0.019841179612866244 0.0011510612420352864 0 -0.020413831801384296 0.0014454105590737468 0 -0.020109130132427343 0.0015873074304983033 0 -0.019841179612866244 0.0011510612420352864 0 -0.020413831801384296 0.0014454105590737468 0 -0.019841179612866244 0.0011510612420352864 0 -0.020390469274344906 0.0009500567440306006 0 -0.020957166042182167 0.0015551330840865409 0 -0.020413831801384296 0.0014454105590737468 0 -0.020390469274344906 0.0009500567440306006 0 -0.020390469274344906 0.0009500567440306006 0 -0.020329320832990352 0.00012969652794682539 0 -0.021203316671568946 0.00087597570310900448 0 -0.019841179612866244 0.0011510612420352864 0 -0.020390469274344906 0.0009500567440306006 0 -0.019801979981651171 0.00060621458788687719 0 -0.019904834547327593 0.00044521546002247844 0 -0.020296917580424886 0.0001604286458719069 0 -0.020390469274344906 0.0009500567440306006 0 -0.019801979981651171 0.00060621458788687719 0 -0.020329320832990352 0.00012969652794682539 0 -0.019962623297279141 0.00031644799529207963 0 -0.020329320832990352 0.00012969652794682539 0 -0.020029172717620551 -0.00019782520987139917 0 -0.020329320832990352 0.00012969652794682539 0 -0.021150081797996972 -7.4345028268891562e-05 0 -0.020339205046610444 -0.00055623959286453127 0 -0.021150081797996972 -7.4345028268891562e-05 0 -0.021203316671568946 0.00087597570310900448 0 -0.022406126439683798 2.4190940701171965e-05 0 -0.020329320832990352 0.00012969652794682539 0 -0.021150081797996972 -7.4345028268891562e-05 0 -0.021203316671568946 0.00087597570310900448 0 -0.021203316671568946 0.00087597570310900448 0 -0.022406126439683798 2.4190940701171965e-05 0 -0.022605163821682654 0.0011026979920115041 0 -0.021150081797996972 -7.4345028268891562e-05 0 -0.022406126439683798 2.4190940701171965e-05 0 -0.021746564556187686 -0.00092933151821181757 0 -0.022406126439683798 2.4190940701171965e-05 0 -0.023728119597763785 -0.00039599014644782531 0 -0.023691670739636576 0.00048096730847186248 0 -0.023728119597763785 -0.00039599014644782531 0 -0.024751835125586517 -0.00012152409182777459 0 -0.023691670739636576 0.00048096730847186248 0 -0.024751835125586517 -0.00012152409182777459 0 -0.023691670739636576 0.00048096730847186248 0 -0.024646505277527361 0.0008488307941824575 0 -0.023691670739636576 0.00048096730847186248 0 -0.024646505277527361 0.0008488307941824575 0 -0.024079365092217593 0.0015640971414254076 0 -0.024646505277527361 0.0008488307941824575 0 -0.024973824774876068 0.0016936925578658107 0 -0.024079365092217593 0.0015640971414254076 0 -0.023691670739636576 0.00048096730847186248 0 -0.022605163821682654 0.0011026979920115041 0 -0.024079365092217593 0.0015640971414254076 0 -0.022406126439683798 2.4190940701171965e-05 0 -0.023691670739636576 0.00048096730847186248 0 -0.022605163821682654 0.0011026979920115041 0 -0.026494527062227949 -0.00028870735199939694 0 -0.026298173453129979 0.0002293321019622058 0 -0.025717966329107896 0.00018701153745562512 0 -0.026769066312528272 0.00028700101787583406 0 -0.026298173453129979 0.0002293321019622058 0 -0.026078555249618607 0.00066857215822647953 0 -0.026769066312528272 0.00028700101787583406 0 -0.026494527062227949 -0.00028870735199939694 0 -0.026298173453129979 0.0002293321019622058 0 -0.026494527062227949 -0.00028870735199939694 0 -0.025717966329107896 0.00018701153745562512 0 -0.026038572530665105 -0.00078619120789091054 0 -0.024751835125586517 -0.00012152409182777459 0 -0.025717966329107896 0.00018701153745562512 0 -0.026038572530665105 -0.00078619120789091054 0 -0.024751835125586517 -0.00012152409182777459 0 -0.024646505277527361 0.0008488307941824575 0 -0.025717966329107896 0.00018701153745562512 0 -0.026298173453129979 0.0002293321019622058 0 -0.025717966329107896 0.00018701153745562512 0 -0.026078555249618607 0.00066857215822647953 0 -0.024646505277527361 0.0008488307941824575 0 -0.025717966329107896 0.00018701153745562512 0 -0.025547364538864307 0.0010859380694016646 0 -0.024646505277527361 0.0008488307941824575 0 -0.025547364538864307 0.0010859380694016646 0 -0.024973824774876068 0.0016936925578658107 0 -0.025547364538864307 0.0010859380694016646 0 -0.026086913634742276 0.0012538971742974488 0 -0.025747447976873457 0.0021360716131294268 0 -0.025547364538864307 0.0010859380694016646 0 -0.026078555249618607 0.00066857215822647953 0 -0.026086913634742276 0.0012538971742974488 0 -0.025717966329107896 0.00018701153745562512 0 -0.025547364538864307 0.0010859380694016646 0 -0.026078555249618607 0.00066857215822647953 0 -0.026769066312528272 0.00028700101787583406 0 -0.026086913634742276 0.0012538971742974488 0 -0.026295616950532466 0.0021130009010659752 0 -0.027057618056017425 0.00055608220462495886 0 -0.026710445134910613 0.0023265216327959031 0 -0.027760464347720754 0.0010632260291656549 0 -0.026710445134910613 0.0023265216327959031 0 -0.027322595730051292 0.00080957508526159291 0 -0.02760102245589529 0.0012457991881069822 0 -0.02694176647336502 0.0028912975772513528 0 -0.027851675059801264 0.0015954006988077439 0 -0.027806016078783823 0.00092927557313299183 0 -0.027378356213073815 0.002007474347549268 0 -0.026769066312528272 0.00028700101787583406 0 -0.026078555249618607 0.00066857215822647953 0 -0.026086913634742276 0.0012538971742974488 0 -0.027851675059801264 0.0015954006988077439 0 -0.027378356213073815 0.002007474347549268 0 -0.028032313084112123 0.0022147654354330681 0 -0.026086913634742276 0.0012538971742974488 0 -0.026295616950532466 0.0021130009010659752 0 -0.025747447976873457 0.0021360716131294268 0 -0.026295616950532466 0.0021130009010659752 0 -0.025747447976873457 0.0021360716131294268 0 -0.025891305249905853 0.0031093631958836565 0 -0.025544514525782661 0.0011884739541072502 0 -0.025641098600003773 0.0020789764506944724 0 -0.025547364538864307 0.0010859380694016646 0 -0.025543850926384951 0.0019325777989716085 0 -0.024973824774876068 0.0016936925578658107 0 -0.025543850926384951 0.0019325777989716085 0 -0.024973824774876068 0.0016936925578658107 0 -0.025158995278301503 0.0023470222696378041 0 -0.024973824774876068 0.0016936925578658107 0 -0.025158995278301503 0.0023470222696378041 0 -0.02463532445464944 0.0023373197506235564 0 -0.024959798210949846 0.0028814434898374402 0 -0.02369811869684214 0.0030478147889866653 0 -0.025422740970871729 0.0036374074369816076 0 -0.025158995278301503 0.0023470222696378041 0 -0.024959798210949846 0.0028814434898374402 0 -0.02463532445464944 0.0023373197506235564 0 -0.024582072681290881 0.0024918499634731103 0 -0.024706929204205575 0.0021646053402618755 0 -0.024531805536436291 0.0021761839659890166 0 -0.024959798210949846 0.0028814434898374402 0 -0.025696382247090428 0.0029315599492333003 0 -0.025422740970871729 0.0036374074369816076 0 -0.025297327958940803 0.0026528623971547073 0 -0.023358857952326346 0.0021963354656765236 0 -0.025641098600003773 0.0020789764506944724 0 -0.025297327958940803 0.0026528623971547073 0 -0.025158995278301503 0.0023470222696378041 0 -0.024959798210949846 0.0028814434898374402 0 -0.025696382247090428 0.0029315599492333003 0 -0.025543850926384951 0.0019325777989716085 0 -0.025158995278301503 0.0023470222696378041 0 -0.025696382247090428 0.0029315599492333003 0 -0.024412620050342056 0.0010071961821876154 0 -0.027499331783773309 0.0015358581124307142 0 -0.026710445134910613 0.0023265216327959031 0 -0.02501335555878691 0.0023521061129261494 0 -0.027126387869481107 0.0031422034490213198 0 -0.027252934442614406 0.0032878341334976798 0 -0.028032313084112123 0.0022147654354330681 0 -0.025954874013075738 0.0013350745098162382 0 -0.026507199287106077 0.0011307819627098732 0 -0.026425488873342368 0.00065119036093465212 0 -0.025839584449585687 0.0022245107858034426 0 -0.025731715608842094 0.0024484801896323782 0 -0.025743709088327342 0.002591248813034016 0 -0.027378356213073815 0.002007474347549268 0 -0.027126387869481107 0.0031422034490213198 0 -0.028032313084112123 0.0022147654354330681 0 -0.026710445134910613 0.0023265216327959031 0 -0.025297327958940803 0.0026528623971547073 0 -0.025297327958940803 0.0026528623971547073 0 -0.02501335555878691 0.0023521061129261494 0 -0.02160931190142143 0.0019155571855092222 0 -0.022605163821682654 0.0011026979920115041 0 -0.022983791412762904 0.001871852154115802 0 -0.022605163821682654 0.0011026979920115041 0 -0.022983791412762904 0.001871852154115802 0 -0.024079365092217593 0.0015640971414254076 0 -0.024079365092217593 0.0015640971414254076 0 -0.02463532445464944 0.0023373197506235564 0 -0.02369811869684214 0.0030478147889866653 0 -0.022983791412762904 0.001871852154115802 0 -0.024079365092217593 0.0015640971414254076 0 -0.02369811869684214 0.0030478147889866653 0 -0.024973824774876068 0.0016936925578658107 0 -0.024079365092217593 0.0015640971414254076 0 -0.02463532445464944 0.0023373197506235564 0 -0.022577507561733302 0.0025318450574145219 0 -0.023358857952326346 0.0021963354656765236 0 -0.024959798210949846 0.0028814434898374402 0 -0.02463532445464944 0.0023373197506235564 0 -0.02369811869684214 0.0030478147889866653 0 -0.02160931190142143 0.0019155571855092222 0 -0.022983791412762904 0.001871852154115802 0 -0.02369811869684214 0.0030478147889866653 0 -0.02160931190142143 0.0019155571855092222 0 -0.021368613228612842 0.0019228499205171743 0 -0.021309798204590835 0.0019354812173765447 0 -0.021648133596623948 0.0019683804043155607 0 -0.022577507561733302 0.0025318450574145219 0 -0.021309798204590835 0.0019354812173765447 0 -0.021311080581551473 0.0020860747624920324 0 -0.021159431215496734 0.0021760660932991964 0 -0.021309798204590835 0.0019354812173765447 0 -0.021311080581551473 0.0020860747624920324 0 -0.021387017894764583 0.001988034389428496 0 -0.021420359754601111 0.0020372333598100523 0 -0.021311080581551473 0.0020860747624920324 0 -0.021402093938708563 0.0021220437338277118 0 -0.021420359754601111 0.0020372333598100523 0 -0.021387017894764583 0.001988034389428496 0 -0.02147939834633273 0.0019828746730968985 0 -0.021420359754601111 0.0020372333598100523 0 -0.021311080581551473 0.0020860747624920324 0 -0.021387017894764583 0.001988034389428496 0 -0.021368613228612842 0.0019228499205171743 0 -0.021410584411430188 0.0019405284266930099 0 -0.021487635924844727 0.0019198477032450999 0 -0.021368613228612842 0.0019228499205171743 0 -0.021309798204590835 0.0019354812173765447 0 -0.021410584411430188 0.0019405284266930099 0 -0.021387017894764583 0.001988034389428496 0 -0.021410584411430188 0.0019405284266930099 0 -0.02147939834633273 0.0019828746730968985 0 -0.021309798204590835 0.0019354812173765447 0 -0.021387017894764583 0.001988034389428496 0 -0.021410584411430188 0.0019405284266930099 0 -0.023358857952326346 0.0021963354656765236 0 -0.021411470340112451 0.0020725375943925857 0 -0.021581206144387965 0.0017792026937600953 0 -0.021580275185387219 0.0018682154390458759 0 -0.02147939834633273 0.0019828746730968985 0 -0.021410584411430188 0.0019405284266930099 0 -0.021487635924844727 0.0019198477032450999 0 -0.02147939834633273 0.0019828746730968985 0 -0.024706929204205575 0.0021646053402618755 0 -0.024531805536436291 0.0021761839659890166 0 -0.02452004097504721 0.0020988392122559267 0 -0.023358857952326346 0.0021963354656765236 0 -0.024148154161802968 0.0015310317352435342 0 -0.021581206144387965 0.0017792026937600953 0 -0.021580275185387219 0.0018682154390458759 0 -0.021658167020353322 0.0018028334746991188 0 -0.021580275185387219 0.0018682154390458759 0 -0.021615815846409175 0.0019086513765089153 0 -0.021658167020353322 0.0018028334746991188 0 -0.022485565773884757 0.001065280799629018 0 -0.024148154161802968 0.0015310317352435342 0 -0.021580275185387219 0.0018682154390458759 0 -0.021615815846409175 0.0019086513765089153 0 -0.02147939834633273 0.0019828746730968985 0 -0.02501335555878691 0.0023521061129261494 0 -0.024148154161802968 0.0015310317352435342 0 -0.027126387869481107 0.0031422034490213198 0 -0.027139872246989504 0.0032486210289576758 0 -0.027252934442614406 0.0032878341334976798 0 -0.024148154161802968 0.0015310317352435342 0 -0.024412620050342056 0.0010071961821876154 0 -0.023631795963552894 0.0010007768697699259 0 -0.023585441965982935 0.00098415253393415846 0 -0.02362028191123975 0.00092792882299694518 0 -0.024412620050342056 0.0010071961821876154 0 -0.023484044858567758 0.00021775811649805184 0 -0.024148154161802968 0.0015310317352435342 0 -0.023484044858567758 0.00021775811649805184 0 -0.022078266400350616 -0.0016763188869214592 0 -0.022042601067981595 -0.00162841882742627 0 -0.022290393796306898 -0.0015265738972659775 0 -0.023335084841968723 0.0010391604038605578 0 -0.023411856461460396 0.00081307084810529502 0 -0.023422928186681929 0.00091735081058542044 0 -0.022485565773884757 0.001065280799629018 0 -0.023484044858567758 0.00021775811649805184 0 -0.023484044858567758 0.00021775811649805184 0 -0.022029039743616283 -0.0013282356688908278 0 -0.022135297984127333 -0.00075159167323583711 0 -0.022127709158961863 -0.0007317157330076746 0 -0.022101930772518145 -0.00080790710268539953 0 -0.022042601067981595 -0.00162841882742627 0 -0.022290393796306898 -0.0015265738972659775 0 -0.022068960739517203 -0.0012846435464308643 0 -0.022290393796306898 -0.0015265738972659775 0 -0.022068960739517203 -0.0012846435464308643 0 -0.022325268684146568 -0.0012647382687532335 0 -0.022068960739517203 -0.0012846435464308643 0 -0.022306600637122729 -0.0010155636268762173 0 -0.022325268684146568 -0.0012647382687532335 0 -0.021592690319192 0.001868918462683015 0 -0.021508019787317104 0.0020387757526342614 0 -0.021607361827709972 0.0022122293604209999 0 -0.022135297984127333 -0.00075159167323583711 0 -0.022101930772518145 -0.00080790710268539953 0 -0.022095493150838103 -0.00084436096942798575 0 -0.022485565773884757 0.001065280799629018 0 -0.021781752046038879 0.00059502814965997034 0 -0.021420359754601111 0.0020372333598100523 0 -0.02147939834633273 0.0019828746730968985 0 -0.021508019787317104 0.0020387757526342614 0 -0.022485565773884757 0.001065280799629018 0 -0.021345500041234707 0.0023217770682777946 0 -0.021615815846409175 0.0019086513765089153 0 -0.02147939834633273 0.0019828746730968985 0 -0.021508019787317104 0.0020387757526342614 0 -0.021420359754601111 0.0020372333598100523 0 -0.021508019787317104 0.0020387757526342614 0 -0.021402093938708563 0.0021220437338277118 0 -0.021607361827709972 0.0022122293604209999 0 -0.021252191247786378 0.0022577617350258033 0 -0.021402093938708563 0.0021220437338277118 0 -0.021508019787317104 0.0020387757526342614 0 -0.021607361827709972 0.0022122293604209999 0 -0.021402093938708563 0.0021220437338277118 0 -0.022029039743616283 -0.0013282356688908278 0 -0.022147298778735634 -0.00077560800371016044 0 -0.022068960739517203 -0.0012846435464308643 0 -0.022143271199484473 -0.00086047106120115679 0 -0.022306600637122729 -0.0010155636268762173 0 -0.022101930772518145 -0.00080790710268539953 0 -0.022095493150838103 -0.00084436096942798575 0 -0.022143271199484473 -0.00086047106120115679 0 -0.022143271199484473 -0.00086047106120115679 0 -0.02235872376919101 -0.00075742547525988759 0 -0.022306600637122729 -0.0010155636268762173 0 -0.022095493150838103 -0.00084436096942798575 0 -0.022143271199484473 -0.00086047106120115679 0 -0.022128011684233104 -0.00068442011003730504 0 -0.022143271199484473 -0.00086047106120115679 0 -0.022128011684233104 -0.00068442011003730504 0 -0.02235872376919101 -0.00075742547525988759 0 -0.021524321047331509 0.0030667286251662958 0 -0.021607361827709972 0.0022122293604209999 0 -0.021252191247786378 0.0022577617350258033 0 -0.02207705263048956 -0.00064334704823709211 0 -0.022095493150838103 -0.00084436096942798575 0 -0.022128011684233104 -0.00068442011003730504 0 -0.021754648070923106 0.0012324611496968268 0 -0.021781752046038879 0.00059502814965997034 0 -0.021524321047331509 0.0030667286251662958 0 -0.020692835460639974 0.0028513829225032634 0 -0.021252191247786378 0.0022577617350258033 0 -0.02058938618377348 0.002387152332320053 0 -0.021197599328458182 0.0022626173611401852 0 -0.019517638189231058 0.0031320936410469979 0 -0.020088657422644127 0.0023259242996633007 0 -0.020692835460639974 0.0028513829225032634 0 -0.020088657422644127 0.0023259242996633007 0 -0.020692835460639974 0.0028513829225032634 0 -0.021252191247786378 0.0022577617350258033 0 -0.021311080581551473 0.0020860747624920324 0 -0.021159431215496734 0.0021760660932991964 0 -0.021252191247786378 0.0022577617350258033 0 -0.021108048896869652 0.0024315220745911759 0 -0.021159431215496734 0.0021760660932991964 0 -0.021252191247786378 0.0022577617350258033 0 -0.021311080581551473 0.0020860747624920324 0 -0.021252191247786378 0.0022577617350258033 0 -0.021402093938708563 0.0021220437338277118 0 -0.022999993393064615 -0.00095060229749309444 0 -0.023615403152586509 -0.00117066053167894 0 -0.024299365440167392 -0.00083720361288201577 0 -0.022999993393064615 -0.00095060229749309444 0 -0.024299365440167392 -0.00083720361288201577 0 -0.02471517619898184 0.00015135576613249508 0 -0.022999993393064615 -0.00095060229749309444 0 -0.023615403152586509 -0.00117066053167894 0 -0.023238326242336602 -0.001327823781106009 0 -0.022999993393064615 -0.00095060229749309444 0 -0.022984612673240645 -0.0012543611785580428 0 -0.023238326242336602 -0.001327823781106009 0 -0.024299365440167392 -0.00083720361288201577 0 -0.025087242439163004 -0.00055823619619163557 0 -0.025647424903657498 -0.0013162106858392066 0 -0.025087242439163004 -0.00055823619619163557 0 -0.02471517619898184 0.00015135576613249508 0 -0.025698159185241567 -0.00024256072618513165 0 -0.024299365440167392 -0.00083720361288201577 0 -0.025087242439163004 -0.00055823619619163557 0 -0.02471517619898184 0.00015135576613249508 0 -0.024192823612532686 0.0012241754922908941 0 -0.02471517619898184 0.00015135576613249508 0 -0.025569395970800036 0.00080339296936909443 0 -0.0227493940148559 -3.7571166836021008e-05 0 -0.02343360827785082 0.00055233490838907872 0 -0.02471517619898184 0.00015135576613249508 0 -0.025569395970800036 0.00080339296936909443 0 -0.025698159185241567 -0.00024256072618513165 0 -0.023328657343654264 -0.00068894566029097104 0 -0.0227493940148559 -3.7571166836021008e-05 0 -0.022692239677912618 -0.00050713009312039687 0 -0.023101504452843889 -0.00060756750458597646 0 -0.022881672179000279 -0.00070690438817082475 0 -0.022999993393064615 -0.00095060229749309444 0 -0.024192823612532686 0.0012241754922908941 0 -0.02471517619898184 0.00015135576613249508 0 -0.022999993393064615 -0.00095060229749309444 0 -0.023101504452843889 -0.00060756750458597646 0 -0.022881672179000279 -0.00070690438817082475 0 -0.022692239677912618 -0.00050713009312039687 0 -0.022881672179000279 -0.00070690438817082475 0 -0.022707106217089348 -0.0008292449586494371 0 -0.022692239677912618 -0.00050713009312039687 0 -0.022707106217089348 -0.0008292449586494371 0 -0.02235872376919101 -0.00075742547525988759 0 -0.022707106217089348 -0.0008292449586494371 0 -0.02235872376919101 -0.00075742547525988759 0 -0.02250262544043146 -0.0010532656018736517 0 -0.02235872376919101 -0.00075742547525988759 0 -0.02250262544043146 -0.0010532656018736517 0 -0.022306600637122729 -0.0010155636268762173 0 -0.02250262544043146 -0.0010532656018736517 0 -0.022306600637122729 -0.0010155636268762173 0 -0.022325268684146568 -0.0012647382687532335 0 -0.022707106217089348 -0.0008292449586494371 0 -0.02250262544043146 -0.0010532656018736517 0 -0.022761535692375698 -0.001240613919673082 0 -0.022999993393064615 -0.00095060229749309444 0 -0.022881672179000279 -0.00070690438817082475 0 -0.022707106217089348 -0.0008292449586494371 0 -0.022999993393064615 -0.00095060229749309444 0 -0.022707106217089348 -0.0008292449586494371 0 -0.022761535692375698 -0.001240613919673082 0 -0.022999993393064615 -0.00095060229749309444 0 -0.022984612673240645 -0.0012543611785580428 0 -0.022761535692375698 -0.001240613919673082 0 -0.026711985062513741 0.0015794245829679856 0 -0.027307915683051798 0.001573545448354819 0 -0.027441550496691947 0.001822223321470171 0 -0.024514831272678977 -0.00014456864962144705 0 -0.025582139815768814 -0.00015048816463209406 0 -0.022584332895907451 -0.0015799234594918235 0 -0.02332925935753203 -0.0015928357907134183 0 -0.023133721750245771 -0.0015388331907985795 0 -0.022761535692375698 -0.001240613919673082 0 -0.022584332895907451 -0.0015799234594918235 0 -0.023133721750245771 -0.0015388331907985795 0 -0.022984612673240645 -0.0012543611785580428 0 -0.022761535692375698 -0.001240613919673082 0 -0.023133721750245771 -0.0015388331907985795 0 -0.022761535692375698 -0.001240613919673082 0 -0.022516188250947571 -0.0013349454153118087 0 -0.022584332895907451 -0.0015799234594918235 0 -0.02250262544043146 -0.0010532656018736517 0 -0.022761535692375698 -0.001240613919673082 0 -0.022516188250947571 -0.0013349454153118087 0 -0.02250262544043146 -0.0010532656018736517 0 -0.022325268684146568 -0.0012647382687532335 0 -0.022516188250947571 -0.0013349454153118087 0 -0.022290393796306898 -0.0015265738972659775 0 -0.022516188250947571 -0.0013349454153118087 0 -0.022584332895907451 -0.0015799234594918235 0 -0.022290393796306898 -0.0015265738972659775 0 -0.022325268684146568 -0.0012647382687532335 0 -0.022516188250947571 -0.0013349454153118087 0 -0.026711985062513741 0.0015794245829679856 0 -0.026507199287106077 0.0011307819627098732 0 -0.026924349557553764 0.0011502845960165021 0 -0.025954874013075738 0.0013350745098162382 0 -0.026711985062513741 0.0015794245829679856 0 -0.026507199287106077 0.0011307819627098732 0 -0.024412620050342056 0.0010071961821876154 0 -0.024514831272678977 -0.00014456864962144705 0 -0.022078266400350616 -0.0016763188869214592 0 -0.022290393796306898 -0.0015265738972659775 0 -0.022584332895907451 -0.0015799234594918235 0 -0.026711985062513741 0.0015794245829679856 0 -0.027084577392783513 0.001437171657083861 0 -0.027307915683051798 0.001573545448354819 0 -0.026711985062513741 0.0015794245829679856 0 -0.027084577392783513 0.001437171657083861 0 -0.026924349557553764 0.0011502845960165021 0 -0.027084577392783513 0.001437171657083861 0 -0.027338102697074568 0.0013270390293862475 0 -0.026924349557553764 0.0011502845960165021 0 -0.027338102697074568 0.0013270390293862475 0 -0.027656842674990152 0.0011803581173775611 0 -0.027417483044647188 0.0010221310576190117 0 -0.027338102697074568 0.0013270390293862475 0 -0.02759910050081341 0.0014357052616495415 0 -0.027656842674990152 0.0011803581173775611 0 -0.02759910050081341 0.0014357052616495415 0 -0.027307915683051798 0.001573545448354819 0 -0.027577020978140188 0.001641178432873132 0 -0.027338102697074568 0.0013270390293862475 0 -0.02759910050081341 0.0014357052616495415 0 -0.027307915683051798 0.001573545448354819 0 -0.027084577392783513 0.001437171657083861 0 -0.027338102697074568 0.0013270390293862475 0 -0.027307915683051798 0.001573545448354819 0 -0.027577020978140188 0.001641178432873132 0 -0.027441550496691947 0.001822223321470171 0 -0.027790424822573077 0.0017144781782412787 0 -0.027307915683051798 0.001573545448354819 0 -0.027577020978140188 0.001641178432873132 0 -0.027441550496691947 0.001822223321470171 0 -0.023615403152586509 -0.00117066053167894 0 -0.024299365440167392 -0.00083720361288201577 0 -0.023582928681389944 -0.0017689462771358847 0 -0.023615403152586509 -0.00117066053167894 0 -0.023582928681389944 -0.0017689462771358847 0 -0.023238326242336602 -0.001327823781106009 0 -0.022984612673240645 -0.0012543611785580428 0 -0.023238326242336602 -0.001327823781106009 0 -0.023133721750245771 -0.0015388331907985795 0 -0.025582139815768814 -0.00015048816463209406 0 -0.023647150796379541 -0.00065055282068279764 0 -0.023582928681389944 -0.0017689462771358847 0 -0.023238326242336602 -0.001327823781106009 0 -0.023133721750245771 -0.0015388331907985795 0 -0.025582139815768814 -0.00015048816463209406 0 -0.028211329618536736 0.0012053243527742152 0 -0.026622443559252446 0.00030092429011080321 0 -0.027522004751869489 0.00060320524579856119 0 -0.027617887032526444 0.00030372838862338186 0 -0.027441550496691947 0.001822223321470171 0 -0.027790424822573077 0.0017144781782412787 0 -0.028218544292566369 0.0018113685569245519 0 -0.024299365440167392 -0.00083720361288201577 0 -0.023582928681389944 -0.0017689462771358847 0 -0.025647424903657498 -0.0013162106858392066 0 -0.025582139815768814 -0.00015048816463209406 0 -0.026473140702368992 -0.00042940035561977275 0 -0.027577020978140188 0.001641178432873132 0 -0.027790424822573077 0.0017144781782412787 0 -0.027831106100380761 0.0015324980205862573 0 -0.027790424822573077 0.0017144781782412787 0 -0.028011639408278964 0.0016163278835330734 0 -0.027831106100380761 0.0015324980205862573 0 -0.027790424822573077 0.0017144781782412787 0 -0.028011639408278964 0.0016163278835330734 0 -0.028218544292566369 0.0018113685569245519 0 -0.028011639408278964 0.0016163278835330734 0 -0.028027496356541802 0.0014828474204739543 0 -0.028191180135736196 0.001542257635094322 0 -0.028011639408278964 0.0016163278835330734 0 -0.028027496356541802 0.0014828474204739543 0 -0.027831106100380761 0.0015324980205862573 0 -0.028027496356541802 0.0014828474204739543 0 -0.027831106100380761 0.0015324980205862573 0 -0.027811264970666712 0.0013394615085618143 0 -0.02759910050081341 0.0014357052616495415 0 -0.027577020978140188 0.001641178432873132 0 -0.027831106100380761 0.0015324980205862573 0 -0.02759910050081341 0.0014357052616495415 0 -0.027831106100380761 0.0015324980205862573 0 -0.027811264970666712 0.0013394615085618143 0 -0.02759910050081341 0.0014357052616495415 0 -0.027656842674990152 0.0011803581173775611 0 -0.027811264970666712 0.0013394615085618143 0 -0.027656842674990152 0.0011803581173775611 0 -0.027811264970666712 0.0013394615085618143 0 -0.027904033149803595 0.0011308228421289569 0 -0.028036355517016779 0.0012808841329064722 0 -0.027904033149803595 0.0011308228421289569 0 -0.028225836396175576 0.0011515203558562621 0 -0.028027496356541802 0.0014828474204739543 0 -0.028036355517016779 0.0012808841329064722 0 -0.02817268235959914 0.0013775123910952823 0 -0.028027496356541802 0.0014828474204739543 0 -0.027811264970666712 0.0013394615085618143 0 -0.028036355517016779 0.0012808841329064722 0 -0.027811264970666712 0.0013394615085618143 0 -0.028036355517016779 0.0012808841329064722 0 -0.027904033149803595 0.0011308228421289569 0 -0.027904033149803595 0.0011308228421289569 0 -0.027952280837451909 0.00089460337629003765 0 -0.028262730352947144 0.0011599446960459119 0 -0.029485404759532586 0.0016042208623775751 0 -0.027221904561395088 0.001073236602273575 0 -0.027870750057582848 0.0011997126026197108 0 -0.028856690784790789 0.0014366500799979241 0 -0.027656842674990152 0.0011803581173775611 0 -0.027952280837451909 0.00089460337629003765 0 -0.027417483044647188 0.0010221310576190117 0 -0.027656842674990152 0.0011803581173775611 0 -0.027904033149803595 0.0011308228421289569 0 -0.027952280837451909 0.00089460337629003765 0 -0.027338102697074568 0.0013270390293862475 0 -0.027417483044647188 0.0010221310576190117 0 -0.026924349557553764 0.0011502845960165021 0 -0.028117980993394069 0.00094830704582334546 0 -0.027514700292556881 0.0010669966236068319 0 -0.027623906546092956 0.00080936119635168738 0 -0.027514700292556881 0.0010669966236068319 0 -0.027310018809654509 0.00074960889529740839 0 -0.027623906546092956 0.00080936119635168738 0 -0.027558330406206807 0.00047366493873094844 0 -0.027212441719842193 0.00045889658720426631 0 -0.027040724837744362 3.9852637289740745e-05 0 -0.027310018809654509 0.00074960889529740839 0 -0.027558330406206807 0.00047366493873094844 0 -0.027212441719842193 0.00045889658720426631 0 -0.027310018809654509 0.00074960889529740839 0 -0.027623906546092956 0.00080936119635168738 0 -0.027558330406206807 0.00047366493873094844 0 -0.030629845585841222 0.0021497273248671624 0 -0.030621515327327615 0.0017262360045243415 0 -0.030288755110226304 0.0015966511413631414 0 -0.030629845585841222 0.0021497273248671624 0 -0.030932079113587616 0.0017928554179367617 0 -0.030621515327327615 0.0017262360045243415 0 -0.03130269403592336 0.0026558602881023873 0 -0.030629845585841222 0.0021497273248671624 0 -0.031250068501752389 0.0020947380623786769 0 -0.028117980993394069 0.00094830704582334546 0 -0.027623906546092956 0.00080936119635168738 0 -0.027558330406206807 0.00047366493873094844 0 -0.031250068501752389 0.0020947380623786769 0 -0.030932079113587616 0.0017928554179367617 0 -0.031599703004327205 0.0016640222245859293 0 -0.030629845585841222 0.0021497273248671624 0 -0.031250068501752389 0.0020947380623786769 0 -0.030932079113587616 0.0017928554179367617 0 -0.029485404759532586 0.0016042208623775751 0 -0.02912624761639138 0.0013418764462830668 0 -0.03130269403592336 0.0026558602881023873 0 -0.031250068501752389 0.0020947380623786769 0 -0.031721148465848621 0.0021600618634284949 0 -0.026697236431034197 0.00091019420043946984 0 -0.026932254890356718 0.00070551031678898427 0 -0.026425488873342368 0.00065119036093465212 0 -0.026507199287106077 0.0011307819627098732 0 -0.026697236431034197 0.00091019420043946984 0 -0.026425488873342368 0.00065119036093465212 0 -0.026507199287106077 0.0011307819627098732 0 -0.026697236431034197 0.00091019420043946984 0 -0.026924349557553764 0.0011502845960165021 0 -0.027514700292556881 0.0010669966236068319 0 -0.027310018809654509 0.00074960889529740839 0 -0.026924349557553764 0.0011502845960165021 0 -0.027221904561395088 0.001073236602273575 0 -0.027068312821050402 0.0011238497679936818 0 -0.026697236431034197 0.00091019420043946984 0 -0.026924349557553764 0.0011502845960165021 0 -0.026932254890356718 0.00070551031678898427 0 -0.027310018809654509 0.00074960889529740839 0 -0.026924349557553764 0.0011502845960165021 0 -0.026932254890356718 0.00070551031678898427 0 -0.027310018809654509 0.00074960889529740839 0 -0.027212441719842193 0.00045889658720426631 0 -0.026932254890356718 0.00070551031678898427 0 -0.027212441719842193 0.00045889658720426631 0 -0.026934954203815458 0.00034662191015287264 0 -0.027040724837744362 3.9852637289740745e-05 0 -0.027212441719842193 0.00045889658720426631 0 -0.026934954203815458 0.00034662191015287264 0 -0.026932254890356718 0.00070551031678898427 0 -0.026934954203815458 0.00034662191015287264 0 -0.026932254890356718 0.00070551031678898427 0 -0.026425488873342368 0.00065119036093465212 0 -0.027499331783773309 0.0015358581124307142 0 -0.028177721975454328 0.00084641619677892866 0 -0.026934954203815458 0.00034662191015287264 0 -0.026425488873342368 0.00065119036093465212 0 -0.026919965432588903 -6.7995838374454944e-05 0 -0.027851675059801264 0.0015954006988077439 0 -0.028032313084112123 0.0022147654354330681 0 -0.028208439762125302 0.0014371120984871377 0 -0.028032313084112123 0.0022147654354330681 0 -0.028208439762125302 0.0014371120984871377 0 -0.02889766142567754 0.0010373607617720523 0 -0.028025093110222998 0.0012298429743152462 0 -0.028208439762125302 0.0014371120984871377 0 -0.02835586709409214 0.0010018592750602082 0 -0.027806016078783823 0.00092927557313299183 0 -0.028119325872136915 0.00089961534677077885 0 -0.028025093110222998 0.0012298429743152462 0 -0.028119325872136915 0.00089961534677077885 0 -0.028025093110222998 0.0012298429743152462 0 -0.02835586709409214 0.0010018592750602082 0 -0.027851675059801264 0.0015954006988077439 0 -0.027806016078783823 0.00092927557313299183 0 -0.028025093110222998 0.0012298429743152462 0 -0.027851675059801264 0.0015954006988077439 0 -0.028025093110222998 0.0012298429743152462 0 -0.028208439762125302 0.0014371120984871377 0 -0.028208439762125302 0.0014371120984871377 0 -0.02835586709409214 0.0010018592750602082 0 -0.02889766142567754 0.0010373607617720523 0 -0.02835586709409214 0.0010018592750602082 0 -0.02889766142567754 0.0010373607617720523 0 -0.028298935421883102 0.0003999895976480592 0 -0.029543338732952652 0.0014079892721967995 0 -0.029715365946237377 0.00083513275723959854 0 -0.029200157278394454 0.00057574542768430953 0 -0.029234846216756892 0.0011756484817738268 0 -0.029543338732952652 0.0014079892721967995 0 -0.029200157278394454 0.00057574542768430953 0 -0.028177721975454328 0.00084641619677892866 0 -0.028257125152210589 0.00076794544982626014 0 -0.026934954203815458 0.00034662191015287264 0 -0.026919965432588903 -6.7995838374454944e-05 0 -0.027040724837744362 3.9852637289740745e-05 0 -0.029543338732952652 0.0014079892721967995 0 -0.030288755110226304 0.0015966511413631414 0 -0.030085951453138842 0.0012050515408970407 0 -0.029543338732952652 0.0014079892721967995 0 -0.029715365946237377 0.00083513275723959854 0 -0.030085951453138842 0.0012050515408970407 0 -0.029715365946237377 0.00083513275723959854 0 -0.029627910940242978 0.00021636581325828878 0 -0.030253537284005958 0.00073280098247374497 0 -0.029715365946237377 0.00083513275723959854 0 -0.029627910940242978 0.00021636581325828878 0 -0.029200157278394454 0.00057574542768430953 0 -0.029627910940242978 0.00021636581325828878 0 -0.029200157278394454 0.00057574542768430953 0 -0.028877288809362394 -8.6054792699902663e-06 0 -0.027760464347720754 0.0010632260291656549 0 -0.028267927113411122 -0.00038150659272379934 0 -0.027322595730051292 0.00080957508526159291 0 -0.02760102245589529 0.0012457991881069822 0 -0.028315450942131375 -0.00048563114891574018 0 -0.027806016078783823 0.00092927557313299183 0 -0.028298935421883102 0.0003999895976480592 0 -0.028315450942131375 -0.00048563114891574018 0 -0.029234846216756892 0.0011756484817738268 0 -0.029200157278394454 0.00057574542768430953 0 -0.028298935421883102 0.0003999895976480592 0 -0.028177721975454328 0.00084641619677892866 0 -0.028576512718417314 0.00066312073334374891 0 -0.029200157278394454 0.00057574542768430953 0 -0.028877288809362394 -8.6054792699902663e-06 0 -0.028298935421883102 0.0003999895976480592 0 -0.028877288809362394 -8.6054792699902663e-06 0 -0.028298935421883102 0.0003999895976480592 0 -0.028315450942131375 -0.00048563114891574018 0 -0.028119325872136915 0.00089961534677077885 0 -0.02835586709409214 0.0010018592750602082 0 -0.028298935421883102 0.0003999895976480592 0 -0.027806016078783823 0.00092927557313299183 0 -0.028119325872136915 0.00089961534677077885 0 -0.028298935421883102 0.0003999895976480592 0 -0.031353233896125515 0.001181247937685515 0 -0.032102736875651433 0.0015323742317937049 0 -0.031927575883961598 0.00045358538475518003 0 -0.031065730573314035 0.0017676036665154242 0 -0.031721456926734559 0.0016283355913366986 0 -0.031353233896125515 0.001181247937685515 0 -0.030932079113587616 0.0017928554179367617 0 -0.032102736875651433 0.0015323742317937049 0 -0.031353233896125515 0.001181247937685515 0 -0.03064051319230815 0.0013209009826033887 0 -0.031002097987648563 0.00069284723262528266 0 -0.031353233896125515 0.001181247937685515 0 -0.030932079113587616 0.0017928554179367617 0 -0.03064051319230815 0.0013209009826033887 0 -0.02912624761639138 0.0013418764462830668 0 -0.028257125152210589 0.00076794544982626014 0 -0.030932079113587616 0.0017928554179367617 0 -0.030621515327327615 0.0017262360045243415 0 -0.03064051319230815 0.0013209009826033887 0 -0.030629845585841222 0.0021497273248671624 0 -0.029543338732952652 0.0014079892721967995 0 -0.030288755110226304 0.0015966511413631414 0 -0.030621515327327615 0.0017262360045243415 0 -0.030288755110226304 0.0015966511413631414 0 -0.03064051319230815 0.0013209009826033887 0 -0.030288755110226304 0.0015966511413631414 0 -0.030085951453138842 0.0012050515408970407 0 -0.03064051319230815 0.0013209009826033887 0 -0.029715365946237377 0.00083513275723959854 0 -0.030085951453138842 0.0012050515408970407 0 -0.030253537284005958 0.00073280098247374497 0 -0.030085951453138842 0.0012050515408970407 0 -0.03064051319230815 0.0013209009826033887 0 -0.030253537284005958 0.00073280098247374497 0 -0.03064051319230815 0.0013209009826033887 0 -0.030253537284005958 0.00073280098247374497 0 -0.031002097987648563 0.00069284723262528266 0 -0.030253537284005958 0.00073280098247374497 0 -0.031002097987648563 0.00069284723262528266 0 -0.030738610839629244 -0.00039213047751998544 0 -0.029627910940242978 0.00021636581325828878 0 -0.030253537284005958 0.00073280098247374497 0 -0.030738610839629244 -0.00039213047751998544 0 -0.030799199667388512 -0.00034763854179855773 0 -0.032215264238625856 0.00053962012113573045 0 -0.031002097987648563 0.00069284723262528266 0 -0.030738610839629244 -0.00039213047751998544 0 -0.031927575883961598 0.00045358538475518003 0 -0.031353233896125515 0.001181247937685515 0 -0.031002097987648563 0.00069284723262528266 0 -0.031927575883961598 0.00045358538475518003 0 -0.030738610839629244 -0.00039213047751998544 0 -0.032247327173251301 -0.0013978804502913506 0 -0.03243977032620337 0.0006196478149218999 0 -0.030738610839629244 -0.00039213047751998544 0 -0.030657106354636324 -0.0015949938810019305 0 -0.032247327173251301 -0.0013978804502913506 0 -0.030738610839629244 -0.00039213047751998544 0 -0.030657106354636324 -0.0015949938810019305 0 -0.029344300085440971 -0.00076725503789495204 0 -0.030657106354636324 -0.0015949938810019305 0 -0.032247327173251301 -0.0013978804502913506 0 -0.030831924194690778 -0.0027732135234455162 0 -0.032247327173251301 -0.0013978804502913506 0 -0.032104577302838444 -0.0030936201127336293 0 -0.030831924194690778 -0.0027732135234455162 0 -0.032104577302838444 -0.0030936201127336293 0 -0.030831924194690778 -0.0027732135234455162 0 -0.031383098483285111 -0.0037022020833593653 0 -0.030657106354636324 -0.0015949938810019305 0 -0.030831924194690778 -0.0027732135234455162 0 -0.02969062455170603 -0.0027341665849894416 0 -0.030831924194690778 -0.0027732135234455162 0 -0.029797447635829873 -0.003531575234704082 0 -0.02969062455170603 -0.0027341665849894416 0 -0.030380849319605763 -0.0032607222202940983 0 -0.032027090534086151 -0.0036527698361060196 0 -0.030831924194690778 -0.0027732135234455162 0 -0.031383098483285111 -0.0037022020833593653 0 -0.030436277669410153 -0.0045332506889478961 0 -0.030831924194690778 -0.0027732135234455162 0 -0.029797447635829873 -0.003531575234704082 0 -0.030294633084245425 -0.0043963694230916882 0 -0.031383098483285111 -0.0037022020833593653 0 -0.032186288091817082 -0.0043957923312342769 0 -0.030436277669410153 -0.0045332506889478961 0 -0.034799598438324857 -0.0036012490790548364 0 -0.032027090534086151 -0.0036527698361060196 0 -0.032104577302838444 -0.0030936201127336293 0 -0.031383098483285111 -0.0037022020833593653 0 -0.032186288091817082 -0.0043957923312342769 0 -0.028639841010292256 -0.0040954582193414154 0 -0.028940681830572444 -0.003296007109179181 0 -0.027462848881207796 -0.0032707941687521889 0 -0.028639841010292256 -0.0040954582193414154 0 -0.028940681830572444 -0.003296007109179181 0 -0.029353736620287653 -0.0044001966052184304 0 -0.029797447635829873 -0.003531575234704082 0 -0.028940681830572444 -0.003296007109179181 0 -0.029353736620287653 -0.0044001966052184304 0 -0.029797447635829873 -0.003531575234704082 0 -0.030294633084245425 -0.0043963694230916882 0 -0.029353736620287653 -0.0044001966052184304 0 -0.029797447635829873 -0.003531575234704082 0 -0.02969062455170603 -0.0027341665849894416 0 -0.028940681830572444 -0.003296007109179181 0 -0.02969062455170603 -0.0027341665849894416 0 -0.028940681830572444 -0.003296007109179181 0 -0.028610276018207426 -0.0023242071942315575 0 -0.028940681830572444 -0.003296007109179181 0 -0.028610276018207426 -0.0023242071942315575 0 -0.027462848881207796 -0.0032707941687521889 0 -0.028610276018207426 -0.0023242071942315575 0 -0.02767607411623059 -0.0014273218149531556 0 -0.027462848881207796 -0.0032707941687521889 0 -0.028610276018207426 -0.0023242071942315575 0 -0.02870264528336261 -0.001366787361289861 0 -0.02767607411623059 -0.0014273218149531556 0 -0.028610276018207426 -0.0023242071942315575 0 -0.02870264528336261 -0.001366787361289861 0 -0.029479381830218112 -0.0018019819955755508 0 -0.030657106354636324 -0.0015949938810019305 0 -0.02969062455170603 -0.0027341665849894416 0 -0.029479381830218112 -0.0018019819955755508 0 -0.030657106354636324 -0.0015949938810019305 0 -0.029479381830218112 -0.0018019819955755508 0 -0.029344300085440971 -0.00076725503789495204 0 -0.02969062455170603 -0.0027341665849894416 0 -0.028610276018207426 -0.0023242071942315575 0 -0.029479381830218112 -0.0018019819955755508 0 -0.02870264528336261 -0.001366787361289861 0 -0.029479381830218112 -0.0018019819955755508 0 -0.029344300085440971 -0.00076725503789495204 0 -0.029627910940242978 0.00021636581325828878 0 -0.030738610839629244 -0.00039213047751998544 0 -0.029344300085440971 -0.00076725503789495204 0 -0.029627910940242978 0.00021636581325828878 0 -0.028877288809362394 -8.6054792699902663e-06 0 -0.029344300085440971 -0.00076725503789495204 0 -0.027322595730051292 0.00080957508526159291 0 -0.02767607411623059 -0.0014273218149531556 0 -0.028315450942131375 -0.00048563114891574018 0 -0.02870264528336261 -0.001366787361289861 0 -0.02767607411623059 -0.0014273218149531556 0 -0.028315450942131375 -0.00048563114891574018 0 -0.02870264528336261 -0.001366787361289861 0 -0.029344300085440971 -0.00076725503789495204 0 -0.028315450942131375 -0.00048563114891574018 0 -0.028877288809362394 -8.6054792699902663e-06 0 -0.029344300085440971 -0.00076725503789495204 0 -0.028315450942131375 -0.00048563114891574018 0 -0.026769066312528272 0.00028700101787583406 0 -0.026494527062227949 -0.00028870735199939694 0 -0.02767607411623059 -0.0014273218149531556 0 -0.026494527062227949 -0.00028870735199939694 0 -0.02767607411623059 -0.0014273218149531556 0 -0.026038572530665105 -0.00078619120789091054 0 -0.027057618056017425 0.00055608220462495886 0 -0.027624830847799042 -0.0013891339442032814 0 -0.02767607411623059 -0.0014273218149531556 0 -0.026038572530665105 -0.00078619120789091054 0 -0.026184311350852318 -0.0019446531157621871 0 -0.024751835125586517 -0.00012152409182777459 0 -0.026038572530665105 -0.00078619120789091054 0 -0.024722262881780591 -0.0010034255139690998 0 -0.026038572530665105 -0.00078619120789091054 0 -0.025498934106728474 -0.0014215191317956434 0 -0.026184311350852318 -0.0019446531157621871 0 -0.026038572530665105 -0.00078619120789091054 0 -0.025498934106728474 -0.0014215191317956434 0 -0.024722262881780591 -0.0010034255139690998 0 -0.025498934106728474 -0.0014215191317956434 0 -0.026184311350852318 -0.0019446531157621871 0 -0.025046589932634741 -0.0019825932592127966 0 -0.026184311350852318 -0.0019446531157621871 0 -0.025046589932634741 -0.0019825932592127966 0 -0.025191984132180125 -0.0030882975799932212 0 -0.02767607411623059 -0.0014273218149531556 0 -0.026184311350852318 -0.0019446531157621871 0 -0.027462848881207796 -0.0032707941687521889 0 -0.022406126439683798 2.4190940701171965e-05 0 -0.023728119597763785 -0.00039599014644782531 0 -0.023091206703056869 -0.0011498297293580395 0 -0.023728119597763785 -0.00039599014644782531 0 -0.023091206703056869 -0.0011498297293580395 0 -0.024722262881780591 -0.0010034255139690998 0 -0.023728119597763785 -0.00039599014644782531 0 -0.024751835125586517 -0.00012152409182777459 0 -0.024722262881780591 -0.0010034255139690998 0 -0.025046589932634741 -0.0019825932592127966 0 -0.023719429734939346 -0.002384329522557536 0 -0.025191984132180125 -0.0030882975799932212 0 -0.024722262881780591 -0.0010034255139690998 0 -0.025046589932634741 -0.0019825932592127966 0 -0.023719429734939346 -0.002384329522557536 0 -0.025498934106728474 -0.0014215191317956434 0 -0.024722262881780591 -0.0010034255139690998 0 -0.025046589932634741 -0.0019825932592127966 0 -0.023091206703056869 -0.0011498297293580395 0 -0.024722262881780591 -0.0010034255139690998 0 -0.023719429734939346 -0.002384329522557536 0 -0.023091206703056869 -0.0011498297293580395 0 -0.023719429734939346 -0.002384329522557536 0 -0.022308755266989312 -0.002345453778767599 0 -0.023719429734939346 -0.002384329522557536 0 -0.024108357302733415 -0.0039984984199632652 0 -0.02291594312404167 -0.0040003775078247279 0 -0.023719429734939346 -0.002384329522557536 0 -0.022308755266989312 -0.002345453778767599 0 -0.02291594312404167 -0.0040003775078247279 0 -0.023719429734939346 -0.002384329522557536 0 -0.025191984132180125 -0.0030882975799932212 0 -0.024108357302733415 -0.0039984984199632652 0 -0.025191984132180125 -0.0030882975799932212 0 -0.024108357302733415 -0.0039984984199632652 0 -0.025818392919020629 -0.0051544470563018429 0 -0.024108357302733415 -0.0039984984199632652 0 -0.025818392919020629 -0.0051544470563018429 0 -0.024160434088214673 -0.0054003353797432152 0 -0.024108357302733415 -0.0039984984199632652 0 -0.02306284829141933 -0.0051118591939406845 0 -0.02291594312404167 -0.0040003775078247279 0 -0.028639841010292256 -0.0040954582193414154 0 -0.027462848881207796 -0.0032707941687521889 0 -0.027239321682716741 -0.0044276106519189245 0 -0.026184311350852318 -0.0019446531157621871 0 -0.025191984132180125 -0.0030882975799932212 0 -0.027462848881207796 -0.0032707941687521889 0 -0.025191984132180125 -0.0030882975799932212 0 -0.027462848881207796 -0.0032707941687521889 0 -0.025818392919020629 -0.0051544470563018429 0 -0.027433905954934574 -0.0033528081183041799 0 -0.026584759963782872 -0.0046821182467489909 0 -0.028646385782549317 -0.0047687115699844556 0 -0.027239321682716741 -0.0044276106519189245 0 -0.027572350312000667 -0.0050529527940613057 0 -0.028639841010292256 -0.0040954582193414154 0 -0.028646385782549317 -0.0047687115699844556 0 -0.027239321682716741 -0.0044276106519189245 0 -0.027239321682716741 -0.0044276106519189245 0 -0.027572350312000667 -0.0050529527940613057 0 -0.0271962126281492 -0.0055378015337847744 0 -0.027239321682716741 -0.0044276106519189245 0 -0.0271962126281492 -0.0055378015337847744 0 -0.026551545186470064 -0.005605164284526171 0 -0.027572350312000667 -0.0050529527940613057 0 -0.0271962126281492 -0.0055378015337847744 0 -0.027584251426804113 -0.0056863391150275772 0 -0.0271962126281492 -0.0055378015337847744 0 -0.027584251426804113 -0.0056863391150275772 0 -0.027197542277368217 -0.0057577938242051076 0 -0.028646385782549317 -0.0047687115699844556 0 -0.027572350312000667 -0.0050529527940613057 0 -0.027584251426804113 -0.0056863391150275772 0 -0.0287185715503799 -0.0047934312300633173 0 -0.028750859778752396 -0.0050546037373658511 0 -0.028646385782549317 -0.0047687115699844556 0 -0.029898843242580783 -0.0045871907511674664 0 -0.029217384770087656 -0.0045718646455750458 0 -0.024108357302733415 -0.0039984984199632652 0 -0.02306284829141933 -0.0051118591939406845 0 -0.024160434088214673 -0.0054003353797432152 0 -0.02306284829141933 -0.0051118591939406845 0 -0.024160434088214673 -0.0054003353797432152 0 -0.023450145935034035 -0.0061802739919251427 0 -0.026584759963782872 -0.0046821182467489909 0 -0.025362653081984286 -0.0064693774918158911 0 -0.025818392919020629 -0.0051544470563018429 0 -0.024160434088214673 -0.0054003353797432152 0 -0.024495222444311588 -0.0067645591620932146 0 -0.0271962126281492 -0.0055378015337847744 0 -0.026551545186470064 -0.005605164284526171 0 -0.026484142998324446 -0.0061762101452426804 0 -0.024160434088214673 -0.0054003353797432152 0 -0.024495222444311588 -0.0067645591620932146 0 -0.023450145935034035 -0.0061802739919251427 0 -0.024495222444311588 -0.0067645591620932146 0 -0.023450145935034035 -0.0061802739919251427 0 -0.023485730194999169 -0.0070766338137515294 0 -0.023450145935034035 -0.0061802739919251427 0 -0.023485730194999169 -0.0070766338137515294 0 -0.022684847497096303 -0.0069852446151400429 0 -0.026551545186470064 -0.005605164284526171 0 -0.026484142998324446 -0.0061762101452426804 0 -0.025740045782963822 -0.0067114110777645453 0 -0.024495222444311588 -0.0067645591620932146 0 -0.023485730194999169 -0.0070766338137515294 0 -0.023311472643591107 -0.0083583679775814552 0 -0.023485730194999169 -0.0070766338137515294 0 -0.023311472643591107 -0.0083583679775814552 0 -0.022684847497096303 -0.0069852446151400429 0 -0.025362653081984286 -0.0064693774918158911 0 -0.025145406489747991 -0.006240517259511442 0 -0.027015887835028975 -0.0058475490648769567 0 -0.027014597477354164 -0.0059287844037620042 0 -0.026962986656878678 -0.0059489344734151659 0 -0.026762143807260587 -0.0060317131025895447 0 -0.026041920158303901 -0.0058135670771346298 0 -0.027015887835028975 -0.0058475490648769567 0 -0.027095173173345848 -0.0059512254936924473 0 -0.027014597477354164 -0.0059287844037620042 0 -0.0271962126281492 -0.0055378015337847744 0 -0.027015887835028975 -0.0058475490648769567 0 -0.027197542277368217 -0.0057577938242051076 0 -0.027171145343194099 -0.0055763612354968826 0 -0.026762143807260587 -0.0060317131025895447 0 -0.027015887835028975 -0.0058475490648769567 0 -0.027095173173345848 -0.0059512254936924473 0 -0.027197542277368217 -0.0057577938242051076 0 -0.028817375142788731 -0.0051102257245121182 0 -0.028755607686085555 -0.0040942324677958244 0 -0.027095173173345848 -0.0059512254936924473 0 -0.027009224143413352 -0.0059563701244378688 0 -0.026995934420262154 -0.005989750342177802 0 -0.030550277686570395 -0.0040508362237707627 0 -0.030639170202105576 -0.0037186240350281694 0 -0.030882523013910226 -0.0036078638990527435 0 -0.030550277686570395 -0.0040508362237707627 0 -0.030520833687251413 -0.0037236960669617615 0 -0.030639170202105576 -0.0037186240350281694 0 -0.027095173173345848 -0.0059512254936924473 0 -0.027014597477354164 -0.0059287844037620042 0 -0.027009224143413352 -0.0059563701244378688 0 -0.026484142998324446 -0.0061762101452426804 0 -0.025780056342255737 -0.006803590970910719 0 -0.025740045782963822 -0.0067114110777645453 0 -0.027014597477354164 -0.0059287844037620042 0 -0.027009224143413352 -0.0059563701244378688 0 -0.026962986656878678 -0.0059489344734151659 0 -0.026041920158303901 -0.0058135670771346298 0 -0.028755607686085555 -0.0040942324677958244 0 -0.027009224143413352 -0.0059563701244378688 0 -0.026962986656878678 -0.0059489344734151659 0 -0.026995934420262154 -0.005989750342177802 0 -0.027688573218616487 -0.0041601317956585617 0 -0.027610761992711726 -0.0045853941143750281 0 -0.027899973177294632 -0.0043191552387706941 0 -0.027688573218616487 -0.0041601317956585617 0 -0.027610761992711726 -0.0045853941143750281 0 -0.027357934105570064 -0.0039658023225187401 0 -0.026041920158303901 -0.0058135670771346298 0 -0.02683117609167026 -0.0037582649685925394 0 -0.025145406489747991 -0.006240517259511442 0 -0.02683117609167026 -0.0037582649685925394 0 -0.025229924121820079 -0.0054322000999845674 0 -0.025422696475879317 -0.005882404982610342 0 -0.026756351201705931 -0.0040299358551358477 0 -0.026041920158303901 -0.0058135670771346298 0 -0.025145406489747991 -0.006240517259511442 0 -0.029898843242580783 -0.0045871907511674664 0 -0.029723414571942011 -0.0042844672264809617 0 -0.029217384770087656 -0.0045718646455750458 0 -0.029723414571942011 -0.0042844672264809617 0 -0.029556088876208936 -0.0041531140327863252 0 -0.029217384770087656 -0.0045718646455750458 0 -0.029723414571942011 -0.0042844672264809617 0 -0.030072886682363718 -0.0041428414538818492 0 -0.029914389728302619 -0.0040055146414227239 0 -0.029723414571942011 -0.0042844672264809617 0 -0.029914389728302619 -0.0040055146414227239 0 -0.029556088876208936 -0.0041531140327863252 0 -0.029898843242580783 -0.0045871907511674664 0 -0.029723414571942011 -0.0042844672264809617 0 -0.030072886682363718 -0.0041428414538818492 0 -0.028750859778752396 -0.0050546037373658511 0 -0.028817375142788731 -0.0051102257245121182 0 -0.029898843242580783 -0.0045871907511674664 0 -0.030550277686570395 -0.0040508362237707627 0 -0.030072886682363718 -0.0041428414538818492 0 -0.027584251426804113 -0.0056863391150275772 0 -0.027095173173345848 -0.0059512254936924473 0 -0.027197542277368217 -0.0057577938242051076 0 -0.030072886682363718 -0.0041428414538818492 0 -0.030264524873701296 -0.0038175190111157378 0 -0.029914389728302619 -0.0040055146414227239 0 -0.030550277686570395 -0.0040508362237707627 0 -0.030072886682363718 -0.0041428414538818492 0 -0.030264524873701296 -0.0038175190111157378 0 -0.030550277686570395 -0.0040508362237707627 0 -0.030520833687251413 -0.0037236960669617615 0 -0.030264524873701296 -0.0038175190111157378 0 -0.030520833687251413 -0.0037236960669617615 0 -0.030264524873701296 -0.0038175190111157378 0 -0.030441483165533623 -0.0035990399738751217 0 -0.030264524873701296 -0.0038175190111157378 0 -0.029914389728302619 -0.0040055146414227239 0 -0.030072317947997772 -0.003696924646537062 0 -0.029914389728302619 -0.0040055146414227239 0 -0.029797701638446059 -0.0038766950145902586 0 -0.029556088876208936 -0.0041531140327863252 0 -0.029914389728302619 -0.0040055146414227239 0 -0.029797701638446059 -0.0038766950145902586 0 -0.030072317947997772 -0.003696924646537062 0 -0.029797701638446059 -0.0038766950145902586 0 -0.029566524836810059 -0.0038930915862436274 0 -0.029890786370973189 -0.0036433057059062318 0 -0.029566524836810059 -0.0038930915862436274 0 -0.029450091828305599 -0.0040982328177554912 0 -0.029265641180663653 -0.0040686398093261892 0 -0.029566524836810059 -0.0038930915862436274 0 -0.029450091828305599 -0.0040982328177554912 0 -0.029556088876208936 -0.0041531140327863252 0 -0.029797701638446059 -0.0038766950145902586 0 -0.029566524836810059 -0.0038930915862436274 0 -0.029556088876208936 -0.0041531140327863252 0 -0.029556088876208936 -0.0041531140327863252 0 -0.029387378685004122 -0.004270792533015968 0 -0.029217384770087656 -0.0045718646455750458 0 -0.029450091828305599 -0.0040982328177554912 0 -0.029556088876208936 -0.0041531140327863252 0 -0.029387378685004122 -0.004270792533015968 0 -0.029152660129218893 -0.0042895927792246883 0 -0.029313557988251762 -0.0045921305820167992 0 -0.029101164651185975 -0.0045977608371158109 0 -0.029217384770087656 -0.0045718646455750458 0 -0.029101376923817063 -0.0046700371094083428 0 -0.029101164651185975 -0.0045977608371158109 0 -0.029041535316392721 -0.0045681273231844609 0 -0.029101376923817063 -0.0046700371094083428 0 -0.031609392135461462 -0.0043121265530320354 0 -0.033106322447693161 -0.0039489729459032345 0 -0.036134813896575621 -0.0036591672087162102 0 -0.03641113467312649 -0.0035069029213508386 0 -0.036352999541315933 -0.0030992619744191867 0 -0.029450091828305599 -0.0040982328177554912 0 -0.029387378685004122 -0.004270792533015968 0 -0.029265641180663653 -0.0040686398093261892 0 -0.029101164651185975 -0.0045977608371158109 0 -0.029041535316392721 -0.0045681273231844609 0 -0.029051917808755896 -0.0045413604046742736 0 -0.029152660129218893 -0.0042895927792246883 0 -0.031175438891277947 -0.003767887254330137 0 -0.036134813896575621 -0.0036591672087162102 0 -0.036232532298137811 -0.003920149162474084 0 -0.03641113467312649 -0.0035069029213508386 0 -0.031609392135461462 -0.0043121265530320354 0 -0.031175438891277947 -0.003767887254330137 0 -0.029566524836810059 -0.0038930915862436274 0 -0.029265641180663653 -0.0040686398093261892 0 -0.029416363430030103 -0.0037218631102232018 0 -0.031609392135461462 -0.0043121265530320354 0 -0.034575531114761554 -0.0035230687938420636 0 -0.032769915107225711 -0.0035805239557909411 0 -0.032735251974139394 -0.0037320717600272343 0 -0.032904645947925741 -0.0038736811965601856 0 -0.031175438891277947 -0.003767887254330137 0 -0.031078235814828888 -0.0032365840132224225 0 -0.032488239512355889 -0.0037461808730513257 0 -0.032143443884089351 -0.0032818756710812171 0 -0.032805170227904197 -0.0024729806209069509 0 -0.032488239512355889 -0.0037461808730513257 0 -0.03210203909143048 -0.0033957968740369695 0 -0.032143443884089351 -0.0032818756710812171 0 -0.031175438891277947 -0.003767887254330137 0 -0.034575531114761554 -0.0035230687938420636 0 -0.034575531114761554 -0.0035230687938420636 0 -0.034431051467393406 -0.0030200480144666093 0 -0.036403770918475097 -0.0034864506479337226 0 -0.036640478498350261 -0.0034692405480132075 0 -0.036624077781576114 -0.0036853987371602984 0 -0.035842249997531855 -0.00218223791237783 0 -0.035861214245575077 -0.0021310656886433534 0 -0.035355374634544891 -0.0017264439272706913 0 -0.036403770918475097 -0.0034864506479337226 0 -0.036640478498350261 -0.0034692405480132075 0 -0.036537987442633764 -0.0033850088061803635 0 -0.034575531114761554 -0.0035230687938420636 0 -0.036783364594681102 -0.0018966545822277105 0 -0.036640478498350261 -0.0034692405480132075 0 -0.036537987442633764 -0.0033850088061803635 0 -0.036635381204816519 -0.0033193583312957162 0 -0.037045981035570899 -0.0036525375279851677 0 -0.036783364594681102 -0.0018966545822277105 0 -0.036640478498350261 -0.0034692405480132075 0 -0.036910099100222679 -0.0035608209889698124 0 -0.03680236658734462 -0.0033728859362617734 0 -0.036640478498350261 -0.0034692405480132075 0 -0.036910099100222679 -0.0035608209889698124 0 -0.036624077781576114 -0.0036853987371602984 0 -0.036910099100222679 -0.0035608209889698124 0 -0.03680236658734462 -0.0033728859362617734 0 -0.036987027639981539 -0.0032593295280565005 0 -0.03680236658734462 -0.0033728859362617734 0 -0.036787319207007729 -0.0032223728935085036 0 -0.036987027639981539 -0.0032593295280565005 0 -0.03680236658734462 -0.0033728859362617734 0 -0.036787319207007729 -0.0032223728935085036 0 -0.036635381204816519 -0.0033193583312957162 0 -0.036640478498350261 -0.0034692405480132075 0 -0.03680236658734462 -0.0033728859362617734 0 -0.036635381204816519 -0.0033193583312957162 0 -0.036787319207007729 -0.0032223728935085036 0 -0.036635381204816519 -0.0033193583312957162 0 -0.036636653028275248 -0.0032096182820066481 0 -0.036787319207007729 -0.0032223728935085036 0 -0.036951918813123215 -0.0030706664761973646 0 -0.036987027639981539 -0.0032593295280565005 0 -0.036403770918475097 -0.0034864506479337226 0 -0.036537987442633764 -0.0033850088061803635 0 -0.036501832686373532 -0.0032718375493675312 0 -0.034575531114761554 -0.0035230687938420636 0 -0.036442304845827403 -0.0033051364997719844 0 -0.036537987442633764 -0.0033850088061803635 0 -0.036635381204816519 -0.0033193583312957162 0 -0.036501832686373532 -0.0032718375493675312 0 -0.036636653028275248 -0.0032096182820066481 0 -0.036501832686373532 -0.0032718375493675312 0 -0.036562146245445112 -0.0031123584314836708 0 -0.036635381204816519 -0.0033193583312957162 0 -0.036636653028275248 -0.0032096182820066481 0 -0.036501832686373532 -0.0032718375493675312 0 -0.036442304845827403 -0.0033051364997719844 0 -0.036538398073951817 -0.0031673827864412982 0 -0.03641113467312649 -0.0035069029213508386 0 -0.036562146245445112 -0.0031123584314836708 0 -0.036352999541315933 -0.0030992619744191867 0 -0.036636653028275248 -0.0032096182820066481 0 -0.036562146245445112 -0.0031123584314836708 0 -0.036726563704871623 -0.003102541223804755 0 -0.036562146245445112 -0.0031123584314836708 0 -0.036726563704871623 -0.003102541223804755 0 -0.036643433520215866 -0.0029603452937278095 0 -0.036562146245445112 -0.0031123584314836708 0 -0.036643433520215866 -0.0029603452937278095 0 -0.036352999541315933 -0.0030992619744191867 0 -0.036787319207007729 -0.0032223728935085036 0 -0.036726563704871623 -0.003102541223804755 0 -0.036951918813123215 -0.0030706664761973646 0 -0.036787319207007729 -0.0032223728935085036 0 -0.036636653028275248 -0.0032096182820066481 0 -0.036726563704871623 -0.003102541223804755 0 -0.036726563704871623 -0.003102541223804755 0 -0.036819102131583251 -0.0030057559724098425 0 -0.036643433520215866 -0.0029603452937278095 0 -0.036726563704871623 -0.003102541223804755 0 -0.036819102131583251 -0.0030057559724098425 0 -0.036951918813123215 -0.0030706664761973646 0 -0.036846134967542465 -0.0028399101118909758 0 -0.036819102131583251 -0.0030057559724098425 0 -0.036950276431085831 -0.0029730709337182312 0 -0.036846134967542465 -0.0028399101118909758 0 -0.036643433520215866 -0.0029603452937278095 0 -0.036483024322261533 -0.0027923794251182303 0 -0.036846134967542465 -0.0028399101118909758 0 -0.036819102131583251 -0.0030057559724098425 0 -0.036643433520215866 -0.0029603452937278095 0 -0.032027090534086151 -0.0036527698361060196 0 -0.033106322447693161 -0.0039489729459032345 0 -0.036643433520215866 -0.0029603452937278095 0 -0.036483024322261533 -0.0027923794251182303 0 -0.036352999541315933 -0.0030992619744191867 0 -0.029639193232742007 -0.0043571997298248151 0 -0.029346757456889663 -0.0045851617561222663 0 -0.029494685968146219 -0.0048442264605701229 0 -0.029639193232742007 -0.0043571997298248151 0 -0.029346757456889663 -0.0045851617561222663 0 -0.029353736620287653 -0.0044001966052184304 0 -0.032027090534086151 -0.0036527698361060196 0 -0.028909590791272703 -0.0043727405579133153 0 -0.029346757456889663 -0.0045851617561222663 0 -0.028937998265630517 -0.0045834472967822056 0 -0.029101859387580521 -0.0047336426911478418 0 -0.029346757456889663 -0.0045851617561222663 0 -0.029353736620287653 -0.0044001966052184304 0 -0.028937998265630517 -0.0045834472967822056 0 -0.028646385782549317 -0.0047687115699844556 0 -0.028937998265630517 -0.0045834472967822056 0 -0.029101859387580521 -0.0047336426911478418 0 -0.028639841010292256 -0.0040954582193414154 0 -0.029353736620287653 -0.0044001966052184304 0 -0.028937998265630517 -0.0045834472967822056 0 -0.028639841010292256 -0.0040954582193414154 0 -0.028646385782549317 -0.0047687115699844556 0 -0.028937998265630517 -0.0045834472967822056 0 -0.028646385782549317 -0.0047687115699844556 0 -0.029217384770087656 -0.0045718646455750458 0 -0.029101376923817063 -0.0046700371094083428 0 -0.028646385782549317 -0.0047687115699844556 0 -0.029101376923817063 -0.0046700371094083428 0 -0.029101859387580521 -0.0047336426911478418 0 -0.029041535316392721 -0.0045681273231844609 0 -0.029101376923817063 -0.0046700371094083428 0 -0.029101859387580521 -0.0047336426911478418 0 -0.029378367372944914 -0.0054140118433322424 0 -0.029494685968146219 -0.0048442264605701229 0 -0.029101859387580521 -0.0047336426911478418 0 -0.031609392135461462 -0.0043121265530320354 0 -0.028512528828303931 -0.0048993517891394341 0 -0.029346757456889663 -0.0045851617561222663 0 -0.029494685968146219 -0.0048442264605701229 0 -0.029101859387580521 -0.0047336426911478418 0 -0.019382753178275845 -0.00012216328039395212 0 -0.019335860914462297 -0.00027431456239395736 0 -0.01935295969774466 -0.00036022849515010259 0 -0.018883654526796204 -0.00012003525588560625 0 -0.021344221139641878 -0.0002022887408354185 0 -0.019382753178275845 -0.00012216328039395212 0 -0.020806231669957261 6.2703460832967732e-05 0 -0.020354126206855172 -0.00043529028648472523 0 -0.019335860914462297 -0.00027431456239395736 0 -0.01935295969774466 -0.00036022849515010259 0 -0.019355756408019783 -0.00036365413824908447 0 -0.019335860914462297 -0.00027431456239395736 0 -0.019355756408019783 -0.00036365413824908447 0 -0.019366396927088577 -0.00032056641107292889 0 -0.021344221139641878 -0.0002022887408354185 0 -0.022657367837774552 -0.00090882941078945995 0 -0.019359905358870853 -0.00038441613335050745 0 -0.019435220623739379 -0.00037424458762889517 0 -0.019710556445480136 -0.00062214295410242533 0 -0.019359905358870853 -0.00038441613335050745 0 -0.019355756408019783 -0.00036365413824908447 0 -0.019435220623739379 -0.00037424458762889517 0 -0.021344221139641878 -0.0002022887408354185 0 -0.021303358061067573 -0.00020956765785319216 0 -0.019355756408019783 -0.00036365413824908447 0 -0.019366396927088577 -0.00032056641107292889 0 -0.019435220623739379 -0.00037424458762889517 0 -0.019366396927088577 -0.00032056641107292889 0 -0.019435220623739379 -0.00037424458762889517 0 -0.019356568677571323 -0.00026540525224687223 0 -0.019435220623739379 -0.00037424458762889517 0 -0.019499017397395367 -0.00031298500202304612 0 -0.019356568677571323 -0.00026540525224687223 0 -0.019258414857406175 -0.00014550465782572325 0 -0.019335860914462297 -0.00027431456239395736 0 -0.019356568677571323 -0.00026540525224687223 0 -0.019258414857406175 -0.00014550465782572325 0 -0.019356568677571323 -0.00026540525224687223 0 -0.019261402310524485 -0.0001130736025023297 0 -0.019335860914462297 -0.00027431456239395736 0 -0.019366396927088577 -0.00032056641107292889 0 -0.019356568677571323 -0.00026540525224687223 0 -0.019137325822205887 -1.6483250995810187e-05 0 -0.019258414857406175 -0.00014550465782572325 0 -0.019261402310524485 -0.0001130736025023297 0 -0.019063953215546093 5.1586054679221936e-05 0 -0.019184250856586784 7.6854272486607476e-05 0 -0.019261402310524485 -0.0001130736025023297 0 -0.019184250856586784 7.6854272486607476e-05 0 -0.019261402310524485 -0.0001130736025023297 0 -0.019488117422441369 -0.00011537545697758864 0 -0.019499017397395367 -0.00031298500202304612 0 -0.019261402310524485 -0.0001130736025023297 0 -0.019488117422441369 -0.00011537545697758864 0 -0.019499017397395367 -0.00031298500202304612 0 -0.019356568677571323 -0.00026540525224687223 0 -0.019261402310524485 -0.0001130736025023297 0 -0.019499017397395367 -0.00031298500202304612 0 -0.019488117422441369 -0.00011537545697758864 0 -0.019783858009430749 -0.00041930455204399381 0 -0.019702761443031055 5.5728900979701083e-05 0 -0.019799212590777573 -0.0002134978775108436 0 -0.020029172717620551 -0.00019782520987139917 0 -0.019702761443031055 5.5728900979701083e-05 0 -0.019488117422441369 -0.00011537545697758864 0 -0.019799212590777573 -0.0002134978775108436 0 -0.019799212590777573 -0.0002134978775108436 0 -0.019783858009430749 -0.00041930455204399381 0 -0.020079226160425134 -0.0004803935379366861 0 -0.019488117422441369 -0.00011537545697758864 0 -0.019799212590777573 -0.0002134978775108436 0 -0.019783858009430749 -0.00041930455204399381 0 -0.019783858009430749 -0.00041930455204399381 0 -0.019710556445480136 -0.00062214295410242533 0 -0.020104963689899412 -0.00073676301274308359 0 -0.019499017397395367 -0.00031298500202304612 0 -0.019783858009430749 -0.00041930455204399381 0 -0.019710556445480136 -0.00062214295410242533 0 -0.019435220623739379 -0.00037424458762889517 0 -0.019499017397395367 -0.00031298500202304612 0 -0.019710556445480136 -0.00062214295410242533 0 -0.02528100312364822 -0.0010370047955208918 0 -0.025374956103124315 -0.0011707526085948817 0 -0.02517847634362843 -0.0011437443228763027 0 -0.024833406620691695 -0.00096048165750287952 0 -0.02528100312364822 -0.0010370047955208918 0 -0.02517847634362843 -0.0011437443228763027 0 -0.02528100312364822 -0.0010370047955208918 0 -0.025541037702146344 -0.0010562660274418671 0 -0.025374956103124315 -0.0011707526085948817 0 -0.022657367837774552 -0.00090882941078945995 0 -0.022848393832615509 -0.0006888766400887029 0 -0.025541037702146344 -0.0010562660274418671 0 -0.025914551662633935 -0.0010397674922576895 0 -0.025729255576477143 -0.001283580613577885 0 -0.020104963689899412 -0.00073676301274308359 0 -0.020211958208274299 -0.00062670161630476006 0 -0.020414551813589209 -0.00076783159637367892 0 -0.022848393832615509 -0.0006888766400887029 0 -0.022928253688998975 -0.0023690165502277239 0 -0.020211958208274299 -0.00062670161630476006 0 -0.020309931925103702 -0.0005549037558830051 0 -0.020414551813589209 -0.00076783159637367892 0 -0.020211958208274299 -0.00062670161630476006 0 -0.020079226160425134 -0.0004803935379366861 0 -0.020309931925103702 -0.0005549037558830051 0 -0.020104963689899412 -0.00073676301274308359 0 -0.020211958208274299 -0.00062670161630476006 0 -0.020079226160425134 -0.0004803935379366861 0 -0.019783858009430749 -0.00041930455204399381 0 -0.020104963689899412 -0.00073676301274308359 0 -0.020079226160425134 -0.0004803935379366861 0 -0.019799212590777573 -0.0002134978775108436 0 -0.020079226160425134 -0.0004803935379366861 0 -0.020029172717620551 -0.00019782520987139917 0 -0.020079226160425134 -0.0004803935379366861 0 -0.020029172717620551 -0.00019782520987139917 0 -0.020339205046610444 -0.00055623959286453127 0 -0.020329320832990352 0.00012969652794682539 0 -0.020029172717620551 -0.00019782520987139917 0 -0.020339205046610444 -0.00055623959286453127 0 -0.020373685442578449 -0.00068786190390403615 0 -0.0202957568258905 -0.0013745188116571763 0 -0.020079226160425134 -0.0004803935379366861 0 -0.020339205046610444 -0.00055623959286453127 0 -0.020309931925103702 -0.0005549037558830051 0 -0.020339205046610444 -0.00055623959286453127 0 -0.020654664367258532 -0.0023712832531653841 0 -0.021356286452510545 -0.0017233586628801643 0 -0.020654664367258532 -0.0023712832531653841 0 -0.021356286452510545 -0.0017233586628801643 0 -0.021488487727578044 -0.0026657127168452093 0 -0.021356286452510545 -0.0017233586628801643 0 -0.022308755266989312 -0.002345453778767599 0 -0.021488487727578044 -0.0026657127168452093 0 -0.021150081797996972 -7.4345028268891562e-05 0 -0.020339205046610444 -0.00055623959286453127 0 -0.021746564556187686 -0.00092933151821181757 0 -0.020339205046610444 -0.00055623959286453127 0 -0.021356286452510545 -0.0017233586628801643 0 -0.021746564556187686 -0.00092933151821181757 0 -0.022406126439683798 2.4190940701171965e-05 0 -0.023091206703056869 -0.0011498297293580395 0 -0.021746564556187686 -0.00092933151821181757 0 -0.023091206703056869 -0.0011498297293580395 0 -0.021746564556187686 -0.00092933151821181757 0 -0.022308755266989312 -0.002345453778767599 0 -0.021356286452510545 -0.0017233586628801643 0 -0.021746564556187686 -0.00092933151821181757 0 -0.022308755266989312 -0.002345453778767599 0 -0.022308755266989312 -0.002345453778767599 0 -0.021956789482848033 -0.0033474575253982057 0 -0.02291594312404167 -0.0040003775078247279 0 -0.022308755266989312 -0.002345453778767599 0 -0.021956789482848033 -0.0033474575253982057 0 -0.021488487727578044 -0.0026657127168452093 0 -0.020654664367258532 -0.0023712832531653841 0 -0.021113334734257777 -0.0035082597876694289 0 -0.021157784123427632 -0.004009692047654295 0 -0.0202957568258905 -0.0013745188116571763 0 -0.022928253688998975 -0.0023690165502277239 0 -0.020654664367258532 -0.0023712832531653841 0 -0.021488487727578044 -0.0026657127168452093 0 -0.021113334734257777 -0.0035082597876694289 0 -0.021956789482848033 -0.0033474575253982057 0 -0.021488487727578044 -0.0026657127168452093 0 -0.021113334734257777 -0.0035082597876694289 0 -0.023968631050842553 -0.0024141076069749416 0 -0.023874768775870105 -0.0024170105792544641 0 -0.02424084904216452 -0.003386487344959365 0 -0.022168879579845872 -0.0032581384148071056 0 -0.02324853809675018 -0.0044227872578881562 0 -0.021956789482848033 -0.0033474575253982057 0 -0.021113334734257777 -0.0035082597876694289 0 -0.021314850955030037 -0.0039992650198590373 0 -0.021113334734257777 -0.0035082597876694289 0 -0.021321658736398807 -0.0040039409488159044 0 -0.021157784123427632 -0.004009692047654295 0 -0.021790276831781162 -0.0034131840269491865 0 -0.022168879579845872 -0.0032581384148071056 0 -0.022168879579845872 -0.0032581384148071056 0 -0.022928253688998975 -0.0023690165502277239 0 -0.021374444315271204 -0.0040664093216403819 0 -0.022255502147370116 -0.0046339413590312534 0 -0.022011039746066177 -0.0055357965146418699 0 -0.022168879579845872 -0.0032581384148071056 0 -0.022478089656834475 -0.0041120155081652149 0 -0.021956789482848033 -0.0033474575253982057 0 -0.021314850955030037 -0.0039992650198590373 0 -0.02291594312404167 -0.0040003775078247279 0 -0.021374444315271204 -0.0040664093216403819 0 -0.022255502147370116 -0.0046339413590312534 0 -0.02291594312404167 -0.0040003775078247279 0 -0.02306284829141933 -0.0051118591939406845 0 -0.022255502147370116 -0.0046339413590312534 0 -0.02291594312404167 -0.0040003775078247279 0 -0.02306284829141933 -0.0051118591939406845 0 -0.023450145935034035 -0.0061802739919251427 0 -0.022011039746066177 -0.0055357965146418699 0 -0.02306284829141933 -0.0051118591939406845 0 -0.022255502147370116 -0.0046339413590312534 0 -0.022011039746066177 -0.0055357965146418699 0 -0.022928253688998975 -0.0023690165502277239 0 -0.025355148040329952 -0.0023217079973729951 0 -0.025914551662633935 -0.0010397674922576895 0 -0.026061445799596107 -0.0013492482460527829 0 -0.025729255576477143 -0.001283580613577885 0 -0.023968631050842553 -0.0024141076069749416 0 -0.024380244198140028 -0.0032724405625178614 0 -0.02424084904216452 -0.003386487344959365 0 -0.026061445799596107 -0.0013492482460527829 0 -0.02599291380701205 -0.0017504694442771898 0 -0.0258393899588838 -0.0015419672705705093 0 -0.026061445799596107 -0.0013492482460527829 0 -0.0258393899588838 -0.0015419672705705093 0 -0.025729255576477143 -0.001283580613577885 0 -0.026061445799596107 -0.0013492482460527829 0 -0.026225505728545821 -0.0017162595593134494 0 -0.02599291380701205 -0.0017504694442771898 0 -0.02324853809675018 -0.0044227872578881562 0 -0.023654482484756795 -0.0055627096520329093 0 -0.02424084904216452 -0.003386487344959365 0 -0.024772855804056054 -0.0041013112003070321 0 -0.02459259907191861 -0.0043169075212813948 0 -0.023450145935034035 -0.0061802739919251427 0 -0.022011039746066177 -0.0055357965146418699 0 -0.022684847497096303 -0.0069852446151400429 0 -0.024380244198140028 -0.0032724405625178614 0 -0.02424084904216452 -0.003386487344959365 0 -0.024772855804056054 -0.0041013112003070321 0 -0.025355148040329952 -0.0023217079973729951 0 -0.02526090058161155 -0.0029656610461890596 0 -0.025145406489747991 -0.006240517259511442 0 -0.023654482484756795 -0.0055627096520329093 0 -0.025141519507669772 -0.0049029123625157758 0 -0.024772855804056054 -0.0041013112003070321 0 -0.02459259907191861 -0.0043169075212813948 0 -0.026225505728545821 -0.0017162595593134494 0 -0.026170705796716012 -0.0019868657453155428 0 -0.02599291380701205 -0.0017504694442771898 0 -0.026225505728545821 -0.0017162595593134494 0 -0.026170705796716012 -0.0019868657453155428 0 -0.026390831061213146 -0.0021366043712141422 0 -0.02526090058161155 -0.0029656610461890596 0 -0.02683117609167026 -0.0037582649685925394 0 -0.025141519507669772 -0.0049029123625157758 0 -0.02459259907191861 -0.0043169075212813948 0 -0.024920365910574824 -0.0052164908729474286 0 -0.026170705796716012 -0.0019868657453155428 0 -0.026004415846058289 -0.0020740860370059289 0 -0.02624497461135927 -0.0022711086140334894 0 -0.026170705796716012 -0.0019868657453155428 0 -0.026390831061213146 -0.0021366043712141422 0 -0.02624497461135927 -0.0022711086140334894 0 -0.02683117609167026 -0.0037582649685925394 0 -0.027834207323237423 -0.0028028300457757145 0 -0.026170705796716012 -0.0019868657453155428 0 -0.026004415846058289 -0.0020740860370059289 0 -0.02599291380701205 -0.0017504694442771898 0 -0.027602367601891227 -0.0027781339368436186 0 -0.027474805593358732 -0.00273997655820752 0 -0.027586526765590973 -0.00302978416389801 0 -0.027104209912742996 -0.0024047411370874861 0 -0.027237953745238484 -0.002282154470790965 0 -0.027724496040866946 -0.0031090426231891819 0 -0.026502964037238955 -0.0020782475428295926 0 -0.027834207323237423 -0.0028028300457757145 0 -0.027360379262697632 -0.0025849008321798417 0 -0.026366155396335553 -0.0019788079939584138 0 -0.027602367601891227 -0.0027781339368436186 0 -0.027474805593358732 -0.00273997655820752 0 -0.027245116929098812 -0.0023794571681604068 0 -0.027104209912742996 -0.0024047411370874861 0 -0.027237953745238484 -0.002282154470790965 0 -0.026489866610052884 -0.0017075490535385031 0 -0.026502964037238955 -0.0020782475428295926 0 -0.026366155396335553 -0.0019788079939584138 0 -0.02599291380701205 -0.0017504694442771898 0 -0.025838224298534621 -0.001694288247038407 0 -0.025784119512877818 -0.0018765189709957198 0 -0.026004415846058289 -0.0020740860370059289 0 -0.02599291380701205 -0.0017504694442771898 0 -0.025784119512877818 -0.0018765189709957198 0 -0.02599291380701205 -0.0017504694442771898 0 -0.025838224298534621 -0.001694288247038407 0 -0.0258393899588838 -0.0015419672705705093 0 -0.027245116929098812 -0.0023794571681604068 0 -0.026911339345447545 -0.0024513944955186842 0 -0.026578476955230437 -0.0019026002906136143 0 -0.025838224298534621 -0.001694288247038407 0 -0.025784119512877818 -0.0018765189709957198 0 -0.025737366513969975 -0.0016166385479511694 0 -0.025784119512877818 -0.0018765189709957198 0 -0.025558766068614232 -0.00151908566590836 0 -0.025737366513969975 -0.0016166385479511694 0 -0.026366155396335553 -0.0019788079939584138 0 -0.02539878877011827 -0.0014537184486706348 0 -0.026366155396335553 -0.0019788079939584138 0 -0.026106286996595798 -0.0017846410268019285 0 -0.027474805593358732 -0.00273997655820752 0 -0.027245116929098812 -0.0023794571681604068 0 -0.02719098212200886 -0.0026307260345264818 0 -0.027245116929098812 -0.0023794571681604068 0 -0.02719098212200886 -0.0026307260345264818 0 -0.026911339345447545 -0.0024513944955186842 0 -0.026911339345447545 -0.0024513944955186842 0 -0.027027390705236066 -0.0027634378018376346 0 -0.026589430270213415 -0.0023412008742545736 0 -0.02719098212200886 -0.0026307260345264818 0 -0.026911339345447545 -0.0024513944955186842 0 -0.027027390705236066 -0.0027634378018376346 0 -0.027474805593358732 -0.00273997655820752 0 -0.02719098212200886 -0.0026307260345264818 0 -0.027251172618270574 -0.0027927595000618263 0 -0.027027390705236066 -0.0027634378018376346 0 -0.027251172618270574 -0.0027927595000618263 0 -0.027244591744613297 -0.0029977354081610085 0 -0.027474805593358732 -0.00273997655820752 0 -0.027251172618270574 -0.0027927595000618263 0 -0.027244591744613297 -0.0029977354081610085 0 -0.02719098212200886 -0.0026307260345264818 0 -0.027027390705236066 -0.0027634378018376346 0 -0.027251172618270574 -0.0027927595000618263 0 -0.027027390705236066 -0.0027634378018376346 0 -0.026589430270213415 -0.0023412008742545736 0 -0.026857513905831534 -0.0031641735577591424 0 -0.026589430270213415 -0.0023412008742545736 0 -0.026241066054171092 -0.0025358571242845296 0 -0.0268786992962095 -0.0031447539357167243 0 -0.026241066054171092 -0.0025358571242845296 0 -0.026170759015485111 -0.002959794430157195 0 -0.0268786992962095 -0.0031447539357167243 0 -0.026665174573569619 -0.0024064226777542452 0 -0.026639143345201372 -0.0031337335904729601 0 -0.026589430270213415 -0.0023412008742545736 0 -0.026213408633631821 -0.0020621247559130971 0 -0.026241066054171092 -0.0025358571242845296 0 -0.026911339345447545 -0.0024513944955186842 0 -0.026589430270213415 -0.0023412008742545736 0 -0.026578476955230437 -0.0019026002906136143 0 -0.025883511832091158 -0.0018509768440803996 0 -0.025537948585891555 -0.0016009330532944764 0 -0.025558766068614232 -0.00151908566590836 0 -0.026589430270213415 -0.0023412008742545736 0 -0.026578476955230437 -0.0019026002906136143 0 -0.026213408633631821 -0.0020621247559130971 0 -0.025558766068614232 -0.00151908566590836 0 -0.025532545642090961 -0.001298599317348801 0 -0.025332119226487766 -0.0013508263422074636 0 -0.025537948585891555 -0.0016009330532944764 0 -0.025558766068614232 -0.00151908566590836 0 -0.025332119226487766 -0.0013508263422074636 0 -0.025558766068614232 -0.00151908566590836 0 -0.025679841255328073 -0.0014497216430755266 0 -0.025532545642090961 -0.001298599317348801 0 -0.0258393899588838 -0.0015419672705705093 0 -0.025679841255328073 -0.0014497216430755266 0 -0.025729255576477143 -0.001283580613577885 0 -0.025558766068614232 -0.00151908566590836 0 -0.025737366513969975 -0.0016166385479511694 0 -0.025679841255328073 -0.0014497216430755266 0 -0.025737366513969975 -0.0016166385479511694 0 -0.0258393899588838 -0.0015419672705705093 0 -0.025679841255328073 -0.0014497216430755266 0 -0.025838224298534621 -0.001694288247038407 0 -0.025737366513969975 -0.0016166385479511694 0 -0.0258393899588838 -0.0015419672705705093 0 -0.025679841255328073 -0.0014497216430755266 0 -0.025729255576477143 -0.001283580613577885 0 -0.025532545642090961 -0.001298599317348801 0 -0.025541037702146344 -0.0010562660274418671 0 -0.025532545642090961 -0.001298599317348801 0 -0.025374956103124315 -0.0011707526085948817 0 -0.025541037702146344 -0.0010562660274418671 0 -0.025729255576477143 -0.001283580613577885 0 -0.025532545642090961 -0.001298599317348801 0 -0.025374956103124315 -0.0011707526085948817 0 -0.02517847634362843 -0.0011437443228763027 0 -0.025332119226487766 -0.0013508263422074636 0 -0.025532545642090961 -0.001298599317348801 0 -0.025374956103124315 -0.0011707526085948817 0 -0.025332119226487766 -0.0013508263422074636 0 -0.02522733182986979 -0.0011663256620902313 0 -0.025600741008718172 -0.0014137477287256188 0 -0.02517847634362843 -0.0011437443228763027 0 -0.025289716875455736 -0.0017101222355032132 0 -0.025885775072963881 -0.001473832660511409 0 -0.025289716875455736 -0.0017101222355032132 0 -0.025885775072963881 -0.001473832660511409 0 -0.025791409174719764 -0.0020972998473125274 0 -0.026578476955230437 -0.0019026002906136143 0 -0.025885775072963881 -0.001473832660511409 0 -0.026213408633631821 -0.0020621247559130971 0 -0.026106286996595798 -0.0017846410268019285 0 -0.025600741008718172 -0.0014137477287256188 0 -0.025885775072963881 -0.001473832660511409 0 -0.026213408633631821 -0.0020621247559130971 0 -0.025791409174719764 -0.0020972998473125274 0 -0.025791409174719764 -0.0020972998473125274 0 -0.026241066054171092 -0.0025358571242845296 0 -0.025808128775326695 -0.0026171349112411868 0 -0.026213408633631821 -0.0020621247559130971 0 -0.025791409174719764 -0.0020972998473125274 0 -0.026241066054171092 -0.0025358571242845296 0 -0.025808128775326695 -0.0026171349112411868 0 -0.025513560122270743 -0.0031720576414964404 0 -0.026170759015485111 -0.002959794430157195 0 -0.026241066054171092 -0.0025358571242845296 0 -0.025808128775326695 -0.0026171349112411868 0 -0.026170759015485111 -0.002959794430157195 0 -0.025808128775326695 -0.0026171349112411868 0 -0.025339118048949283 -0.0023559503046620919 0 -0.025513560122270743 -0.0031720576414964404 0 -0.025289716875455736 -0.0017101222355032132 0 -0.025791409174719764 -0.0020972998473125274 0 -0.025339118048949283 -0.0023559503046620919 0 -0.025791409174719764 -0.0020972998473125274 0 -0.025808128775326695 -0.0026171349112411868 0 -0.025339118048949283 -0.0023559503046620919 0 -0.025339118048949283 -0.0023559503046620919 0 -0.024828417753477165 -0.0019853294504987677 0 -0.024871001620999304 -0.0026355824498270051 0 -0.025289716875455736 -0.0017101222355032132 0 -0.025339118048949283 -0.0023559503046620919 0 -0.024828417753477165 -0.0019853294504987677 0 -0.022714802783293252 -0.0020914256832169054 0 -0.026722417707899661 -0.0012501098348328236 0 -0.026722417707899661 -0.0012501098348328236 0 -0.029302742732924856 -0.0015818119786739024 0 -0.025339118048949283 -0.0023559503046620919 0 -0.024871001620999304 -0.0026355824498270051 0 -0.025513560122270743 -0.0031720576414964404 0 -0.029288037750188199 -0.00033677000260294484 0 -0.028671717852136729 -0.0002986645766860415 0 -0.029175591206215504 -0.00080309377651518977 0 -0.029327544470912448 0.00017626457157762985 0 -0.029288037750188199 -0.00033677000260294484 0 -0.028671717852136729 -0.0002986645766860415 0 -0.020968879658866468 -0.0017153591848917155 0 -0.020219773281047571 -0.0019637069452687751 0 -0.020429986713288481 -0.0013614988636028403 0 -0.026722417707899661 -0.0012501098348328236 0 -0.024347941267359209 -0.0012337055879920828 0 -0.020968879658866468 -0.0017153591848917155 0 -0.021076650202580934 -0.0026469841426610126 0 -0.020219773281047571 -0.0019637069452687751 0 -0.020968879658866468 -0.0017153591848917155 0 -0.020429986713288481 -0.0013614988636028403 0 -0.020854871188119614 -0.00084642663625752806 0 -0.019986730754126374 -0.0012803726147704859 0 -0.020219773281047571 -0.0019637069452687751 0 -0.020429986713288481 -0.0013614988636028403 0 -0.019986730754126374 -0.0012803726147704859 0 -0.020429986713288481 -0.0013614988636028403 0 -0.020174835985191361 -0.00092365952697193241 0 -0.020429986713288481 -0.0013614988636028403 0 -0.020854871188119614 -0.00084642663625752806 0 -0.020174835985191361 -0.00092365952697193241 0 -0.025289716875455736 -0.0017101222355032132 0 -0.024828417753477165 -0.0019853294504987677 0 -0.02481093598677056 -0.001394197121291411 0 -0.022714802783293252 -0.0020914256832169054 0 -0.022923683940576558 -0.0011396095940610384 0 -0.024833406620691695 -0.00096048165750287952 0 -0.02517847634362843 -0.0011437443228763027 0 -0.02481093598677056 -0.001394197121291411 0 -0.021344221139641878 -0.0002022887408354185 0 -0.022923683940576558 -0.0011396095940610384 0 -0.02517847634362843 -0.0011437443228763027 0 -0.025289716875455736 -0.0017101222355032132 0 -0.02481093598677056 -0.001394197121291411 0 -0.020806231669957261 6.2703460832967732e-05 0 -0.020854871188119614 -0.00084642663625752806 0 -0.020354126206855172 -0.00043529028648472523 0 -0.019788478338226778 -0.00060162766960552151 0 -0.020354126206855172 -0.00043529028648472523 0 -0.020174835985191361 -0.00092365952697193241 0 -0.020854871188119614 -0.00084642663625752806 0 -0.020354126206855172 -0.00043529028648472523 0 -0.020174835985191361 -0.00092365952697193241 0 -0.02955261962055955 0.0016214884111873983 0 -0.028835669659661205 0.001779822373927189 0 -0.029132610522060891 0.0014305755656696694 0 -0.03923764900811446 -7.7559601959494804e-05 0 -0.03918120067765609 0.00012024496181788056 0 -0.039604089514083674 -8.5592823712644209e-06 0 -0.034180125508325269 0.00096928852017177936 0 -0.035015350245535003 0.00031463456458841058 0 -0.035015350245535003 0.00031463456458841058 0 -0.030049392787691052 0.00035772738969390964 0 -0.028835669659661205 0.001779822373927189 0 -0.028783310506226352 0.0011541893570026442 0 -0.029132610522060891 0.0014305755656696694 0 -0.03217164553953223 -0.00090746317937878001 0 -0.032096150453535331 -0.00043242706372672478 0 -0.032544624133567505 -0.00060883879668136942 0 -0.028783310506226352 0.0011541893570026442 0 -0.029364418447667327 0.0011556147323583507 0 -0.029195095810276229 0.00068693736269600343 0 -0.028783310506226352 0.0011541893570026442 0 -0.029132610522060891 0.0014305755656696694 0 -0.029364418447667327 0.0011556147323583507 0 -0.02955261962055955 0.0016214884111873983 0 -0.029132610522060891 0.0014305755656696694 0 -0.029364418447667327 0.0011556147323583507 0 -0.029327544470912448 0.00017626457157762985 0 -0.028671717852136729 -0.0002986645766860415 0 -0.028715369238064125 0.00044762228933775428 0 -0.029327544470912448 0.00017626457157762985 0 -0.029195095810276229 0.00068693736269600343 0 -0.028715369238064125 0.00044762228933775428 0 -0.031928597226993871 0.00054291315500299049 0 -0.03201249934126691 4.7779498068911931e-05 0 -0.032407636529414204 0.00019366943553756984 0 -0.026722417707899661 -0.0012501098348328236 0 -0.030678294159873346 0.00049705205319361086 0 -0.030049392787691052 0.00035772738969390964 0 -0.030678294159873346 0.00049705205319361086 0 -0.028783310506226352 0.0011541893570026442 0 -0.029195095810276229 0.00068693736269600343 0 -0.028715369238064125 0.00044762228933775428 0 -0.032096150453535331 -0.00043242706372672478 0 -0.03201249934126691 4.7779498068911931e-05 0 -0.03240438282469469 -0.00020725906058277453 0 -0.03240438282469469 -0.00020725906058277453 0 -0.03285135332355324 -0.00016135061040080577 0 -0.032544624133567505 -0.00060883879668136942 0 -0.03240438282469469 -0.00020725906058277453 0 -0.032407636529414204 0.00019366943553756984 0 -0.03285135332355324 -0.00016135061040080577 0 -0.03201249934126691 4.7779498068911931e-05 0 -0.03240438282469469 -0.00020725906058277453 0 -0.032407636529414204 0.00019366943553756984 0 -0.026170759015485111 -0.002959794430157195 0 -0.026183833511665582 -0.0037099386372544279 0 -0.026485245800401284 -0.0033540368242352199 0 -0.029302742732924856 -0.0015818119786739024 0 -0.029057525768549735 -0.0018586370678807451 0 -0.025513560122270743 -0.0031720576414964404 0 -0.026170759015485111 -0.002959794430157195 0 -0.026183833511665582 -0.0037099386372544279 0 -0.03285135332355324 -0.00016135061040080577 0 -0.032544624133567505 -0.00060883879668136942 0 -0.03298463883724017 -0.00077479113342616838 0 -0.032096150453535331 -0.00043242706372672478 0 -0.03240438282469469 -0.00020725906058277453 0 -0.032544624133567505 -0.00060883879668136942 0 -0.03217164553953223 -0.00090746317937878001 0 -0.032544624133567505 -0.00060883879668136942 0 -0.032712404390979097 -0.0010456903821806471 0 -0.035015350245535003 0.00031463456458841058 0 -0.039680033774157436 -0.0008246198599212945 0 -0.03945757971354568 -0.0016367756771661745 0 -0.038919648434497786 -0.0013123295663116286 0 -0.04023181958949687 -0.00093071567834105123 0 -0.036232035752072823 -0.0011919537706320377 0 -0.039680033774157436 -0.0008246198599212945 0 -0.032544624133567505 -0.00060883879668136942 0 -0.03298463883724017 -0.00077479113342616838 0 -0.032712404390979097 -0.0010456903821806471 0 -0.038771611749204161 -0.0017057250661488357 0 -0.038570574270327694 -0.0010934056928293321 0 -0.038261040969914367 -0.0020822150434982537 0 -0.03945757971354568 -0.0016367756771661745 0 -0.038771611749204161 -0.0017057250661488357 0 -0.038624426553090493 -0.0023935424560933864 0 -0.03945757971354568 -0.0016367756771661745 0 -0.038771611749204161 -0.0017057250661488357 0 -0.038919648434497786 -0.0013123295663116286 0 -0.038771611749204161 -0.0017057250661488357 0 -0.038919648434497786 -0.0013123295663116286 0 -0.038570574270327694 -0.0010934056928293321 0 -0.039372239677783499 -0.00071244921496280947 0 -0.040585535149603794 -0.00094199270397782938 0 -0.038418037356965237 -0.0016072675716662618 0 -0.038883186028026602 -0.0012654026913410767 0 -0.038561851804090358 -0.0010047244446908551 0 -0.040585535149603794 -0.00094199270397782938 0 -0.035402696715594824 -0.0022173149420513755 0 -0.034536738859532241 -0.0021880004521218663 0 -0.035402696715594824 -0.0022173149420513755 0 -0.032898075946429489 -0.0027133750916805885 0 -0.032977743246473498 -0.0027920421848546813 0 -0.03292665181194869 -0.0029167567133187335 0 -0.029136686660883336 -0.0037759317418627294 0 -0.0290251229826274 -0.0034105760379782189 0 -0.029278852887343942 -0.0036220581630359468 0 -0.034536738859532241 -0.0021880004521218663 0 -0.029898318413924395 -0.0034974646008987561 0 -0.035402696715594824 -0.0022173149420513755 0 -0.032714480987962473 -0.0017482033304514046 0 -0.0290251229826274 -0.0034105760379782189 0 -0.02903984434416141 -0.0033499802873181756 0 -0.029241677241088518 -0.0034240678934743967 0 -0.032203155974853327 -0.0015724782716514626 0 -0.031721020140581375 -0.0032627298104700112 0 -0.033112775573298101 -0.0023494677664822579 0 -0.035402696715594824 -0.0022173149420513755 0 -0.029898318413924395 -0.0034974646008987561 0 -0.031721020140581375 -0.0032627298104700112 0 -0.033112775573298101 -0.0023494677664822579 0 -0.031798475134990463 -0.0035404367981946576 0 -0.032714480987962473 -0.0017482033304514046 0 -0.029075427417683628 -0.0037514948956762482 0 -0.029898318413924395 -0.0034974646008987561 0 -0.029075427417683628 -0.0037514948956762482 0 -0.026872256559688515 -0.0042443467182521222 0 -0.026734293606604623 -0.0038797678245830378 0 -0.027172242585645313 -0.0039615108776501857 0 -0.03285135332355324 -0.00016135061040080577 0 -0.03298463883724017 -0.00077479113342616838 0 -0.033268171893082461 -0.00050548589661567641 0 -0.038771611749204161 -0.0017057250661488357 0 -0.038261040969914367 -0.0020822150434982537 0 -0.038624426553090493 -0.0023935424560933864 0 -0.036232035752072823 -0.0011919537706320377 0 -0.032714480987962473 -0.0017482033304514046 0 -0.029057525768549735 -0.0018586370678807451 0 -0.032714480987962473 -0.0017482033304514046 0 -0.026183833511665582 -0.0037099386372544279 0 -0.026734293606604623 -0.0038797678245830378 0 -0.026706710814253715 -0.0036033465068945757 0 -0.026183833511665582 -0.0037099386372544279 0 -0.026872256559688515 -0.0042443467182521222 0 -0.026734293606604623 -0.0038797678245830378 0 -0.026734293606604623 -0.0038797678245830378 0 -0.026706710814253715 -0.0036033465068945757 0 -0.027172242585645313 -0.0039615108776501857 0 -0.026183833511665582 -0.0037099386372544279 0 -0.026706710814253715 -0.0036033465068945757 0 -0.026485245800401284 -0.0033540368242352199 0 -0.026170759015485111 -0.002959794430157195 0 -0.026485245800401284 -0.0033540368242352199 0 -0.0268786992962095 -0.0031447539357167243 0 -0.026706710814253715 -0.0036033465068945757 0 -0.026485245800401284 -0.0033540368242352199 0 -0.0268786992962095 -0.0031447539357167243 0 -0.027474805593358732 -0.00273997655820752 0 -0.027244591744613297 -0.0029977354081610085 0 -0.027310555899913085 -0.0033439603664705336 0 -0.026857513905831534 -0.0031641735577591424 0 -0.027244591744613297 -0.0029977354081610085 0 -0.027310555899913085 -0.0033439603664705336 0 -0.027027390705236066 -0.0027634378018376346 0 -0.026857513905831534 -0.0031641735577591424 0 -0.027244591744613297 -0.0029977354081610085 0 -0.027404374903724847 -0.0031868204380685917 0 -0.027319992836343013 -0.0035771044180019388 0 -0.027571972798696501 -0.0033359218686538779 0 -0.026639143345201372 -0.0031337335904729601 0 -0.029075427417683628 -0.0037514948956762482 0 -0.026706710814253715 -0.0036033465068945757 0 -0.0268786992962095 -0.0031447539357167243 0 -0.027172242585645313 -0.0039615108776501857 0 -0.026857513905831534 -0.0031641735577591424 0 -0.027310555899913085 -0.0033439603664705336 0 -0.027165595996389191 -0.003931247005908264 0 -0.026857513905831534 -0.0031641735577591424 0 -0.027118030453261863 -0.0039759216243550393 0 -0.027165595996389191 -0.003931247005908264 0 -0.027312383093889017 -0.0033147867603946198 0 -0.028796165242316811 -0.0037735586988044125 0 -0.029075427417683628 -0.0037514948956762482 0 -0.028796165242316811 -0.0037735586988044125 0 -0.029457196314085794 -0.0036293930387722379 0 -0.029480262964744815 -0.0037127407049405412 0 -0.029417281541953874 -0.0037698481312339579 0 -0.028796165242316811 -0.0037735586988044125 0 -0.028395316465577081 -0.0032702363832857115 0 -0.029898318413924395 -0.0034974646008987561 0 -0.028796165242316811 -0.0037735586988044125 0 -0.02903984434416141 -0.0033499802873181756 0 -0.029258171846953809 -0.0031401690568025587 0 -0.029241677241088518 -0.0034240678934743967 0 -0.029392340190999074 -0.003331609145374084 0 -0.029258171846953809 -0.0031401690568025587 0 -0.029241677241088518 -0.0034240678934743967 0 -0.029258171846953809 -0.0031401690568025587 0 -0.029478577641632961 -0.0029356870402272198 0 -0.029481913458916643 -0.003209002359290608 0 -0.029392340190999074 -0.003331609145374084 0 -0.029258171846953809 -0.0031401690568025587 0 -0.029481913458916643 -0.003209002359290608 0 -0.027474805593358732 -0.00273997655820752 0 -0.027404374903724847 -0.0031868204380685917 0 -0.027586526765590973 -0.00302978416389801 0 -0.027476195637674533 -0.0027698103688555418 0 -0.027312383093889017 -0.0033147867603946198 0 -0.027404374903724847 -0.0031868204380685917 0 -0.027571972798696501 -0.0033359218686538779 0 -0.027586526765590973 -0.00302978416389801 0 -0.028395316465577081 -0.0032702363832857115 0 -0.028558969710850458 -0.0028939335856963191 0 -0.027571972798696501 -0.0033359218686538779 0 -0.027586526765590973 -0.00302978416389801 0 -0.027864111268631676 -0.0030766198441928654 0 -0.027360379262697632 -0.0025849008321798417 0 -0.028558969710850458 -0.0028939335856963191 0 -0.027602367601891227 -0.0027781339368436186 0 -0.027586526765590973 -0.00302978416389801 0 -0.027864111268631676 -0.0030766198441928654 0 -0.028040253658788237 -0.0032282879217466853 0 -0.027961016764992422 -0.0033431401118968677 0 -0.028122581661914021 -0.0034493065648953003 0 -0.027048281623909348 -0.0038272534254812159 0 -0.027887859344846659 -0.0026569311774017655 0 -0.028130803397296757 -0.0028451819576226973 0 -0.02683117609167026 -0.0037582649685925394 0 -0.028297536584132473 -0.0029636346635636777 0 -0.027237953745238484 -0.002282154470790965 0 -0.027992824609438964 -0.0028633357253697793 0 -0.027724496040866946 -0.0031090426231891819 0 -0.028297536584132473 -0.0029636346635636777 0 -0.027834207323237423 -0.0028028300457757145 0 -0.027834207323237423 -0.0028028300457757145 0 -0.028558969710850458 -0.0028939335856963191 0 -0.029404372341035243 -0.0026200347649497475 0 -0.029270825172413247 -0.0027429547762200467 0 -0.029396376919667913 -0.002748344709891506 0 -0.029455112915745651 -0.0026603037489063221 0 -0.029404372341035243 -0.0026200347649497475 0 -0.029396376919667913 -0.002748344709891506 0 -0.028297536584132473 -0.0029636346635636777 0 -0.02858700630411239 -0.0027338900769557787 0 -0.029270825172413247 -0.0027429547762200467 0 -0.029396376919667913 -0.002748344709891506 0 -0.029644883080498237 -0.0029804594549041486 0 -0.029460382097978147 -0.0026573942210648561 0 -0.029396376919667913 -0.002748344709891506 0 -0.029823317905225265 -0.0029230607084157856 0 -0.028297536584132473 -0.0029636346635636777 0 -0.029109256128685135 -0.0032946834727328009 0 -0.029396376919667913 -0.002748344709891506 0 -0.029644883080498237 -0.0029804594549041486 0 -0.029823317905225265 -0.0029230607084157856 0 -0.029478577641632961 -0.0029356870402272198 0 -0.029481913458916643 -0.003209002359290608 0 -0.029623309087644 -0.0032455282184963626 0 -0.029478577641632961 -0.0029356870402272198 0 -0.029623309087644 -0.0032455282184963626 0 -0.029795920683833181 -0.0032768336103413723 0 -0.029270825172413247 -0.0027429547762200467 0 -0.029644883080498237 -0.0029804594549041486 0 -0.029795920683833181 -0.0032768336103413723 0 -0.028558969710850458 -0.0028939335856963191 0 -0.030012870011373802 -0.0033162657693773245 0 -0.029481913458916643 -0.003209002359290608 0 -0.029623309087644 -0.0032455282184963626 0 -0.029593665964432216 -0.0033901353287547685 0 -0.029392340190999074 -0.003331609145374084 0 -0.029481913458916643 -0.003209002359290608 0 -0.029593665964432216 -0.0033901353287547685 0 -0.029623309087644 -0.0032455282184963626 0 -0.029795920683833181 -0.0032768336103413723 0 -0.029771510807056367 -0.0034209026039872473 0 -0.029623309087644 -0.0032455282184963626 0 -0.029593665964432216 -0.0033901353287547685 0 -0.029771510807056367 -0.0034209026039872473 0 -0.029728045742539275 -0.0036021692429956146 0 -0.029593665964432216 -0.0033901353287547685 0 -0.029771510807056367 -0.0034209026039872473 0 -0.029728045742539275 -0.0036021692429956146 0 -0.029466920577257735 -0.0035369957859747734 0 -0.029474180392033669 -0.0037694743292349688 0 -0.029728045742539275 -0.0036021692429956146 0 -0.029466920577257735 -0.0035369957859747734 0 -0.029593665964432216 -0.0033901353287547685 0 -0.029392340190999074 -0.003331609145374084 0 -0.029466920577257735 -0.0035369957859747734 0 -0.029593665964432216 -0.0033901353287547685 0 -0.029392340190999074 -0.003331609145374084 0 -0.029466920577257735 -0.0035369957859747734 0 -0.029241677241088518 -0.0034240678934743967 0 -0.0290251229826274 -0.0034105760379782189 0 -0.029241677241088518 -0.0034240678934743967 0 -0.029278852887343942 -0.0036220581630359468 0 -0.029466920577257735 -0.0035369957859747734 0 -0.029241677241088518 -0.0034240678934743967 0 -0.029278852887343942 -0.0036220581630359468 0 -0.029466920577257735 -0.0035369957859747734 0 -0.029278852887343942 -0.0036220581630359468 0 -0.029474180392033669 -0.0037694743292349688 0 -0.034536738859532241 -0.0021880004521218663 0 -0.03310165982954813 -0.0031931124407365455 0 -0.029136686660883336 -0.0037759317418627294 0 -0.029278852887343942 -0.0036220581630359468 0 -0.029474180392033669 -0.0037694743292349688 0 -0.029136686660883336 -0.0037759317418627294 0 -0.029474180392033669 -0.0037694743292349688 0 -0.029498212501710631 -0.004169474751991779 0 -0.029743313791868453 -0.0038683541413391839 0 -0.029474180392033669 -0.0037694743292349688 0 -0.029498212501710631 -0.004169474751991779 0 -0.029728045742539275 -0.0036021692429956146 0 -0.029743313791868453 -0.0038683541413391839 0 -0.029474180392033669 -0.0037694743292349688 0 -0.029743313791868453 -0.0038683541413391839 0 -0.029498212501710631 -0.004169474751991779 0 -0.029995680997764198 -0.0041155958792109563 0 -0.034536738859532241 -0.0021880004521218663 0 -0.042305777094254683 -0.0011965114651231339 0 -0.03753554451468169 -0.0011267234928149506 0 -0.038436646794998086 -0.0018575855996008179 0 -0.037843489817239374 -0.0020359998815086752 0 -0.042305777094254683 -0.0011965114651231339 0 -0.047626377009127779 -0.0011771721775559357 0 -0.038436646794998086 -0.0018575855996008179 0 -0.037843489817239374 -0.0020359998815086752 0 -0.038377494957611953 -0.0023549070923898361 0 -0.047626377009127779 -0.0011771721775559357 0 -0.043996620281511953 -0.0010439982946192341 0 -0.044415413147655958 -0.0016115834602402064 0 -0.044400462708323325 -0.0015538023756732947 0 -0.044259111469782765 -0.0015217123268180164 0 -0.051110946680336541 -0.0011521526557896505 0 -0.048244565468380587 -0.0015042166009895702 0 -0.048770203062132075 -0.0015499259888809317 0 -0.046948304864331665 -0.0014279406869437035 0 -0.046476454038341039 -0.0011392745055778522 0 -0.042305777094254683 -0.0011965114651231339 0 -0.043996620281511953 -0.0010439982946192341 0 -0.04887688566448653 -0.0019216993284459645 0 -0.048770203062132075 -0.0015499259888809317 0 -0.046948304864331665 -0.0014279406869437035 0 -0.047626377009127779 -0.0011771721775559357 0 -0.051110946680336541 -0.0011521526557896505 0 -0.054936495843664612 -0.00053332049063210699 0 -0.054742402440886705 -0.00048899812523439288 0 -0.054715743589623916 -0.00027352831567257742 0 -0.038436646794998086 -0.0018575855996008179 0 -0.038377494957611953 -0.0023549070923898361 0 -0.038999633682798518 -0.0025214902026331008 0 -0.038436646794998086 -0.0018575855996008179 0 -0.039344268127752116 -0.002613969238104372 0 -0.038999633682798518 -0.0025214902026331008 0 -0.054742402440886705 -0.00048899812523439288 0 -0.054715743589623916 -0.00027352831567257742 0 -0.054467052693397452 -0.00033184653288908649 0 -0.046378067520389483 -0.00033551088436838719 0 -0.047065807096256733 -0.00048118648715380372 0 -0.047333941414654003 -0.00097426884809576856 0 -0.03310165982954813 -0.0031931124407365455 0 -0.038642758768616184 -0.0017221372742900428 0 -0.048244565468380587 -0.0015042166009895702 0 -0.051018017673151103 -0.00066784412680085 0 -0.045934632101059907 -0.0018266395726064598 0 -0.045457390586707946 -0.0015459619653575255 0 -0.043252270828513635 -0.00119404462396949 0 -0.043996620281511953 -0.0010439982946192341 0 -0.048244565468380587 -0.0015042166009895702 0 -0.043996620281511953 -0.0010439982946192341 0 -0.042785835665138154 -0.0015341664883456946 0 -0.048244565468380587 -0.0015042166009895702 0 -0.042785835665138154 -0.0015341664883456946 0 -0.054715743589623916 -0.00027352831567257742 0 -0.054727600132505147 -0.00011326738902803297 0 -0.054467052693397452 -0.00033184653288908649 0 -0.054715743589623916 -0.00027352831567257742 0 -0.054727600132505147 -0.00011326738902803297 0 -0.054906606754721199 -9.0224938281840728e-05 0 -0.054999917553772086 4.4951180090230093e-08 0 -0.05498222530914456 1.218531367061792e-05 0 -0.055001362759844755 1.8564375404765985e-06 0 -0.054727600132505147 -0.00011326738902803297 0 -0.05498222530914456 1.218531367061792e-05 0 -0.054543110618683492 1.3858642516077965e-05 0 -0.054811853634905067 -2.8501506162902699e-05 0 -0.055134651243423143 9.8580119013041848e-05 0 -0.054727600132505147 -0.00011326738902803297 0 -0.05498222530914456 1.218531367061792e-05 0 -0.054906606754721199 -9.0224938281840728e-05 0 -0.054999917553772086 4.4951180090230093e-08 0 -0.05498222530914456 1.218531367061792e-05 0 -0.054999873168990868 -1.8127981677413474e-08 0 -0.05498222530914456 1.218531367061792e-05 0 -0.054970378923403958 -3.5237704761645745e-05 0 -0.054999873168990868 -1.8127981677413474e-08 0 -0.05498222530914456 1.218531367061792e-05 0 -0.054970378923403958 -3.5237704761645745e-05 0 -0.054906606754721199 -9.0224938281840728e-05 0 -0.054936495843664612 -0.00053332049063210699 0 -0.054715743589623916 -0.00027352831567257742 0 -0.054906606754721199 -9.0224938281840728e-05 0 -0.051110946680336541 -0.0011521526557896505 0 -0.055870658961344605 6.7134297780575153e-05 0 -0.054896300848933259 -0.00011499018693737589 0 -0.054906606754721199 -9.0224938281840728e-05 0 -0.05494905924609067 -7.5522185901269381e-05 0 -0.054970378923403958 -3.5237704761645745e-05 0 -0.054906606754721199 -9.0224938281840728e-05 0 -0.05494905924609067 -7.5522185901269381e-05 0 -0.054970378923403958 -3.5237704761645745e-05 0 -0.05494905924609067 -7.5522185901269381e-05 0 -0.054988268585278138 -2.8120511979439972e-05 0 -0.054970378923403958 -3.5237704761645745e-05 0 -0.054999873168990868 -1.8127981677413474e-08 0 -0.054988268585278138 -2.8120511979439972e-05 0 -0.054988268585278138 -2.8120511979439972e-05 0 -0.054998244685553449 -5.8208661272017113e-05 0 -0.055000087661926295 -2.1664192588615e-08 0 -0.054999873168990868 -1.8127981677413474e-08 0 -0.054988268585278138 -2.8120511979439972e-05 0 -0.055000087661926295 -2.1664192588615e-08 0 -0.055476235182424984 0.00019558605745686173 0 -0.054999738836362388 -3.0346029986935816e-07 0 -0.05494905924609067 -7.5522185901269381e-05 0 -0.054988268585278138 -2.8120511979439972e-05 0 -0.054998244685553449 -5.8208661272017113e-05 0 -0.054928401963648468 0.00056834558959319051 0 -0.055177769745289686 0.00079358045599503102 0 -0.054781320379276369 0.00088209611389942078 0 -0.05494905924609067 -7.5522185901269381e-05 0 -0.054998244685553449 -5.8208661272017113e-05 0 -0.054942851471658151 -0.00011981624961871589 0 -0.055043560200500399 0.00017443442965806884 0 -0.054928401963648468 0.00056834558959319051 0 -0.055177769745289686 0.00079358045599503102 0 -0.055476235182424984 0.00019558605745686173 0 -0.050989863762995295 0.00021848510238192315 0 -0.049415858269466276 -0.00087744672416326271 0 -0.049451673155620449 -0.00099660367162091273 0 -0.048042308093319691 -0.00071665993674052241 0 -0.054896300848933259 -0.00011499018693737589 0 -0.05494905924609067 -7.5522185901269381e-05 0 -0.054942851471658151 -0.00011981624961871589 0 -0.051110946680336541 -0.0011521526557896505 0 -0.050989863762995295 0.00021848510238192315 0 -0.0447764458892429 -0.0010604385732887482 0 -0.044871702736560902 -0.0013735692177273976 0 -0.043313593580480987 -0.00095827160361220342 0 -0.047626377009127779 -0.0011771721775559357 0 -0.045658247710334374 -0.00085260511433112105 0 -0.040585535149603794 -0.00094199270397782938 0 -0.042305777094254683 -0.0011965114651231339 0 -0.043491431634533222 -0.00026639898388419075 0 -0.0447764458892429 -0.0010604385732887482 0 -0.043313593580480987 -0.00095827160361220342 0 -0.038418037356965237 -0.0016072675716662618 0 -0.038883186028026602 -0.0012654026913410767 0 -0.039146728841431645 -0.0020482484902424043 0 -0.049415858269466276 -0.00087744672416326271 0 -0.048042308093319691 -0.00071665993674052241 0 -0.048094583992881267 -0.00051354760514139342 0 -0.048351476241717255 -0.00059773104761075052 0 -0.048482890570776038 -0.00010184703103810515 0 -0.046238896166020615 -0.00018542881457594157 0 -0.038919648434497786 -0.0013123295663116286 0 -0.038629906311954933 -0.0011155353054654541 0 -0.038798872017967445 -0.00054742057470389424 0 -0.038919648434497786 -0.0013123295663116286 0 -0.038798872017967445 -0.00054742057470389424 0 -0.04023181958949687 -0.00093071567834105123 0 -0.040585535149603794 -0.00094199270397782938 0 -0.045658247710334374 -0.00085260511433112105 0 -0.050989863762995295 0.00021848510238192315 0 -0.050943048825069247 0.00027419655842406381 0 -0.050989863762995295 0.00021848510238192315 0 -0.045658247710334374 -0.00085260511433112105 0 -0.045658247710334374 -0.00085260511433112105 0 -0.039680033774157436 -0.0008246198599212945 0 -0.048482890570776038 -0.00010184703103810515 0 -0.046238896166020615 -0.00018542881457594157 0 -0.044847046554104042 0.00088803961887211152 0 -0.046238896166020615 -0.00018542881457594157 0 -0.044847046554104042 0.00088803961887211152 0 -0.044130602661484102 0.00023290129500000897 0 -0.050943048825069247 0.00027419655842406381 0 -0.04735176520581609 0.0013973783839871658 0 -0.054781320379276369 0.00088209611389942078 0 -0.054346353634109598 0.00098297676244383093 0 -0.054386418254073435 0.0006400584694183527 0 -0.04735176520581609 0.0013973783839871658 0 -0.041950365725844756 0.00062939668202029761 0 -0.039116730056509841 0.0011216880464301321 0 -0.042947490469891665 9.007659867235027e-05 0 -0.042086626711144062 -0.00069812964064729099 0 -0.039680033774157436 -0.0008246198599212945 0 -0.04735176520581609 0.0013973783839871658 0 -0.04735176520581609 0.0013973783839871658 0 -0.051291997856939262 0.0018468085899870019 0 -0.054386418254073435 0.0006400584694183527 0 -0.054716175305284033 0.00042894830763383774 0 -0.054242192459668791 0.00015705158338717276 0 -0.054386418254073435 0.0006400584694183527 0 -0.054242192459668791 0.00015705158338717276 0 -0.054003300237062228 0.00067478974758891576 0 -0.054346353634109598 0.00098297676244383093 0 -0.054386418254073435 0.0006400584694183527 0 -0.054003300237062228 0.00067478974758891576 0 -0.054781320379276369 0.00088209611389942078 0 -0.054386418254073435 0.0006400584694183527 0 -0.054716175305284033 0.00042894830763383774 0 -0.054928401963648468 0.00056834558959319051 0 -0.054781320379276369 0.00088209611389942078 0 -0.054716175305284033 0.00042894830763383774 0 -0.055043560200500399 0.00017443442965806884 0 -0.054928401963648468 0.00056834558959319051 0 -0.054716175305284033 0.00042894830763383774 0 -0.055043560200500399 0.00017443442965806884 0 -0.054716175305284033 0.00042894830763383774 0 -0.054925808459132766 6.1313740713361578e-05 0 -0.054716175305284033 0.00042894830763383774 0 -0.054925808459132766 6.1313740713361578e-05 0 -0.054242192459668791 0.00015705158338717276 0 -0.054925808459132766 6.1313740713361578e-05 0 -0.054999860921895023 -9.3172999703097465e-08 0 -0.054990607117432783 4.9060785774095288e-05 0 -0.054999860921895023 -9.3172999703097465e-08 0 -0.054990607117432783 4.9060785774095288e-05 0 -0.05500004808323726 8.814367658181473e-08 0 -0.055043560200500399 0.00017443442965806884 0 -0.054925808459132766 6.1313740713361578e-05 0 -0.054999860921895023 -9.3172999703097465e-08 0 -0.054990607117432783 4.9060785774095288e-05 0 -0.05500004808323726 8.814367658181473e-08 0 -0.054994201777798214 5.6860199172074844e-05 0 -0.054757568516600769 0.00010183284613815224 0 -0.054979937390238424 1.7173827780941631e-05 0 -0.054990607117432783 4.9060785774095288e-05 0 -0.055027370160931441 6.3284249588645039e-05 0 -0.054994201777798214 5.6860199172074844e-05 0 -0.054925808459132766 6.1313740713361578e-05 0 -0.054990607117432783 4.9060785774095288e-05 0 -0.055027370160931441 6.3284249588645039e-05 0 -0.054979937390238424 1.7173827780941631e-05 0 -0.052609116421833704 0.00087678589735229765 0 -0.055027370160931441 6.3284249588645039e-05 0 -0.054994201777798214 5.6860199172074844e-05 0 -0.054902720484909143 0.00031545693562496497 0 -0.054994201777798214 5.6860199172074844e-05 0 -0.054925161550500069 0.00010306715500569209 0 -0.054902720484909143 0.00031545693562496497 0 -0.05500004808323726 8.814367658181473e-08 0 -0.054994201777798214 5.6860199172074844e-05 0 -0.054966144425125443 -5.589719186500372e-06 0 -0.05500004808323726 8.814367658181473e-08 0 -0.054966144425125443 -5.589719186500372e-06 0 -0.054999795260369126 -7.3500678889960022e-08 0 -0.054994201777798214 5.6860199172074844e-05 0 -0.054966144425125443 -5.589719186500372e-06 0 -0.054925161550500069 0.00010306715500569209 0 -0.054999961748605761 3.8198806169397875e-08 0 -0.054999795260369126 -7.3500678889960022e-08 0 -0.054856650542138292 -6.6928140447327264e-05 0 -0.054966144425125443 -5.589719186500372e-06 0 -0.054999795260369126 -7.3500678889960022e-08 0 -0.054856650542138292 -6.6928140447327264e-05 0 -0.054966144425125443 -5.589719186500372e-06 0 -0.054925161550500069 0.00010306715500569209 0 -0.054856650542138292 -6.6928140447327264e-05 0 -0.05384716865096497 0.00072691138860574817 0 -0.054856650542138292 -6.6928140447327264e-05 0 -0.0546728450936061 0.00036553563303759853 0 -0.054925161550500069 0.00010306715500569209 0 -0.054856650542138292 -6.6928140447327264e-05 0 -0.0546728450936061 0.00036553563303759853 0 -0.054925161550500069 0.00010306715500569209 0 -0.054902720484909143 0.00031545693562496497 0 -0.0546728450936061 0.00036553563303759853 0 -0.052609116421833704 0.00087678589735229765 0 -0.05427608532108457 0.0010877501679277767 0 -0.05384716865096497 0.00072691138860574817 0 -0.055334436962365612 0.00097001139249961496 0 -0.0546728450936061 0.00036553563303759853 0 -0.052563224117712276 0.0017296666462890439 0 -0.05384716865096497 0.00072691138860574817 0 -0.055334436962365612 0.00097001139249961496 0 -0.049200552892441234 0.0026322757720359104 0 -0.048441718408781358 0.0028861219976521238 0 -0.048825690104793047 0.002433980664984803 0 -0.048441718408781358 0.0028861219976521238 0 -0.048825690104793047 0.002433980664984803 0 -0.048421609813016291 0.0023342309895562755 0 -0.05067436844968369 0.0023365254406339888 0 -0.052609116421833704 0.00087678589735229765 0 -0.048441718408781358 0.0028861219976521238 0 -0.048024600648670507 0.0025450589501077605 0 -0.048421609813016291 0.0023342309895562755 0 -0.054242192459668791 0.00015705158338717276 0 -0.05361945894410268 0.00033727587538543206 0 -0.054003300237062228 0.00067478974758891576 0 -0.052609116421833704 0.00087678589735229765 0 -0.051291997856939262 0.0018468085899870019 0 -0.048024600648670507 0.0025450589501077605 0 -0.048147918570642843 0.0020828054623211949 0 -0.048421609813016291 0.0023342309895562755 0 -0.047602919310581665 0.0021722716155740253 0 -0.048024600648670507 0.0025450589501077605 0 -0.048147918570642843 0.0020828054623211949 0 -0.039116730056509841 0.0011216880464301321 0 -0.042086626711144062 -0.00069812964064729099 0 -0.039187817937086859 -0.00014216361186448491 0 -0.035015350245535003 0.00031463456458841058 0 -0.041950365725844756 0.00062939668202029761 0 -0.03923764900811446 -7.7559601959494804e-05 0 -0.039604089514083674 -8.5592823712644209e-06 0 -0.039620303270068852 -0.0001336432393899253 0 -0.044481909344682533 0.00095329247292206989 0 -0.041950365725844756 0.00062939668202029761 0 -0.048865219251597723 0.0020004157353400347 0 -0.048147918570642843 0.0020828054623211949 0 -0.048421609813016291 0.0023342309895562755 0 -0.048865219251597723 0.0020004157353400347 0 -0.048825690104793047 0.002433980664984803 0 -0.048421609813016291 0.0023342309895562755 0 -0.035172943544992584 -0.0011466354035180283 0 -0.033795828822174502 -0.0020401887942472297 0 -0.035865816405208389 -0.0021772606582424526 0 -0.035172943544992584 -0.0011466354035180283 0 -0.035865816405208389 -0.0021772606582424526 0 -0.036214789905551624 -0.00094187471740751066 0 -0.035172943544992584 -0.0011466354035180283 0 -0.036214789905551624 -0.00094187471740751066 0 -0.035591289807802233 -6.9978418206817483e-05 0 -0.035172943544992584 -0.0011466354035180283 0 -0.034355594126556976 -0.00044756060046747197 0 -0.035591289807802233 -6.9978418206817483e-05 0 -0.030462694516131626 -0.0030891593756560815 0 -0.030321081513124612 -0.0029088291769147705 0 -0.030910011872259655 -0.0029802718498847867 0 -0.030462694516131626 -0.0030891593756560815 0 -0.030321081513124612 -0.0029088291769147705 0 -0.03014231242539905 -0.003304642438398446 0 -0.035172943544992584 -0.0011466354035180283 0 -0.034355594126556976 -0.00044756060046747197 0 -0.033795828822174502 -0.0020401887942472297 0 -0.032297017726071339 -0.0025604369010385018 0 -0.031863734465296778 -0.001726124136597076 0 -0.034355594126556976 -0.00044756060046747197 0 -0.033795828822174502 -0.0020401887942472297 0 -0.034514156756787873 0.00079257638261231664 0 -0.032507248520141897 -0.002456790916844121 0 -0.032812235251322257 -0.0030112211313359474 0 -0.033417896494777423 -0.002882647134395244 0 -0.032501260084084702 -0.002530554515605203 0 -0.032434934234343252 -0.0027945400836952468 0 -0.030910011872259655 -0.0029802718498847867 0 -0.032507248520141897 -0.002456790916844121 0 -0.032434934234343252 -0.0027945400836952468 0 -0.032812235251322257 -0.0030112211313359474 0 -0.032434934234343252 -0.0027945400836952468 0 -0.032530079363009362 -0.0031262098632109606 0 -0.032812235251322257 -0.0030112211313359474 0 -0.032297017726071339 -0.0025604369010385018 0 -0.032306932608854227 -0.0025894041237096992 0 -0.032434934234343252 -0.0027945400836952468 0 -0.032220898890096689 -0.0033485881387437704 0 -0.031553296650440162 -0.003340053497664904 0 -0.032434934234343252 -0.0027945400836952468 0 -0.032220898890096689 -0.0033485881387437704 0 -0.032530079363009362 -0.0031262098632109606 0 -0.032220898890096689 -0.0033485881387437704 0 -0.032530079363009362 -0.0031262098632109606 0 -0.032684962516704046 -0.0034641465138679534 0 -0.032323817760009921 -0.0036144412472601459 0 -0.032684962516704046 -0.0034641465138679534 0 -0.032453115850096644 -0.0039059231417353808 0 -0.032220898890096689 -0.0033485881387437704 0 -0.032323817760009921 -0.0036144412472601459 0 -0.032684962516704046 -0.0034641465138679534 0 -0.032220898890096689 -0.0033485881387437704 0 -0.031553296650440162 -0.003340053497664904 0 -0.031950505024294341 -0.0037378117192136892 0 -0.032220898890096689 -0.0033485881387437704 0 -0.032323817760009921 -0.0036144412472601459 0 -0.031950505024294341 -0.0037378117192136892 0 -0.032812235251322257 -0.0030112211313359474 0 -0.033139418579274375 -0.0033361554752942206 0 -0.033417896494777423 -0.002882647134395244 0 -0.032530079363009362 -0.0031262098632109606 0 -0.032812235251322257 -0.0030112211313359474 0 -0.032684962516704046 -0.0034641465138679534 0 -0.032812235251322257 -0.0030112211313359474 0 -0.032684962516704046 -0.0034641465138679534 0 -0.033139418579274375 -0.0033361554752942206 0 -0.032684962516704046 -0.0034641465138679534 0 -0.033139418579274375 -0.0033361554752942206 0 -0.032850002813956447 -0.0038177317836258699 0 -0.033139418579274375 -0.0033361554752942206 0 -0.033321737853398939 -0.0037257144532272493 0 -0.032850002813956447 -0.0038177317836258699 0 -0.033950121340660402 -0.0034054517224942136 0 -0.033417896494777423 -0.002882647134395244 0 -0.034631588276748441 -0.0022264016508542566 0 -0.033139418579274375 -0.0033361554752942206 0 -0.033950121340660402 -0.0034054517224942136 0 -0.033417896494777423 -0.002882647134395244 0 -0.033139418579274375 -0.0033361554752942206 0 -0.033950121340660402 -0.0034054517224942136 0 -0.033321737853398939 -0.0037257144532272493 0 -0.032297017726071339 -0.0025604369010385018 0 -0.035440487381300699 -0.0021958236621497196 0 -0.032507248520141897 -0.002456790916844121 0 -0.033417896494777423 -0.002882647134395244 0 -0.034631588276748441 -0.0022264016508542566 0 -0.033950121340660402 -0.0034054517224942136 0 -0.034631588276748441 -0.0022264016508542566 0 -0.035276612190922284 -0.0037676393726192277 0 -0.034631588276748441 -0.0022264016508542566 0 -0.036187259709919227 -0.0030197567221829508 0 -0.035276612190922284 -0.0037676393726192277 0 -0.034631588276748441 -0.0022264016508542566 0 -0.036187259709919227 -0.0030197567221829508 0 -0.037215287167587582 -0.0021238249806464853 0 -0.035440487381300699 -0.0021958236621497196 0 -0.037639061203715414 -0.0022267128586169042 0 -0.035865816405208389 -0.0021772606582424526 0 -0.038031576911070321 -0.0022786251314938616 0 -0.037447390197955337 -0.0014084171299154598 0 -0.036187259709919227 -0.0030197567221829508 0 -0.03729264891669877 -0.0031824159947857525 0 -0.037215287167587582 -0.0021238249806464853 0 -0.036187259709919227 -0.0030197567221829508 0 -0.03729264891669877 -0.0031824159947857525 0 -0.036570626949869858 -0.003851661821554359 0 -0.038681590179707279 -0.0030882031019489353 0 -0.037884333967897692 -0.0038175688327555133 0 -0.04014844852486011 -0.0038740772903755731 0 -0.037639061203715414 -0.0022267128586169042 0 -0.039931526544040766 -0.0023620739351773359 0 -0.038031576911070321 -0.0022786251314938616 0 -0.039086523252960331 -0.0016626067306980492 0 -0.040150128857250555 -0.0023864885870633519 0 -0.038681590179707279 -0.0030882031019489353 0 -0.037215287167587582 -0.0021238249806464853 0 -0.040150128857250555 -0.0023864885870633519 0 -0.038681590179707279 -0.0030882031019489353 0 -0.03729264891669877 -0.0031824159947857525 0 -0.037884333967897692 -0.0038175688327555133 0 -0.038681590179707279 -0.0030882031019489353 0 -0.03729264891669877 -0.0031824159947857525 0 -0.037215287167587582 -0.0021238249806464853 0 -0.039086523252960331 -0.0016626067306980492 0 -0.039011199677697554 -0.00088107803355193671 0 -0.039897545160042479 -0.0013723530177792865 0 -0.039086523252960331 -0.0016626067306980492 0 -0.038349472097717184 -0.0013783948383157627 0 -0.039011199677697554 -0.00088107803355193671 0 -0.038031576911070321 -0.0022786251314938616 0 -0.039086523252960331 -0.0016626067306980492 0 -0.038349472097717184 -0.0013783948383157627 0 -0.038349472097717184 -0.0013783948383157627 0 -0.038248479233936254 -0.00064425827308720257 0 -0.037447390197955337 -0.0014084171299154598 0 -0.038031576911070321 -0.0022786251314938616 0 -0.038349472097717184 -0.0013783948383157627 0 -0.037447390197955337 -0.0014084171299154598 0 -0.038248479233936254 -0.00064425827308720257 0 -0.037447390197955337 -0.0014084171299154598 0 -0.037753566194261165 -0.00015547008930916195 0 -0.038248479233936254 -0.00064425827308720257 0 -0.037753566194261165 -0.00015547008930916195 0 -0.038282282236175739 0.00014040200111014407 0 -0.038248479233936254 -0.00064425827308720257 0 -0.038650510773955357 -0.00035158764842812537 0 -0.038282282236175739 0.00014040200111014407 0 -0.038349472097717184 -0.0013783948383157627 0 -0.038248479233936254 -0.00064425827308720257 0 -0.039011199677697554 -0.00088107803355193671 0 -0.039011199677697554 -0.00088107803355193671 0 -0.038650510773955357 -0.00035158764842812537 0 -0.03906207598423516 -2.3383140459888654e-05 0 -0.039011199677697554 -0.00088107803355193671 0 -0.03906207598423516 -2.3383140459888654e-05 0 -0.039686641152726937 -0.00061669343219550223 0 -0.038248479233936254 -0.00064425827308720257 0 -0.039011199677697554 -0.00088107803355193671 0 -0.038650510773955357 -0.00035158764842812537 0 -0.037447390197955337 -0.0014084171299154598 0 -0.036996065238143708 0.00032571698118830241 0 -0.037753566194261165 -0.00015547008930916195 0 -0.037447390197955337 -0.0014084171299154598 0 -0.036214789905551624 -0.00094187471740751066 0 -0.036880011167606523 0.00021078605325053281 0 -0.037416224464373142 -0.0013030595352418214 0 -0.036875014154506107 0.0004731251571143078 0 -0.035865816405208389 -0.0021772606582424526 0 -0.037447390197955337 -0.0014084171299154598 0 -0.036214789905551624 -0.00094187471740751066 0 -0.036880011167606523 0.00021078605325053281 0 -0.036365374610807653 0.0018342807286499169 0 -0.035936154248070097 0.00080653988389605921 0 -0.036880011167606523 0.00021078605325053281 0 -0.035936154248070097 0.00080653988389605921 0 -0.035591289807802233 -6.9978418206817483e-05 0 -0.036996065238143708 0.00032571698118830241 0 -0.036526750379307915 0.0019420336842812672 0 -0.037314454031733571 0.0015272788734126731 0 -0.036875014154506107 0.0004731251571143078 0 -0.0360164927796328 0.00021861055859889839 0 -0.036214789905551624 -0.00094187471740751066 0 -0.036880011167606523 0.00021078605325053281 0 -0.035591289807802233 -6.9978418206817483e-05 0 -0.036996065238143708 0.00032571698118830241 0 -0.037753566194261165 -0.00015547008930916195 0 -0.037780209799265017 0.00076696810109463487 0 -0.036996065238143708 0.00032571698118830241 0 -0.037780209799265017 0.00076696810109463487 0 -0.037314454031733571 0.0015272788734126731 0 -0.037780209799265017 0.00076696810109463487 0 -0.037899892695772368 0.0015147527763291694 0 -0.037314454031733571 0.0015272788734126731 0 -0.03906207598423516 -2.3383140459888654e-05 0 -0.038571434504572226 0.00073939951480260209 0 -0.040131711905737159 0.00031258469510327705 0 -0.038650510773955357 -0.00035158764842812537 0 -0.03906207598423516 -2.3383140459888654e-05 0 -0.038282282236175739 0.00014040200111014407 0 -0.03906207598423516 -2.3383140459888654e-05 0 -0.038282282236175739 0.00014040200111014407 0 -0.038571434504572226 0.00073939951480260209 0 -0.037753566194261165 -0.00015547008930916195 0 -0.037780209799265017 0.00076696810109463487 0 -0.038282282236175739 0.00014040200111014407 0 -0.037780209799265017 0.00076696810109463487 0 -0.038282282236175739 0.00014040200111014407 0 -0.038571434504572226 0.00073939951480260209 0 -0.038571434504572226 0.00073939951480260209 0 -0.038519217669661057 0.0016476821264809541 0 -0.037899892695772368 0.0015147527763291694 0 -0.037780209799265017 0.00076696810109463487 0 -0.038571434504572226 0.00073939951480260209 0 -0.037899892695772368 0.0015147527763291694 0 -0.041072064455417348 0.00050524524285439759 0 -0.045265265923201653 0.00034353672796621934 0 -0.038571434504572226 0.00073939951480260209 0 -0.038519217669661057 0.0016476821264809541 0 -0.040131711905737159 0.00031258469510327705 0 -0.037319868901620985 -0.0034764521931939267 0 -0.037312919039051262 -0.0035637213569329035 0 -0.037264982907568495 -0.0035157853652647685 0 -0.038494579850210216 0.0016251426013469338 0 -0.037899892695772368 0.0015147527763291694 0 -0.037514788827811285 0.0024751337556970267 0 -0.041072064455417348 0.00050524524285439759 0 -0.036783364594681102 -0.0018966545822277105 0 -0.041072064455417348 0.00050524524285439759 0 -0.03897082237970987 0.00058849131120387117 0 -0.035861214245575077 -0.0021310656886433534 0 -0.035693007585885811 -0.0015359585295394533 0 -0.035355374634544891 -0.0017264439272706913 0 -0.037899892695772368 0.0015147527763291694 0 -0.037314454031733571 0.0015272788734126731 0 -0.037514788827811285 0.0024751337556970267 0 -0.036526750379307915 0.0019420336842812672 0 -0.037314454031733571 0.0015272788734126731 0 -0.037514788827811285 0.0024751337556970267 0 -0.0360164927796328 0.00021861055859889839 0 -0.036783364594681102 -0.0018966545822277105 0 -0.034431051467393406 -0.0030200480144666093 0 -0.034143158445354399 -0.00039191536640085009 0 -0.031078235814828888 -0.0032365840132224225 0 -0.031863734465296778 -0.001726124136597076 0 -0.032143443884089351 -0.0032818756710812171 0 -0.032805170227904197 -0.0024729806209069509 0 -0.03283417650964017 -0.001354614508318945 0 -0.034431051467393406 -0.0030200480144666093 0 -0.0360164927796328 0.00021861055859889839 0 -0.034657409136281105 -0.002021594433655309 0 -0.034328897310872811 -0.00093631471848556764 0 -0.035225960777708419 -0.00043849923409460076 0 -0.032805170227904197 -0.0024729806209069509 0 -0.03283417650964017 -0.001354614508318945 0 -0.033117680205370155 -0.0011967826401830884 0 -0.0360164927796328 0.00021861055859889839 0 -0.034143158445354399 -0.00039191536640085009 0 -0.036365374610807653 0.0018342807286499169 0 -0.035936154248070097 0.00080653988389605921 0 -0.034914447067223811 0.0010515928889107469 0 -0.035936154248070097 0.00080653988389605921 0 -0.034914447067223811 0.0010515928889107469 0 -0.035591289807802233 -6.9978418206817483e-05 0 -0.034143158445354399 -0.00039191536640085009 0 -0.031863734465296778 -0.001726124136597076 0 -0.034355594126556976 -0.00044756060046747197 0 -0.03488172437954204 0.00099252937762571024 0 -0.034514156756787873 0.00079257638261231664 0 -0.034355594126556976 -0.00044756060046747197 0 -0.034914447067223811 0.0010515928889107469 0 -0.035591289807802233 -6.9978418206817483e-05 0 -0.034579370500001108 0.00020085568401398478 0 -0.034143158445354399 -0.00039191536640085009 0 -0.030462694516131626 -0.0030891593756560815 0 -0.030273182372011459 -0.0031813884656951082 0 -0.03014231242539905 -0.003304642438398446 0 -0.029490810596759284 -0.0035573076865225294 0 -0.031863734465296778 -0.001726124136597076 0 -0.030273182372011459 -0.0031813884656951082 0 -0.02961742470231233 -0.0032863328337738901 0 -0.029971144213621792 -0.0034138928903934161 0 -0.029416363430030103 -0.0037218631102232018 0 -0.02961742470231233 -0.0032863328337738901 0 -0.029699370946086864 -0.0036052700016684768 0 -0.029971144213621792 -0.0034138928903934161 0 -0.029699370946086864 -0.0036052700016684768 0 -0.029890786370973189 -0.0036433057059062318 0 -0.02961742470231233 -0.0032863328337738901 0 -0.029971144213621792 -0.0034138928903934161 0 -0.029699370946086864 -0.0036052700016684768 0 -0.029566524836810059 -0.0038930915862436274 0 -0.029416363430030103 -0.0037218631102232018 0 -0.029699370946086864 -0.0036052700016684768 0 -0.029566524836810059 -0.0038930915862436274 0 -0.029699370946086864 -0.0036052700016684768 0 -0.029890786370973189 -0.0036433057059062318 0 -0.029797701638446059 -0.0038766950145902586 0 -0.029890786370973189 -0.0036433057059062318 0 -0.030072317947997772 -0.003696924646537062 0 -0.029971144213621792 -0.0034138928903934161 0 -0.029890786370973189 -0.0036433057059062318 0 -0.030260841309261453 -0.0033792411955743482 0 -0.029890786370973189 -0.0036433057059062318 0 -0.030072317947997772 -0.003696924646537062 0 -0.030260841309261453 -0.0033792411955743482 0 -0.030072317947997772 -0.003696924646537062 0 -0.030321004229208956 -0.0035239066851258994 0 -0.030260841309261453 -0.0033792411955743482 0 -0.030264524873701296 -0.0038175190111157378 0 -0.030072317947997772 -0.003696924646537062 0 -0.030321004229208956 -0.0035239066851258994 0 -0.030321004229208956 -0.0035239066851258994 0 -0.030516152081085299 -0.0032798213696294213 0 -0.030260841309261453 -0.0033792411955743482 0 -0.030264524873701296 -0.0038175190111157378 0 -0.030441483165533623 -0.0035990399738751217 0 -0.030321004229208956 -0.0035239066851258994 0 -0.030441483165533623 -0.0035990399738751217 0 -0.030475811448627727 -0.0034573090459139137 0 -0.030321004229208956 -0.0035239066851258994 0 -0.030441483165533623 -0.0035990399738751217 0 -0.030475811448627727 -0.0034573090459139137 0 -0.030605922916619403 -0.0035080249705684769 0 -0.030475811448627727 -0.0034573090459139137 0 -0.030321004229208956 -0.0035239066851258994 0 -0.030516152081085299 -0.0032798213696294213 0 -0.030475811448627727 -0.0034573090459139137 0 -0.030516152081085299 -0.0032798213696294213 0 -0.030605922916619403 -0.0035080249705684769 0 -0.030516152081085299 -0.0032798213696294213 0 -0.030260841309261453 -0.0033792411955743482 0 -0.030564853926263583 -0.0031430876544754154 0 -0.030273182372011459 -0.0031813884656951082 0 -0.030260841309261453 -0.0033792411955743482 0 -0.030564853926263583 -0.0031430876544754154 0 -0.030273182372011459 -0.0031813884656951082 0 -0.029971144213621792 -0.0034138928903934161 0 -0.030260841309261453 -0.0033792411955743482 0 -0.028755607686085555 -0.0040942324677958244 0 -0.030505230043824723 -0.0031811857827946681 0 -0.02683117609167026 -0.0037582649685925394 0 -0.02878879588431121 -0.0032946068711055794 0 -0.029976807460532898 -0.0029095385409461387 0 -0.029974673083729662 -0.0030315619801201542 0 -0.030135082302134956 -0.0032016104400891488 0 -0.027688573218616487 -0.0041601317956585617 0 -0.027899973177294632 -0.0043191552387706941 0 -0.027679798832966361 -0.003606804595756373 0 -0.027961016764992422 -0.0033431401118968677 0 -0.028122581661914021 -0.0034493065648953003 0 -0.028129697698810862 -0.0034690786579641324 0 -0.02878879588431121 -0.0032946068711055794 0 -0.028755607686085555 -0.0040942324677958244 0 -0.029864160838590545 -0.0030377758735004303 0 -0.029871926814972121 -0.0030609605995001103 0 -0.029974673083729662 -0.0030315619801201542 0 -0.02878879588431121 -0.0032946068711055794 0 -0.029109256128685135 -0.0032946834727328009 0 -0.027688573218616487 -0.0041601317956585617 0 -0.027679798832966361 -0.003606804595756373 0 -0.027357934105570064 -0.0039658023225187401 0 -0.029864160838590545 -0.0030377758735004303 0 -0.029976807460532898 -0.0029095385409461387 0 -0.029974673083729662 -0.0030315619801201542 0 -0.030882523013910226 -0.0036078638990527435 0 -0.030605922916619403 -0.0035080249705684769 0 -0.030691336662196266 -0.0032743980091329552 0 -0.030639170202105576 -0.0037186240350281694 0 -0.030882523013910226 -0.0036078638990527435 0 -0.030605922916619403 -0.0035080249705684769 0 -0.030520833687251413 -0.0037236960669617615 0 -0.030441483165533623 -0.0035990399738751217 0 -0.030605922916619403 -0.0035080249705684769 0 -0.030520833687251413 -0.0037236960669617615 0 -0.030639170202105576 -0.0037186240350281694 0 -0.030605922916619403 -0.0035080249705684769 0 -0.030516152081085299 -0.0032798213696294213 0 -0.030605922916619403 -0.0035080249705684769 0 -0.030691336662196266 -0.0032743980091329552 0 -0.030516152081085299 -0.0032798213696294213 0 -0.030691336662196266 -0.0032743980091329552 0 -0.030524214387655745 -0.0031080282731868396 0 -0.030135082302134956 -0.0032016104400891488 0 -0.030011226364392164 -0.0032744723335931709 0 -0.030063104472589794 -0.0034209678015164691 0 -0.029871926814972121 -0.0030609605995001103 0 -0.029974673083729662 -0.0030315619801201542 0 -0.030050794015547076 -0.0031817747299456487 0 -0.029109256128685135 -0.0032946834727328009 0 -0.030018611442844293 -0.0033225064550807116 0 -0.029974673083729662 -0.0030315619801201542 0 -0.030135082302134956 -0.0032016104400891488 0 -0.030050794015547076 -0.0031817747299456487 0 -0.02985164748868762 -0.0030285255583264023 0 -0.030050794015547076 -0.0031817747299456487 0 -0.029917770441191736 -0.0032143324573427781 0 -0.030011226364392164 -0.0032744723335931709 0 -0.029913539114596308 -0.0033556666796791261 0 -0.030063104472589794 -0.0034209678015164691 0 -0.030135082302134956 -0.0032016104400891488 0 -0.030050794015547076 -0.0031817747299456487 0 -0.030011226364392164 -0.0032744723335931709 0 -0.030011226364392164 -0.0032744723335931709 0 -0.029917770441191736 -0.0032143324573427781 0 -0.029913539114596308 -0.0033556666796791261 0 -0.030050794015547076 -0.0031817747299456487 0 -0.030011226364392164 -0.0032744723335931709 0 -0.029917770441191736 -0.0032143324573427781 0 -0.029917770441191736 -0.0032143324573427781 0 -0.029913539114596308 -0.0033556666796791261 0 -0.029795920683833181 -0.0032768336103413723 0 -0.029913539114596308 -0.0033556666796791261 0 -0.029795920683833181 -0.0032768336103413723 0 -0.029771510807056367 -0.0034209026039872473 0 -0.029644883080498237 -0.0029804594549041486 0 -0.029823317905225265 -0.0029230607084157856 0 -0.029917770441191736 -0.0032143324573427781 0 -0.029109256128685135 -0.0032946834727328009 0 -0.029629015259721565 -0.0032316725414622055 0 -0.029644883080498237 -0.0029804594549041486 0 -0.029917770441191736 -0.0032143324573427781 0 -0.029795920683833181 -0.0032768336103413723 0 -0.029728045742539275 -0.0036021692429956146 0 -0.029907300032371204 -0.0034960025585839441 0 -0.030056899505621876 -0.0036833249186129374 0 -0.029728045742539275 -0.0036021692429956146 0 -0.029771510807056367 -0.0034209026039872473 0 -0.029907300032371204 -0.0034960025585839441 0 -0.029913539114596308 -0.0033556666796791261 0 -0.029771510807056367 -0.0034209026039872473 0 -0.029907300032371204 -0.0034960025585839441 0 -0.029913539114596308 -0.0033556666796791261 0 -0.029907300032371204 -0.0034960025585839441 0 -0.030063104472589794 -0.0034209678015164691 0 -0.029907300032371204 -0.0034960025585839441 0 -0.030063104472589794 -0.0034209678015164691 0 -0.030056899505621876 -0.0036833249186129374 0 -0.030505230043824723 -0.0031811857827946681 0 -0.030433029180920099 -0.0033703832630601286 0 -0.030135082302134956 -0.0032016104400891488 0 -0.030063104472589794 -0.0034209678015164691 0 -0.030329158768549028 -0.0035418002405109726 0 -0.030063104472589794 -0.0034209678015164691 0 -0.030329158768549028 -0.0035418002405109726 0 -0.030056899505621876 -0.0036833249186129374 0 -0.030056899505621876 -0.0036833249186129374 0 -0.030565757032077659 -0.0038019657581502431 0 -0.029995680997764198 -0.0041155958792109563 0 -0.030329158768549028 -0.0035418002405109726 0 -0.030056899505621876 -0.0036833249186129374 0 -0.030565757032077659 -0.0038019657581502431 0 -0.029743313791868453 -0.0038683541413391839 0 -0.030056899505621876 -0.0036833249186129374 0 -0.029995680997764198 -0.0041155958792109563 0 -0.029728045742539275 -0.0036021692429956146 0 -0.029743313791868453 -0.0038683541413391839 0 -0.030056899505621876 -0.0036833249186129374 0 -0.030462694516131626 -0.0030891593756560815 0 -0.030273182372011459 -0.0031813884656951082 0 -0.030564853926263583 -0.0031430876544754154 0 -0.030564853926263583 -0.0031430876544754154 0 -0.030691069697507466 -0.0031593757964646745 0 -0.030910011872259655 -0.0029802718498847867 0 -0.030462694516131626 -0.0030891593756560815 0 -0.030564853926263583 -0.0031430876544754154 0 -0.030910011872259655 -0.0029802718498847867 0 -0.030524214387655745 -0.0031080282731868396 0 -0.030564853926263583 -0.0031430876544754154 0 -0.030691069697507466 -0.0031593757964646745 0 -0.030516152081085299 -0.0032798213696294213 0 -0.030524214387655745 -0.0031080282731868396 0 -0.030564853926263583 -0.0031430876544754154 0 -0.030524214387655745 -0.0031080282731868396 0 -0.030691069697507466 -0.0031593757964646745 0 -0.030565757032077659 -0.0038019657581502431 0 -0.030433029180920099 -0.0033703832630601286 0 -0.030570649986854891 -0.0037705032337132741 0 -0.030691069697507466 -0.0031593757964646745 0 -0.030565757032077659 -0.0038019657581502431 0 -0.031083377731088706 -0.0036611464154491205 0 -0.032297017726071339 -0.0025604369010385018 0 -0.030751630288719061 -0.0028580689324214426 0 -0.030691069697507466 -0.0031593757964646745 0 -0.031083377731088706 -0.0036611464154491205 0 -0.030910011872259655 -0.0029802718498847867 0 -0.032434934234343252 -0.0027945400836952468 0 -0.030910011872259655 -0.0029802718498847867 0 -0.031553296650440162 -0.003340053497664904 0 -0.031083377731088706 -0.0036611464154491205 0 -0.031553296650440162 -0.003340053497664904 0 -0.031950505024294341 -0.0037378117192136892 0 -0.031083377731088706 -0.0036611464154491205 0 -0.030910011872259655 -0.0029802718498847867 0 -0.031553296650440162 -0.003340053497664904 0 -0.031083377731088706 -0.0036611464154491205 0 -0.031672867581608061 -0.0043684943265438776 0 -0.031950505024294341 -0.0037378117192136892 0 -0.031083377731088706 -0.0036611464154491205 0 -0.031672867581608061 -0.0043684943265438776 0 -0.030958523041200964 -0.0045566657983990887 0 -0.031672867581608061 -0.0043684943265438776 0 -0.031950505024294341 -0.0037378117192136892 0 -0.032248092429207613 -0.0042652842502249756 0 -0.031672867581608061 -0.0043684943265438776 0 -0.030958523041200964 -0.0045566657983990887 0 -0.031910525179940648 -0.0049692252056183347 0 -0.031672867581608061 -0.0043684943265438776 0 -0.031910525179940648 -0.0049692252056183347 0 -0.032333662624433893 -0.0047456153664667128 0 -0.030565757032077659 -0.0038019657581502431 0 -0.030958523041200964 -0.0045566657983990887 0 -0.030336621642952664 -0.0044546054592107037 0 -0.030565757032077659 -0.0038019657581502431 0 -0.031083377731088706 -0.0036611464154491205 0 -0.030958523041200964 -0.0045566657983990887 0 -0.030958523041200964 -0.0045566657983990887 0 -0.030336621642952664 -0.0044546054592107037 0 -0.030470331019594253 -0.0050441081607255573 0 -0.030958523041200964 -0.0045566657983990887 0 -0.030470331019594253 -0.0050441081607255573 0 -0.031365474780377309 -0.0055277521951629426 0 -0.030958523041200964 -0.0045566657983990887 0 -0.031910525179940648 -0.0049692252056183347 0 -0.031365474780377309 -0.0055277521951629426 0 -0.029498212501710631 -0.004169474751991779 0 -0.029995680997764198 -0.0041155958792109563 0 -0.029951154641002307 -0.0047490048092846361 0 -0.029995680997764198 -0.0041155958792109563 0 -0.030336621642952664 -0.0044546054592107037 0 -0.029951154641002307 -0.0047490048092846361 0 -0.030565757032077659 -0.0038019657581502431 0 -0.029995680997764198 -0.0041155958792109563 0 -0.030336621642952664 -0.0044546054592107037 0 -0.04055668943586202 -0.0017364837197682186 0 -0.036937416732065229 -0.001148432095442778 0 -0.040114277814974224 -0.0020230469412381609 0 -0.033718553793334612 -0.0033764848096750834 0 -0.038642758768616184 -0.0017221372742900428 0 -0.030336621642952664 -0.0044546054592107037 0 -0.030470331019594253 -0.0050441081607255573 0 -0.029951154641002307 -0.0047490048092846361 0 -0.038642758768616184 -0.0017221372742900428 0 -0.042501189623482843 -0.0011592891216503462 0 -0.047551534965642253 -0.00058676683529133497 0 -0.047065807096256733 -0.00048118648715380372 0 -0.047333941414654003 -0.00097426884809576856 0 -0.038642758768616184 -0.0017221372742900428 0 -0.042785835665138154 -0.0015341664883456946 0 -0.047551534965642253 -0.00058676683529133497 0 -0.047333941414654003 -0.00097426884809576856 0 -0.048490746392194008 -0.0016886050198332537 0 -0.054727600132505147 -0.00011326738902803297 0 -0.054467052693397452 -0.00033184653288908649 0 -0.054543110618683492 1.3858642516077965e-05 0 -0.051018017673151103 -0.00066784412680085 0 -0.052716548166832605 -0.00021546222120770372 0 -0.054467052693397452 -0.00033184653288908649 0 -0.054113535979358515 -0.00012880948115704448 0 -0.054543110618683492 1.3858642516077965e-05 0 -0.038642758768616184 -0.0017221372742900428 0 -0.051193173409680715 -0.00088877082983986847 0 -0.041144254843369504 0.00070424129868511352 0 -0.045697052858325184 -0.00049389216230624874 0 -0.045992443990131811 -0.0033506558199525669 0 -0.047551534965642253 -0.00058676683529133497 0 -0.04878083038215731 -0.0015751621666561459 0 -0.048490746392194008 -0.0016886050198332537 0 -0.051193173409680715 -0.00088877082983986847 0 -0.052716548166832605 -0.00021546222120770372 0 -0.054989124201943664 -1.9358667042426202e-06 0 -0.055000006991694161 -9.5498152459759642e-09 0 -0.055001362759844755 1.8564375404765985e-06 0 -0.054999917553772086 4.4951180090230093e-08 0 -0.055000006991694161 -9.5498152459759642e-09 0 -0.055001362759844755 1.8564375404765985e-06 0 -0.052716548166832605 -0.00021546222120770372 0 -0.055134651243423143 9.8580119013041848e-05 0 -0.054887099038442043 6.2747021341761069e-05 0 -0.054799482669446321 0.00012892959727849929 0 -0.054968931789571254 4.1653670082806261e-05 0 -0.054841873693096302 7.6056057489651581e-05 0 -0.054879948157185228 5.2866962328499817e-05 0 -0.054836497050752303 8.5166552522251886e-05 0 -0.054879948157185228 5.2866962328499817e-05 0 -0.054887099038442043 6.2747021341761069e-05 0 -0.054836497050752303 8.5166552522251886e-05 0 -0.054841873693096302 7.6056057489651581e-05 0 -0.054879948157185228 5.2866962328499817e-05 0 -0.05484287866606221 4.3760726282177019e-05 0 -0.054879948157185228 5.2866962328499817e-05 0 -0.054887099038442043 6.2747021341761069e-05 0 -0.05494794458221585 2.0523847070434158e-05 0 -0.054887099038442043 6.2747021341761069e-05 0 -0.054836497050752303 8.5166552522251886e-05 0 -0.054799482669446321 0.00012892959727849929 0 -0.054248697192339879 -0.0010647991693382784 0 -0.049736848686544786 -0.00093550152159505484 0 -0.054841873693096302 7.6056057489651581e-05 0 -0.054836497050752303 8.5166552522251886e-05 0 -0.054806870011038719 0.00011517354625439979 0 -0.054836497050752303 8.5166552522251886e-05 0 -0.054799482669446321 0.00012892959727849929 0 -0.054665244683348616 9.5628497460196042e-05 0 -0.043109081207959074 -0.0022135917429425287 0 -0.049736848686544786 -0.00093550152159505484 0 -0.042501189623482843 -0.0011592891216503462 0 -0.049736848686544786 -0.00093550152159505484 0 -0.045697052858325184 -0.00049389216230624874 0 -0.045992443990131811 -0.0033506558199525669 0 -0.050217561796473811 -0.0017019762631545093 0 -0.054642781465166476 5.9488189163766923e-05 0 -0.054806870011038719 0.00011517354625439979 0 -0.05484287866606221 4.3760726282177019e-05 0 -0.033718553793334612 -0.0033764848096750834 0 -0.043109081207959074 -0.0022135917429425287 0 -0.04055668943586202 -0.0017364837197682186 0 -0.044524411739831175 -0.002527411810187868 0 -0.04342277936646767 -0.0029470559371566072 0 -0.04055668943586202 -0.0017364837197682186 0 -0.040114277814974224 -0.0020230469412381609 0 -0.04342277936646767 -0.0029470559371566072 0 -0.051193173409680715 -0.00088877082983986847 0 -0.049736848686544786 -0.00093550152159505484 0 -0.054841873693096302 7.6056057489651581e-05 0 -0.054806870011038719 0.00011517354625439979 0 -0.05484287866606221 4.3760726282177019e-05 0 -0.051193173409680715 -0.00088877082983986847 0 -0.055196840757517185 -0.00038492519451174806 0 -0.052716548166832605 -0.00021546222120770372 0 -0.055196840757517185 -0.00038492519451174806 0 -0.052647951452810218 0.00034403694070602462 0 -0.052236426664192037 0.00018304854284112679 0 -0.054534192792401973 -0.0012262106191335083 0 -0.055000006991694161 -9.5498152459759642e-09 0 -0.054999233925543331 -5.0747905592087977e-07 0 -0.054999986184362387 1.4201194849325618e-09 0 -0.054989124201943664 -1.9358667042426202e-06 0 -0.055000006991694161 -9.5498152459759642e-09 0 -0.054999233925543331 -5.0747905592087977e-07 0 -0.054642781465166476 5.9488189163766923e-05 0 -0.05484287866606221 4.3760726282177019e-05 0 -0.054933083944241401 -1.4945918899292747e-05 0 -0.054933083944241401 -1.4945918899292747e-05 0 -0.054919008033672098 2.1313434013798361e-05 0 -0.054975100656957779 4.6250173001429278e-06 0 -0.054933083944241401 -1.4945918899292747e-05 0 -0.054999568325577154 -9.9044297466918431e-08 0 -0.054975100656957779 4.6250173001429278e-06 0 -0.055196840757517185 -0.00038492519451174806 0 -0.055000015381681984 -4.9362625088002092e-07 0 -0.05484287866606221 4.3760726282177019e-05 0 -0.054933083944241401 -1.4945918899292747e-05 0 -0.054919008033672098 2.1313434013798361e-05 0 -0.054879948157185228 5.2866962328499817e-05 0 -0.05484287866606221 4.3760726282177019e-05 0 -0.054919008033672098 2.1313434013798361e-05 0 -0.054879948157185228 5.2866962328499817e-05 0 -0.054919008033672098 2.1313434013798361e-05 0 -0.05494794458221585 2.0523847070434158e-05 0 -0.054919008033672098 2.1313434013798361e-05 0 -0.05494794458221585 2.0523847070434158e-05 0 -0.054975100656957779 4.6250173001429278e-06 0 -0.054999568325577154 -9.9044297466918431e-08 0 -0.054975100656957779 4.6250173001429278e-06 0 -0.055000046112456548 3.5345498761175328e-08 0 -0.05494794458221585 2.0523847070434158e-05 0 -0.054975100656957779 4.6250173001429278e-06 0 -0.055000046112456548 3.5345498761175328e-08 0 -0.05494794458221585 2.0523847070434158e-05 0 -0.055000046112456548 3.5345498761175328e-08 0 -0.054968931789571254 4.1653670082806261e-05 0 -0.055000046112456548 3.5345498761175328e-08 0 -0.054968931789571254 4.1653670082806261e-05 0 -0.05498264018851607 1.4110905551719866e-05 0 -0.046984524929415794 -0.00010014357273517776 0 -0.047750036674125383 0.00058428286156425265 0 -0.049199159687887281 -0.00032691544561268786 0 -0.047750036674125383 0.00058428286156425265 0 -0.048769411202877755 0.00066326731999414126 0 -0.049199159687887281 -0.00032691544561268786 0 -0.052337747619244243 0.00012759681991788592 0 -0.051783127377089205 -0.00013939170026923227 0 -0.044609097290334555 0.00030221220136213763 0 -0.046984524929415794 -0.00010014357273517776 0 -0.046637452896175484 0.00051984849311895089 0 -0.054887099038442043 6.2747021341761069e-05 0 -0.05494794458221585 2.0523847070434158e-05 0 -0.054968931789571254 4.1653670082806261e-05 0 -0.043109081207959074 -0.0022135917429425287 0 -0.052337747619244243 0.00012759681991788592 0 -0.046984524929415794 -0.00010014357273517776 0 -0.046637452896175484 0.00051984849311895089 0 -0.047750036674125383 0.00058428286156425265 0 -0.031910525179940648 -0.0049692252056183347 0 -0.031365474780377309 -0.0055277521951629426 0 -0.03315401794991199 -0.0054610233507747744 0 -0.044609097290334555 0.00030221220136213763 0 -0.046637452896175484 0.00051984849311895089 0 -0.047173965174411157 0.0012990215654143016 0 -0.043109081207959074 -0.0022135917429425287 0 -0.038770467834848658 -0.0026296007203617335 0 -0.031910525179940648 -0.0049692252056183347 0 -0.032683807096541603 -0.0050145351245683388 0 -0.03315401794991199 -0.0054610233507747744 0 -0.031910525179940648 -0.0049692252056183347 0 -0.032683807096541603 -0.0050145351245683388 0 -0.032333662624433893 -0.0047456153664667128 0 -0.032683807096541603 -0.0050145351245683388 0 -0.032333662624433893 -0.0047456153664667128 0 -0.03267308963385214 -0.0047732827055515722 0 -0.032683807096541603 -0.0050145351245683388 0 -0.03325368821142044 -0.005072594876104633 0 -0.033053534407316759 -0.004789482220581693 0 -0.032683807096541603 -0.0050145351245683388 0 -0.03267308963385214 -0.0047732827055515722 0 -0.033053534407316759 -0.004789482220581693 0 -0.032683807096541603 -0.0050145351245683388 0 -0.03315401794991199 -0.0054610233507747744 0 -0.03325368821142044 -0.005072594876104633 0 -0.046637452896175484 0.00051984849311895089 0 -0.047173965174411157 0.0012990215654143016 0 -0.047750036674125383 0.00058428286156425265 0 -0.0405247920545296 -0.0024670268753687985 0 -0.047149743479272289 -0.00012070196059294789 0 -0.033579224087350132 -0.0054659453997925522 0 -0.033799451974342865 -0.0051646978511471608 0 -0.036290804782586887 -0.0050620133892700413 0 -0.047173965174411157 0.0012990215654143016 0 -0.047750036674125383 0.00058428286156425265 0 -0.047538144347623039 0.0014269010995950709 0 -0.048581028326541917 0.0010926900479625054 0 -0.047538144347623039 0.0014269010995950709 0 -0.049566921196152303 0.0016408047791629105 0 -0.0405247920545296 -0.0024670268753687985 0 -0.039148439815392691 -0.0036582958167135564 0 -0.047750036674125383 0.00058428286156425265 0 -0.048581028326541917 0.0010926900479625054 0 -0.048769411202877755 0.00066326731999414126 0 -0.047750036674125383 0.00058428286156425265 0 -0.048581028326541917 0.0010926900479625054 0 -0.047538144347623039 0.0014269010995950709 0 -0.038770467834848658 -0.0026296007203617335 0 -0.0405247920545296 -0.0024670268753687985 0 -0.03315401794991199 -0.0054610233507747744 0 -0.033579224087350132 -0.0054659453997925522 0 -0.033799451974342865 -0.0051646978511471608 0 -0.03315401794991199 -0.0054610233507747744 0 -0.033799451974342865 -0.0051646978511471608 0 -0.03325368821142044 -0.005072594876104633 0 -0.033799451974342865 -0.0051646978511471608 0 -0.03325368821142044 -0.005072594876104633 0 -0.033513165937965869 -0.0047833641930536885 0 -0.033799451974342865 -0.0051646978511471608 0 -0.034741966732619978 -0.0047927055595302593 0 -0.036290804782586887 -0.0050620133892700413 0 -0.033513165937965869 -0.0047833641930536885 0 -0.033280665447845532 -0.0045175805370540447 0 -0.033053534407316759 -0.004789482220581693 0 -0.03325368821142044 -0.005072594876104633 0 -0.033513165937965869 -0.0047833641930536885 0 -0.033053534407316759 -0.004789482220581693 0 -0.033799451974342865 -0.0051646978511471608 0 -0.033513165937965869 -0.0047833641930536885 0 -0.033982995742498641 -0.0046736474468455809 0 -0.033513165937965869 -0.0047833641930536885 0 -0.033982995742498641 -0.0046736474468455809 0 -0.033668872560643666 -0.0043745470237338798 0 -0.033982995742498641 -0.0046736474468455809 0 -0.033668872560643666 -0.0043745470237338798 0 -0.034260122546945562 -0.0041096508517853474 0 -0.033513165937965869 -0.0047833641930536885 0 -0.033668872560643666 -0.0043745470237338798 0 -0.033280665447845532 -0.0045175805370540447 0 -0.033668872560643666 -0.0043745470237338798 0 -0.033280665447845532 -0.0045175805370540447 0 -0.033275714838503008 -0.004157412865234438 0 -0.033799451974342865 -0.0051646978511471608 0 -0.033982995742498641 -0.0046736474468455809 0 -0.034741966732619978 -0.0047927055595302593 0 -0.033982995742498641 -0.0046736474468455809 0 -0.034510000966034668 -0.0045694381027128013 0 -0.034260122546945562 -0.0041096508517853474 0 -0.033982995742498641 -0.0046736474468455809 0 -0.034741966732619978 -0.0047927055595302593 0 -0.034510000966034668 -0.0045694381027128013 0 -0.034510000966034668 -0.0045694381027128013 0 -0.03480605912998825 -0.0043020604236193331 0 -0.035163331574364548 -0.0045251534621337797 0 -0.034741966732619978 -0.0047927055595302593 0 -0.034510000966034668 -0.0045694381027128013 0 -0.035163331574364548 -0.0045251534621337797 0 -0.033950121340660402 -0.0034054517224942136 0 -0.034260122546945562 -0.0041096508517853474 0 -0.035276612190922284 -0.0037676393726192277 0 -0.03480605912998825 -0.0043020604236193331 0 -0.034260122546945562 -0.0041096508517853474 0 -0.035276612190922284 -0.0037676393726192277 0 -0.034510000966034668 -0.0045694381027128013 0 -0.03480605912998825 -0.0043020604236193331 0 -0.034260122546945562 -0.0041096508517853474 0 -0.033668872560643666 -0.0043745470237338798 0 -0.033724234777545964 -0.0039462673636375374 0 -0.033275714838503008 -0.004157412865234438 0 -0.033668872560643666 -0.0043745470237338798 0 -0.034260122546945562 -0.0041096508517853474 0 -0.033724234777545964 -0.0039462673636375374 0 -0.033950121340660402 -0.0034054517224942136 0 -0.034260122546945562 -0.0041096508517853474 0 -0.033724234777545964 -0.0039462673636375374 0 -0.033950121340660402 -0.0034054517224942136 0 -0.033724234777545964 -0.0039462673636375374 0 -0.033321737853398939 -0.0037257144532272493 0 -0.033724234777545964 -0.0039462673636375374 0 -0.033321737853398939 -0.0037257144532272493 0 -0.033275714838503008 -0.004157412865234438 0 -0.033321737853398939 -0.0037257144532272493 0 -0.033108657442277645 -0.0039374379380396627 0 -0.033275714838503008 -0.004157412865234438 0 -0.033108657442277645 -0.0039374379380396627 0 -0.032924367163406215 -0.0041376498163692337 0 -0.032850002813956447 -0.0038177317836258699 0 -0.033321737853398939 -0.0037257144532272493 0 -0.033108657442277645 -0.0039374379380396627 0 -0.032850002813956447 -0.0038177317836258699 0 -0.033108657442277645 -0.0039374379380396627 0 -0.032924367163406215 -0.0041376498163692337 0 -0.033275714838503008 -0.004157412865234438 0 -0.032924367163406215 -0.0041376498163692337 0 -0.033275714838503008 -0.004157412865234438 0 -0.03294016813685241 -0.0044229776768371313 0 -0.032924367163406215 -0.0041376498163692337 0 -0.032587305002518038 -0.004202224221893874 0 -0.032850002813956447 -0.0038177317836258699 0 -0.032587305002518038 -0.004202224221893874 0 -0.032850002813956447 -0.0038177317836258699 0 -0.032453115850096644 -0.0039059231417353808 0 -0.032924367163406215 -0.0041376498163692337 0 -0.032587305002518038 -0.004202224221893874 0 -0.03294016813685241 -0.0044229776768371313 0 -0.032684962516704046 -0.0034641465138679534 0 -0.032850002813956447 -0.0038177317836258699 0 -0.032453115850096644 -0.0039059231417353808 0 -0.032323817760009921 -0.0036144412472601459 0 -0.032453115850096644 -0.0039059231417353808 0 -0.031950505024294341 -0.0037378117192136892 0 -0.032453115850096644 -0.0039059231417353808 0 -0.031950505024294341 -0.0037378117192136892 0 -0.032248092429207613 -0.0042652842502249756 0 -0.032587305002518038 -0.004202224221893874 0 -0.032453115850096644 -0.0039059231417353808 0 -0.032248092429207613 -0.0042652842502249756 0 -0.032587305002518038 -0.004202224221893874 0 -0.032248092429207613 -0.0042652842502249756 0 -0.032645920747436726 -0.0045422117015577659 0 -0.031672867581608061 -0.0043684943265438776 0 -0.032248092429207613 -0.0042652842502249756 0 -0.032333662624433893 -0.0047456153664667128 0 -0.032248092429207613 -0.0042652842502249756 0 -0.032333662624433893 -0.0047456153664667128 0 -0.032645920747436726 -0.0045422117015577659 0 -0.032333662624433893 -0.0047456153664667128 0 -0.03267308963385214 -0.0047732827055515722 0 -0.032645920747436726 -0.0045422117015577659 0 -0.03267308963385214 -0.0047732827055515722 0 -0.033053534407316759 -0.004789482220581693 0 -0.032645920747436726 -0.0045422117015577659 0 -0.033053534407316759 -0.004789482220581693 0 -0.03294016813685241 -0.0044229776768371313 0 -0.032645920747436726 -0.0045422117015577659 0 -0.033280665447845532 -0.0045175805370540447 0 -0.033053534407316759 -0.004789482220581693 0 -0.03294016813685241 -0.0044229776768371313 0 -0.033280665447845532 -0.0045175805370540447 0 -0.033275714838503008 -0.004157412865234438 0 -0.03294016813685241 -0.0044229776768371313 0 -0.032587305002518038 -0.004202224221893874 0 -0.03294016813685241 -0.0044229776768371313 0 -0.032645920747436726 -0.0045422117015577659 0 -0.043171268815681257 -0.0017509712621958493 0 -0.043198445046177023 -0.0023585263115414659 0 -0.045833815248434093 -0.0019610169041172016 0 -0.039148439815392691 -0.0036582958167135564 0 -0.042914307158506783 -0.0022293401122913596 0 -0.043171268815681257 -0.0017509712621958493 0 -0.045833815248434093 -0.0019610169041172016 0 -0.046235587202125887 -0.00057390726995514983 0 -0.037884333967897692 -0.0038175688327555133 0 -0.036290804782586887 -0.0050620133892700413 0 -0.04014844852486011 -0.0038740772903755731 0 -0.037884333967897692 -0.0038175688327555133 0 -0.036570626949869858 -0.003851661821554359 0 -0.036290804782586887 -0.0050620133892700413 0 -0.03729264891669877 -0.0031824159947857525 0 -0.037884333967897692 -0.0038175688327555133 0 -0.036570626949869858 -0.003851661821554359 0 -0.036187259709919227 -0.0030197567221829508 0 -0.036570626949869858 -0.003851661821554359 0 -0.035276612190922284 -0.0037676393726192277 0 -0.036570626949869858 -0.003851661821554359 0 -0.035892665965758172 -0.0043164226526752831 0 -0.036290804782586887 -0.0050620133892700413 0 -0.036570626949869858 -0.003851661821554359 0 -0.035892665965758172 -0.0043164226526752831 0 -0.035276612190922284 -0.0037676393726192277 0 -0.035892665965758172 -0.0043164226526752831 0 -0.035276612190922284 -0.0037676393726192277 0 -0.035163331574364548 -0.0045251534621337797 0 -0.03480605912998825 -0.0043020604236193331 0 -0.035276612190922284 -0.0037676393726192277 0 -0.035163331574364548 -0.0045251534621337797 0 -0.034741966732619978 -0.0047927055595302593 0 -0.035163331574364548 -0.0045251534621337797 0 -0.036290804782586887 -0.0050620133892700413 0 -0.035892665965758172 -0.0043164226526752831 0 -0.035163331574364548 -0.0045251534621337797 0 -0.036290804782586887 -0.0050620133892700413 0 -0.040592016199803592 -0.0027125224825547503 0 -0.043171268815681257 -0.0017509712621958493 0 -0.043198445046177023 -0.0023585263115414659 0 -0.049566921196152303 0.0016408047791629105 0 -0.049306463199372784 0.0010763283397596647 0 -0.050254128489036702 0.0011146264252999097 0 -0.048581028326541917 0.0010926900479625054 0 -0.049566921196152303 0.0016408047791629105 0 -0.049306463199372784 0.0010763283397596647 0 -0.048769411202877755 0.00066326731999414126 0 -0.049556281928733327 0.00064042063206311555 0 -0.049306463199372784 0.0010763283397596647 0 -0.048581028326541917 0.0010926900479625054 0 -0.048769411202877755 0.00066326731999414126 0 -0.049306463199372784 0.0010763283397596647 0 -0.049556281928733327 0.00064042063206311555 0 -0.049306463199372784 0.0010763283397596647 0 -0.050254128489036702 0.0011146264252999097 0 -0.049566921196152303 0.0016408047791629105 0 -0.050254128489036702 0.0011146264252999097 0 -0.051248148278817816 0.0017510491434976189 0 -0.050254128489036702 0.0011146264252999097 0 -0.051357790689632365 0.0009190426113067973 0 -0.051248148278817816 0.0017510491434976189 0 -0.049556281928733327 0.00064042063206311555 0 -0.050254128489036702 0.0011146264252999097 0 -0.050331368479073865 0.00045874257609944147 0 -0.047149743479272289 -0.00012070196059294789 0 -0.048349849879942862 -0.00014463904865694711 0 -0.050254128489036702 0.0011146264252999097 0 -0.050331368479073865 0.00045874257609944147 0 -0.051357790689632365 0.0009190426113067973 0 -0.051783127377089205 -0.00013939170026923227 0 -0.053072619523011198 -0.00020636835590571244 0 -0.050331368479073865 0.00045874257609944147 0 -0.049199159687887281 -0.00032691544561268786 0 -0.051063635021241525 -0.00040779817584158285 0 -0.050331368479073865 0.00045874257609944147 0 -0.051063635021241525 -0.00040779817584158285 0 -0.051357790689632365 0.0009190426113067973 0 -0.048769411202877755 0.00066326731999414126 0 -0.049556281928733327 0.00064042063206311555 0 -0.049199159687887281 -0.00032691544561268786 0 -0.049556281928733327 0.00064042063206311555 0 -0.050331368479073865 0.00045874257609944147 0 -0.049199159687887281 -0.00032691544561268786 0 -0.055000046112456548 3.5345498761175328e-08 0 -0.05498264018851607 1.4110905551719866e-05 0 -0.054999957828563831 1.0836175406610829e-10 0 -0.05498264018851607 1.4110905551719866e-05 0 -0.054999957828563831 1.0836175406610829e-10 0 -0.054989586822915014 3.008201350155217e-06 0 -0.054989586822915014 3.008201350155217e-06 0 -0.05499558544791041 2.2238275636766249e-07 0 -0.054999988215788394 1.1335232091085796e-09 0 -0.053072619523011198 -0.00020636835590571244 0 -0.053781499455264482 -0.00021271446318342155 0 -0.054999957828563831 1.0836175406610829e-10 0 -0.054989586822915014 3.008201350155217e-06 0 -0.054999988215788394 1.1335232091085796e-09 0 -0.05499558544791041 2.2238275636766249e-07 0 -0.054999988215788394 1.1335232091085796e-09 0 -0.054999990901040477 -1.4397563793445107e-09 0 -0.052618167193883757 -0.00043405402060224437 0 -0.05230099946580534 0.00055816505901263788 0 -0.053558850379063438 0.0006855700488619628 0 -0.051063635021241525 -0.00040779817584158285 0 -0.05230099946580534 0.00055816505901263788 0 -0.051357790689632365 0.0009190426113067973 0 -0.051063635021241525 -0.00040779817584158285 0 -0.052618167193883757 -0.00043405402060224437 0 -0.05230099946580534 0.00055816505901263788 0 -0.054999033777919731 -1.6457388336125275e-07 0 -0.054999990901040477 -1.4397563793445107e-09 0 -0.055000000239048066 -3.5345134163983503e-10 0 -0.052618167193883757 -0.00043405402060224437 0 -0.053968835670446157 -0.00039374154258568132 0 -0.053558850379063438 0.0006855700488619628 0 -0.053781499455264482 -0.00021271446318342155 0 -0.054456924755627308 -0.00017809039966122959 0 -0.05499558544791041 2.2238275636766249e-07 0 -0.054999033777919731 -1.6457388336125275e-07 0 -0.054999990901040477 -1.4397563793445107e-09 0 -0.053558850379063438 0.0006855700488619628 0 -0.054648362183333583 0.0010548775869971825 0 -0.054681485369677624 0.0001999988147919013 0 -0.053968835670446157 -0.00039374154258568132 0 -0.053558850379063438 0.0006855700488619628 0 -0.054681485369677624 0.0001999988147919013 0 -0.053558850379063438 0.0006855700488619628 0 -0.053888878891189873 0.0019302721892284359 0 -0.054648362183333583 0.0010548775869971825 0 -0.053558850379063438 0.0006855700488619628 0 -0.053888878891189873 0.0019302721892284359 0 -0.05269125108573311 0.0018518831738327359 0 -0.051156809711993892 -0.0011216345609413997 0 -0.048492938181871288 -0.0015494039906212382 0 -0.049338013478451952 0.00063121336922652277 0 -0.052170946671210416 0.00032980609534019676 0 -0.050690910755907169 0.0001712082914918084 0 -0.051477435391528506 0.0002716705330348946 0 -0.051601167326962141 0.0004476041448377542 0 -0.051855938519632654 0.00069477644115807809 0 -0.052170946671210416 0.00032980609534019676 0 -0.053346116233573569 0.0010342236130264498 0 -0.051357790689632365 0.0009190426113067973 0 -0.05269125108573311 0.0018518831738327359 0 -0.051248148278817816 0.0017510491434976189 0 -0.05230099946580534 0.00055816505901263788 0 -0.053558850379063438 0.0006855700488619628 0 -0.05269125108573311 0.0018518831738327359 0 -0.05230099946580534 0.00055816505901263788 0 -0.051357790689632365 0.0009190426113067973 0 -0.05269125108573311 0.0018518831738327359 0 -0.050690910755907169 0.0001712082914918084 0 -0.048349849879942862 -0.00014463904865694711 0 -0.048492938181871288 -0.0015494039906212382 0 -0.046235587202125887 -0.00057390726995514983 0 -0.049338013478451952 0.00063121336922652277 0 -0.048492938181871288 -0.0015494039906212382 0 -0.045833815248434093 -0.0019610169041172016 0 -0.046235587202125887 -0.00057390726995514983 0 -0.038681590179707279 -0.0030882031019489353 0 -0.04014844852486011 -0.0038740772903755731 0 -0.040150128857250555 -0.0023864885870633519 0 -0.04014844852486011 -0.0038740772903755731 0 -0.040150128857250555 -0.0023864885870633519 0 -0.04135173126357327 -0.0022704266478687264 0 -0.040150128857250555 -0.0023864885870633519 0 -0.040942661143144904 -0.0015846469281139055 0 -0.04135173126357327 -0.0022704266478687264 0 -0.040150128857250555 -0.0023864885870633519 0 -0.039897545160042479 -0.0013723530177792865 0 -0.040942661143144904 -0.0015846469281139055 0 -0.039086523252960331 -0.0016626067306980492 0 -0.040150128857250555 -0.0023864885870633519 0 -0.039897545160042479 -0.0013723530177792865 0 -0.039011199677697554 -0.00088107803355193671 0 -0.039897545160042479 -0.0013723530177792865 0 -0.039686641152726937 -0.00061669343219550223 0 -0.039897545160042479 -0.0013723530177792865 0 -0.040549270166917561 -0.00090226073700112191 0 -0.039686641152726937 -0.00061669343219550223 0 -0.040942661143144904 -0.0015846469281139055 0 -0.040549270166917561 -0.00090226073700112191 0 -0.041919503838746895 -0.001052497506771615 0 -0.039897545160042479 -0.0013723530177792865 0 -0.040942661143144904 -0.0015846469281139055 0 -0.040549270166917561 -0.00090226073700112191 0 -0.040549270166917561 -0.00090226073700112191 0 -0.041919503838746895 -0.001052497506771615 0 -0.040131711905737159 0.00031258469510327705 0 -0.047428879031945183 -6.7891754546111333e-05 0 -0.045265265923201653 0.00034353672796621934 0 -0.050588484079734403 0.00017522267852533951 0 -0.050008933395484255 0.00047973209695602862 0 -0.050204446303706025 0.00040586572550545827 0 -0.040549270166917561 -0.00090226073700112191 0 -0.039686641152726937 -0.00061669343219550223 0 -0.040131711905737159 0.00031258469510327705 0 -0.050812819252763403 0.00039492755179027964 0 -0.050647402231488198 0.00024341953821545003 0 -0.050553348262874997 0.00044074038934252611 0 -0.050812819252763403 0.00039492755179027964 0 -0.050647402231488198 0.00024341953821545003 0 -0.051023262643549644 0.00033467426543229775 0 -0.047428879031945183 -6.7891754546111333e-05 0 -0.050472826294312122 -0.0002029963116846866 0 -0.050647402231488198 0.00024341953821545003 0 -0.050204446303706025 0.00040586572550545827 0 -0.050553348262874997 0.00044074038934252611 0 -0.040942661143144904 -0.0015846469281139055 0 -0.041919503838746895 -0.001052497506771615 0 -0.04135173126357327 -0.0022704266478687264 0 -0.050647402231488198 0.00024341953821545003 0 -0.051046301154521592 0.00011808279030901152 0 -0.051023262643549644 0.00033467426543229775 0 -0.047428879031945183 -6.7891754546111333e-05 0 -0.04840660681707918 -0.00082799162316178848 0 -0.042914307158506783 -0.0022293401122913596 0 -0.04840660681707918 -0.00082799162316178848 0 -0.041919503838746895 -0.001052497506771615 0 -0.04135173126357327 -0.0022704266478687264 0 -0.043600623160776668 -0.0025407250514320389 0 -0.04014844852486011 -0.0038740772903755731 0 -0.04135173126357327 -0.0022704266478687264 0 -0.043600623160776668 -0.0025407250514320389 0 -0.051477435391528506 0.0002716705330348946 0 -0.051306714805685286 0.00029601522650895683 0 -0.051258301903921069 0.00027722739182317108 0 -0.052170946671210416 0.00032980609534019676 0 -0.04840660681707918 -0.00082799162316178848 0 -0.051347327316081243 0.00030701887387865888 0 -0.04840660681707918 -0.00082799162316178848 0 -0.051306714805685286 0.00029601522650895683 0 -0.051046301154521592 0.00011808279030901152 0 -0.051023262643549644 0.00033467426543229775 0 -0.051306714805685286 0.00029601522650895683 0 -0.051601167326962141 0.0004476041448377542 0 -0.051448728111250397 0.00039632614996422307 0 -0.051477435391528506 0.0002716705330348946 0 -0.051306714805685286 0.00029601522650895683 0 -0.051601167326962141 0.0004476041448377542 0 -0.051601167326962141 0.0004476041448377542 0 -0.051448728111250397 0.00039632614996422307 0 -0.051622674490509828 0.00043337045209040426 0 -0.051448728111250397 0.00039632614996422307 0 -0.051404585523295111 0.00044599431063567702 0 -0.051622674490509828 0.00043337045209040426 0 -0.051448728111250397 0.00039632614996422307 0 -0.051404585523295111 0.00044599431063567702 0 -0.051264475884821935 0.00038872618307358791 0 -0.051306714805685286 0.00029601522650895683 0 -0.051448728111250397 0.00039632614996422307 0 -0.051264475884821935 0.00038872618307358791 0 -0.051404585523295111 0.00044599431063567702 0 -0.05149881688089647 0.00044762987171774183 0 -0.051622674490509828 0.00043337045209040426 0 -0.051306714805685286 0.00029601522650895683 0 -0.051023262643549644 0.00033467426543229775 0 -0.051264475884821935 0.00038872618307358791 0 -0.051404585523295111 0.00044599431063567702 0 -0.051264475884821935 0.00038872618307358791 0 -0.051110257579418478 0.00051505908643223268 0 -0.051023262643549644 0.00033467426543229775 0 -0.051264475884821935 0.00038872618307358791 0 -0.051110257579418478 0.00051505908643223268 0 -0.050812819252763403 0.00039492755179027964 0 -0.051023262643549644 0.00033467426543229775 0 -0.051110257579418478 0.00051505908643223268 0 -0.051110257579418478 0.00051505908643223268 0 -0.050840283391604256 0.00075759413615326769 0 -0.051215835673981018 0.00071176865784469755 0 -0.051110257579418478 0.00051505908643223268 0 -0.050840283391604256 0.00075759413615326769 0 -0.050758781493309132 0.00055632699531053267 0 -0.050812819252763403 0.00039492755179027964 0 -0.051110257579418478 0.00051505908643223268 0 -0.050758781493309132 0.00055632699531053267 0 -0.051404585523295111 0.00044599431063567702 0 -0.051347138325684223 0.00054449960063919999 0 -0.05149881688089647 0.00044762987171774183 0 -0.051404585523295111 0.00044599431063567702 0 -0.051110257579418478 0.00051505908643223268 0 -0.051347138325684223 0.00054449960063919999 0 -0.051110257579418478 0.00051505908643223268 0 -0.051347138325684223 0.00054449960063919999 0 -0.051215835673981018 0.00071176865784469755 0 -0.051347138325684223 0.00054449960063919999 0 -0.05144198544256099 0.00061435056173183048 0 -0.05149881688089647 0.00044762987171774183 0 -0.051347138325684223 0.00054449960063919999 0 -0.051215835673981018 0.00071176865784469755 0 -0.05144198544256099 0.00061435056173183048 0 -0.045182134464595007 -0.0011489734404439337 0 -0.041262265242063882 -0.0026032182012348166 0 -0.051215835673981018 0.00071176865784469755 0 -0.051013009681353194 0.00094954873944857381 0 -0.051361412582643998 0.00077133083025569067 0 -0.051215835673981018 0.00071176865784469755 0 -0.05144198544256099 0.00061435056173183048 0 -0.051361412582643998 0.00077133083025569067 0 -0.050840283391604256 0.00075759413615326769 0 -0.051215835673981018 0.00071176865784469755 0 -0.051013009681353194 0.00094954873944857381 0 -0.050840283391604256 0.00075759413615326769 0 -0.051013009681353194 0.00094954873944857381 0 -0.050315766922074616 0.0010784733863457793 0 -0.045182134464595007 -0.0011489734404439337 0 -0.044150351818963984 -0.0014608268530555734 0 -0.037932480052718084 -0.0036845562374071762 0 -0.037450737334581909 -0.0036194508936761775 0 -0.037594548823052083 -0.0035201066720159358 0 -0.050840283391604256 0.00075759413615326769 0 -0.050315766922074616 0.0010784733863457793 0 -0.050347600908487153 0.00071877958612967703 0 -0.037319868901620985 -0.0034764521931939267 0 -0.037312919039051262 -0.0035637213569329035 0 -0.037450737334581909 -0.0036194508936761775 0 -0.041072064455417348 0.00050524524285439759 0 -0.044150351818963984 -0.0014608268530555734 0 -0.049317766928410729 0.00097317625472795723 0 -0.050315766922074616 0.0010784733863457793 0 -0.050347600908487153 0.00071877958612967703 0 -0.049317766928410729 0.00097317625472795723 0 -0.050347600908487153 0.00071877958612967703 0 -0.050008933395484255 0.00047973209695602862 0 -0.03906207598423516 -2.3383140459888654e-05 0 -0.039686641152726937 -0.00061669343219550223 0 -0.040131711905737159 0.00031258469510327705 0 -0.050347600908487153 0.00071877958612967703 0 -0.050008933395484255 0.00047973209695602862 0 -0.050204446303706025 0.00040586572550545827 0 -0.050347600908487153 0.00071877958612967703 0 -0.050553348262874997 0.00044074038934252611 0 -0.050758781493309132 0.00055632699531053267 0 -0.050347600908487153 0.00071877958612967703 0 -0.050204446303706025 0.00040586572550545827 0 -0.050553348262874997 0.00044074038934252611 0 -0.050840283391604256 0.00075759413615326769 0 -0.050347600908487153 0.00071877958612967703 0 -0.050758781493309132 0.00055632699531053267 0 -0.050812819252763403 0.00039492755179027964 0 -0.050553348262874997 0.00044074038934252611 0 -0.050758781493309132 0.00055632699531053267 0 -0.051053063150507796 -0.00043913895805294394 0 -0.051527698177151672 -5.3995467758253098e-05 0 -0.051331737054125727 6.0667893912888908e-05 0 -0.052268349087867157 -0.00303383797846371 0 -0.049734817916277339 -0.0047768969283551281 0 -0.055517781883264061 -0.0049043634076006088 0 -0.043789672896702291 -0.0045207255463817096 0 -0.048680630684495796 -0.0016795016705279955 0 -0.052134710685634786 -0.002077600876450922 0 -0.048680630684495796 -0.0016795016705279955 0 -0.051053063150507796 -0.00043913895805294394 0 -0.051331737054125727 6.0667893912888908e-05 0 -0.050647457739033265 -7.5579213751552756e-05 0 -0.051053063150507796 -0.00043913895805294394 0 -0.049007198134973604 -0.00072719146373914634 0 -0.050647457739033265 -7.5579213751552756e-05 0 -0.052268349087867157 -0.00303383797846371 0 -0.049734817916277339 -0.0047768969283551281 0 -0.049007198134973604 -0.00072719146373914634 0 -0.049734817916277339 -0.0047768969283551281 0 -0.049007198134973604 -0.00072719146373914634 0 -0.046756617499230893 -0.00019522138170987861 0 -0.052134710685634786 -0.002077600876450922 0 -0.049081334740147163 -0.00057567715635664413 0 -0.038733326100156965 -0.0039336871608283593 0 -0.038553605068389181 -0.0033862953519814116 0 -0.039246794138718323 -0.0031053640512818804 0 -0.038733326100156965 -0.0039336871608283593 0 -0.038553605068389181 -0.0033862953519814116 0 -0.038156618819091187 -0.0033483861157523318 0 -0.038733326100156965 -0.0039336871608283593 0 -0.038156618819091187 -0.0033483861157523318 0 -0.038078784656722368 -0.0036243331586675669 0 -0.038156618819091187 -0.0033483861157523318 0 -0.038065421881265812 -0.0034198743004132219 0 -0.038078784656722368 -0.0036243331586675669 0 -0.038156618819091187 -0.0033483861157523318 0 -0.038065421881265812 -0.0034198743004132219 0 -0.038044032129666679 -0.0033421540418786095 0 -0.038065421881265812 -0.0034198743004132219 0 -0.038037344317176501 -0.0034064562012383949 0 -0.038044032129666679 -0.0033421540418786095 0 -0.04450557465655703 -0.0012985158241361756 0 -0.048680630684495796 -0.0016795016705279955 0 -0.038065421881265812 -0.0034198743004132219 0 -0.038037344317176501 -0.0034064562012383949 0 -0.038078784656722368 -0.0036243331586675669 0 -0.038037344317176501 -0.0034064562012383949 0 -0.038053581835804366 -0.0033840053968571446 0 -0.038044032129666679 -0.0033421540418786095 0 -0.052542417417205563 0.0010839230528034214 0 -0.048680630684495796 -0.0016795016705279955 0 -0.05133953481138763 0.00061721876041695271 0 -0.05144198544256099 0.00061435056173183048 0 -0.051211966796753813 0.0006750120338657056 0 -0.05133953481138763 0.00061721876041695271 0 -0.05144198544256099 0.00061435056173183048 0 -0.051361412582643998 0.00077133083025569067 0 -0.04450557465655703 -0.0012985158241361756 0 -0.041262265242063882 -0.0026032182012348166 0 -0.05144198544256099 0.00061435056173183048 0 -0.051571611970958643 0.00033007059181483587 0 -0.051527698177151672 -5.3995467758253098e-05 0 -0.05144198544256099 0.00061435056173183048 0 -0.051571611970958643 0.00033007059181483587 0 -0.05149881688089647 0.00044762987171774183 0 -0.051527698177151672 -5.3995467758253098e-05 0 -0.051605792411228132 0.0002794923579001017 0 -0.051331737054125727 6.0667893912888908e-05 0 -0.051571611970958643 0.00033007059181483587 0 -0.051527698177151672 -5.3995467758253098e-05 0 -0.051605792411228132 0.0002794923579001017 0 -0.051605792411228132 0.0002794923579001017 0 -0.051622674490509828 0.00043337045209040426 0 -0.051764568224232144 0.00062709097531796806 0 -0.051605792411228132 0.0002794923579001017 0 -0.051764568224232144 0.00062709097531796806 0 -0.051445861037778616 0.00051379078021966836 0 -0.051571611970958643 0.00033007059181483587 0 -0.051605792411228132 0.0002794923579001017 0 -0.051622674490509828 0.00043337045209040426 0 -0.051571611970958643 0.00033007059181483587 0 -0.05149881688089647 0.00044762987171774183 0 -0.051622674490509828 0.00043337045209040426 0 -0.051601167326962141 0.0004476041448377542 0 -0.051622674490509828 0.00043337045209040426 0 -0.051764568224232144 0.00062709097531796806 0 -0.051601167326962141 0.0004476041448377542 0 -0.051764568224232144 0.00062709097531796806 0 -0.051855938519632654 0.00069477644115807809 0 -0.051764568224232144 0.00062709097531796806 0 -0.051568812419978717 0.00091265469140821751 0 -0.05190037542879699 0.00090392161959082875 0 -0.051764568224232144 0.00062709097531796806 0 -0.051855938519632654 0.00069477644115807809 0 -0.05190037542879699 0.00090392161959082875 0 -0.051764568224232144 0.00062709097531796806 0 -0.051568812419978717 0.00091265469140821751 0 -0.051445861037778616 0.00051379078021966836 0 -0.051568812419978717 0.00091265469140821751 0 -0.050909809453383234 0.0008780960823795167 0 -0.051364857416519437 0.0011558873449285815 0 -0.051568812419978717 0.00091265469140821751 0 -0.051445861037778616 0.00051379078021966836 0 -0.050909809453383234 0.0008780960823795167 0 -0.051445861037778616 0.00051379078021966836 0 -0.050907386268491409 0.00032850726659177618 0 -0.050909809453383234 0.0008780960823795167 0 -0.051445861037778616 0.00051379078021966836 0 -0.050907386268491409 0.00032850726659177618 0 -0.051331737054125727 6.0667893912888908e-05 0 -0.050907386268491409 0.00032850726659177618 0 -0.051331737054125727 6.0667893912888908e-05 0 -0.050647457739033265 -7.5579213751552756e-05 0 -0.051605792411228132 0.0002794923579001017 0 -0.051445861037778616 0.00051379078021966836 0 -0.051331737054125727 6.0667893912888908e-05 0 -0.048999197810490877 0.00012569994134560523 0 -0.049007198134973604 -0.00072719146373914634 0 -0.050145324760130124 0.00034922507950479282 0 -0.048999197810490877 0.00012569994134560523 0 -0.049007198134973604 -0.00072719146373914634 0 -0.046756617499230893 -0.00019522138170987861 0 -0.049007198134973604 -0.00072719146373914634 0 -0.050647457739033265 -7.5579213751552756e-05 0 -0.050145324760130124 0.00034922507950479282 0 -0.050907386268491409 0.00032850726659177618 0 -0.050647457739033265 -7.5579213751552756e-05 0 -0.050145324760130124 0.00034922507950479282 0 -0.050145324760130124 0.00034922507950479282 0 -0.050035734151599856 0.0010163089109915101 0 -0.050909809453383234 0.0008780960823795167 0 -0.050907386268491409 0.00032850726659177618 0 -0.050145324760130124 0.00034922507950479282 0 -0.050909809453383234 0.0008780960823795167 0 -0.048999197810490877 0.00012569994134560523 0 -0.050145324760130124 0.00034922507950479282 0 -0.050035734151599856 0.0010163089109915101 0 -0.048999197810490877 0.00012569994134560523 0 -0.050035734151599856 0.0010163089109915101 0 -0.046756617499230893 -0.00019522138170987861 0 -0.050035734151599856 0.0010163089109915101 0 -0.04997562148564734 0.001211477245564214 0 -0.050940524454778813 0.0013129379761307003 0 -0.050035734151599856 0.0010163089109915101 0 -0.050909809453383234 0.0008780960823795167 0 -0.050864622919340692 0.0011691217651050643 0 -0.050909809453383234 0.0008780960823795167 0 -0.051364857416519437 0.0011558873449285815 0 -0.050864622919340692 0.0011691217651050643 0 -0.051364857416519437 0.0011558873449285815 0 -0.050864622919340692 0.0011691217651050643 0 -0.051317549551438163 0.0012084924882169391 0 -0.050035734151599856 0.0010163089109915101 0 -0.050864622919340692 0.0011691217651050643 0 -0.050940524454778813 0.0013129379761307003 0 -0.050864622919340692 0.0011691217651050643 0 -0.051317549551438163 0.0012084924882169391 0 -0.050940524454778813 0.0013129379761307003 0 -0.052005340420711393 0.0011479269647935472 0 -0.053029533241467815 0.00093169374371151667 0 -0.050940524454778813 0.0013129379761307003 0 -0.051317549551438163 0.0012084924882169391 0 -0.052005340420711393 0.0011479269647935472 0 -0.050940524454778813 0.0013129379761307003 0 -0.052005340420711393 0.0011479269647935472 0 -0.05189870665599948 0.0010918755983873585 0 -0.052515028731212041 0.0010062352001779418 0 -0.051364857416519437 0.0011558873449285815 0 -0.051317549551438163 0.0012084924882169391 0 -0.052005340420711393 0.0011479269647935472 0 -0.051364857416519437 0.0011558873449285815 0 -0.052005340420711393 0.0011479269647935472 0 -0.05189870665599948 0.0010918755983873585 0 -0.051568812419978717 0.00091265469140821751 0 -0.051364857416519437 0.0011558873449285815 0 -0.05189870665599948 0.0010918755983873585 0 -0.051568812419978717 0.00091265469140821751 0 -0.05189870665599948 0.0010918755983873585 0 -0.05190037542879699 0.00090392161959082875 0 -0.05189870665599948 0.0010918755983873585 0 -0.052199576549731549 0.00099963335143092385 0 -0.05190037542879699 0.00090392161959082875 0 -0.05189870665599948 0.0010918755983873585 0 -0.052199576549731549 0.00099963335143092385 0 -0.052515028731212041 0.0010062352001779418 0 -0.052199576549731549 0.00099963335143092385 0 -0.052515028731212041 0.0010062352001779418 0 -0.052746994940573888 0.00080866130853648327 0 -0.052515028731212041 0.0010062352001779418 0 -0.052746994940573888 0.00080866130853648327 0 -0.053410864090138226 0.00062145815873814445 0 -0.052005340420711393 0.0011479269647935472 0 -0.052515028731212041 0.0010062352001779418 0 -0.053029533241467815 0.00093169374371151667 0 -0.052515028731212041 0.0010062352001779418 0 -0.053410864090138226 0.00062145815873814445 0 -0.053029533241467815 0.00093169374371151667 0 -0.052063727347886377 0.0007116217221452588 0 -0.051855938519632654 0.00069477644115807809 0 -0.051945169394007139 0.00083362333919881305 0 -0.051855938519632654 0.00069477644115807809 0 -0.05212472525807401 0.0009098723380270567 0 -0.051945169394007139 0.00083362333919881305 0 -0.052170946671210416 0.00032980609534019676 0 -0.051673943151466832 0.00067070841396188745 0 -0.051855938519632654 0.00069477644115807809 0 -0.05190037542879699 0.00090392161959082875 0 -0.05212472525807401 0.0009098723380270567 0 -0.052199576549731549 0.00099963335143092385 0 -0.05190037542879699 0.00090392161959082875 0 -0.05212472525807401 0.0009098723380270567 0 -0.052746994940573888 0.00080866130853648327 0 -0.05212472525807401 0.0009098723380270567 0 -0.052370160175201526 0.00048149937239751135 0 -0.05212472525807401 0.0009098723380270567 0 -0.051945169394007139 0.00083362333919881305 0 -0.052370160175201526 0.00048149937239751135 0 -0.052199576549731549 0.00099963335143092385 0 -0.052746994940573888 0.00080866130853648327 0 -0.05212472525807401 0.0009098723380270567 0 -0.053346116233573569 0.0010342236130264498 0 -0.053713659485745177 0.0004208217495536598 0 -0.054648362183333583 0.0010548775869971825 0 -0.054681485369677624 0.0001999988147919013 0 -0.055041900021410052 0.00025766864743949065 0 -0.054681485369677624 0.0001999988147919013 0 -0.055041900021410052 0.00025766864743949065 0 -0.054960133839425801 7.8526378005788942e-05 0 -0.053713659485745177 0.0004208217495536598 0 -0.054366107043561984 2.6218492402808535e-05 0 -0.054960133839425801 7.8526378005788942e-05 0 -0.054999985356194818 -7.4109194606732439e-07 0 -0.054998444826054683 3.6919193138534764e-07 0 -0.055041900021410052 0.00025766864743949065 0 -0.054960133839425801 7.8526378005788942e-05 0 -0.054538980807828027 -4.6031649444181383e-05 0 -0.054456924755627308 -0.00017809039966122959 0 -0.054999789727874157 -8.2339031715687916e-08 0 -0.053968835670446157 -0.00039374154258568132 0 -0.054681485369677624 0.0001999988147919013 0 -0.054999985356194818 -7.4109194606732439e-07 0 -0.054681485369677624 0.0001999988147919013 0 -0.054960133839425801 7.8526378005788942e-05 0 -0.054999985356194818 -7.4109194606732439e-07 0 -0.054037001867279867 0.00035242336465015299 0 -0.053410864090138226 0.00062145815873814445 0 -0.053029533241467815 0.00093169374371151667 0 -0.054037001867279867 0.00035242336465015299 0 -0.054712930085420261 0.00011372417465639011 0 -0.053029533241467815 0.00093169374371151667 0 -0.054037001867279867 0.00035242336465015299 0 -0.053410864090138226 0.00062145815873814445 0 -0.053805684340360808 0.0003235223509069332 0 -0.052746994940573888 0.00080866130853648327 0 -0.053410864090138226 0.00062145815873814445 0 -0.053805684340360808 0.0003235223509069332 0 -0.052370160175201526 0.00048149937239751135 0 -0.053805684340360808 0.0003235223509069332 0 -0.054538980807828027 -4.6031649444181383e-05 0 -0.052746994940573888 0.00080866130853648327 0 -0.052370160175201526 0.00048149937239751135 0 -0.053805684340360808 0.0003235223509069332 0 -0.053805684340360808 0.0003235223509069332 0 -0.054538980807828027 -4.6031649444181383e-05 0 -0.054609636674755394 2.0777981495145139e-05 0 -0.054960133839425801 7.8526378005788942e-05 0 -0.054538980807828027 -4.6031649444181383e-05 0 -0.054998444826054683 3.6919193138534764e-07 0 -0.054538980807828027 -4.6031649444181383e-05 0 -0.054998444826054683 3.6919193138534764e-07 0 -0.054609636674755394 2.0777981495145139e-05 0 -0.054998444826054683 3.6919193138534764e-07 0 -0.054609636674755394 2.0777981495145139e-05 0 -0.054999223573484475 -1.5191809378916254e-07 0 -0.054037001867279867 0.00035242336465015299 0 -0.053805684340360808 0.0003235223509069332 0 -0.054609636674755394 2.0777981495145139e-05 0 -0.054037001867279867 0.00035242336465015299 0 -0.054609636674755394 2.0777981495145139e-05 0 -0.054712930085420261 0.00011372417465639011 0 -0.054609636674755394 2.0777981495145139e-05 0 -0.054712930085420261 0.00011372417465639011 0 -0.054999223573484475 -1.5191809378916254e-07 0 -0.054999223573484475 -1.5191809378916254e-07 0 -0.054891349049117188 7.0315602196547992e-05 0 -0.055000189659539324 1.4602307085374899e-07 0 -0.054712930085420261 0.00011372417465639011 0 -0.054999223573484475 -1.5191809378916254e-07 0 -0.054891349049117188 7.0315602196547992e-05 0 -0.054712930085420261 0.00011372417465639011 0 -0.054891349049117188 7.0315602196547992e-05 0 -0.054816962972093181 0.00016583279836638454 0 -0.054712930085420261 0.00011372417465639011 0 -0.054816962972093181 0.00016583279836638454 0 -0.0547575477311497 0.00021223219137264459 0 -0.05454732166175235 6.4584816072046531e-05 0 -0.053946678695899856 0.00047349380388565456 0 -0.054891349049117188 7.0315602196547992e-05 0 -0.054816962972093181 0.00016583279836638454 0 -0.054905181831290555 0.00014089886934769415 0 -0.054816962972093181 0.00016583279836638454 0 -0.054905181831290555 0.00014089886934769415 0 -0.054777851731342649 0.00021163749399386774 0 -0.054944263875988636 -5.7193882653163252e-05 0 -0.054902135730018758 -8.2510995999582053e-05 0 -0.054817629334196892 -8.7234816853380793e-05 0 -0.054891349049117188 7.0315602196547992e-05 0 -0.054905181831290555 0.00014089886934769415 0 -0.055000189659539324 1.4602307085374899e-07 0 -0.054944263875988636 -5.7193882653163252e-05 0 -0.054999980939468729 -2.6472340647114791e-08 0 -0.054926964582449556 -2.5090113465550529e-05 0 -0.054919233272927713 3.827667145413973e-05 0 -0.054999964999650229 3.6279888396595409e-09 0 -0.054999980939468729 -2.6472340647114791e-08 0 -0.054926964582449556 -2.5090113465550529e-05 0 -0.054999784685630548 1.8459492419808979e-08 0 -0.054926964582449556 -2.5090113465550529e-05 0 -0.054999784685630548 1.8459492419808979e-08 0 -0.054835882012855199 -3.2235375357632243e-05 0 -0.054926964582449556 -2.5090113465550529e-05 0 -0.054835882012855199 -3.2235375357632243e-05 0 -0.054809860310583457 -6.4329215912564344e-05 0 -0.054835882012855199 -3.2235375357632243e-05 0 -0.054809860310583457 -6.4329215912564344e-05 0 -0.05464735202130399 -9.1690148244235651e-05 0 -0.054944263875988636 -5.7193882653163252e-05 0 -0.054926964582449556 -2.5090113465550529e-05 0 -0.054902135730018758 -8.2510995999582053e-05 0 -0.054926964582449556 -2.5090113465550529e-05 0 -0.054809860310583457 -6.4329215912564344e-05 0 -0.054902135730018758 -8.2510995999582053e-05 0 -0.054902135730018758 -8.2510995999582053e-05 0 -0.054895529051024981 -0.00012061884137406363 0 -0.054817629334196892 -8.7234816853380793e-05 0 -0.054809860310583457 -6.4329215912564344e-05 0 -0.054902135730018758 -8.2510995999582053e-05 0 -0.054895529051024981 -0.00012061884137406363 0 -0.054895529051024981 -0.00012061884137406363 0 -0.054844365887775026 5.167076124012783e-05 0 -0.054817629334196892 -8.7234816853380793e-05 0 -0.054895529051024981 -0.00012061884137406363 0 -0.054597512111395567 -0.0001671563883822734 0 -0.054646339061204072 -0.00037400614076952751 0 -0.054809860310583457 -6.4329215912564344e-05 0 -0.054895529051024981 -0.00012061884137406363 0 -0.054597512111395567 -0.0001671563883822734 0 -0.054809860310583457 -6.4329215912564344e-05 0 -0.054597512111395567 -0.0001671563883822734 0 -0.05464735202130399 -9.1690148244235651e-05 0 -0.051123701331389583 -0.00011961646805574405 0 -0.047925901656619377 0.00089091206891164516 0 -0.054646339061204072 -0.00037400614076952751 0 -0.054415771522336009 -0.00061395013176262711 0 -0.054786703732044806 -0.00059833659562793812 0 -0.054597512111395567 -0.0001671563883822734 0 -0.054646339061204072 -0.00037400614076952751 0 -0.054475256132752482 -0.00032672206033856205 0 -0.054646339061204072 -0.00037400614076952751 0 -0.054475256132752482 -0.00032672206033856205 0 -0.054415771522336009 -0.00061395013176262711 0 -0.054895529051024981 -0.00012061884137406363 0 -0.054646339061204072 -0.00037400614076952751 0 -0.054786703732044806 -0.00059833659562793812 0 -0.054895529051024981 -0.00012061884137406363 0 -0.054844365887775026 5.167076124012783e-05 0 -0.054917061276655292 0.00016664737033468907 0 -0.056159120066603015 -0.00013587921886627649 0 -0.047925901656619377 0.00089091206891164516 0 -0.054844365887775026 5.167076124012783e-05 0 -0.054721587552814192 0.0001849224073690311 0 -0.054917061276655292 0.00016664737033468907 0 -0.054844365887775026 5.167076124012783e-05 0 -0.054817629334196892 -8.7234816853380793e-05 0 -0.054721587552814192 0.0001849224073690311 0 -0.054742420048491461 0.00020475575414952165 0 -0.054797224282673057 0.00021331337165653462 0 -0.054721587552814192 0.0001849224073690311 0 -0.054810224246696897 7.1451549623596341e-05 0 -0.054743759923940982 0.0001741428881130214 0 -0.054752622388288846 0.00021138885587860455 0 -0.054742420048491461 0.00020475575414952165 0 -0.054797224282673057 0.00021331337165653462 0 -0.054752622388288846 0.00021138885587860455 0 -0.054742420048491461 0.00020475575414952165 0 -0.054720114899693931 0.00021737273420853004 0 -0.054742420048491461 0.00020475575414952165 0 -0.054713372504205077 0.00021216676518505772 0 -0.054721587552814192 0.0001849224073690311 0 -0.054742420048491461 0.00020475575414952165 0 -0.054720114899693931 0.00021737273420853004 0 -0.054713372504205077 0.00021216676518505772 0 -0.054741743260467372 0.00021663387212218608 0 -0.0547575477311497 0.00021223219137264459 0 -0.054696760972655981 0.00022754187872660206 0 -0.054720114899693931 0.00021737273420853004 0 -0.054741743260467372 0.00021663387212218608 0 -0.054696760972655981 0.00022754187872660206 0 -0.053946678695899856 0.00047349380388565456 0 -0.052294283554325818 0.00066413387536777742 0 -0.054752622388288846 0.00021138885587860455 0 -0.054741743260467372 0.00021663387212218608 0 -0.054777851731342649 0.00021163749399386774 0 -0.054752622388288846 0.00021138885587860455 0 -0.054720114899693931 0.00021737273420853004 0 -0.054741743260467372 0.00021663387212218608 0 -0.054816962972093181 0.00016583279836638454 0 -0.054777851731342649 0.00021163749399386774 0 -0.0547575477311497 0.00021223219137264459 0 -0.054741743260467372 0.00021663387212218608 0 -0.054777851731342649 0.00021163749399386774 0 -0.0547575477311497 0.00021223219137264459 0 -0.054919233272927713 3.827667145413973e-05 0 -0.054810224246696897 7.1451549623596341e-05 0 -0.054905181831290555 0.00014089886934769415 0 -0.054777851731342649 0.00021163749399386774 0 -0.054797224282673057 0.00021331337165653462 0 -0.054752622388288846 0.00021138885587860455 0 -0.054777851731342649 0.00021163749399386774 0 -0.054797224282673057 0.00021331337165653462 0 -0.05213831861728338 0.0006456314268852288 0 -0.052712007438727518 0.001155020574469713 0 -0.052320622376499898 6.3118331410708177e-05 0 -0.052712007438727518 0.001155020574469713 0 -0.052936422713767098 0.00015996974087028435 0 -0.052320622376499898 6.3118331410708177e-05 0 -0.053504155759163445 0.0003596138204860458 0 -0.054206447491572392 0.00027378986103043557 0 -0.054990307644188212 1.5090958361787496e-06 0 -0.054999983327172798 3.8487956139289527e-09 0 -0.05499997999485369 1.5618817159832471e-09 0 -0.054978344266631889 7.7411704459229194e-07 0 -0.054990307644188212 1.5090958361787496e-06 0 -0.054992462242651266 1.2924365015401519e-06 0 -0.054990307644188212 1.5090958361787496e-06 0 -0.054999983327172798 3.8487956139289527e-09 0 -0.054992462242651266 1.2924365015401519e-06 0 -0.054999667013352529 -2.048981495957386e-07 0 -0.054206447491572392 0.00027378986103043557 0 -0.054669518603102527 -8.4724502127984128e-05 0 -0.054969160068625407 -2.5603084101837334e-06 0 -0.054778984790281822 -9.7370656824342052e-05 0 -0.054999816724929491 1.4996818327398676e-08 0 -0.054969160068625407 -2.5603084101837334e-06 0 -0.054999469535668977 -8.018520492293124e-08 0 -0.054999816724929491 1.4996818327398676e-08 0 -0.054990101572521238 2.5209514669556073e-05 0 -0.054969160068625407 -2.5603084101837334e-06 0 -0.054206447491572392 0.00027378986103043557 0 -0.054886404509236104 0.00012467098844170773 0 -0.054778984790281822 -9.7370656824342052e-05 0 -0.054715515127439392 -0.00014693742268059726 0 -0.054825566046634841 -7.4672118116339645e-05 0 -0.054969160068625407 -2.5603084101837334e-06 0 -0.054778984790281822 -9.7370656824342052e-05 0 -0.054825566046634841 -7.4672118116339645e-05 0 -0.054206447491572392 0.00027378986103043557 0 -0.052828923555530885 0.00010285449815149439 0 -0.054778984790281822 -9.7370656824342052e-05 0 -0.054645840029286109 -0.00020943118078854667 0 -0.054715515127439392 -0.00014693742268059726 0 -0.054669518603102527 -8.4724502127984128e-05 0 -0.054645840029286109 -0.00020943118078854667 0 -0.05453116747656217 -0.00032711415648669598 0 -0.054669518603102527 -8.4724502127984128e-05 0 -0.054778984790281822 -9.7370656824342052e-05 0 -0.054645840029286109 -0.00020943118078854667 0 -0.054645840029286109 -0.00020943118078854667 0 -0.054553154174062715 -0.00024021068648220369 0 -0.054543549285930429 -0.0003304390463075423 0 -0.054645840029286109 -0.00020943118078854667 0 -0.054553154174062715 -0.00024021068648220369 0 -0.054715515127439392 -0.00014693742268059726 0 -0.054553154174062715 -0.00024021068648220369 0 -0.054548780483413953 -0.00016115932646996054 0 -0.054684293622717199 -0.00014505000937838558 0 -0.054553154174062715 -0.00024021068648220369 0 -0.054548780483413953 -0.00016115932646996054 0 -0.054351919341888426 -0.00023695613387895301 0 -0.054684293622717199 -0.00014505000937838558 0 -0.054825566046634841 -7.4672118116339645e-05 0 -0.054765276307207886 -7.9994988121410887e-05 0 -0.054548780483413953 -0.00016115932646996054 0 -0.054684293622717199 -0.00014505000937838558 0 -0.054765276307207886 -7.9994988121410887e-05 0 -0.054684293622717199 -0.00014505000937838558 0 -0.054715515127439392 -0.00014693742268059726 0 -0.054825566046634841 -7.4672118116339645e-05 0 -0.054553154174062715 -0.00024021068648220369 0 -0.054684293622717199 -0.00014505000937838558 0 -0.054715515127439392 -0.00014693742268059726 0 -0.054969160068625407 -2.5603084101837334e-06 0 -0.054825566046634841 -7.4672118116339645e-05 0 -0.054999469535668977 -8.018520492293124e-08 0 -0.054825566046634841 -7.4672118116339645e-05 0 -0.054999469535668977 -8.018520492293124e-08 0 -0.054765276307207886 -7.9994988121410887e-05 0 -0.054999784685630548 1.8459492419808979e-08 0 -0.054835882012855199 -3.2235375357632243e-05 0 -0.054999469535668977 -8.018520492293124e-08 0 -0.054835882012855199 -3.2235375357632243e-05 0 -0.054999469535668977 -8.018520492293124e-08 0 -0.054765276307207886 -7.9994988121410887e-05 0 -0.054835882012855199 -3.2235375357632243e-05 0 -0.054765276307207886 -7.9994988121410887e-05 0 -0.05464735202130399 -9.1690148244235651e-05 0 -0.054548780483413953 -0.00016115932646996054 0 -0.054765276307207886 -7.9994988121410887e-05 0 -0.05464735202130399 -9.1690148244235651e-05 0 -0.054597512111395567 -0.0001671563883822734 0 -0.05464735202130399 -9.1690148244235651e-05 0 -0.054385392491902794 -0.00016711468867973544 0 -0.054548780483413953 -0.00016115932646996054 0 -0.05464735202130399 -9.1690148244235651e-05 0 -0.054385392491902794 -0.00016711468867973544 0 -0.054548780483413953 -0.00016115932646996054 0 -0.054385392491902794 -0.00016711468867973544 0 -0.054351919341888426 -0.00023695613387895301 0 -0.054385392491902794 -0.00016711468867973544 0 -0.054181521102537468 -0.00019879034998598541 0 -0.053968634041346261 -0.00027991735664834977 0 -0.054597512111395567 -0.0001671563883822734 0 -0.054475256132752482 -0.00032672206033856205 0 -0.054181521102537468 -0.00019879034998598541 0 -0.054597512111395567 -0.0001671563883822734 0 -0.054385392491902794 -0.00016711468867973544 0 -0.054181521102537468 -0.00019879034998598541 0 -0.051123701331389583 -0.00011961646805574405 0 -0.052784652185676725 -0.00028681932034396718 0 -0.054415771522336009 -0.00061395013176262711 0 -0.054181521102537468 -0.00019879034998598541 0 -0.053270233690471125 -0.00021496595516054719 0 -0.054475256132752482 -0.00032672206033856205 0 -0.054415771522336009 -0.00061395013176262711 0 -0.054181521102537468 -0.00019879034998598541 0 -0.046945015182889641 0.00017769993941909974 0 -0.053270233690471125 -0.00021496595516054719 0 -0.050984832116575854 0.0020061470843189709 0 -0.04735016144312678 0.0013417933545425856 0 -0.047122412198722985 0.0024364610921254735 0 -0.053270233690471125 -0.00021496595516054719 0 -0.054921717666818512 0.00022882529225187823 0 -0.050984832116575854 0.0020061470843189709 0 -0.054181521102537468 -0.00019879034998598541 0 -0.053270233690471125 -0.00021496595516054719 0 -0.053968634041346261 -0.00027991735664834977 0 -0.053270233690471125 -0.00021496595516054719 0 -0.054270415296131573 -0.00018196587287239209 0 -0.053968634041346261 -0.00027991735664834977 0 -0.053270233690471125 -0.00021496595516054719 0 -0.054270415296131573 -0.00018196587287239209 0 -0.054921717666818512 0.00022882529225187823 0 -0.041885469956946315 0.0035070015712088043 0 -0.042366036841301628 0.0030769488181636496 0 -0.041994381105685902 0.0031728197373213523 0 -0.054270415296131573 -0.00018196587287239209 0 -0.054347967620405314 -0.00026357774068867345 0 -0.054937856127869007 8.4251792917709495e-05 0 -0.054270415296131573 -0.00018196587287239209 0 -0.054347967620405314 -0.00026357774068867345 0 -0.053968634041346261 -0.00027991735664834977 0 -0.054347967620405314 -0.00026357774068867345 0 -0.054377230103688085 -0.00031794837073933542 0 -0.05451770279484925 -0.00031735100616101907 0 -0.054347967620405314 -0.00026357774068867345 0 -0.054377230103688085 -0.00031794837073933542 0 -0.053968634041346261 -0.00027991735664834977 0 -0.054377230103688085 -0.00031794837073933542 0 -0.054543549285930429 -0.0003304390463075423 0 -0.05451770279484925 -0.00031735100616101907 0 -0.054377230103688085 -0.00031794837073933542 0 -0.053968634041346261 -0.00027991735664834977 0 -0.054351919341888426 -0.00023695613387895301 0 -0.054385392491902794 -0.00016711468867973544 0 -0.053968634041346261 -0.00027991735664834977 0 -0.054351919341888426 -0.00023695613387895301 0 -0.054553154174062715 -0.00024021068648220369 0 -0.054377230103688085 -0.00031794837073933542 0 -0.054351919341888426 -0.00023695613387895301 0 -0.054553154174062715 -0.00024021068648220369 0 -0.054377230103688085 -0.00031794837073933542 0 -0.054543549285930429 -0.0003304390463075423 0 -0.054626165520724176 -0.00041550790815347616 0 -0.05451770279484925 -0.00031735100616101907 0 -0.054937856127869007 8.4251792917709495e-05 0 -0.054645840029286109 -0.00020943118078854667 0 -0.054543549285930429 -0.0003304390463075423 0 -0.05453116747656217 -0.00032711415648669598 0 -0.054543549285930429 -0.0003304390463075423 0 -0.054626165520724176 -0.00041550790815347616 0 -0.05451770279484925 -0.00031735100616101907 0 -0.054171512116672767 7.8846423643972249e-05 0 -0.052828923555530885 0.00010285449815149439 0 -0.048345100022831676 0.0003413370693923258 0 -0.047766760446952272 0.00057766719707501594 0 -0.049954890989753316 0.00057176887990073664 0 -0.050007281163675206 0.00027917034186568639 0 -0.049720595177862668 0.0003832186421364156 0 -0.046297652251864649 0.00066265169214357661 0 -0.046294274890173355 0.00067034253538038443 0 -0.046335601648297316 0.00068776293908010824 0 -0.052828923555530885 0.00010285449815149439 0 -0.048345100022831676 0.0003413370693923258 0 -0.054347967620405314 -0.00026357774068867345 0 -0.05451770279484925 -0.00031735100616101907 0 -0.054937856127869007 8.4251792917709495e-05 0 -0.047021357208049862 0.0016644675510176061 0 -0.046539082741875022 0.0018432800560684566 0 -0.046612092899569996 0.0015328259369571896 0 -0.04735016144312678 0.0013417933545425856 0 -0.048345100022831676 0.0003413370693923258 0 -0.054270415296131573 -0.00018196587287239209 0 -0.054921717666818512 0.00022882529225187823 0 -0.054937856127869007 8.4251792917709495e-05 0 -0.048345100022831676 0.0003413370693923258 0 -0.045560563998866821 0.0016864274382712608 0 -0.041885469956946315 0.0035070015712088043 0 -0.041643886412590987 0.0034368459301293021 0 -0.041994381105685902 0.0031728197373213523 0 -0.04735016144312678 0.0013417933545425856 0 -0.045560563998866821 0.0016864274382712608 0 -0.046297652251864649 0.00066265169214357661 0 -0.046343633244254348 0.00064083710639393512 0 -0.046335601648297316 0.00068776293908010824 0 -0.046343633244254348 0.00064083710639393512 0 -0.046335601648297316 0.00068776293908010824 0 -0.046384136790727941 0.00065674568482546926 0 -0.049954890989753316 0.00057176887990073664 0 -0.049720595177862668 0.0003832186421364156 0 -0.04968912521032548 0.00053356018691895946 0 -0.049720595177862668 0.0003832186421364156 0 -0.04968912521032548 0.00053356018691895946 0 -0.049420956953644256 0.00049065219619554771 0 -0.052828923555530885 0.00010285449815149439 0 -0.050967146005912282 0.00029668809297792227 0 -0.040351877534018206 0.0018782840648289888 0 -0.041379848018521272 0.001700395473729031 0 -0.041048357021268508 0.00084622625740958014 0 -0.040351877534018206 0.0018782840648289888 0 -0.041216529162781748 0.0024541117387327301 0 -0.041379848018521272 0.001700395473729031 0 -0.040351877534018206 0.0018782840648289888 0 -0.040518276880581176 0.0028111385066845328 0 -0.041216529162781748 0.0024541117387327301 0 -0.04166513122870999 0.0032670772072446196 0 -0.040518276880581176 0.0028111385066845328 0 -0.041216529162781748 0.0024541117387327301 0 -0.045560563998866821 0.0016864274382712608 0 -0.042944315642125433 0.0017980721773224947 0 -0.04166513122870999 0.0032670772072446196 0 -0.041216529162781748 0.0024541117387327301 0 -0.041769632416279984 0.0028166018003662058 0 -0.045560563998866821 0.0016864274382712608 0 -0.043242767313625065 0.0034390475353992429 0 -0.041643886412590987 0.0034368459301293021 0 -0.041769632416279984 0.0028166018003662058 0 -0.041994381105685902 0.0031728197373213523 0 -0.041216529162781748 0.0024541117387327301 0 -0.041769632416279984 0.0028166018003662058 0 -0.041729078061955978 0.0022511266709195447 0 -0.041216529162781748 0.0024541117387327301 0 -0.041729078061955978 0.0022511266709195447 0 -0.041379848018521272 0.001700395473729031 0 -0.041729078061955978 0.0022511266709195447 0 -0.041379848018521272 0.001700395473729031 0 -0.042521378888525661 0.0017874070881433147 0 -0.041379848018521272 0.001700395473729031 0 -0.042521378888525661 0.0017874070881433147 0 -0.041713098420696246 0.0011637052168028336 0 -0.041729078061955978 0.0022511266709195447 0 -0.042521378888525661 0.0017874070881433147 0 -0.042213492995462322 0.00252517193300714 0 -0.041769632416279984 0.0028166018003662058 0 -0.041729078061955978 0.0022511266709195447 0 -0.042213492995462322 0.00252517193300714 0 -0.041885469956946315 0.0035070015712088043 0 -0.042366036841301628 0.0030769488181636496 0 -0.043108768393399374 0.0032063611685219239 0 -0.041769632416279984 0.0028166018003662058 0 -0.042366036841301628 0.0030769488181636496 0 -0.041994381105685902 0.0031728197373213523 0 -0.041769632416279984 0.0028166018003662058 0 -0.042213492995462322 0.00252517193300714 0 -0.042366036841301628 0.0030769488181636496 0 -0.042366036841301628 0.0030769488181636496 0 -0.042732603861000959 0.0025648263510728978 0 -0.043108768393399374 0.0032063611685219239 0 -0.042213492995462322 0.00252517193300714 0 -0.042366036841301628 0.0030769488181636496 0 -0.042732603861000959 0.0025648263510728978 0 -0.042521378888525661 0.0017874070881433147 0 -0.042213492995462322 0.00252517193300714 0 -0.042732603861000959 0.0025648263510728978 0 -0.042732603861000959 0.0025648263510728978 0 -0.043543726071253286 0.0022556220246266181 0 -0.043108768393399374 0.0032063611685219239 0 -0.047122412198722985 0.0024364610921254735 0 -0.045146128898906568 0.0026630173102814227 0 -0.043543726071253286 0.0022556220246266181 0 -0.043108768393399374 0.0032063611685219239 0 -0.044793033366100944 0.0025214548363999782 0 -0.046945015182889641 0.00017769993941909974 0 -0.050984832116575854 0.0020061470843189709 0 -0.044793033366100944 0.0025214548363999782 0 -0.043543726071253286 0.0022556220246266181 0 -0.043170708999861807 0.0013215113557645789 0 -0.044572989094870744 0.001946236234630624 0 -0.042521378888525661 0.0017874070881433147 0 -0.043543726071253286 0.0022556220246266181 0 -0.043170708999861807 0.0013215113557645789 0 -0.042521378888525661 0.0017874070881433147 0 -0.042732603861000959 0.0025648263510728978 0 -0.043543726071253286 0.0022556220246266181 0 -0.043170708999861807 0.0013215113557645789 0 -0.042033043746723259 0.00044309163704743217 0 -0.043296729824540192 4.8564512560301078e-05 0 -0.041966907899412764 -0.00035843169020246591 0 -0.042033043746723259 0.00044309163704743217 0 -0.043296729824540192 4.8564512560301078e-05 0 -0.041966907899412764 -0.00035843169020246591 0 -0.042033043746723259 0.00044309163704743217 0 -0.041389926206829047 -0.00019505738811630944 0 -0.042521378888525661 0.0017874070881433147 0 -0.043170708999861807 0.0013215113557645789 0 -0.042033043746723259 0.00044309163704743217 0 -0.042521378888525661 0.0017874070881433147 0 -0.042033043746723259 0.00044309163704743217 0 -0.041713098420696246 0.0011637052168028336 0 -0.042086206281604761 0.00039824697065040819 0 -0.040978991401872465 0.0005945207432066661 0 -0.041379848018521272 0.001700395473729031 0 -0.041713098420696246 0.0011637052168028336 0 -0.041048357021268508 0.00084622625740958014 0 -0.042033043746723259 0.00044309163704743217 0 -0.041713098420696246 0.0011637052168028336 0 -0.041048357021268508 0.00084622625740958014 0 -0.042033043746723259 0.00044309163704743217 0 -0.041193837833393608 0.00014941441290784859 0 -0.041389926206829047 -0.00019505738811630944 0 -0.041193837833393608 0.00014941441290784859 0 -0.041389926206829047 -0.00019505738811630944 0 -0.041189769619649444 -0.00013574907267472385 0 -0.041389926206829047 -0.00019505738811630944 0 -0.041189769619649444 -0.00013574907267472385 0 -0.041284643476035228 -0.00037458377612187375 0 -0.041193837833393608 0.00014941441290784859 0 -0.041189769619649444 -0.00013574907267472385 0 -0.041085633024095847 -2.6580296466971472e-05 0 -0.041189769619649444 -0.00013574907267472385 0 -0.041087001964126429 -0.00023268136439155978 0 -0.041284643476035228 -0.00037458377612187375 0 -0.041189769619649444 -0.00013574907267472385 0 -0.041087001964126429 -0.00023268136439155978 0 -0.041085633024095847 -2.6580296466971472e-05 0 -0.040351877534018206 0.0018782840648289888 0 -0.041048357021268508 0.00084622625740958014 0 -0.039845966806767517 0.0010866142628543484 0 -0.041193837833393608 0.00014941441290784859 0 -0.041085633024095847 -2.6580296466971472e-05 0 -0.040891976189562917 0.00012525238316201664 0 -0.040978991401872465 0.0005945207432066661 0 -0.041105126984539685 -0.00010169944867190795 0 -0.043094712781667467 0.0010116392348619005 0 -0.041614140944325063 0.0011927843517062491 0 -0.042536581888532904 0.0019555933092691088 0 -0.043094712781667467 0.0010116392348619005 0 -0.041614140944325063 0.0011927843517062491 0 -0.0414726402507452 -0.00077689305484762933 0 -0.041614140944325063 0.0011927843517062491 0 -0.04109207818885497 0.0019342660747212444 0 -0.040218334455263655 0.00020863348082478521 0 -0.041614140944325063 0.0011927843517062491 0 -0.0414726402507452 -0.00077689305484762933 0 -0.040218334455263655 0.00020863348082478521 0 -0.043094712781667467 0.0010116392348619005 0 -0.0414726402507452 -0.00077689305484762933 0 -0.043401097272207173 -0.00041273327321864517 0 -0.047127660364081392 -0.00033455857995374268 0 -0.050097823332788567 0.001925116392667057 0 -0.043401097272207173 -0.00041273327321864517 0 -0.046756617499230893 -0.00019522138170987861 0 -0.044624536563510959 0.0011800855545815486 0 -0.046756617499230893 -0.00019522138170987861 0 -0.044624536563510959 0.0011800855545815486 0 -0.045979801851058821 0.0029160594039297685 0 -0.050035734151599856 0.0010163089109915101 0 -0.046756617499230893 -0.00019522138170987861 0 -0.04997562148564734 0.001211477245564214 0 -0.043094712781667467 0.0010116392348619005 0 -0.043401097272207173 -0.00041273327321864517 0 -0.044624536563510959 0.0011800855545815486 0 -0.043094712781667467 0.0010116392348619005 0 -0.044624536563510959 0.0011800855545815486 0 -0.043690746626116675 0.002043804636701676 0 -0.050097823332788567 0.001925116392667057 0 -0.048180096099694092 0.0016523647029076127 0 -0.043690746626116675 0.002043804636701676 0 -0.045979801851058821 0.0029160594039297685 0 -0.0418385457411041 0.00295976494768673 0 -0.044624536563510959 0.0011800855545815486 0 -0.043690746626116675 0.002043804636701676 0 -0.045979801851058821 0.0029160594039297685 0 -0.054676959922803456 0.00024649439107417536 0 -0.054702647055824428 0.00022585781133269449 0 -0.054703988971952541 0.00022625515619755627 0 -0.054676959922803456 0.00024649439107417536 0 -0.054696760972655981 0.00022754187872660206 0 -0.054702647055824428 0.00022585781133269449 0 -0.050097823332788567 0.001925116392667057 0 -0.052294283554325818 0.00066413387536777742 0 -0.054720114899693931 0.00021737273420853004 0 -0.054696760972655981 0.00022754187872660206 0 -0.054702647055824428 0.00022585781133269449 0 -0.054720114899693931 0.00021737273420853004 0 -0.054702647055824428 0.00022585781133269449 0 -0.054713372504205077 0.00021216676518505772 0 -0.054702647055824428 0.00022585781133269449 0 -0.054713372504205077 0.00021216676518505772 0 -0.054703988971952541 0.00022625515619755627 0 -0.054713372504205077 0.00021216676518505772 0 -0.054703988971952541 0.00022625515619755627 0 -0.054721587552814192 0.0001849224073690311 0 -0.043690746626116675 0.002043804636701676 0 -0.042536581888532904 0.0019555933092691088 0 -0.0418385457411041 0.00295976494768673 0 -0.043094712781667467 0.0010116392348619005 0 -0.043690746626116675 0.002043804636701676 0 -0.042536581888532904 0.0019555933092691088 0 -0.04109207818885497 0.0019342660747212444 0 -0.0418385457411041 0.00295976494768673 0 -0.04010923067724842 0.0021520956803841385 0 -0.041614140944325063 0.0011927843517062491 0 -0.041764699875437503 0.002018759186966573 0 -0.04109207818885497 0.0019342660747212444 0 -0.041614140944325063 0.0011927843517062491 0 -0.042536581888532904 0.0019555933092691088 0 -0.041764699875437503 0.002018759186966573 0 -0.041764699875437503 0.002018759186966573 0 -0.04109207818885497 0.0019342660747212444 0 -0.0418385457411041 0.00295976494768673 0 -0.042536581888532904 0.0019555933092691088 0 -0.041764699875437503 0.002018759186966573 0 -0.0418385457411041 0.00295976494768673 0 -0.03881810894004125 0.0031914344910716056 0 -0.04010923067724842 0.0021520956803841385 0 -0.038209315374093014 -0.00073195768037207941 0 -0.048180096099694092 0.0016523647029076127 0 -0.047925901656619377 0.00089091206891164516 0 -0.054703988971952541 0.00022625515619755627 0 -0.054721587552814192 0.0001849224073690311 0 -0.054917061276655292 0.00016664737033468907 0 -0.0418385457411041 0.00295976494768673 0 -0.03881810894004125 0.0031914344910716056 0 -0.04010923067724842 0.0021520956803841385 0 -0.04109207818885497 0.0019342660747212444 0 -0.04010923067724842 0.0021520956803841385 0 -0.040218334455263655 0.00020863348082478521 0 -0.046945015182889641 0.00017769993941909974 0 -0.044013942179917075 0.002066913037320736 0 -0.044793033366100944 0.0025214548363999782 0 -0.044013942179917075 0.002066913037320736 0 -0.044793033366100944 0.0025214548363999782 0 -0.044572989094870744 0.001946236234630624 0 -0.047925901656619377 0.00089091206891164516 0 -0.040548614995776375 0.00084473070594652099 0 -0.043543726071253286 0.0022556220246266181 0 -0.044793033366100944 0.0025214548363999782 0 -0.044572989094870744 0.001946236234630624 0 -0.038209315374093014 -0.00073195768037207941 0 -0.040218334455263655 0.00020863348082478521 0 -0.039885141393303285 -0.0025770253744026132 0 -0.04010923067724842 0.0021520956803841385 0 -0.038209315374093014 -0.00073195768037207941 0 -0.040218334455263655 0.00020863348082478521 0 -0.0414726402507452 -0.00077689305484762933 0 -0.040218334455263655 0.00020863348082478521 0 -0.039885141393303285 -0.0025770253744026132 0 -0.038209315374093014 -0.00073195768037207941 0 -0.039885141393303285 -0.0025770253744026132 0 -0.038662756780887562 -0.0029471417615005028 0 -0.043170708999861807 0.0013215113557645789 0 -0.044572989094870744 0.001946236234630624 0 -0.043296729824540192 4.8564512560301078e-05 0 -0.040548614995776375 0.00084473070594652099 0 -0.041105098072343305 -0.0013530552638379328 0 -0.039885141393303285 -0.0025770253744026132 0 -0.038662756780887562 -0.0029471417615005028 0 -0.039510532698827538 -0.0031852308752532222 0 -0.039885141393303285 -0.0025770253744026132 0 -0.040158121731826063 -0.0032878522359564306 0 -0.039510532698827538 -0.0031852308752532222 0 -0.039885141393303285 -0.0025770253744026132 0 -0.040158121731826063 -0.0032878522359564306 0 -0.041381652393735167 -0.0035468756641146184 0 -0.0414726402507452 -0.00077689305484762933 0 -0.039885141393303285 -0.0025770253744026132 0 -0.041381652393735167 -0.0035468756641146184 0 -0.0414726402507452 -0.00077689305484762933 0 -0.043401097272207173 -0.00041273327321864517 0 -0.041381652393735167 -0.0035468756641146184 0 -0.043401097272207173 -0.00041273327321864517 0 -0.046756617499230893 -0.00019522138170987861 0 -0.041381652393735167 -0.0035468756641146184 0 -0.043789672896702291 -0.0045207255463817096 0 -0.041732470878773152 -0.0036499631766415117 0 -0.049734817916277339 -0.0047768969283551281 0 -0.046756617499230893 -0.00019522138170987861 0 -0.041381652393735167 -0.0035468756641146184 0 -0.040158121731826063 -0.0032878522359564306 0 -0.041381652393735167 -0.0035468756641146184 0 -0.039246794138718323 -0.0031053640512818804 0 -0.038733326100156965 -0.0039336871608283593 0 -0.041381652393735167 -0.0035468756641146184 0 -0.039246794138718323 -0.0031053640512818804 0 -0.040158121731826063 -0.0032878522359564306 0 -0.039246794138718323 -0.0031053640512818804 0 -0.039301166041141436 -0.0029760408121855828 0 -0.039246794138718323 -0.0031053640512818804 0 -0.038360271215501826 -0.0026214728002469621 0 -0.039301166041141436 -0.0029760408121855828 0 -0.038360271215501826 -0.0026214728002469621 0 -0.038787658978614636 -0.0026885579975964922 0 -0.039301166041141436 -0.0029760408121855828 0 -0.040158121731826063 -0.0032878522359564306 0 -0.039301166041141436 -0.0029760408121855828 0 -0.039510532698827538 -0.0031852308752532222 0 -0.038787658978614636 -0.0026885579975964922 0 -0.039301166041141436 -0.0029760408121855828 0 -0.039510532698827538 -0.0031852308752532222 0 -0.038787658978614636 -0.0026885579975964922 0 -0.039510532698827538 -0.0031852308752532222 0 -0.039141704708794904 -0.0030925463164063129 0 -0.038662756780887562 -0.0029471417615005028 0 -0.039510532698827538 -0.0031852308752532222 0 -0.039141704708794904 -0.0030925463164063129 0 -0.038662756780887562 -0.0029471417615005028 0 -0.039141704708794904 -0.0030925463164063129 0 -0.039372082420720433 -0.0030761301512343257 0 -0.039141704708794904 -0.0030925463164063129 0 -0.038942837846295146 -0.0025620229206722686 0 -0.039372082420720433 -0.0030761301512343257 0 -0.038787658978614636 -0.0026885579975964922 0 -0.039141704708794904 -0.0030925463164063129 0 -0.038942837846295146 -0.0025620229206722686 0 -0.038583347600942175 -0.002344337054977073 0 -0.038942837846295146 -0.0025620229206722686 0 -0.038501311239857235 -0.0019741509174322075 0 -0.038787658978614636 -0.0026885579975964922 0 -0.038583347600942175 -0.002344337054977073 0 -0.038942837846295146 -0.0025620229206722686 0 -0.038942837846295146 -0.0025620229206722686 0 -0.039104030440747138 -0.0019343112402297241 0 -0.038501311239857235 -0.0019741509174322075 0 -0.039104030440747138 -0.0019343112402297241 0 -0.038501311239857235 -0.0019741509174322075 0 -0.038655262784659208 -0.0015684635014631039 0 -0.038501311239857235 -0.0019741509174322075 0 -0.038073185463197157 -0.0020670446691919662 0 -0.037965343961253083 -0.0016412314678748701 0 -0.038583347600942175 -0.002344337054977073 0 -0.038501311239857235 -0.0019741509174322075 0 -0.038073185463197157 -0.0020670446691919662 0 -0.038073185463197157 -0.0020670446691919662 0 -0.037736731078722663 -0.0020875877886042584 0 -0.037322102547739842 -0.0016771801030749346 0 -0.038360271215501826 -0.0026214728002469621 0 -0.038787658978614636 -0.0026885579975964922 0 -0.037736731078722663 -0.0020875877886042584 0 -0.038787658978614636 -0.0026885579975964922 0 -0.038073185463197157 -0.0020670446691919662 0 -0.037736731078722663 -0.0020875877886042584 0 -0.038787658978614636 -0.0026885579975964922 0 -0.038583347600942175 -0.002344337054977073 0 -0.038073185463197157 -0.0020670446691919662 0 -0.041555715436512673 -0.00027007228806230995 0 -0.041223036000557357 0.00018644009396259927 0 -0.041741193524778883 0.00031555719658727511 0 -0.041555715436512673 -0.00027007228806230995 0 -0.041741193524778883 0.00031555719658727511 0 -0.042164862872038453 -0.00014918326677573177 0 -0.041658861261736506 -0.00073904015269872546 0 -0.041495331836812671 -0.00019134837417049384 0 -0.041087001964126429 -0.00023268136439155978 0 -0.041555715436512673 -0.00027007228806230995 0 -0.041284643476035228 -0.00037458377612187375 0 -0.041555715436512673 -0.00027007228806230995 0 -0.041284643476035228 -0.00037458377612187375 0 -0.041307153426604612 -0.00035814036362295272 0 -0.041284643476035228 -0.00037458377612187375 0 -0.041307153426604612 -0.00035814036362295272 0 -0.041109798915058421 -0.00072470798514504681 0 -0.041389926206829047 -0.00019505738811630944 0 -0.041284643476035228 -0.00037458377612187375 0 -0.041109798915058421 -0.00072470798514504681 0 -0.041555715436512673 -0.00027007228806230995 0 -0.041307153426604612 -0.00035814036362295272 0 -0.041223036000557357 0.00018644009396259927 0 -0.041307153426604612 -0.00035814036362295272 0 -0.041109798915058421 -0.00072470798514504681 0 -0.041223036000557357 0.00018644009396259927 0 -0.041053173078777511 -0.00070135523860606131 0 -0.040703350671658228 -0.00087999696501429706 0 -0.040673104575541574 -0.001672968296858081 0 -0.041109798915058421 -0.00072470798514504681 0 -0.040146134403765257 -0.0018920646446023476 0 -0.040673104575541574 -0.001672968296858081 0 -0.041109798915058421 -0.00072470798514504681 0 -0.041987054375276354 -0.0011701073392264413 0 -0.041966907899412764 -0.00035843169020246591 0 -0.041109798915058421 -0.00072470798514504681 0 -0.041987054375276354 -0.0011701073392264413 0 -0.041966907899412764 -0.00035843169020246591 0 -0.041389926206829047 -0.00019505738811630944 0 -0.041109798915058421 -0.00072470798514504681 0 -0.041105098072343305 -0.0013530552638379328 0 -0.040635202351231116 -0.0020235609529390261 0 -0.041966907899412764 -0.00035843169020246591 0 -0.043296729824540192 4.8564512560301078e-05 0 -0.041987054375276354 -0.0011701073392264413 0 -0.040673104575541574 -0.001672968296858081 0 -0.041987054375276354 -0.0011701073392264413 0 -0.04003994722723131 -0.0021022207106423875 0 -0.040635202351231116 -0.0020235609529390261 0 -0.040185349438192054 -0.0020385444330360686 0 -0.038942837846295146 -0.0025620229206722686 0 -0.039372082420720433 -0.0030761301512343257 0 -0.04003994722723131 -0.0021022207106423875 0 -0.038942837846295146 -0.0025620229206722686 0 -0.039104030440747138 -0.0019343112402297241 0 -0.04003994722723131 -0.0021022207106423875 0 -0.039104030440747138 -0.0019343112402297241 0 -0.04003994722723131 -0.0021022207106423875 0 -0.039299489841930345 -0.0016664635669206742 0 -0.040062799482145119 -0.0019157738737674436 0 -0.039792185158103281 -0.0013538326888666383 0 -0.039299489841930345 -0.0016664635669206742 0 -0.04003994722723131 -0.0021022207106423875 0 -0.040062799482145119 -0.0019157738737674436 0 -0.039299489841930345 -0.0016664635669206742 0 -0.040673104575541574 -0.001672968296858081 0 -0.040062799482145119 -0.0019157738737674436 0 -0.040146134403765257 -0.0018920646446023476 0 -0.040673104575541574 -0.001672968296858081 0 -0.04003994722723131 -0.0021022207106423875 0 -0.040062799482145119 -0.0019157738737674436 0 -0.040062799482145119 -0.0019157738737674436 0 -0.04049914411510689 -0.0016824283761973642 0 -0.040128132203458719 -0.0013716098765303689 0 -0.040062799482145119 -0.0019157738737674436 0 -0.040146134403765257 -0.0018920646446023476 0 -0.04049914411510689 -0.0016824283761973642 0 -0.040703350671658228 -0.00087999696501429706 0 -0.041290060761108402 -0.00027345914214909538 0 -0.04164940891386807 0.00088390019077728651 0 -0.041741193524778883 0.00031555719658727511 0 -0.042150518067634556 0.00087142589466164533 0 -0.041223036000557357 0.00018644009396259927 0 -0.04164940891386807 0.00088390019077728651 0 -0.041741193524778883 0.00031555719658727511 0 -0.039665206641163367 -0.00047287552775226663 0 -0.040005662447919567 2.9797859326793997e-06 0 -0.039008647999579642 -0.00015647976944672891 0 -0.038642473829823588 -0.00048096750120956057 0 -0.038352012968837737 -4.0248461191783803e-05 0 -0.039008647999579642 -0.00015647976944672891 0 -0.038986951929631253 -0.00056440201958422821 0 -0.038642473829823588 -0.00048096750120956057 0 -0.04049914411510689 -0.0016824283761973642 0 -0.040438363565301137 -0.00077924658573069326 0 -0.040972162454720455 -0.00087784119820830196 0 -0.041290060761108402 -0.00027345914214909538 0 -0.040005662447919567 2.9797859326793997e-06 0 -0.04049914411510689 -0.0016824283761973642 0 -0.040438363565301137 -0.00077924658573069326 0 -0.040128132203458719 -0.0013716098765303689 0 -0.040438363565301137 -0.00077924658573069326 0 -0.040128132203458719 -0.0013716098765303689 0 -0.039880626392777771 -0.0009738360642040241 0 -0.040128132203458719 -0.0013716098765303689 0 -0.039880626392777771 -0.0009738360642040241 0 -0.039792185158103281 -0.0013538326888666383 0 -0.040438363565301137 -0.00077924658573069326 0 -0.039880626392777771 -0.0009738360642040241 0 -0.039733088577254105 -0.0005907657354431604 0 -0.039665206641163367 -0.00047287552775226663 0 -0.039721121368163435 -0.00054689778584990183 0 -0.039008647999579642 -0.00015647976944672891 0 -0.039251247767932242 -0.00044607426951110291 0 -0.039733088577254105 -0.0005907657354431604 0 -0.039008647999579642 -0.00015647976944672891 0 -0.039251247767932242 -0.00044607426951110291 0 -0.038986951929631253 -0.00056440201958422821 0 -0.039251247767932242 -0.00044607426951110291 0 -0.039613167988317093 -0.00055785118697963322 0 -0.039300998495190878 -0.00068256292835438442 0 -0.039251247767932242 -0.00044607426951110291 0 -0.039733088577254105 -0.0005907657354431604 0 -0.039613167988317093 -0.00055785118697963322 0 -0.039733088577254105 -0.0005907657354431604 0 -0.039655686098847516 -0.00069385700243392013 0 -0.039639504047283496 -0.00047038223839465269 0 -0.038776760390618017 -0.0012265558836025319 0 -0.038944972537240691 -0.0013983964796724813 0 -0.039002083642500344 -0.0011135801719601274 0 -0.038776760390618017 -0.0012265558836025319 0 -0.038944972537240691 -0.0013983964796724813 0 -0.03885167588557361 -0.0014393961845307476 0 -0.039880626392777771 -0.0009738360642040241 0 -0.039733088577254105 -0.0005907657354431604 0 -0.039655686098847516 -0.00069385700243392013 0 -0.039655686098847516 -0.00069385700243392013 0 -0.039792185158103281 -0.0013538326888666383 0 -0.039299489841930345 -0.0016664635669206742 0 -0.039309617933555717 -0.0011018255618199582 0 -0.039255133710597315 -0.0016061189621520569 0 -0.040062799482145119 -0.0019157738737674436 0 -0.040128132203458719 -0.0013716098765303689 0 -0.039792185158103281 -0.0013538326888666383 0 -0.039880626392777771 -0.0009738360642040241 0 -0.039655686098847516 -0.00069385700243392013 0 -0.039792185158103281 -0.0013538326888666383 0 -0.038944972537240691 -0.0013983964796724813 0 -0.039299489841930345 -0.0016664635669206742 0 -0.03885167588557361 -0.0014393961845307476 0 -0.039104030440747138 -0.0019343112402297241 0 -0.039299489841930345 -0.0016664635669206742 0 -0.038655262784659208 -0.0015684635014631039 0 -0.039299489841930345 -0.0016664635669206742 0 -0.03885167588557361 -0.0014393961845307476 0 -0.038655262784659208 -0.0015684635014631039 0 -0.03885167588557361 -0.0014393961845307476 0 -0.038484155830773657 -0.0012808082654189072 0 -0.038655262784659208 -0.0015684635014631039 0 -0.038776760390618017 -0.0012265558836025319 0 -0.038484155830773657 -0.0012808082654189072 0 -0.038436886669163416 -0.0010478101925627905 0 -0.038776760390618017 -0.0012265558836025319 0 -0.03885167588557361 -0.0014393961845307476 0 -0.038484155830773657 -0.0012808082654189072 0 -0.038484155830773657 -0.0012808082654189072 0 -0.038436886669163416 -0.0010478101925627905 0 -0.038003188173068296 -0.00099762332191288155 0 -0.038776760390618017 -0.0012265558836025319 0 -0.038436886669163416 -0.0010478101925627905 0 -0.038578474377198059 -0.00087530263674959012 0 -0.038436886669163416 -0.0010478101925627905 0 -0.038578474377198059 -0.00087530263674959012 0 -0.038194193902290438 -0.00065049757279402563 0 -0.038436886669163416 -0.0010478101925627905 0 -0.038194193902290438 -0.00065049757279402563 0 -0.038003188173068296 -0.00099762332191288155 0 -0.038194193902290438 -0.00065049757279402563 0 -0.038332735269028584 -0.00020400585833318759 0 -0.037811340067164863 -4.5917082653710246e-05 0 -0.038578474377198059 -0.00087530263674959012 0 -0.038194193902290438 -0.00065049757279402563 0 -0.038618973132893974 -0.00051578176826551814 0 -0.038194193902290438 -0.00065049757279402563 0 -0.038332735269028584 -0.00020400585833318759 0 -0.038618973132893974 -0.00051578176826551814 0 -0.038618973132893974 -0.00051578176826551814 0 -0.038941577680377454 -0.00054067273691108984 0 -0.03882759552508553 -0.0007524463445106027 0 -0.038618973132893974 -0.00051578176826551814 0 -0.038941577680377454 -0.00054067273691108984 0 -0.03889334006267274 4.9847711001909379e-05 0 -0.038332735269028584 -0.00020400585833318759 0 -0.038618973132893974 -0.00051578176826551814 0 -0.03889334006267274 4.9847711001909379e-05 0 -0.039084658491123622 -0.00024686099791744183 0 -0.038941577680377454 -0.00054067273691108984 0 -0.03889334006267274 4.9847711001909379e-05 0 -0.039084658491123622 -0.00024686099791744183 0 -0.039442048967094218 -0.00021975687536124135 0 -0.03889334006267274 4.9847711001909379e-05 0 -0.039084658491123622 -0.00024686099791744183 0 -0.038941577680377454 -0.00054067273691108984 0 -0.039191941355642308 -0.00054091455336709301 0 -0.038941577680377454 -0.00054067273691108984 0 -0.039191941355642308 -0.00054091455336709301 0 -0.039063007670936775 -0.00074946474526766391 0 -0.038941577680377454 -0.00054067273691108984 0 -0.039063007670936775 -0.00074946474526766391 0 -0.03882759552508553 -0.0007524463445106027 0 -0.038944972537240691 -0.0013983964796724813 0 -0.039002083642500344 -0.0011135801719601274 0 -0.039391791273328404 -0.00085015493674209426 0 -0.039309617933555717 -0.0011018255618199582 0 -0.03960871199703294 -0.00052510043012556561 0 -0.039063007670936775 -0.00074946474526766391 0 -0.038950233133158658 -0.00097775533003940495 0 -0.039391791273328404 -0.00085015493674209426 0 -0.039191941355642308 -0.00054091455336709301 0 -0.039063007670936775 -0.00074946474526766391 0 -0.039391791273328404 -0.00085015493674209426 0 -0.039063007670936775 -0.00074946474526766391 0 -0.03882759552508553 -0.0007524463445106027 0 -0.038950233133158658 -0.00097775533003940495 0 -0.038578474377198059 -0.00087530263674959012 0 -0.03882759552508553 -0.0007524463445106027 0 -0.038950233133158658 -0.00097775533003940495 0 -0.038578474377198059 -0.00087530263674959012 0 -0.038618973132893974 -0.00051578176826551814 0 -0.03882759552508553 -0.0007524463445106027 0 -0.038776760390618017 -0.0012265558836025319 0 -0.039002083642500344 -0.0011135801719601274 0 -0.038950233133158658 -0.00097775533003940495 0 -0.038776760390618017 -0.0012265558836025319 0 -0.038578474377198059 -0.00087530263674959012 0 -0.038950233133158658 -0.00097775533003940495 0 -0.039002083642500344 -0.0011135801719601274 0 -0.038950233133158658 -0.00097775533003940495 0 -0.039391791273328404 -0.00085015493674209426 0 -0.039613167988317093 -0.00055785118697963322 0 -0.039667615287281105 -0.00045545883783429776 0 -0.039639504047283496 -0.00047038223839465269 0 -0.039733088577254105 -0.0005907657354431604 0 -0.039613167988317093 -0.00055785118697963322 0 -0.039639504047283496 -0.00047038223839465269 0 -0.039579091976871365 -0.00052001226134667838 0 -0.039397891626239578 -0.00075767551436203612 0 -0.039613167988317093 -0.00055785118697963322 0 -0.039300998495190878 -0.00068256292835438442 0 -0.039129470590097901 -0.00097102670311560507 0 -0.039251247767932242 -0.00044607426951110291 0 -0.039300998495190878 -0.00068256292835438442 0 -0.039178263442845862 -0.00070364390883509962 0 -0.039178263442845862 -0.00070364390883509962 0 -0.038972453934627019 -0.00083216331808794381 0 -0.038986951929631253 -0.00056440201958422821 0 -0.039251247767932242 -0.00044607426951110291 0 -0.039178263442845862 -0.00070364390883509962 0 -0.038986951929631253 -0.00056440201958422821 0 -0.039300998495190878 -0.00068256292835438442 0 -0.039178263442845862 -0.00070364390883509962 0 -0.039129470590097901 -0.00097102670311560507 0 -0.039129470590097901 -0.00097102670311560507 0 -0.038925490377736842 -0.0010605877943644013 0 -0.038972453934627019 -0.00083216331808794381 0 -0.039178263442845862 -0.00070364390883509962 0 -0.039129470590097901 -0.00097102670311560507 0 -0.038972453934627019 -0.00083216331808794381 0 -0.039397891626239578 -0.00075767551436203612 0 -0.039440757412638597 -0.00065476006939193458 0 -0.039667615287281105 -0.00045545883783429776 0 -0.039639504047283496 -0.00047038223839465269 0 -0.039696037066406467 -0.00038502160743121973 0 -0.039391791273328404 -0.00085015493674209426 0 -0.039442048967094218 -0.00021975687536124135 0 -0.040051187057806102 0.00011385004181775813 0 -0.039129470590097901 -0.00097102670311560507 0 -0.038925490377736842 -0.0010605877943644013 0 -0.038847691936612236 -0.0014671030016409734 0 -0.039191941355642308 -0.00054091455336709301 0 -0.039391791273328404 -0.00085015493674209426 0 -0.039442048967094218 -0.00021975687536124135 0 -0.03960871199703294 -0.00052510043012556561 0 -0.039440757412638597 -0.00065476006939193458 0 -0.039442048967094218 -0.00021975687536124135 0 -0.039582532824956641 0.00018336763159571476 0 -0.03889334006267274 4.9847711001909379e-05 0 -0.039084658491123622 -0.00024686099791744183 0 -0.039191941355642308 -0.00054091455336709301 0 -0.039442048967094218 -0.00021975687536124135 0 -0.038925490377736842 -0.0010605877943644013 0 -0.038739124154810262 -0.00096207530350198749 0 -0.038789172571897644 -0.0011825188330702287 0 -0.038739124154810262 -0.00096207530350198749 0 -0.038789172571897644 -0.0011825188330702287 0 -0.038531645621174927 -0.0011723352337478063 0 -0.038925490377736842 -0.0010605877943644013 0 -0.038789172571897644 -0.0011825188330702287 0 -0.038847691936612236 -0.0014671030016409734 0 -0.038789172571897644 -0.0011825188330702287 0 -0.038672282580426126 -0.0013338538735991525 0 -0.038847691936612236 -0.0014671030016409734 0 -0.038789172571897644 -0.0011825188330702287 0 -0.038672282580426126 -0.0013338538735991525 0 -0.038531645621174927 -0.0011723352337478063 0 -0.038672282580426126 -0.0013338538735991525 0 -0.038531645621174927 -0.0011723352337478063 0 -0.038332661149104934 -0.0014034240353534143 0 -0.038531645621174927 -0.0011723352337478063 0 -0.038195493353488132 -0.0011648146791352577 0 -0.038332661149104934 -0.0014034240353534143 0 -0.038531645621174927 -0.0011723352337478063 0 -0.038451283646235616 -0.00099549925725081977 0 -0.038195493353488132 -0.0011648146791352577 0 -0.038739124154810262 -0.00096207530350198749 0 -0.038531645621174927 -0.0011723352337478063 0 -0.038451283646235616 -0.00099549925725081977 0 -0.038739124154810262 -0.00096207530350198749 0 -0.038490419652423086 -0.00076911299556907441 0 -0.038789506779344715 -0.0007041072255452043 0 -0.038739124154810262 -0.00096207530350198749 0 -0.038451283646235616 -0.00099549925725081977 0 -0.038490419652423086 -0.00076911299556907441 0 -0.038925490377736842 -0.0010605877943644013 0 -0.038739124154810262 -0.00096207530350198749 0 -0.038972453934627019 -0.00083216331808794381 0 -0.038739124154810262 -0.00096207530350198749 0 -0.038972453934627019 -0.00083216331808794381 0 -0.038789506779344715 -0.0007041072255452043 0 -0.038972453934627019 -0.00083216331808794381 0 -0.038789506779344715 -0.0007041072255452043 0 -0.038986951929631253 -0.00056440201958422821 0 -0.038789506779344715 -0.0007041072255452043 0 -0.038986951929631253 -0.00056440201958422821 0 -0.038642473829823588 -0.00048096750120956057 0 -0.038490419652423086 -0.00076911299556907441 0 -0.038642473829823588 -0.00048096750120956057 0 -0.038268385235521327 -0.000610881620424981 0 -0.038490419652423086 -0.00076911299556907441 0 -0.038789506779344715 -0.0007041072255452043 0 -0.038642473829823588 -0.00048096750120956057 0 -0.036820191250154032 -0.0012570994108058212 0 -0.037463182638228634 -0.0015797593239492071 0 -0.037275071723826797 -0.0013027335871504727 0 -0.036820191250154032 -0.0012570994108058212 0 -0.037322102547739842 -0.0016771801030749346 0 -0.036572355007276368 -0.0011955781050164271 0 -0.036820191250154032 -0.0012570994108058212 0 -0.037322102547739842 -0.0016771801030749346 0 -0.037463182638228634 -0.0015797593239492071 0 -0.038073185463197157 -0.0020670446691919662 0 -0.037463182638228634 -0.0015797593239492071 0 -0.037965343961253083 -0.0016412314678748701 0 -0.038073185463197157 -0.0020670446691919662 0 -0.037322102547739842 -0.0016771801030749346 0 -0.037463182638228634 -0.0015797593239492071 0 -0.037965343961253083 -0.0016412314678748701 0 -0.038655262784659208 -0.0015684635014631039 0 -0.037975199998707999 -0.0013197650952034409 0 -0.038501311239857235 -0.0019741509174322075 0 -0.037965343961253083 -0.0016412314678748701 0 -0.038655262784659208 -0.0015684635014631039 0 -0.038484155830773657 -0.0012808082654189072 0 -0.038655262784659208 -0.0015684635014631039 0 -0.037975199998707999 -0.0013197650952034409 0 -0.038484155830773657 -0.0012808082654189072 0 -0.037975199998707999 -0.0013197650952034409 0 -0.038003188173068296 -0.00099762332191288155 0 -0.037965343961253083 -0.0016412314678748701 0 -0.037975199998707999 -0.0013197650952034409 0 -0.037275071723826797 -0.0013027335871504727 0 -0.037463182638228634 -0.0015797593239492071 0 -0.037965343961253083 -0.0016412314678748701 0 -0.037275071723826797 -0.0013027335871504727 0 -0.037975199998707999 -0.0013197650952034409 0 -0.037275071723826797 -0.0013027335871504727 0 -0.037244080931365844 -0.00096367191800259195 0 -0.037275071723826797 -0.0013027335871504727 0 -0.037244080931365844 -0.00096367191800259195 0 -0.036399229966983242 -0.00099403025987330031 0 -0.037975199998707999 -0.0013197650952034409 0 -0.037244080931365844 -0.00096367191800259195 0 -0.038003188173068296 -0.00099762332191288155 0 -0.037244080931365844 -0.00096367191800259195 0 -0.038003188173068296 -0.00099762332191288155 0 -0.037523780271547243 -0.00051297484185661353 0 -0.038194193902290438 -0.00065049757279402563 0 -0.038003188173068296 -0.00099762332191288155 0 -0.037523780271547243 -0.00051297484185661353 0 -0.038194193902290438 -0.00065049757279402563 0 -0.037523780271547243 -0.00051297484185661353 0 -0.037811340067164863 -4.5917082653710246e-05 0 -0.037523780271547243 -0.00051297484185661353 0 -0.037034128914583755 0.00014512539870725619 0 -0.037811340067164863 -4.5917082653710246e-05 0 -0.037244080931365844 -0.00096367191800259195 0 -0.037523780271547243 -0.00051297484185661353 0 -0.036228407487544391 -0.00030952943556112862 0 -0.037244080931365844 -0.00096367191800259195 0 -0.036399229966983242 -0.00099403025987330031 0 -0.036228407487544391 -0.00030952943556112862 0 -0.036399229966983242 -0.00099403025987330031 0 -0.034787182657509262 -0.00081341467389732796 0 -0.036228407487544391 -0.00030952943556112862 0 -0.036820191250154032 -0.0012570994108058212 0 -0.037275071723826797 -0.0013027335871504727 0 -0.036399229966983242 -0.00099403025987330031 0 -0.036820191250154032 -0.0012570994108058212 0 -0.036001013815167335 -0.00091955127506611486 0 -0.036572355007276368 -0.0011955781050164271 0 -0.036820191250154032 -0.0012570994108058212 0 -0.036399229966983242 -0.00099403025987330031 0 -0.036001013815167335 -0.00091955127506611486 0 -0.036399229966983242 -0.00099403025987330031 0 -0.036001013815167335 -0.00091955127506611486 0 -0.034787182657509262 -0.00081341467389732796 0 -0.036001013815167335 -0.00091955127506611486 0 -0.036188706608300945 -0.0011337970511071352 0 -0.036334987329030149 -0.0010327765960805875 0 -0.036001013815167335 -0.00091955127506611486 0 -0.036188706608300945 -0.0011337970511071352 0 -0.034787182657509262 -0.00081341467389732796 0 -0.036188706608300945 -0.0011337970511071352 0 -0.036334987329030149 -0.0010327765960805875 0 -0.036325183971084869 -0.001067862744456198 0 -0.033117863313397979 -0.0015248940076175261 0 -0.033698520536996797 -0.0006830281021627595 0 -0.036334987329030149 -0.0010327765960805875 0 -0.036527487293488307 -0.0012434712546753872 0 -0.036314068819919484 -0.0011039990452506782 0 -0.036001013815167335 -0.00091955127506611486 0 -0.036334987329030149 -0.0010327765960805875 0 -0.036572355007276368 -0.0011955781050164271 0 -0.036572355007276368 -0.0011955781050164271 0 -0.036527487293488307 -0.0012434712546753872 0 -0.03702626568342407 -0.0016695395491167703 0 -0.036527487293488307 -0.0012434712546753872 0 -0.036504606962850981 -0.0015127477430292072 0 -0.036314068819919484 -0.0011039990452506782 0 -0.036334987329030149 -0.0010327765960805875 0 -0.036572355007276368 -0.0011955781050164271 0 -0.036527487293488307 -0.0012434712546753872 0 -0.036527487293488307 -0.0012434712546753872 0 -0.03702626568342407 -0.0016695395491167703 0 -0.036504606962850981 -0.0015127477430292072 0 -0.037322102547739842 -0.0016771801030749346 0 -0.036572355007276368 -0.0011955781050164271 0 -0.03702626568342407 -0.0016695395491167703 0 -0.036450047035594332 -0.001795511179734777 0 -0.036452850943719313 -0.0014816770815773597 0 -0.036216716866883637 -0.0016197834482813112 0 -0.036216716866883637 -0.0016197834482813112 0 -0.035935451772270463 -0.0016570688722252088 0 -0.036071057575275109 -0.0018800002656749371 0 -0.036450047035594332 -0.001795511179734777 0 -0.036216716866883637 -0.0016197834482813112 0 -0.036071057575275109 -0.0018800002656749371 0 -0.036450047035594332 -0.001795511179734777 0 -0.036071057575275109 -0.0018800002656749371 0 -0.036362769065338044 -0.0020265262581201289 0 -0.036450047035594332 -0.001795511179734777 0 -0.036856263222717858 -0.0017407089934219975 0 -0.036452850943719313 -0.0014816770815773597 0 -0.036450047035594332 -0.001795511179734777 0 -0.036856263222717858 -0.0017407089934219975 0 -0.036668438795549929 -0.0019732005922087812 0 -0.036856263222717858 -0.0017407089934219975 0 -0.036452850943719313 -0.0014816770815773597 0 -0.036763634150007128 -0.0011760268611765495 0 -0.036679364679812622 -0.0015940500609780361 0 -0.036796803580518359 -0.0012199593419832007 0 -0.036452850943719313 -0.0014816770815773597 0 -0.036360230200646985 -0.0011816159293261087 0 -0.036763634150007128 -0.0011760268611765495 0 -0.036452850943719313 -0.0014816770815773597 0 -0.036065493887686997 -0.0013656241726979171 0 -0.036360230200646985 -0.0011816159293261087 0 -0.036452850943719313 -0.0014816770815773597 0 -0.036216716866883637 -0.0016197834482813112 0 -0.036065493887686997 -0.0013656241726979171 0 -0.036216716866883637 -0.0016197834482813112 0 -0.036065493887686997 -0.0013656241726979171 0 -0.035935451772270463 -0.0016570688722252088 0 -0.036065493887686997 -0.0013656241726979171 0 -0.036360230200646985 -0.0011816159293261087 0 -0.036027946042729332 -0.00095555356148694195 0 -0.036360230200646985 -0.0011816159293261087 0 -0.036027946042729332 -0.00095555356148694195 0 -0.036453909282159282 -0.00091016703076580616 0 -0.036027946042729332 -0.00095555356148694195 0 -0.036453909282159282 -0.00091016703076580616 0 -0.036213860472010334 -0.000513631476770558 0 -0.036334987329030149 -0.0010327765960805875 0 -0.036314068819919484 -0.0011039990452506782 0 -0.036325183971084869 -0.001067862744456198 0 -0.036796803580518359 -0.0012199593419832007 0 -0.033698520536996797 -0.0006830281021627595 0 -0.036763634150007128 -0.0011760268611765495 0 -0.036453909282159282 -0.00091016703076580616 0 -0.036643664517423249 -0.00047488667928761438 0 -0.036360230200646985 -0.0011816159293261087 0 -0.036763634150007128 -0.0011760268611765495 0 -0.036453909282159282 -0.00091016703076580616 0 -0.034301002118300596 -0.00018407582380698309 0 -0.035015478902239154 -9.4115388952868099e-05 0 -0.034428987628036693 -0.00088451999336362102 0 -0.036453909282159282 -0.00091016703076580616 0 -0.036643664517423249 -0.00047488667928761438 0 -0.036213860472010334 -0.000513631476770558 0 -0.033698520536996797 -0.0006830281021627595 0 -0.036021739727015729 -0.00015710332032915983 0 -0.033698520536996797 -0.0006830281021627595 0 -0.033910876825420752 -0.00036187117239330351 0 -0.036152782412511152 -0.00032396066537655798 0 -0.036187779525803598 -6.0169387916112406e-05 0 -0.036422419291848522 0.00024688924010415078 0 -0.036152782412511152 -0.00032396066537655798 0 -0.035931575010595324 -0.00027924206529651539 0 -0.035657050651757019 -0.00063256800229182755 0 -0.036021739727015729 -0.00015710332032915983 0 -0.033910876825420752 -0.00036187117239330351 0 -0.036021739727015729 -0.00015710332032915983 0 -0.035720617493803439 -0.00058071840068613903 0 -0.036027946042729332 -0.00095555356148694195 0 -0.036213860472010334 -0.000513631476770558 0 -0.035657050651757019 -0.00063256800229182755 0 -0.036152782412511152 -0.00032396066537655798 0 -0.036080597984689787 -0.00025976537969937434 0 -0.035931575010595324 -0.00027924206529651539 0 -0.036152782412511152 -0.00032396066537655798 0 -0.036124476065761017 -0.00020241964295843144 0 -0.036187779525803598 -6.0169387916112406e-05 0 -0.036187779525803598 -6.0169387916112406e-05 0 -0.036042515546193907 -9.8799643850464237e-05 0 -0.036193240334491117 7.674241697273781e-05 0 -0.036124476065761017 -0.00020241964295843144 0 -0.036187779525803598 -6.0169387916112406e-05 0 -0.036042515546193907 -9.8799643850464237e-05 0 -0.036042515546193907 -9.8799643850464237e-05 0 -0.035706978731268595 -4.3018866783275554e-05 0 -0.036019697136315719 0.00012938741438920092 0 -0.036042515546193907 -9.8799643850464237e-05 0 -0.035931575010595324 -0.00027924206529651539 0 -0.035706978731268595 -4.3018866783275554e-05 0 -0.036124476065761017 -0.00020241964295843144 0 -0.036042515546193907 -9.8799643850464237e-05 0 -0.036080597984689787 -0.00025976537969937434 0 -0.036042515546193907 -9.8799643850464237e-05 0 -0.036080597984689787 -0.00025976537969937434 0 -0.035931575010595324 -0.00027924206529651539 0 -0.036152782412511152 -0.00032396066537655798 0 -0.036124476065761017 -0.00020241964295843144 0 -0.036080597984689787 -0.00025976537969937434 0 -0.035931575010595324 -0.00027924206529651539 0 -0.035706978731268595 -4.3018866783275554e-05 0 -0.035657050651757019 -0.00063256800229182755 0 -0.035657050651757019 -0.00063256800229182755 0 -0.03518142152638886 -0.00012317074466209989 0 -0.035120820109888387 -0.00089024718505641099 0 -0.035706978731268595 -4.3018866783275554e-05 0 -0.035657050651757019 -0.00063256800229182755 0 -0.03518142152638886 -0.00012317074466209989 0 -0.03518142152638886 -0.00012317074466209989 0 -0.035120820109888387 -0.00089024718505641099 0 -0.034423476139599028 0.00011179143674568129 0 -0.035120820109888387 -0.00089024718505641099 0 -0.034452712941515543 -0.0011310728523770666 0 -0.034423476139599028 0.00011179143674568129 0 -0.035120820109888387 -0.00089024718505641099 0 -0.035546431698347376 -0.0012068671289107448 0 -0.035085301805708964 -0.0015344855937957104 0 -0.034540129465054484 -0.0011827312774994416 0 -0.035097389679533221 -0.0020484037153123123 0 -0.035120820109888387 -0.00089024718505641099 0 -0.034452712941515543 -0.0011310728523770666 0 -0.035085301805708964 -0.0015344855937957104 0 -0.036065493887686997 -0.0013656241726979171 0 -0.036027946042729332 -0.00095555356148694195 0 -0.035546431698347376 -0.0012068671289107448 0 -0.036027946042729332 -0.00095555356148694195 0 -0.035657050651757019 -0.00063256800229182755 0 -0.035546431698347376 -0.0012068671289107448 0 -0.035657050651757019 -0.00063256800229182755 0 -0.035120820109888387 -0.00089024718505641099 0 -0.035546431698347376 -0.0012068671289107448 0 -0.032247327173251301 -0.0013978804502913506 0 -0.033449966391562523 -0.00022921990065763719 0 -0.03243977032620337 0.0006196478149218999 0 -0.032247327173251301 -0.0013978804502913506 0 -0.033449966391562523 -0.00022921990065763719 0 -0.034452712941515543 -0.0011310728523770666 0 -0.033449966391562523 -0.00022921990065763719 0 -0.034452712941515543 -0.0011310728523770666 0 -0.034423476139599028 0.00011179143674568129 0 -0.032247327173251301 -0.0013978804502913506 0 -0.034452712941515543 -0.0011310728523770666 0 -0.03334419576258385 -0.0028194652560234387 0 -0.032247327173251301 -0.0013978804502913506 0 -0.032104577302838444 -0.0030936201127336293 0 -0.03334419576258385 -0.0028194652560234387 0 -0.03334419576258385 -0.0028194652560234387 0 -0.034030793531149295 -0.0042297312723499573 0 -0.035210317197439243 -0.0026343268832196521 0 -0.034452712941515543 -0.0011310728523770666 0 -0.03334419576258385 -0.0028194652560234387 0 -0.035210317197439243 -0.0026343268832196521 0 -0.034799598438324857 -0.0036012490790548364 0 -0.035535982458193068 -0.0036523003947727698 0 -0.032104577302838444 -0.0030936201127336293 0 -0.032186288091817082 -0.0043957923312342769 0 -0.03334419576258385 -0.0028194652560234387 0 -0.032186288091817082 -0.0043957923312342769 0 -0.03334419576258385 -0.0028194652560234387 0 -0.034030793531149295 -0.0042297312723499573 0 -0.035516016391588343 -0.0016376425715331892 0 -0.03574627369774757 -0.0014683615533078581 0 -0.035708781654727517 -0.0017425538579269896 0 -0.03574627369774757 -0.0014683615533078581 0 -0.035708781654727517 -0.0017425538579269896 0 -0.035935451772270463 -0.0016570688722252088 0 -0.036065493887686997 -0.0013656241726979171 0 -0.03574627369774757 -0.0014683615533078581 0 -0.035935451772270463 -0.0016570688722252088 0 -0.036065493887686997 -0.0013656241726979171 0 -0.035546431698347376 -0.0012068671289107448 0 -0.03574627369774757 -0.0014683615533078581 0 -0.035546431698347376 -0.0012068671289107448 0 -0.035516016391588343 -0.0016376425715331892 0 -0.03574627369774757 -0.0014683615533078581 0 -0.035546431698347376 -0.0012068671289107448 0 -0.035516016391588343 -0.0016376425715331892 0 -0.035085301805708964 -0.0015344855937957104 0 -0.035516016391588343 -0.0016376425715331892 0 -0.035085301805708964 -0.0015344855937957104 0 -0.03557061343252859 -0.0019310317583743229 0 -0.035097389679533221 -0.0020484037153123123 0 -0.036081398951276412 -0.0028732711426844347 0 -0.035535982458193068 -0.0036523003947727698 0 -0.036081398951276412 -0.0028732711426844347 0 -0.034030793531149295 -0.0042297312723499573 0 -0.035210317197439243 -0.0026343268832196521 0 -0.035922802589862086 -0.0040485564092511972 0 -0.037024666395114182 -0.0029508754462395453 0 -0.037039688577717743 -0.0030082415938532596 0 -0.037040309418226294 -0.0030163909472644785 0 -0.036081398951276412 -0.0028732711426844347 0 -0.035888376795262196 -0.0026795997585464227 0 -0.03557061343252859 -0.0019310317583743229 0 -0.035748200232941701 -0.0018896217070997511 0 -0.035708781654727517 -0.0017425538579269896 0 -0.035516016391588343 -0.0016376425715331892 0 -0.03557061343252859 -0.0019310317583743229 0 -0.035708781654727517 -0.0017425538579269896 0 -0.035748200232941701 -0.0018896217070997511 0 -0.035708781654727517 -0.0017425538579269896 0 -0.035892310676803013 -0.001805316942398462 0 -0.035935451772270463 -0.0016570688722252088 0 -0.035892310676803013 -0.001805316942398462 0 -0.036071057575275109 -0.0018800002656749371 0 -0.035708781654727517 -0.0017425538579269896 0 -0.035935451772270463 -0.0016570688722252088 0 -0.035892310676803013 -0.001805316942398462 0 -0.035748200232941701 -0.0018896217070997511 0 -0.035892310676803013 -0.001805316942398462 0 -0.036071057575275109 -0.0018800002656749371 0 -0.036081398951276412 -0.0028732711426844347 0 -0.036519457787339976 -0.0025721544608454426 0 -0.035748200232941701 -0.0018896217070997511 0 -0.036071057575275109 -0.0018800002656749371 0 -0.036024491257701498 -0.0022451693499077247 0 -0.03564909581580087 -0.0019012872915635378 0 -0.035748200232941701 -0.0018896217070997511 0 -0.036024491257701498 -0.0022451693499077247 0 -0.037039688577717743 -0.0030082415938532596 0 -0.037020280348554306 -0.0030488601004475839 0 -0.037040309418226294 -0.0030163909472644785 0 -0.037020280348554306 -0.0030488601004475839 0 -0.037040309418226294 -0.0030163909472644785 0 -0.037040154450220068 -0.0030601666336906811 0 -0.036519457787339976 -0.0025721544608454426 0 -0.036678625034423352 -0.0028655454029253456 0 -0.037020280348554306 -0.0030488601004475839 0 -0.036999735508204123 -0.003063732224392701 0 -0.03696009568908306 -0.0030711716183643577 0 -0.037020280348554306 -0.0030488601004475839 0 -0.037040154450220068 -0.0030601666336906811 0 -0.036999735508204123 -0.003063732224392701 0 -0.036846134967542465 -0.0028399101118909758 0 -0.037024666395114182 -0.0029508754462395453 0 -0.036950276431085831 -0.0029730709337182312 0 -0.037024666395114182 -0.0029508754462395453 0 -0.036950276431085831 -0.0029730709337182312 0 -0.037045813087676863 -0.0030260825188970341 0 -0.037040309418226294 -0.0030163909472644785 0 -0.037040154450220068 -0.0030601666336906811 0 -0.037045813087676863 -0.0030260825188970341 0 -0.037024666395114182 -0.0029508754462395453 0 -0.037040309418226294 -0.0030163909472644785 0 -0.037045813087676863 -0.0030260825188970341 0 -0.037040154450220068 -0.0030601666336906811 0 -0.037045813087676863 -0.0030260825188970341 0 -0.037120033779517329 -0.0030844125461880409 0 -0.036950276431085831 -0.0029730709337182312 0 -0.037045813087676863 -0.0030260825188970341 0 -0.036951918813123215 -0.0030706664761973646 0 -0.037045813087676863 -0.0030260825188970341 0 -0.036951918813123215 -0.0030706664761973646 0 -0.037120033779517329 -0.0030844125461880409 0 -0.036819102131583251 -0.0030057559724098425 0 -0.036950276431085831 -0.0029730709337182312 0 -0.036951918813123215 -0.0030706664761973646 0 -0.036951918813123215 -0.0030706664761973646 0 -0.036987027639981539 -0.0032593295280565005 0 -0.037120033779517329 -0.0030844125461880409 0 -0.036987027639981539 -0.0032593295280565005 0 -0.037120033779517329 -0.0030844125461880409 0 -0.037354864947943239 -0.0033440323542059712 0 -0.037439005904008303 -0.0031428711751756121 0 -0.036738721488365926 -0.00311873329529519 0 -0.037040154450220068 -0.0030601666336906811 0 -0.037120033779517329 -0.0030844125461880409 0 -0.037027638786065166 -0.0030389018858924589 0 -0.037120033779517329 -0.0030844125461880409 0 -0.037354864947943239 -0.0033440323542059712 0 -0.037887607136468951 -0.0032444589889430021 0 -0.037354864947943239 -0.0033440323542059712 0 -0.037594548823052083 -0.0035201066720159358 0 -0.037887607136468951 -0.0032444589889430021 0 -0.037450737334581909 -0.0036194508936761775 0 -0.037354864947943239 -0.0033440323542059712 0 -0.037594548823052083 -0.0035201066720159358 0 -0.037045981035570899 -0.0036525375279851677 0 -0.037384997527442392 -0.0033274895882286154 0 -0.036910099100222679 -0.0035608209889698124 0 -0.036987027639981539 -0.0032593295280565005 0 -0.037354864947943239 -0.0033440323542059712 0 -0.037319868901620985 -0.0034764521931939267 0 -0.037450737334581909 -0.0036194508936761775 0 -0.037354864947943239 -0.0033440323542059712 0 -0.036999735508204123 -0.003063732224392701 0 -0.036959322038326324 -0.0030687000635706593 0 -0.03696009568908306 -0.0030711716183643577 0 -0.036999735508204123 -0.003063732224392701 0 -0.036959322038326324 -0.0030687000635706593 0 -0.037027638786065166 -0.0030389018858924589 0 -0.037040154450220068 -0.0030601666336906811 0 -0.036999735508204123 -0.003063732224392701 0 -0.037027638786065166 -0.0030389018858924589 0 -0.037932480052718084 -0.0036845562374071762 0 -0.037594548823052083 -0.0035201066720159358 0 -0.037887607136468951 -0.0032444589889430021 0 -0.037932480052718084 -0.0036845562374071762 0 -0.037887607136468951 -0.0032444589889430021 0 -0.038605420124570203 -0.00356782499156983 0 -0.036959322038326324 -0.0030687000635706593 0 -0.037027638786065166 -0.0030389018858924589 0 -0.036905196904497228 -0.0030521719896517883 0 -0.036959322038326324 -0.0030687000635706593 0 -0.036905196904497228 -0.0030521719896517883 0 -0.036922548743283622 -0.0030836890734478842 0 -0.036738721488365926 -0.00311873329529519 0 -0.041262265242063882 -0.0026032182012348166 0 -0.041262265242063882 -0.0026032182012348166 0 -0.036694952762313486 -0.0034028802130634766 0 -0.036905196904497228 -0.0030521719896517883 0 -0.036876060665083275 -0.0031178306894345926 0 -0.036922548743283622 -0.0030836890734478842 0 -0.036905196904497228 -0.0030521719896517883 0 -0.036876060665083275 -0.0031178306894345926 0 -0.036938893765276988 -0.0032132693298748136 0 -0.036876060665083275 -0.0031178306894345926 0 -0.036922548743283622 -0.0030836890734478842 0 -0.03696009568908306 -0.0030711716183643577 0 -0.036876060665083275 -0.0031178306894345926 0 -0.036390268113496084 -0.00265267636397994 0 -0.036881346653032054 -0.0028774407337578021 0 -0.036841229985633071 -0.0030814159473301151 0 -0.036678625034423352 -0.0028655454029253456 0 -0.036959322038326324 -0.0030687000635706593 0 -0.036922548743283622 -0.0030836890734478842 0 -0.03696009568908306 -0.0030711716183643577 0 -0.036390268113496084 -0.00265267636397994 0 -0.036948829506666017 -0.0025239961909102018 0 -0.036881346653032054 -0.0028774407337578021 0 -0.036948829506666017 -0.0025239961909102018 0 -0.036881346653032054 -0.0028774407337578021 0 -0.037272297739919774 -0.0028197360664740153 0 -0.036881346653032054 -0.0028774407337578021 0 -0.036938893765276988 -0.0032132693298748136 0 -0.037272297739919774 -0.0028197360664740153 0 -0.036876060665083275 -0.0031178306894345926 0 -0.036881346653032054 -0.0028774407337578021 0 -0.036938893765276988 -0.0032132693298748136 0 -0.038156618819091187 -0.0033483861157523318 0 -0.038044032129666679 -0.0033421540418786095 0 -0.038120074292047459 -0.0030567904906156356 0 -0.036694952762313486 -0.0034028802130634766 0 -0.038432635425816181 -0.0030215725805912653 0 -0.036938893765276988 -0.0032132693298748136 0 -0.038120074292047459 -0.0030567904906156356 0 -0.037272297739919774 -0.0028197360664740153 0 -0.038553605068389181 -0.0033862953519814116 0 -0.038156618819091187 -0.0033483861157523318 0 -0.038120074292047459 -0.0030567904906156356 0 -0.039246794138718323 -0.0031053640512818804 0 -0.038360271215501826 -0.0026214728002469621 0 -0.038120074292047459 -0.0030567904906156356 0 -0.038553605068389181 -0.0033862953519814116 0 -0.039246794138718323 -0.0031053640512818804 0 -0.038120074292047459 -0.0030567904906156356 0 -0.038360271215501826 -0.0026214728002469621 0 -0.038120074292047459 -0.0030567904906156356 0 -0.037531773560889929 -0.0025223121578383644 0 -0.036948829506666017 -0.0025239961909102018 0 -0.037531773560889929 -0.0025223121578383644 0 -0.037272297739919774 -0.0028197360664740153 0 -0.038120074292047459 -0.0030567904906156356 0 -0.037531773560889929 -0.0025223121578383644 0 -0.037272297739919774 -0.0028197360664740153 0 -0.037531773560889929 -0.0025223121578383644 0 -0.037485901976448209 -0.0021854409338369846 0 -0.037009626055040934 -0.0020888506075227285 0 -0.036948829506666017 -0.0025239961909102018 0 -0.037531773560889929 -0.0025223121578383644 0 -0.037009626055040934 -0.0020888506075227285 0 -0.038360271215501826 -0.0026214728002469621 0 -0.037736731078722663 -0.0020875877886042584 0 -0.037485901976448209 -0.0021854409338369846 0 -0.038360271215501826 -0.0026214728002469621 0 -0.037531773560889929 -0.0025223121578383644 0 -0.037485901976448209 -0.0021854409338369846 0 -0.037736731078722663 -0.0020875877886042584 0 -0.037322102547739842 -0.0016771801030749346 0 -0.03702626568342407 -0.0016695395491167703 0 -0.037736731078722663 -0.0020875877886042584 0 -0.03702626568342407 -0.0016695395491167703 0 -0.037485901976448209 -0.0021854409338369846 0 -0.03702626568342407 -0.0016695395491167703 0 -0.037485901976448209 -0.0021854409338369846 0 -0.037009626055040934 -0.0020888506075227285 0 -0.03702626568342407 -0.0016695395491167703 0 -0.036504606962850981 -0.0015127477430292072 0 -0.037009626055040934 -0.0020888506075227285 0 -0.036679364679812622 -0.0015940500609780361 0 -0.036949088705682552 -0.0020554074670220946 0 -0.037009626055040934 -0.0020888506075227285 0 -0.036668438795549929 -0.0019732005922087812 0 -0.0365745666227342 -0.0022459451040076563 0 -0.036856263222717858 -0.0017407089934219975 0 -0.037009626055040934 -0.0020888506075227285 0 -0.036668438795549929 -0.0019732005922087812 0 -0.036450047035594332 -0.001795511179734777 0 -0.036668438795549929 -0.0019732005922087812 0 -0.036362769065338044 -0.0020265262581201289 0 -0.036071057575275109 -0.0018800002656749371 0 -0.036024491257701498 -0.0022451693499077247 0 -0.036362769065338044 -0.0020265262581201289 0 -0.036024491257701498 -0.0022451693499077247 0 -0.036362769065338044 -0.0020265262581201289 0 -0.0365745666227342 -0.0022459451040076563 0 -0.036668438795549929 -0.0019732005922087812 0 -0.036362769065338044 -0.0020265262581201289 0 -0.0365745666227342 -0.0022459451040076563 0 -0.036390268113496084 -0.00265267636397994 0 -0.036948829506666017 -0.0025239961909102018 0 -0.0365745666227342 -0.0022459451040076563 0 -0.036024491257701498 -0.0022451693499077247 0 -0.036390268113496084 -0.00265267636397994 0 -0.0365745666227342 -0.0022459451040076563 0 -0.036948829506666017 -0.0025239961909102018 0 -0.037009626055040934 -0.0020888506075227285 0 -0.0365745666227342 -0.0022459451040076563 0 -0.041810805027209672 1.3045640514321106e-06 0 -0.046943317892581993 0.00041871749404743868 0 -0.043925425213979977 -0.00018735819914179644 0 -0.046578044495195398 -0.00011629238683707496 0 -0.046943317892581993 0.00041871749404743868 0 -0.049389515648907742 0.0005883910126937644 0 -0.046578044495195398 -0.00011629238683707496 0 -0.046943317892581993 0.00041871749404743868 0 -0.043925425213979977 -0.00018735819914179644 0 -0.046943317892581993 0.00041871749404743868 0 -0.049439566345141496 0.00054617502037671603 0 -0.050876899413623389 0.00090249054372341876 0 -0.046943317892581993 0.00041871749404743868 0 -0.050876899413623389 0.00090249054372341876 0 -0.049389515648907742 0.0005883910126937644 0 -0.041810805027209672 1.3045640514321106e-06 0 -0.046943317892581993 0.00041871749404743868 0 -0.049439566345141496 0.00054617502037671603 0 -0.041810805027209672 1.3045640514321106e-06 0 -0.049439566345141496 0.00054617502037671603 0 -0.054997228447639136 1.0104130466454925e-06 0 -0.049439566345141496 0.00054617502037671603 0 -0.054997228447639136 1.0104130466454925e-06 0 -0.052574450141188632 0.00051143118844820205 0 -0.054997228447639136 1.0104130466454925e-06 0 -0.052574450141188632 0.00051143118844820205 0 -0.054996884321377552 4.7280965768949772e-07 0 -0.052574450141188632 0.00051143118844820205 0 -0.054996884321377552 4.7280965768949772e-07 0 -0.053080673556880467 0.00061154659267066897 0 -0.052574450141188632 0.00051143118844820205 0 -0.050876899413623389 0.00090249054372341876 0 -0.053080673556880467 0.00061154659267066897 0 -0.049439566345141496 0.00054617502037671603 0 -0.052574450141188632 0.00051143118844820205 0 -0.050876899413623389 0.00090249054372341876 0 -0.050876899413623389 0.00090249054372341876 0 -0.053080673556880467 0.00061154659267066897 0 -0.052008065535117463 0.0010218702542929687 0 -0.050876899413623389 0.00090249054372341876 0 -0.052008065535117463 0.0010218702542929687 0 -0.051224509700370166 0.00095583116794140902 0 -0.053080673556880467 0.00061154659267066897 0 -0.05307113805865997 0.00067431483711723195 0 -0.052008065535117463 0.0010218702542929687 0 -0.054996884321377552 4.7280965768949772e-07 0 -0.053080673556880467 0.00061154659267066897 0 -0.05499294695837318 1.0542537387017894e-07 0 -0.053080673556880467 0.00061154659267066897 0 -0.05499294695837318 1.0542537387017894e-07 0 -0.05307113805865997 0.00067431483711723195 0 -0.054995848435434383 -1.389037621531702e-06 0 -0.055307836081357399 0.0011017548553744702 0 -0.053298672390628118 0.0016255044262200643 0 -0.054999477032172853 3.5686631734047228e-07 0 -0.053790637199656349 0.00090128975555479949 0 -0.055003198231382146 1.2350169566820177e-06 0 -0.054995848435434383 -1.389037621531702e-06 0 -0.055307836081357399 0.0011017548553744702 0 -0.05499294695837318 1.0542537387017894e-07 0 -0.05307113805865997 0.00067431483711723195 0 -0.052505978697422767 0.00038636174866071106 0 -0.05307113805865997 0.00067431483711723195 0 -0.052505978697422767 0.00038636174866071106 0 -0.052216230014487233 0.00090885638494636373 0 -0.053790637199656349 0.00090128975555479949 0 -0.052968729255139013 0.0024210830846869012 0 -0.055307836081357399 0.0011017548553744702 0 -0.053486137621305392 0.0039138822539046339 0 -0.053298672390628118 0.0016255044262200643 0 -0.052505978697422767 0.00038636174866071106 0 -0.052216230014487233 0.00090885638494636373 0 -0.051784988318623985 0.00089972202114920559 0 -0.052216230014487233 0.00090885638494636373 0 -0.051811145567115149 0.0010735145030121827 0 -0.051784988318623985 0.00089972202114920559 0 -0.05307113805865997 0.00067431483711723195 0 -0.052216230014487233 0.00090885638494636373 0 -0.052008065535117463 0.0010218702542929687 0 -0.052216230014487233 0.00090885638494636373 0 -0.052008065535117463 0.0010218702542929687 0 -0.051811145567115149 0.0010735145030121827 0 -0.052008065535117463 0.0010218702542929687 0 -0.051811145567115149 0.0010735145030121827 0 -0.051224509700370166 0.00095583116794140902 0 -0.051811145567115149 0.0010735145030121827 0 -0.051224509700370166 0.00095583116794140902 0 -0.051738599273051675 0.00092928941217830443 0 -0.042873275548553601 0.00044019868040627688 0 -0.043784138414209202 0.00045947274230333956 0 -0.043763553836726803 0.001329602436730141 0 -0.051224509700370166 0.00095583116794140902 0 -0.050962378558126423 0.00034261244824944619 0 -0.051738599273051675 0.00092928941217830443 0 -0.046926819214662914 0.00045438837633129172 0 -0.047680927652045242 0.00093253573542855222 0 -0.051224509700370166 0.00095583116794140902 0 -0.049389515648907742 0.0005883910126937644 0 -0.050962378558126423 0.00034261244824944619 0 -0.050876899413623389 0.00090249054372341876 0 -0.051224509700370166 0.00095583116794140902 0 -0.049389515648907742 0.0005883910126937644 0 -0.049389515648907742 0.0005883910126937644 0 -0.049257227835735849 -0.00035205820072869472 0 -0.050962378558126423 0.00034261244824944619 0 -0.046578044495195398 -0.00011629238683707496 0 -0.049389515648907742 0.0005883910126937644 0 -0.049257227835735849 -0.00035205820072869472 0 -0.042036460178334831 -0.00040054372331008035 0 -0.042948279307186643 -0.00038437931901060424 0 -0.042495261090922005 -0.00076836200966212708 0 -0.042036460178334831 -0.00040054372331008035 0 -0.042948279307186643 -0.00038437931901060424 0 -0.042873275548553601 0.00044019868040627688 0 -0.042948279307186643 -0.00038437931901060424 0 -0.04366551611617564 -0.00024276045619597592 0 -0.043256425592730248 -0.00076203871337620938 0 -0.042948279307186643 -0.00038437931901060424 0 -0.042873275548553601 0.00044019868040627688 0 -0.04366551611617564 -0.00024276045619597592 0 -0.042873275548553601 0.00044019868040627688 0 -0.04366551611617564 -0.00024276045619597592 0 -0.043784138414209202 0.00045947274230333956 0 -0.045675549444604759 -0.0003464685841709358 0 -0.046926819214662914 0.00045438837633129172 0 -0.04439232390663455 8.5841495304899248e-05 0 -0.044783905852597311 -0.00035364300903198247 0 -0.045121750442660286 0.00037494945110245277 0 -0.04439232390663455 8.5841495304899248e-05 0 -0.044783905852597311 -0.00035364300903198247 0 -0.044348245535041797 -0.00049988075487951433 0 -0.04439232390663455 8.5841495304899248e-05 0 -0.04366551611617564 -0.00024276045619597592 0 -0.043784138414209202 0.00045947274230333956 0 -0.04439232390663455 8.5841495304899248e-05 0 -0.04366551611617564 -0.00024276045619597592 0 -0.044348245535041797 -0.00049988075487951433 0 -0.04366551611617564 -0.00024276045619597592 0 -0.044348245535041797 -0.00049988075487951433 0 -0.043950365129336574 -0.00074469092470725131 0 -0.04366551611617564 -0.00024276045619597592 0 -0.043950365129336574 -0.00074469092470725131 0 -0.043256425592730248 -0.00076203871337620938 0 -0.044348245535041797 -0.00049988075487951433 0 -0.044819893393905005 -0.00066436176949929374 0 -0.044357812797364331 -0.00090541581644680276 0 -0.044783905852597311 -0.00035364300903198247 0 -0.044348245535041797 -0.00049988075487951433 0 -0.044819893393905005 -0.00066436176949929374 0 -0.044819893393905005 -0.00066436176949929374 0 -0.045269979853359545 -0.00068528927904838678 0 -0.045032736646532408 -0.00069634148918781608 0 -0.044783905852597311 -0.00035364300903198247 0 -0.044819893393905005 -0.00066436176949929374 0 -0.045269979853359545 -0.00068528927904838678 0 -0.045032736646532408 -0.00069634148918781608 0 -0.044710894998685982 -0.00097351748846890738 0 -0.044565694474351089 -0.00072194305417260787 0 -0.045269979853359545 -0.00068528927904838678 0 -0.045032736646532408 -0.00069634148918781608 0 -0.044710894998685982 -0.00097351748846890738 0 -0.045269979853359545 -0.00068528927904838678 0 -0.04629794142694818 5.0358075843844939e-05 0 -0.045748152149836865 0.0003895524267654944 0 -0.044710894998685982 -0.00097351748846890738 0 -0.044823534705913992 -0.0015488177680541919 0 -0.04426728175786003 -0.0014817489112906913 0 -0.045269979853359545 -0.00068528927904838678 0 -0.044710894998685982 -0.00097351748846890738 0 -0.044823534705913992 -0.0015488177680541919 0 -0.045352903448417838 -0.00072890966015704461 0 -0.045505214779085944 -0.0007224495158979253 0 -0.044783905852597311 -0.00035364300903198247 0 -0.045269979853359545 -0.00068528927904838678 0 -0.045121750442660286 0.00037494945110245277 0 -0.045269979853359545 -0.00068528927904838678 0 -0.045121750442660286 0.00037494945110245277 0 -0.045748152149836865 0.0003895524267654944 0 -0.045121750442660286 0.00037494945110245277 0 -0.045653165220247989 0.00095772291704705173 0 -0.04523738681478244 0.0011278125807775317 0 -0.045121750442660286 0.00037494945110245277 0 -0.045653165220247989 0.00095772291704705173 0 -0.045748152149836865 0.0003895524267654944 0 -0.045653165220247989 0.00095772291704705173 0 -0.045748152149836865 0.0003895524267654944 0 -0.046067992372851654 0.00091660237129543003 0 -0.04629794142694818 5.0358075843844939e-05 0 -0.046492648600970653 0.00063298137143914194 0 -0.046882452238500467 0.00077006251047600756 0 -0.04629794142694818 5.0358075843844939e-05 0 -0.046492648600970653 0.00063298137143914194 0 -0.046218145077878428 0.00059002695677004688 0 -0.045505214779085944 -0.0007224495158979253 0 -0.045380099571349836 -0.00033942943707942206 0 -0.046492648600970653 0.00063298137143914194 0 -0.046218145077878428 0.00059002695677004688 0 -0.04641777716454927 0.00089324527400141084 0 -0.04629794142694818 5.0358075843844939e-05 0 -0.046218145077878428 0.00059002695677004688 0 -0.045748152149836865 0.0003895524267654944 0 -0.046218145077878428 0.00059002695677004688 0 -0.045748152149836865 0.0003895524267654944 0 -0.046067992372851654 0.00091660237129543003 0 -0.045653165220247989 0.00095772291704705173 0 -0.046067992372851654 0.00091660237129543003 0 -0.046068369063614431 0.0013030850334186752 0 -0.046067992372851654 0.00091660237129543003 0 -0.04641777716454927 0.00089324527400141084 0 -0.046318841972248483 0.0011507600797472468 0 -0.046218145077878428 0.00059002695677004688 0 -0.046067992372851654 0.00091660237129543003 0 -0.04641777716454927 0.00089324527400141084 0 -0.04641777716454927 0.00089324527400141084 0 -0.046638226182815976 0.0012218260192133562 0 -0.046670418794498569 0.00083702108961806868 0 -0.04641777716454927 0.00089324527400141084 0 -0.046638226182815976 0.0012218260192133562 0 -0.046318841972248483 0.0011507600797472468 0 -0.046492648600970653 0.00063298137143914194 0 -0.04641777716454927 0.00089324527400141084 0 -0.046670418794498569 0.00083702108961806868 0 -0.046638226182815976 0.0012218260192133562 0 -0.046318841972248483 0.0011507600797472468 0 -0.046376991560584752 0.0014436528558434576 0 -0.046067992372851654 0.00091660237129543003 0 -0.046318841972248483 0.0011507600797472468 0 -0.046068369063614431 0.0013030850334186752 0 -0.046318841972248483 0.0011507600797472468 0 -0.046376991560584752 0.0014436528558434576 0 -0.046068369063614431 0.0013030850334186752 0 -0.046376991560584752 0.0014436528558434576 0 -0.046068369063614431 0.0013030850334186752 0 -0.046254068625143994 0.001701824053404696 0 -0.046068369063614431 0.0013030850334186752 0 -0.046254068625143994 0.001701824053404696 0 -0.045823117966796854 0.0015285256193219552 0 -0.046638226182815976 0.0012218260192133562 0 -0.046376991560584752 0.0014436528558434576 0 -0.046672798407067478 0.0017919082836361415 0 -0.046376991560584752 0.0014436528558434576 0 -0.046254068625143994 0.001701824053404696 0 -0.046672798407067478 0.0017919082836361415 0 -0.045653165220247989 0.00095772291704705173 0 -0.04523738681478244 0.0011278125807775317 0 -0.045823117966796854 0.0015285256193219552 0 -0.045653165220247989 0.00095772291704705173 0 -0.046068369063614431 0.0013030850334186752 0 -0.045823117966796854 0.0015285256193219552 0 -0.045823117966796854 0.0015285256193219552 0 -0.046062234377598973 0.001818108742773366 0 -0.045881103060071961 0.0019426741072638835 0 -0.046254068625143994 0.001701824053404696 0 -0.045823117966796854 0.0015285256193219552 0 -0.046062234377598973 0.001818108742773366 0 -0.04523738681478244 0.0011278125807775317 0 -0.045823117966796854 0.0015285256193219552 0 -0.045465357530876618 0.0017152837665988369 0 -0.045823117966796854 0.0015285256193219552 0 -0.045465357530876618 0.0017152837665988369 0 -0.045881103060071961 0.0019426741072638835 0 -0.04523738681478244 0.0011278125807775317 0 -0.045465357530876618 0.0017152837665988369 0 -0.044867387268971444 0.0015573852855646317 0 -0.04523738681478244 0.0011278125807775317 0 -0.044867387268971444 0.0015573852855646317 0 -0.044497360347640985 0.00077007445383053396 0 -0.045121750442660286 0.00037494945110245277 0 -0.04523738681478244 0.0011278125807775317 0 -0.044497360347640985 0.00077007445383053396 0 -0.04439232390663455 8.5841495304899248e-05 0 -0.045121750442660286 0.00037494945110245277 0 -0.044497360347640985 0.00077007445383053396 0 -0.04439232390663455 8.5841495304899248e-05 0 -0.044497360347640985 0.00077007445383053396 0 -0.043784138414209202 0.00045947274230333956 0 -0.044497360347640985 0.00077007445383053396 0 -0.043784138414209202 0.00045947274230333956 0 -0.043763553836726803 0.001329602436730141 0 -0.044867387268971444 0.0015573852855646317 0 -0.044497360347640985 0.00077007445383053396 0 -0.043763553836726803 0.001329602436730141 0 -0.044867387268971444 0.0015573852855646317 0 -0.043763553836726803 0.001329602436730141 0 -0.044928367218086199 0.0024206736788763522 0 -0.047680927652045242 0.00093253573542855222 0 -0.048408028802055462 0.0026938533261069704 0 -0.051811145567115149 0.0010735145030121827 0 -0.051738599273051675 0.00092928941217830443 0 -0.051714288562799797 0.0010387064636660794 0 -0.044867387268971444 0.0015573852855646317 0 -0.045280313088154799 0.0021211229011535208 0 -0.044928367218086199 0.0024206736788763522 0 -0.045465357530876618 0.0017152837665988369 0 -0.044867387268971444 0.0015573852855646317 0 -0.045280313088154799 0.0021211229011535208 0 -0.045465357530876618 0.0017152837665988369 0 -0.045280313088154799 0.0021211229011535208 0 -0.045797902188003295 0.0022350763767010934 0 -0.046360126013139401 0.0031743241231862842 0 -0.048408028802055462 0.0026938533261069704 0 -0.045280313088154799 0.0021211229011535208 0 -0.045528258835796767 0.0023303032938718836 0 -0.045797902188003295 0.0022350763767010934 0 -0.045006081647591074 0.002442406928173341 0 -0.045528258835796767 0.0023303032938718836 0 -0.045975407612644098 0.002527877705808263 0 -0.045280313088154799 0.0021211229011535208 0 -0.045006081647591074 0.002442406928173341 0 -0.045528258835796767 0.0023303032938718836 0 -0.045006081647591074 0.002442406928173341 0 -0.047168626605292696 0.0028941441581481981 0 -0.045975407612644098 0.002527877705808263 0 -0.050615106264705237 0.0068533672793243076 0 -0.050842211113838909 0.0032383446243940523 0 -0.047168626605292696 0.0028941441581481981 0 -0.048408028802055462 0.0026938533261069704 0 -0.047025866347401538 0.003632733985528679 0 -0.050615106264705237 0.0068533672793243076 0 -0.053486137621305392 0.0039138822539046339 0 -0.050842211113838909 0.0032383446243940523 0 -0.048408028802055462 0.0026938533261069704 0 -0.052968729255139013 0.0024210830846869012 0 -0.051811145567115149 0.0010735145030121827 0 -0.051714288562799797 0.0010387064636660794 0 -0.051784988318623985 0.00089972202114920559 0 -0.053486137621305392 0.0039138822539046339 0 -0.053298672390628118 0.0016255044262200643 0 -0.050842211113838909 0.0032383446243940523 0 -0.050842211113838909 0.0032383446243940523 0 -0.050037811153340647 0.00037345773911117791 0 -0.047168626605292696 0.0028941441581481981 0 -0.053298672390628118 0.0016255044262200643 0 -0.050842211113838909 0.0032383446243940523 0 -0.050037811153340647 0.00037345773911117791 0 -0.055000001836546755 -4.6050381871203358e-09 0 -0.054999976762713808 7.8474396868963724e-09 0 -0.054992161251500325 5.2395816115901373e-06 0 -0.054995848435434383 -1.389037621531702e-06 0 -0.053298672390628118 0.0016255044262200643 0 -0.050037811153340647 0.00037345773911117791 0 -0.054999255947628861 -3.0372663807637046e-08 0 -0.052502434484046775 0.00027592416619860418 0 -0.054999967924198444 1.4391920760831e-08 0 -0.054974823562422781 2.4928124346177526e-05 0 -0.054981535911152429 2.1593422832217795e-05 0 -0.054992161251500325 5.2395816115901373e-06 0 -0.054999967924198444 1.4391920760831e-08 0 -0.054974823562422781 2.4928124346177526e-05 0 -0.054999976762713808 7.8474396868963724e-09 0 -0.054992161251500325 5.2395816115901373e-06 0 -0.054999967924198444 1.4391920760831e-08 0 -0.052502434484046775 0.00027592416619860418 0 -0.050721513763989499 0.001147052164295352 0 -0.047168626605292696 0.0028941441581481981 0 -0.046279985978282055 0.0023732357092483554 0 -0.046594444646020243 0.0027087372391426416 0 -0.050037811153340647 0.00037345773911117791 0 -0.047168626605292696 0.0028941441581481981 0 -0.046279985978282055 0.0023732357092483554 0 -0.046279985978282055 0.0023732357092483554 0 -0.046600045410004294 0.0025331434206619773 0 -0.046594444646020243 0.0027087372391426416 0 -0.046594444646020243 0.0027087372391426416 0 -0.046501102216472315 0.0024153711667055352 0 -0.046340962494866619 0.0024245531360515184 0 -0.046600045410004294 0.0025331434206619773 0 -0.046594444646020243 0.0027087372391426416 0 -0.046501102216472315 0.0024153711667055352 0 -0.046600045410004294 0.0025331434206619773 0 -0.046501102216472315 0.0024153711667055352 0 -0.046579924315452534 0.0021818026922483754 0 -0.047168626605292696 0.0028941441581481981 0 -0.046445004613767292 0.0026183826339778661 0 -0.045975407612644098 0.002527877705808263 0 -0.047168626605292696 0.0028941441581481981 0 -0.046594444646020243 0.0027087372391426416 0 -0.046445004613767292 0.0026183826339778661 0 -0.046594444646020243 0.0027087372391426416 0 -0.046340962494866619 0.0024245531360515184 0 -0.046445004613767292 0.0026183826339778661 0 -0.046340962494866619 0.0024245531360515184 0 -0.046445004613767292 0.0026183826339778661 0 -0.04613887147348935 0.0024075814697912673 0 -0.046445004613767292 0.0026183826339778661 0 -0.045975407612644098 0.002527877705808263 0 -0.04613887147348935 0.0024075814697912673 0 -0.045975407612644098 0.002527877705808263 0 -0.045797902188003295 0.0022350763767010934 0 -0.04613887147348935 0.0024075814697912673 0 -0.045528258835796767 0.0023303032938718836 0 -0.045975407612644098 0.002527877705808263 0 -0.045797902188003295 0.0022350763767010934 0 -0.045797902188003295 0.0022350763767010934 0 -0.04613887147348935 0.0024075814697912673 0 -0.046088740486923588 0.0022183301558649951 0 -0.045797902188003295 0.0022350763767010934 0 -0.046088740486923588 0.0022183301558649951 0 -0.045881103060071961 0.0019426741072638835 0 -0.046340962494866619 0.0024245531360515184 0 -0.046088740486923588 0.0022183301558649951 0 -0.046287835087364976 0.0020878633654087086 0 -0.046340962494866619 0.0024245531360515184 0 -0.04613887147348935 0.0024075814697912673 0 -0.046088740486923588 0.0022183301558649951 0 -0.046088740486923588 0.0022183301558649951 0 -0.045881103060071961 0.0019426741072638835 0 -0.046287835087364976 0.0020878633654087086 0 -0.046062234377598973 0.001818108742773366 0 -0.045881103060071961 0.0019426741072638835 0 -0.046287835087364976 0.0020878633654087086 0 -0.045465357530876618 0.0017152837665988369 0 -0.045797902188003295 0.0022350763767010934 0 -0.045881103060071961 0.0019426741072638835 0 -0.046501102216472315 0.0024153711667055352 0 -0.046579924315452534 0.0021818026922483754 0 -0.046287835087364976 0.0020878633654087086 0 -0.046501102216472315 0.0024153711667055352 0 -0.046340962494866619 0.0024245531360515184 0 -0.046287835087364976 0.0020878633654087086 0 -0.046254068625143994 0.001701824053404696 0 -0.046287835087364976 0.0020878633654087086 0 -0.046446043225377383 0.0019479228359159816 0 -0.046254068625143994 0.001701824053404696 0 -0.046062234377598973 0.001818108742773366 0 -0.046287835087364976 0.0020878633654087086 0 -0.046579924315452534 0.0021818026922483754 0 -0.046287835087364976 0.0020878633654087086 0 -0.046446043225377383 0.0019479228359159816 0 -0.046672798407067478 0.0017919082836361415 0 -0.046579924315452534 0.0021818026922483754 0 -0.046446043225377383 0.0019479228359159816 0 -0.046254068625143994 0.001701824053404696 0 -0.046672798407067478 0.0017919082836361415 0 -0.046446043225377383 0.0019479228359159816 0 -0.046672798407067478 0.0017919082836361415 0 -0.046579924315452534 0.0021818026922483754 0 -0.046972270629402305 0.0022146371502434641 0 -0.046672798407067478 0.0017919082836361415 0 -0.047204079585939605 0.0018727363092179881 0 -0.046972270629402305 0.0022146371502434641 0 -0.047049872490546062 0.0022138491733047511 0 -0.047449835255751499 0.002244302834513762 0 -0.047542408712994352 0.0018316163436904514 0 -0.047578722462080954 0.0023064630859461585 0 -0.048158928141371821 0.0023961972481563363 0 -0.047542408712994352 0.0018316163436904514 0 -0.048124094569358802 0.002300696567726477 0 -0.047533140204059347 0.001653283721719767 0 -0.047204079585939605 0.0018727363092179881 0 -0.046972270629402305 0.0022146371502434641 0 -0.047578722462080954 0.0023064630859461585 0 -0.047204079585939605 0.0018727363092179881 0 -0.047542408712994352 0.0018316163436904514 0 -0.047578722462080954 0.0023064630859461585 0 -0.047204079585939605 0.0018727363092179881 0 -0.047542408712994352 0.0018316163436904514 0 -0.047533140204059347 0.001653283721719767 0 -0.050960849803052412 0.0014264450004071536 0 -0.051454163384479307 0.00080603306048087243 0 -0.046972270629402305 0.0022146371502434641 0 -0.047361849871072996 0.0022165896976943517 0 -0.047029712455920046 0.0026861410447973784 0 -0.047361849871072996 0.0022165896976943517 0 -0.047029712455920046 0.0026861410447973784 0 -0.047915862603293072 0.0024374556496562895 0 -0.046600045410004294 0.0025331434206619773 0 -0.046972270629402305 0.0022146371502434641 0 -0.047029712455920046 0.0026861410447973784 0 -0.046600045410004294 0.0025331434206619773 0 -0.046579924315452534 0.0021818026922483754 0 -0.046972270629402305 0.0022146371502434641 0 -0.054956798857393456 5.9392832028435613e-05 0 -0.054973296067176637 1.6570367664128613e-05 0 -0.054981535911152429 2.1593422832217795e-05 0 -0.054974823562422781 2.4928124346177526e-05 0 -0.054956798857393456 5.9392832028435613e-05 0 -0.054981535911152429 2.1593422832217795e-05 0 -0.046279985978282055 0.0023732357092483554 0 -0.046600045410004294 0.0025331434206619773 0 -0.047029712455920046 0.0026861410447973784 0 -0.050721513763989499 0.001147052164295352 0 -0.050960849803052412 0.0014264450004071536 0 -0.054956798857393456 5.9392832028435613e-05 0 -0.054973296067176637 1.6570367664128613e-05 0 -0.054921764908946652 3.7220817096057779e-05 0 -0.054973296067176637 1.6570367664128613e-05 0 -0.054999975167196652 1.997922404413287e-08 0 -0.054999865263325898 3.3353989222274386e-09 0 -0.054999967924198444 1.4391920760831e-08 0 -0.054999975167196652 1.997922404413287e-08 0 -0.054981535911152429 2.1593422832217795e-05 0 -0.054973296067176637 1.6570367664128613e-05 0 -0.054999975167196652 1.997922404413287e-08 0 -0.054981535911152429 2.1593422832217795e-05 0 -0.054983053501810847 2.1698325838241373e-06 0 -0.05499997999485369 1.5618817159832471e-09 0 -0.054999983254441304 1.6104975111635952e-09 0 -0.054990307644188212 1.5090958361787496e-06 0 -0.054983053501810847 2.1698325838241373e-06 0 -0.05499997999485369 1.5618817159832471e-09 0 -0.054983053501810847 2.1698325838241373e-06 0 -0.054999983254441304 1.6104975111635952e-09 0 -0.054975813342452128 2.7688727393134765e-06 0 -0.054999927053881056 2.3047775901946797e-07 0 -0.05511612593415334 -0.00016732964652225996 0 -0.054973296067176637 1.6570367664128613e-05 0 -0.054999865263325898 3.3353989222274386e-09 0 -0.054921764908946652 3.7220817096057779e-05 0 -0.05511612593415334 -0.00016732964652225996 0 -0.051454163384479307 0.00080603306048087243 0 -0.054956798857393456 5.9392832028435613e-05 0 -0.054921764908946652 3.7220817096057779e-05 0 -0.05487439387190729 0.00010390159946544134 0 -0.054975813342452128 2.7688727393134765e-06 0 -0.054964971607905942 1.0567882762156542e-06 0 -0.054944511129184838 3.3856525950049591e-06 0 -0.054983053501810847 2.1698325838241373e-06 0 -0.054975813342452128 2.7688727393134765e-06 0 -0.054964971607905942 1.0567882762156542e-06 0 -0.054978344266631889 7.7411704459229194e-07 0 -0.054983053501810847 2.1698325838241373e-06 0 -0.054964971607905942 1.0567882762156542e-06 0 -0.054978344266631889 7.7411704459229194e-07 0 -0.054990307644188212 1.5090958361787496e-06 0 -0.054983053501810847 2.1698325838241373e-06 0 -0.053504155759163445 0.0003596138204860458 0 -0.053324169334248529 0.00038256647829378862 0 -0.047766760446952272 0.00057766719707501594 0 -0.049350845760825018 0.00084119542959387782 0 -0.052320622376499898 6.3118331410708177e-05 0 -0.051856201198341841 0.00039922377859965478 0 -0.051692365283872735 -3.7821632909766055e-05 0 -0.05213831861728338 0.0006456314268852288 0 -0.052320622376499898 6.3118331410708177e-05 0 -0.051856201198341841 0.00039922377859965478 0 -0.050967146005912282 0.00029668809297792227 0 -0.049350845760825018 0.00084119542959387782 0 -0.054964971607905942 1.0567882762156542e-06 0 -0.054944632487571886 2.2132539151283622e-06 0 -0.054944511129184838 3.3856525950049591e-06 0 -0.051856201198341841 0.00039922377859965478 0 -0.051692365283872735 -3.7821632909766055e-05 0 -0.051502023146226247 3.2472890266809908e-05 0 -0.053324169334248529 0.00038256647829378862 0 -0.051131567557858068 0.00093130118344895822 0 -0.049874323552749025 0.0011980989592100639 0 -0.049809370479938199 0.0012202550178420782 0 -0.049770169859947019 0.0011777826170548814 0 -0.049350845760825018 0.00084119542959387782 0 -0.048694737805237746 0.001185578558119926 0 -0.049350845760825018 0.00084119542959387782 0 -0.051131567557858068 0.00093130118344895822 0 -0.047449835255751499 0.002244302834513762 0 -0.048237073314915474 0.0017511353254053474 0 -0.047361849871072996 0.0022165896976943517 0 -0.047880892646971367 0.0022754568410394819 0 -0.047915862603293072 0.0024374556496562895 0 -0.051131567557858068 0.00093130118344895822 0 -0.051454163384479307 0.00080603306048087243 0 -0.049895594056587229 0.001078273012232629 0 -0.050069521629359612 0.0012693331270654568 0 -0.050166159365402849 0.00097854794646348871 0 -0.048694737805237746 0.001185578558119926 0 -0.051454163384479307 0.00080603306048087243 0 -0.051131567557858068 0.00093130118344895822 0 -0.048694737805237746 0.001185578558119926 0 -0.048694737805237746 0.001185578558119926 0 -0.048237073314915474 0.0017511353254053474 0 -0.047966925318139897 0.0022871926151526206 0 -0.047880892646971367 0.0022754568410394819 0 -0.047915862603293072 0.0024374556496562895 0 -0.046431428744021834 0.0012945256995603072 0 -0.046481226043951739 0.00020950221168944608 0 -0.04635076421401807 0.00041506796109091359 0 -0.048694737805237746 0.001185578558119926 0 -0.046491420847458047 0.0012421338265448253 0 -0.047610028454683984 0.002010484655276219 0 -0.048237073314915474 0.0017511353254053474 0 -0.047542408712994352 0.0018316163436904514 0 -0.048124094569358802 0.002300696567726477 0 -0.048046872927440427 0.0022882580063108551 0 -0.046431428744021834 0.0012945256995603072 0 -0.04635076421401807 0.00041506796109091359 0 -0.045674832232761968 0.00048968084520139589 0 -0.048694737805237746 0.001185578558119926 0 -0.044209652613739443 0.00031192551159655067 0 -0.046343633244254348 0.00064083710639393512 0 -0.046410982927663387 0.00061800641728032514 0 -0.046384136790727941 0.00065674568482546926 0 -0.046436525661487357 0.00062395176136672366 0 -0.046384136790727941 0.00065674568482546926 0 -0.046393067538088924 0.000706814895550398 0 -0.046410982927663387 0.00061800641728032514 0 -0.046436525661487357 0.00062395176136672366 0 -0.046384136790727941 0.00065674568482546926 0 -0.040351877534018206 0.0018782840648289888 0 -0.040518276880581176 0.0028111385066845328 0 -0.039453592018722318 0.0024104387534731341 0 -0.046335601648297316 0.00068776293908010824 0 -0.046384136790727941 0.00065674568482546926 0 -0.046393067538088924 0.000706814895550398 0 -0.042944315642125433 0.0017980721773224947 0 -0.044209652613739443 0.00031192551159655067 0 -0.040351877534018206 0.0018782840648289888 0 -0.039483313405723093 0.0021043975576698183 0 -0.039453592018722318 0.0024104387534731341 0 -0.042179472280784058 5.0656208779043157e-05 0 -0.042235585163921834 -0.00058684420643512821 0 -0.042413144431898038 -0.00061821470799911914 0 -0.042757155228362501 0.00029337028576642836 0 -0.041105126984539685 -0.00010169944867190795 0 -0.040351877534018206 0.0018782840648289888 0 -0.039483313405723093 0.0021043975576698183 0 -0.039845966806767517 0.0010866142628543484 0 -0.042757155228362501 0.00029337028576642836 0 -0.042556583260892324 -0.0013482198202513964 0 -0.043297210930505071 -0.0019261637924083423 0 -0.043701278805595919 -0.0021834648825345849 0 -0.043478745861742898 -0.0017487894856956685 0 -0.043297210930505071 -0.0019261637924083423 0 -0.043140556613255721 -0.0021651432476745428 0 -0.043701278805595919 -0.0021834648825345849 0 -0.043297210930505071 -0.0019261637924083423 0 -0.043140556613255721 -0.0021651432476745428 0 -0.043077145592455519 -0.0016756403799917221 0 -0.046013697219190561 0.00025256617664790862 0 -0.046427040616169951 0.00019359453075189705 0 -0.045700896030822682 -4.1082484318873069e-05 0 -0.043140556613255721 -0.0021651432476745428 0 -0.04319792700682263 -0.0023049382154584309 0 -0.043701278805595919 -0.0021834648825345849 0 -0.044469096520642598 -5.5866689268264631e-06 0 -0.044569413445442199 -0.0012550996723751245 0 -0.046013697219190561 0.00025256617664790862 0 -0.04635076421401807 0.00041506796109091359 0 -0.045674832232761968 0.00048968084520139589 0 -0.046013697219190561 0.00025256617664790862 0 -0.046427040616169951 0.00019359453075189705 0 -0.04635076421401807 0.00041506796109091359 0 -0.042757155228362501 0.00029337028576642836 0 -0.044209652613739443 0.00031192551159655067 0 -0.04343894350617971 0.00029917765053358162 0 -0.043514195931805201 0.00011114746466520518 0 -0.043465752386663122 9.5800779143329943e-05 0 -0.042757155228362501 0.00029337028576642836 0 -0.044469096520642598 -5.5866689268264631e-06 0 -0.046426675509108284 0.00019220036031602957 0 -0.046481226043951739 0.00020950221168944608 0 -0.04635076421401807 0.00041506796109091359 0 -0.044469096520642598 -5.5866689268264631e-06 0 -0.045134072362858449 -4.4261009168359548e-05 0 -0.044469096520642598 -5.5866689268264631e-06 0 -0.044209652613739443 0.00031192551159655067 0 -0.045674832232761968 0.00048968084520139589 0 -0.044978489661308865 -0.00027678359495726342 0 -0.045700896030822682 -4.1082484318873069e-05 0 -0.047204079585939605 0.0018727363092179881 0 -0.047533140204059347 0.001653283721719767 0 -0.04698258377106105 0.0014784896238852034 0 -0.046013697219190561 0.00025256617664790862 0 -0.045674832232761968 0.00048968084520139589 0 -0.045700896030822682 -4.1082484318873069e-05 0 -0.046672798407067478 0.0017919082836361415 0 -0.047204079585939605 0.0018727363092179881 0 -0.04698258377106105 0.0014784896238852034 0 -0.046638226182815976 0.0012218260192133562 0 -0.04698258377106105 0.0014784896238852034 0 -0.046882452238500467 0.00077006251047600756 0 -0.046491420847458047 0.0012421338265448253 0 -0.045380099571349836 -0.00033942943707942206 0 -0.047533140204059347 0.001653283721719767 0 -0.04698258377106105 0.0014784896238852034 0 -0.046882452238500467 0.00077006251047600756 0 -0.046638226182815976 0.0012218260192133562 0 -0.046672798407067478 0.0017919082836361415 0 -0.04698258377106105 0.0014784896238852034 0 -0.045380099571349836 -0.00033942943707942206 0 -0.044569413445442199 -0.0012550996723751245 0 -0.046638226182815976 0.0012218260192133562 0 -0.046670418794498569 0.00083702108961806868 0 -0.046882452238500467 0.00077006251047600756 0 -0.044346834117671229 -0.0020494121880692837 0 -0.043893461734865191 -0.0018275363286920946 0 -0.04426728175786003 -0.0014817489112906913 0 -0.046492648600970653 0.00063298137143914194 0 -0.046670418794498569 0.00083702108961806868 0 -0.046882452238500467 0.00077006251047600756 0 -0.044346834117671229 -0.0020494121880692837 0 -0.043701278805595919 -0.0021834648825345849 0 -0.043893461734865191 -0.0018275363286920946 0 -0.043701278805595919 -0.0021834648825345849 0 -0.043893461734865191 -0.0018275363286920946 0 -0.043478745861742898 -0.0017487894856956685 0 -0.043757798874576814 -0.0014204021748739262 0 -0.043308391225622717 -0.0012101288793017408 0 -0.043253206984656248 -0.0018206343196172346 0 -0.043791425456479356 -0.0018273919400710701 0 -0.043432704220794038 -0.0017802392050084645 0 -0.043893461734865191 -0.0018275363286920946 0 -0.043757798874576814 -0.0014204021748739262 0 -0.043253206984656248 -0.0018206343196172346 0 -0.044823534705913992 -0.0015488177680541919 0 -0.044346834117671229 -0.0020494121880692837 0 -0.04426728175786003 -0.0014817489112906913 0 -0.043893461734865191 -0.0018275363286920946 0 -0.043757798874576814 -0.0014204021748739262 0 -0.04426728175786003 -0.0014817489112906913 0 -0.043757798874576814 -0.0014204021748739262 0 -0.04426728175786003 -0.0014817489112906913 0 -0.044171300504101021 -0.0010503151238085318 0 -0.044710894998685982 -0.00097351748846890738 0 -0.04426728175786003 -0.0014817489112906913 0 -0.044171300504101021 -0.0010503151238085318 0 -0.044171300504101021 -0.0010503151238085318 0 -0.04395113985870179 -0.00072710315232593485 0 -0.044565694474351089 -0.00072194305417260787 0 -0.044710894998685982 -0.00097351748846890738 0 -0.044171300504101021 -0.0010503151238085318 0 -0.044565694474351089 -0.00072194305417260787 0 -0.043757798874576814 -0.0014204021748739262 0 -0.043718664389899492 -0.0010411982019627199 0 -0.043308391225622717 -0.0012101288793017408 0 -0.043757798874576814 -0.0014204021748739262 0 -0.044171300504101021 -0.0010503151238085318 0 -0.043718664389899492 -0.0010411982019627199 0 -0.043718664389899492 -0.0010411982019627199 0 -0.043421293899322762 -0.00075379349545872363 0 -0.04395113985870179 -0.00072710315232593485 0 -0.044171300504101021 -0.0010503151238085318 0 -0.043718664389899492 -0.0010411982019627199 0 -0.04395113985870179 -0.00072710315232593485 0 -0.043718664389899492 -0.0010411982019627199 0 -0.043308391225622717 -0.0012101288793017408 0 -0.043421293899322762 -0.00075379349545872363 0 -0.043308391225622717 -0.0012101288793017408 0 -0.042904198754724697 -0.00091198312717369551 0 -0.043421293899322762 -0.00075379349545872363 0 -0.043308391225622717 -0.0012101288793017408 0 -0.042892777664362954 -0.0013633615815146979 0 -0.042904198754724697 -0.00091198312717369551 0 -0.042892777664362954 -0.0013633615815146979 0 -0.042904198754724697 -0.00091198312717369551 0 -0.042510229084924765 -0.001104690333721146 0 -0.041658861261736506 -0.00073904015269872546 0 -0.041105126984539685 -0.00010169944867190795 0 -0.042045127736820835 -0.00096575658413840064 0 -0.042510229084924765 -0.001104690333721146 0 -0.042381319760935149 -0.0017341056453706297 0 -0.042904198754724697 -0.00091198312717369551 0 -0.042510229084924765 -0.001104690333721146 0 -0.042412620468447022 -0.00063113421915804446 0 -0.041087001964126429 -0.00023268136439155978 0 -0.041085633024095847 -2.6580296466971472e-05 0 -0.040891976189562917 0.00012525238316201664 0 -0.042045127736820835 -0.00096575658413840064 0 -0.042510229084924765 -0.001104690333721146 0 -0.042412620468447022 -0.00063113421915804446 0 -0.042892777664362954 -0.0013633615815146979 0 -0.042510229084924765 -0.001104690333721146 0 -0.042657754938032817 -0.0017506210509946817 0 -0.04254262507404713 -0.0013054378425706014 0 -0.042556583260892324 -0.0013482198202513964 0 -0.042510229084924765 -0.001104690333721146 0 -0.042571963045932193 -0.0017663972136435526 0 -0.042381319760935149 -0.0017341056453706297 0 -0.042556583260892324 -0.0013482198202513964 0 -0.041105126984539685 -0.00010169944867190795 0 -0.042556583260892324 -0.0013482198202513964 0 -0.043432704220794038 -0.0017802392050084645 0 -0.042892777664362954 -0.0013633615815146979 0 -0.042657754938032817 -0.0017506210509946817 0 -0.043253206984656248 -0.0018206343196172346 0 -0.043297210930505071 -0.0019261637924083423 0 -0.043077145592455519 -0.0016756403799917221 0 -0.043478745861742898 -0.0017487894856956685 0 -0.043308391225622717 -0.0012101288793017408 0 -0.042892777664362954 -0.0013633615815146979 0 -0.043253206984656248 -0.0018206343196172346 0 -0.042908074620593428 -0.0003455549868912395 0 -0.043458284376499914 0.00053983910328610923 0 -0.042301867176360419 0.00032912085135143235 0 -0.041741193524778883 0.00031555719658727511 0 -0.042164862872038453 -0.00014918326677573177 0 -0.042301867176360419 0.00032912085135143235 0 -0.041555715436512673 -0.00027007228806230995 0 -0.042164862872038453 -0.00014918326677573177 0 -0.042412620468447022 -0.00063113421915804446 0 -0.042164862872038453 -0.00014918326677573177 0 -0.042908074620593428 -0.0003455549868912395 0 -0.042301867176360419 0.00032912085135143235 0 -0.042164862872038453 -0.00014918326677573177 0 -0.042412620468447022 -0.00063113421915804446 0 -0.042908074620593428 -0.0003455549868912395 0 -0.042045127736820835 -0.00096575658413840064 0 -0.041555715436512673 -0.00027007228806230995 0 -0.042412620468447022 -0.00063113421915804446 0 -0.042904198754724697 -0.00091198312717369551 0 -0.042908074620593428 -0.0003455549868912395 0 -0.043421293899322762 -0.00075379349545872363 0 -0.042904198754724697 -0.00091198312717369551 0 -0.042412620468447022 -0.00063113421915804446 0 -0.042908074620593428 -0.0003455549868912395 0 -0.042908074620593428 -0.0003455549868912395 0 -0.043421293899322762 -0.00075379349545872363 0 -0.043719332117644047 -0.00027010607492503378 0 -0.043421293899322762 -0.00075379349545872363 0 -0.04395113985870179 -0.00072710315232593485 0 -0.043719332117644047 -0.00027010607492503378 0 -0.04395113985870179 -0.00072710315232593485 0 -0.044565694474351089 -0.00072194305417260787 0 -0.044248966526683885 -0.00032557939448296034 0 -0.04395113985870179 -0.00072710315232593485 0 -0.044248966526683885 -0.00032557939448296034 0 -0.043719332117644047 -0.00027010607492503378 0 -0.044565694474351089 -0.00072194305417260787 0 -0.044248966526683885 -0.00032557939448296034 0 -0.04465285507500312 -0.00046347607562013672 0 -0.044142805344732382 0.00012065400451833318 0 -0.044495160425845608 0.00063062613162655191 0 -0.044789664849551887 4.068211418532267e-05 0 -0.044248966526683885 -0.00032557939448296034 0 -0.044142805344732382 0.00012065400451833318 0 -0.044789664849551887 4.068211418532267e-05 0 -0.044248966526683885 -0.00032557939448296034 0 -0.044142805344732382 0.00012065400451833318 0 -0.043719332117644047 -0.00027010607492503378 0 -0.044142805344732382 0.00012065400451833318 0 -0.043719332117644047 -0.00027010607492503378 0 -0.043458284376499914 0.00053983910328610923 0 -0.042908074620593428 -0.0003455549868912395 0 -0.043719332117644047 -0.00027010607492503378 0 -0.043458284376499914 0.00053983910328610923 0 -0.043177930449477972 0.00057717246901332756 0 -0.043640343486329093 -0.00044191833059786377 0 -0.044142805344732382 0.00012065400451833318 0 -0.043458284376499914 0.00053983910328610923 0 -0.044495160425845608 0.00063062613162655191 0 -0.042775721711113782 0.00040715711339336865 0 -0.043306228747423819 0.00045027162893037932 0 -0.043110079539327967 0.00082700766659105714 0 -0.041627324183738927 -0.0016259264229801214 0 -0.041094116909219339 -0.0006240143499685126 0 -0.042145900026772688 -0.00085159936568166927 0 -0.043640343486329093 -0.00044191833059786377 0 -0.042120377652879806 0.00013789240603318903 0 -0.042775721711113782 0.00040715711339336865 0 -0.043110079539327967 0.00082700766659105714 0 -0.04262873319266601 0.00084794177351692342 0 -0.04262873319266601 0.00084794177351692342 0 -0.042301867176360419 0.00032912085135143235 0 -0.042150518067634556 0.00087142589466164533 0 -0.043177930449477972 0.00057717246901332756 0 -0.042323209905465585 0.00032258682442639676 0 -0.042775721711113782 0.00040715711339336865 0 -0.04262873319266601 0.00084794177351692342 0 -0.042301867176360419 0.00032912085135143235 0 -0.041741193524778883 0.00031555719658727511 0 -0.042301867176360419 0.00032912085135143235 0 -0.042150518067634556 0.00087142589466164533 0 -0.04164940891386807 0.00088390019077728651 0 -0.042150518067634556 0.00087142589466164533 0 -0.041984347731063451 0.0014236648629897865 0 -0.042150518067634556 0.00087142589466164533 0 -0.04245755037171299 0.0013167274971941406 0 -0.041984347731063451 0.0014236648629897865 0 -0.04262873319266601 0.00084794177351692342 0 -0.042150518067634556 0.00087142589466164533 0 -0.04245755037171299 0.0013167274971941406 0 -0.037592729823544425 -0.00033896083900112104 0 -0.037725752581781707 -0.0001903243735569628 0 -0.037866783058038936 -0.0004560723516659768 0 -0.037592729823544425 -0.00033896083900112104 0 -0.037866783058038936 -0.0004560723516659768 0 -0.03760006335140198 -0.00053555046229961404 0 -0.037592729823544425 -0.00033896083900112104 0 -0.03760006335140198 -0.00053555046229961404 0 -0.037453345925107275 -0.00041097227821373705 0 -0.037866783058038936 -0.0004560723516659768 0 -0.038222491478139844 -0.00026114612537534495 0 -0.037837669791120083 -0.0008855171438053441 0 -0.038642473829823588 -0.00048096750120956057 0 -0.038352012968837737 -4.0248461191783803e-05 0 -0.038268385235521327 -0.000610881620424981 0 -0.040125796619697798 0.00061429246602790746 0 -0.040005662447919567 2.9797859326793997e-06 0 -0.037725752581781707 -0.0001903243735569628 0 -0.037866783058038936 -0.0004560723516659768 0 -0.038222491478139844 -0.00026114612537534495 0 -0.040005662447919567 2.9797859326793997e-06 0 -0.037314115809673025 -0.0010348346021349455 0 -0.038352012968837737 -4.0248461191783803e-05 0 -0.038268385235521327 -0.000610881620424981 0 -0.037837669791120083 -0.0008855171438053441 0 -0.038490419652423086 -0.00076911299556907441 0 -0.038268385235521327 -0.000610881620424981 0 -0.038182036668520367 -0.00092548772296410981 0 -0.038451283646235616 -0.00099549925725081977 0 -0.038490419652423086 -0.00076911299556907441 0 -0.038182036668520367 -0.00092548772296410981 0 -0.038268385235521327 -0.000610881620424981 0 -0.037837669791120083 -0.0008855171438053441 0 -0.038182036668520367 -0.00092548772296410981 0 -0.03760006335140198 -0.00053555046229961404 0 -0.037613979175091898 -0.00090036384622869383 0 -0.037410495842517474 -0.0004080317051666338 0 -0.037306080813110841 -0.00072846924382588942 0 -0.037383094327201619 0.00012229411339922182 0 -0.037866783058038936 -0.0004560723516659768 0 -0.037729928119764493 -0.00069391810992945613 0 -0.03760006335140198 -0.00053555046229961404 0 -0.037866783058038936 -0.0004560723516659768 0 -0.037729928119764493 -0.00069391810992945613 0 -0.037837669791120083 -0.0008855171438053441 0 -0.037729928119764493 -0.00069391810992945613 0 -0.03760006335140198 -0.00053555046229961404 0 -0.037613979175091898 -0.00090036384622869383 0 -0.037729928119764493 -0.00069391810992945613 0 -0.037613979175091898 -0.00090036384622869383 0 -0.037837669791120083 -0.0008855171438053441 0 -0.037306080813110841 -0.00072846924382588942 0 -0.037667933546367931 -0.0014001138260497645 0 -0.037613979175091898 -0.00090036384622869383 0 -0.037837669791120083 -0.0008855171438053441 0 -0.037901908061718843 -0.0010801877079996652 0 -0.037613979175091898 -0.00090036384622869383 0 -0.037901908061718843 -0.0010801877079996652 0 -0.03767100029938078 -0.0014443807276085746 0 -0.03657432942895289 -0.00070633470550483053 0 -0.036515408571510241 -0.0012599237500319947 0 -0.03767100029938078 -0.0014443807276085746 0 -0.037059075408520895 -0.00048369288727346355 0 -0.03657432942895289 -0.00070633470550483053 0 -0.03767100029938078 -0.0014443807276085746 0 -0.038195493353488132 -0.0011648146791352577 0 -0.037901908061718843 -0.0010801877079996652 0 -0.03767100029938078 -0.0014443807276085746 0 -0.038195493353488132 -0.0011648146791352577 0 -0.038332661149104934 -0.0014034240353534143 0 -0.03767100029938078 -0.0014443807276085746 0 -0.038195493353488132 -0.0011648146791352577 0 -0.038182036668520367 -0.00092548772296410981 0 -0.037901908061718843 -0.0010801877079996652 0 -0.038451283646235616 -0.00099549925725081977 0 -0.038195493353488132 -0.0011648146791352577 0 -0.038182036668520367 -0.00092548772296410981 0 -0.037837669791120083 -0.0008855171438053441 0 -0.038182036668520367 -0.00092548772296410981 0 -0.037901908061718843 -0.0010801877079996652 0 -0.035837020847537773 -0.00055526898718042024 0 -0.035914265278727008 -0.0011047161973717541 0 -0.036189364724270603 -0.00071947185493073456 0 -0.035837020847537773 -0.00055526898718042024 0 -0.035914265278727008 -0.0011047161973717541 0 -0.035333271663072013 -0.00087796036944193983 0 -0.035837020847537773 -0.00055526898718042024 0 -0.03543920755391957 -0.0005205883025143147 0 -0.035333271663072013 -0.00087796036944193983 0 -0.035914265278727008 -0.0011047161973717541 0 -0.035333271663072013 -0.00087796036944193983 0 -0.035562619827013135 -0.001467190668866184 0 -0.035914265278727008 -0.0011047161973717541 0 -0.036189364724270603 -0.00071947185493073456 0 -0.036515408571510241 -0.0012599237500319947 0 -0.03657432942895289 -0.00070633470550483053 0 -0.036189364724270603 -0.00071947185493073456 0 -0.036515408571510241 -0.0012599237500319947 0 -0.03657432942895289 -0.00070633470550483053 0 -0.036189364724270603 -0.00071947185493073456 0 -0.036360005579063943 -0.00028540802098917683 0 -0.037059075408520895 -0.00048369288727346355 0 -0.036633091864929516 -0.00028262191428993656 0 -0.036532114165045787 0.00033438430952422468 0 -0.036189364724270603 -0.00071947185493073456 0 -0.036360005579063943 -0.00028540802098917683 0 -0.036038818232048887 -0.0002464417067362944 0 -0.03657432942895289 -0.00070633470550483053 0 -0.036360005579063943 -0.00028540802098917683 0 -0.036633091864929516 -0.00028262191428993656 0 -0.037059075408520895 -0.00048369288727346355 0 -0.03657432942895289 -0.00070633470550483053 0 -0.036633091864929516 -0.00028262191428993656 0 -0.036360005579063943 -0.00028540802098917683 0 -0.036633091864929516 -0.00028262191428993656 0 -0.036532114165045787 0.00033438430952422468 0 -0.036360005579063943 -0.00028540802098917683 0 -0.036103979889306304 9.3684389897902382e-05 0 -0.036532114165045787 0.00033438430952422468 0 -0.036360005579063943 -0.00028540802098917683 0 -0.036103979889306304 9.3684389897902382e-05 0 -0.036038818232048887 -0.0002464417067362944 0 -0.036103979889306304 9.3684389897902382e-05 0 -0.036038818232048887 -0.0002464417067362944 0 -0.035588401377007375 -4.730302349380959e-05 0 -0.035837020847537773 -0.00055526898718042024 0 -0.036038818232048887 -0.0002464417067362944 0 -0.035588401377007375 -4.730302349380959e-05 0 -0.035837020847537773 -0.00055526898718042024 0 -0.036189364724270603 -0.00071947185493073456 0 -0.036038818232048887 -0.0002464417067362944 0 -0.03543920755391957 -0.0005205883025143147 0 -0.035588401377007375 -4.730302349380959e-05 0 -0.035163424907157459 -0.00033226457393179491 0 -0.035837020847537773 -0.00055526898718042024 0 -0.03543920755391957 -0.0005205883025143147 0 -0.035588401377007375 -4.730302349380959e-05 0 -0.03587980284420194 0.00068215400771766909 0 -0.035255711767000895 0.0010233054047217871 0 -0.03517204200611674 0.0004280793058175135 0 -0.035588401377007375 -4.730302349380959e-05 0 -0.03587980284420194 0.00068215400771766909 0 -0.03517204200611674 0.0004280793058175135 0 -0.036103979889306304 9.3684389897902382e-05 0 -0.035588401377007375 -4.730302349380959e-05 0 -0.03587980284420194 0.00068215400771766909 0 -0.037592729823544425 -0.00033896083900112104 0 -0.037725752581781707 -0.0001903243735569628 0 -0.037329450816888807 -0.00012961418586031521 0 -0.037672315479060456 -0.00035597118782547361 0 -0.037383094327201619 0.00012229411339922182 0 -0.036103979889306304 9.3684389897902382e-05 0 -0.03587980284420194 0.00068215400771766909 0 -0.036532114165045787 0.00033438430952422468 0 -0.037383094327201619 0.00012229411339922182 0 -0.039919456446715476 0.00018470423980715257 0 -0.038550021878925943 0.00023181140414725259 0 -0.037934728282841279 0.00060579882277865614 0 -0.038236098504643594 3.0403500656516489e-05 0 -0.036842750143058177 0.00068077426250003677 0 -0.037383094327201619 0.00012229411339922182 0 -0.037592729823544425 -0.00033896083900112104 0 -0.037453345925107275 -0.00041097227821373705 0 -0.037329450816888807 -0.00012961418586031521 0 -0.040125796619697798 0.00061429246602790746 0 -0.039919456446715476 0.00018470423980715257 0 -0.043110079539327967 0.00082700766659105714 0 -0.04262873319266601 0.00084794177351692342 0 -0.042906772243430813 0.0012140421010576625 0 -0.04262873319266601 0.00084794177351692342 0 -0.04245755037171299 0.0013167274971941406 0 -0.042906772243430813 0.0012140421010576625 0 -0.038550021878925943 0.00023181140414725259 0 -0.038236098504643594 3.0403500656516489e-05 0 -0.039167464852749488 -0.00014824049975436905 0 -0.042120377652879806 0.00013789240603318903 0 -0.039919456446715476 0.00018470423980715257 0 -0.039919456446715476 0.00018470423980715257 0 -0.03949170259142086 -0.00018000435854677755 0 -0.041094116909219339 -0.0006240143499685126 0 -0.040562734991358727 0.00038443099016023571 0 -0.041885205589199691 0.00013424870384211003 0 -0.036842750143058177 0.00068077426250003677 0 -0.03949170259142086 -0.00018000435854677755 0 -0.03949170259142086 -0.00018000435854677755 0 -0.043364830331561029 -0.0014830557496622987 0 -0.035255711767000895 0.0010233054047217871 0 -0.034606582668344779 0.00075239312724903094 0 -0.03517204200611674 0.0004280793058175135 0 -0.035255711767000895 0.0010233054047217871 0 -0.034606582668344779 0.00075239312724903094 0 -0.034121342979165928 0.0011778489382687483 0 -0.041727263753565697 -0.001412348293095381 0 -0.042929463603168398 -0.0017391302611826599 0 -0.042708388193876665 -0.0020189018288926668 0 -0.03949170259142086 -0.00018000435854677755 0 -0.038270026444969268 -0.00028380062899981579 0 -0.034606582668344779 0.00075239312724903094 0 -0.034140330044854977 0.00070978809708800857 0 -0.034121342979165928 0.0011778489382687483 0 -0.034606582668344779 0.00075239312724903094 0 -0.034644294132859459 9.7616927576477604e-05 0 -0.034296043955517885 0.00028187478688553909 0 -0.034140330044854977 0.00070978809708800857 0 -0.034296043955517885 0.00028187478688553909 0 -0.033940528334890759 0.00040917840930190645 0 -0.034606582668344779 0.00075239312724903094 0 -0.034140330044854977 0.00070978809708800857 0 -0.034296043955517885 0.00028187478688553909 0 -0.034296043955517885 0.00028187478688553909 0 -0.034068236088481134 -5.9335180651208348e-05 0 -0.033940528334890759 0.00040917840930190645 0 -0.034606582668344779 0.00075239312724903094 0 -0.034644294132859459 9.7616927576477604e-05 0 -0.03517204200611674 0.0004280793058175135 0 -0.034644294132859459 9.7616927576477604e-05 0 -0.03517204200611674 0.0004280793058175135 0 -0.03504203294408622 3.1706490874804147e-05 0 -0.035588401377007375 -4.730302349380959e-05 0 -0.03517204200611674 0.0004280793058175135 0 -0.03504203294408622 3.1706490874804147e-05 0 -0.035588401377007375 -4.730302349380959e-05 0 -0.035163424907157459 -0.00033226457393179491 0 -0.03504203294408622 3.1706490874804147e-05 0 -0.03543920755391957 -0.0005205883025143147 0 -0.035163424907157459 -0.00033226457393179491 0 -0.035010941692176847 -0.00071323558559932185 0 -0.035163424907157459 -0.00033226457393179491 0 -0.03504203294408622 3.1706490874804147e-05 0 -0.034673784964002238 -0.00047555205220630462 0 -0.035163424907157459 -0.00033226457393179491 0 -0.034673784964002238 -0.00047555205220630462 0 -0.035010941692176847 -0.00071323558559932185 0 -0.034644294132859459 9.7616927576477604e-05 0 -0.03504203294408622 3.1706490874804147e-05 0 -0.034673784964002238 -0.00047555205220630462 0 -0.034644294132859459 9.7616927576477604e-05 0 -0.034296043955517885 0.00028187478688553909 0 -0.034379433317931321 -0.00022770510286021704 0 -0.034644294132859459 9.7616927576477604e-05 0 -0.034379433317931321 -0.00022770510286021704 0 -0.034673784964002238 -0.00047555205220630462 0 -0.034296043955517885 0.00028187478688553909 0 -0.034379433317931321 -0.00022770510286021704 0 -0.034068236088481134 -5.9335180651208348e-05 0 -0.034379433317931321 -0.00022770510286021704 0 -0.034099095402224354 -0.00056970797300033354 0 -0.034068236088481134 -5.9335180651208348e-05 0 -0.034379433317931321 -0.00022770510286021704 0 -0.034099095402224354 -0.00056970797300033354 0 -0.034673784964002238 -0.00047555205220630462 0 -0.034099095402224354 -0.00056970797300033354 0 -0.034673784964002238 -0.00047555205220630462 0 -0.034375600887556687 -0.00090241744974739642 0 -0.034673784964002238 -0.00047555205220630462 0 -0.034375600887556687 -0.00090241744974739642 0 -0.034768862309596478 -0.0010035681376374401 0 -0.034099095402224354 -0.00056970797300033354 0 -0.034031151668890529 -0.0010689127549396809 0 -0.034375600887556687 -0.00090241744974739642 0 -0.034031151668890529 -0.0010689127549396809 0 -0.034375600887556687 -0.00090241744974739642 0 -0.034376273313007438 -0.0013208138829866748 0 -0.034375600887556687 -0.00090241744974739642 0 -0.034768862309596478 -0.0010035681376374401 0 -0.034376273313007438 -0.0013208138829866748 0 -0.034768862309596478 -0.0010035681376374401 0 -0.035333271663072013 -0.00087796036944193983 0 -0.035050409138842178 -0.00139165976279795 0 -0.03543920755391957 -0.0005205883025143147 0 -0.035333271663072013 -0.00087796036944193983 0 -0.035010941692176847 -0.00071323558559932185 0 -0.034768862309596478 -0.0010035681376374401 0 -0.035333271663072013 -0.00087796036944193983 0 -0.035010941692176847 -0.00071323558559932185 0 -0.034673784964002238 -0.00047555205220630462 0 -0.034768862309596478 -0.0010035681376374401 0 -0.035010941692176847 -0.00071323558559932185 0 -0.033345872066691519 -0.00059597785268448251 0 -0.033201886819474023 -0.00091147028684005339 0 -0.033491250167730156 -0.00097411630079987527 0 -0.033345872066691519 -0.00059597785268448251 0 -0.032928202028899664 -0.0005987974695467734 0 -0.033201886819474023 -0.00091147028684005339 0 -0.032928202028899664 -0.0005987974695467734 0 -0.032906959179768464 -0.0010194458345741425 0 -0.032563055812312565 -0.00095919760251780123 0 -0.032928202028899664 -0.0005987974695467734 0 -0.032906959179768464 -0.0010194458345741425 0 -0.033201886819474023 -0.00091147028684005339 0 -0.032906959179768464 -0.0010194458345741425 0 -0.033161459443855568 -0.0011806438077098852 0 -0.032821302802600753 -0.0014086258799107603 0 -0.032906959179768464 -0.0010194458345741425 0 -0.032563055812312565 -0.00095919760251780123 0 -0.032821302802600753 -0.0014086258799107603 0 -0.033161459443855568 -0.0011806438077098852 0 -0.033201886819474023 -0.00091147028684005339 0 -0.033491250167730156 -0.00097411630079987527 0 -0.033161459443855568 -0.0011806438077098852 0 -0.033491250167730156 -0.00097411630079987527 0 -0.033423130059853805 -0.001288495168708451 0 -0.032906959179768464 -0.0010194458345741425 0 -0.033161459443855568 -0.0011806438077098852 0 -0.033201886819474023 -0.00091147028684005339 0 -0.033491250167730156 -0.00097411630079987527 0 -0.033787565895756766 -0.00087010728382412908 0 -0.033704126847405168 -0.0013228979189986562 0 -0.033491250167730156 -0.00097411630079987527 0 -0.033704126847405168 -0.0013228979189986562 0 -0.033423130059853805 -0.001288495168708451 0 -0.034031151668890529 -0.0010689127549396809 0 -0.033787565895756766 -0.00087010728382412908 0 -0.033704126847405168 -0.0013228979189986562 0 -0.034099095402224354 -0.00056970797300033354 0 -0.033787565895756766 -0.00087010728382412908 0 -0.033702464653008732 -0.00058247426666234729 0 -0.034099095402224354 -0.00056970797300033354 0 -0.034031151668890529 -0.0010689127549396809 0 -0.033787565895756766 -0.00087010728382412908 0 -0.033491250167730156 -0.00097411630079987527 0 -0.033787565895756766 -0.00087010728382412908 0 -0.033702464653008732 -0.00058247426666234729 0 -0.033345872066691519 -0.00059597785268448251 0 -0.033491250167730156 -0.00097411630079987527 0 -0.033702464653008732 -0.00058247426666234729 0 -0.033345872066691519 -0.00059597785268448251 0 -0.033702464653008732 -0.00058247426666234729 0 -0.033551437201439556 -0.00023225361901898947 0 -0.033702464653008732 -0.00058247426666234729 0 -0.033835119762215315 -0.00028485767384545552 0 -0.033551437201439556 -0.00023225361901898947 0 -0.034099095402224354 -0.00056970797300033354 0 -0.033702464653008732 -0.00058247426666234729 0 -0.033835119762215315 -0.00028485767384545552 0 -0.034099095402224354 -0.00056970797300033354 0 -0.033835119762215315 -0.00028485767384545552 0 -0.034068236088481134 -5.9335180651208348e-05 0 -0.033835119762215315 -0.00028485767384545552 0 -0.034068236088481134 -5.9335180651208348e-05 0 -0.033765357190815248 7.6561329384321645e-05 0 -0.033551437201439556 -0.00023225361901898947 0 -0.033434487248523555 0.00019883884230952455 0 -0.033765357190815248 7.6561329384321645e-05 0 -0.033835119762215315 -0.00028485767384545552 0 -0.033551437201439556 -0.00023225361901898947 0 -0.033765357190815248 7.6561329384321645e-05 0 -0.033551437201439556 -0.00023225361901898947 0 -0.033203240056088081 -0.00028126141836903174 0 -0.033434487248523555 0.00019883884230952455 0 -0.033203240056088081 -0.00028126141836903174 0 -0.032949612485342283 1.2748445764048141e-05 0 -0.033434487248523555 0.00019883884230952455 0 -0.033345872066691519 -0.00059597785268448251 0 -0.032928202028899664 -0.0005987974695467734 0 -0.033203240056088081 -0.00028126141836903174 0 -0.033345872066691519 -0.00059597785268448251 0 -0.033551437201439556 -0.00023225361901898947 0 -0.033203240056088081 -0.00028126141836903174 0 -0.032928202028899664 -0.0005987974695467734 0 -0.033203240056088081 -0.00028126141836903174 0 -0.032949612485342283 1.2748445764048141e-05 0 -0.032949612485342283 1.2748445764048141e-05 0 -0.033434487248523555 0.00019883884230952455 0 -0.033012163642336737 0.00062369992426605477 0 -0.032949612485342283 1.2748445764048141e-05 0 -0.033012163642336737 0.00062369992426605477 0 -0.032584725464303341 0.00033324099312784933 0 -0.033434487248523555 0.00019883884230952455 0 -0.033012163642336737 0.00062369992426605477 0 -0.03363215302819033 0.00077025719872463299 0 -0.034068236088481134 -5.9335180651208348e-05 0 -0.033765357190815248 7.6561329384321645e-05 0 -0.033940528334890759 0.00040917840930190645 0 -0.033434487248523555 0.00019883884230952455 0 -0.033765357190815248 7.6561329384321645e-05 0 -0.033940528334890759 0.00040917840930190645 0 -0.033434487248523555 0.00019883884230952455 0 -0.033940528334890759 0.00040917840930190645 0 -0.03363215302819033 0.00077025719872463299 0 -0.034140330044854977 0.00070978809708800857 0 -0.033940528334890759 0.00040917840930190645 0 -0.03363215302819033 0.00077025719872463299 0 -0.03363215302819033 0.00077025719872463299 0 -0.034121342979165928 0.0011778489382687483 0 -0.033029228366027209 0.0013154390921959953 0 -0.038270026444969268 -0.00028380062899981579 0 -0.038305700421411563 -0.00031769744259450464 0 -0.034140330044854977 0.00070978809708800857 0 -0.03363215302819033 0.00077025719872463299 0 -0.034121342979165928 0.0011778489382687483 0 -0.033012163642336737 0.00062369992426605477 0 -0.03363215302819033 0.00077025719872463299 0 -0.033029228366027209 0.0013154390921959953 0 -0.043347189796709297 -0.0021434268268571556 0 -0.04338075017552933 -0.0021207872049849191 0 -0.043225699019302365 -0.0020548531576820772 0 -0.04338075017552933 -0.0021207872049849191 0 -0.043377848807770611 -0.0021228386484457486 0 -0.043225699019302365 -0.0020548531576820772 0 -0.04338075017552933 -0.0021207872049849191 0 -0.043536870387875605 -0.0019925014312582065 0 -0.043304862992466504 -0.0019979984079530437 0 -0.04338075017552933 -0.0021207872049849191 0 -0.043377848807770611 -0.0021228386484457486 0 -0.043536870387875605 -0.0019925014312582065 0 -0.043694504263685215 -0.0017531576458425149 0 -0.04375027733003356 -0.0017348846057806981 0 -0.043626118554025442 -0.0018644332873367347 0 -0.04375027733003356 -0.0017348846057806981 0 -0.043377848807770611 -0.0021228386484457486 0 -0.043536870387875605 -0.0019925014312582065 0 -0.043343673327342708 -0.0021523366184674976 0 -0.043536870387875605 -0.0019925014312582065 0 -0.043488801985873314 -0.0017009594651211069 0 -0.044008823230311883 -0.001677627692946364 0 -0.043536870387875605 -0.0019925014312582065 0 -0.044008823230311883 -0.001677627692946364 0 -0.043903200290289296 -0.0021495030791343346 0 -0.043536870387875605 -0.0019925014312582065 0 -0.043488801985873314 -0.0017009594651211069 0 -0.043304862992466504 -0.0019979984079530437 0 -0.044008823230311883 -0.001677627692946364 0 -0.043903200290289296 -0.0021495030791343346 0 -0.044811283995980687 -0.0019577335841908031 0 -0.044008823230311883 -0.001677627692946364 0 -0.044811283995980687 -0.0019577335841908031 0 -0.044392771652123936 -0.0013291875131299755 0 -0.04375027733003356 -0.0017348846057806981 0 -0.04395773093242332 -0.0018584991470365752 0 -0.043318729096119689 -0.0021601772114015188 0 -0.043225699019302365 -0.0020548531576820772 0 -0.042708388193876665 -0.0020189018288926668 0 -0.044341616024843607 -0.0013826083300291397 0 -0.043128177503270332 -0.0006299938857891132 0 -0.042991236861601279 -0.0015038907303054358 0 -0.042929463603168398 -0.0017391302611826599 0 -0.043225699019302365 -0.0020548531576820772 0 -0.042708388193876665 -0.0020189018288926668 0 -0.042929463603168398 -0.0017391302611826599 0 -0.043347189796709297 -0.0021434268268571556 0 -0.043225699019302365 -0.0020548531576820772 0 -0.04375027733003356 -0.0017348846057806981 0 -0.043364830331561029 -0.0014830557496622987 0 -0.043377848807770611 -0.0021228386484457486 0 -0.043318729096119689 -0.0021601772114015188 0 -0.043225699019302365 -0.0020548531576820772 0 -0.043128177503270332 -0.0006299938857891132 0 -0.042145900026772688 -0.00085159936568166927 0 -0.042991236861601279 -0.0015038907303054358 0 -0.041885205589199691 0.00013424870384211003 0 -0.043128177503270332 -0.0006299938857891132 0 -0.042145900026772688 -0.00085159936568166927 0 -0.041094116909219339 -0.0006240143499685126 0 -0.041885205589199691 0.00013424870384211003 0 -0.042145900026772688 -0.00085159936568166927 0 -0.041627324183738927 -0.0016259264229801214 0 -0.042145900026772688 -0.00085159936568166927 0 -0.042991236861601279 -0.0015038907303054358 0 -0.043640343486329093 -0.00044191833059786377 0 -0.04395773093242332 -0.0018584991470365752 0 -0.045654106757549197 -0.0018361176752737128 0 -0.044811283995980687 -0.0019577335841908031 0 -0.0454025374154216 -0.0013223490252062227 0 -0.043640343486329093 -0.00044191833059786377 0 -0.045113924496985598 -0.00077181070645455008 0 -0.044811283995980687 -0.0019577335841908031 0 -0.044852979179681014 -0.0012584939151552013 0 -0.0454025374154216 -0.0013223490252062227 0 -0.044811283995980687 -0.0019577335841908031 0 -0.044852979179681014 -0.0012584939151552013 0 -0.044392771652123936 -0.0013291875131299755 0 -0.044852979179681014 -0.0012584939151552013 0 -0.044790744529575606 -0.00084569585613913326 0 -0.044392771652123936 -0.0013291875131299755 0 -0.044852979179681014 -0.0012584939151552013 0 -0.0454025374154216 -0.0013223490252062227 0 -0.045041305665288571 -0.00069024389463968384 0 -0.045113924496985598 -0.00077181070645455008 0 -0.045040221590218754 -0.00063575471751990849 0 -0.044789664849551887 4.068211418532267e-05 0 -0.04465285507500312 -0.00046347607562013672 0 -0.045041305665288571 -0.00069024389463968384 0 -0.044248966526683885 -0.00032557939448296034 0 -0.044789664849551887 4.068211418532267e-05 0 -0.04465285507500312 -0.00046347607562013672 0 -0.044565694474351089 -0.00072194305417260787 0 -0.04465285507500312 -0.00046347607562013672 0 -0.045041305665288571 -0.00069024389463968384 0 -0.045032736646532408 -0.00069634148918781608 0 -0.044565694474351089 -0.00072194305417260787 0 -0.045041305665288571 -0.00069024389463968384 0 -0.044852979179681014 -0.0012584939151552013 0 -0.045041305665288571 -0.00069024389463968384 0 -0.044790744529575606 -0.00084569585613913326 0 -0.045032736646532408 -0.00069634148918781608 0 -0.045041305665288571 -0.00069024389463968384 0 -0.044790744529575606 -0.00084569585613913326 0 -0.044819893393905005 -0.00066436176949929374 0 -0.045032736646532408 -0.00069634148918781608 0 -0.044790744529575606 -0.00084569585613913326 0 -0.044819893393905005 -0.00066436176949929374 0 -0.044790744529575606 -0.00084569585613913326 0 -0.044357812797364331 -0.00090541581644680276 0 -0.044348245535041797 -0.00049988075487951433 0 -0.044357812797364331 -0.00090541581644680276 0 -0.043950365129336574 -0.00074469092470725131 0 -0.044790744529575606 -0.00084569585613913326 0 -0.044357812797364331 -0.00090541581644680276 0 -0.044392771652123936 -0.0013291875131299755 0 -0.044357812797364331 -0.00090541581644680276 0 -0.043950365129336574 -0.00074469092470725131 0 -0.043610301363542867 -0.0013139259435570047 0 -0.043950365129336574 -0.00074469092470725131 0 -0.043610301363542867 -0.0013139259435570047 0 -0.043256425592730248 -0.00076203871337620938 0 -0.043488801985873314 -0.0017009594651211069 0 -0.043610301363542867 -0.0013139259435570047 0 -0.043181735872707287 -0.0016946195876235337 0 -0.043488801985873314 -0.0017009594651211069 0 -0.044008823230311883 -0.001677627692946364 0 -0.043610301363542867 -0.0013139259435570047 0 -0.044357812797364331 -0.00090541581644680276 0 -0.043610301363542867 -0.0013139259435570047 0 -0.044392771652123936 -0.0013291875131299755 0 -0.044008823230311883 -0.001677627692946364 0 -0.043610301363542867 -0.0013139259435570047 0 -0.044392771652123936 -0.0013291875131299755 0 -0.042329682055360633 -0.0013470605713753663 0 -0.042495261090922005 -0.00076836200966212708 0 -0.041876801021731545 -0.00096846755066518878 0 -0.042329682055360633 -0.0013470605713753663 0 -0.042905926630944446 -0.0011383860672730982 0 -0.042495261090922005 -0.00076836200966212708 0 -0.042329682055360633 -0.0013470605713753663 0 -0.042905926630944446 -0.0011383860672730982 0 -0.043181735872707287 -0.0016946195876235337 0 -0.043610301363542867 -0.0013139259435570047 0 -0.042905926630944446 -0.0011383860672730982 0 -0.043181735872707287 -0.0016946195876235337 0 -0.043610301363542867 -0.0013139259435570047 0 -0.042905926630944446 -0.0011383860672730982 0 -0.043256425592730248 -0.00076203871337620938 0 -0.042948279307186643 -0.00038437931901060424 0 -0.043256425592730248 -0.00076203871337620938 0 -0.042495261090922005 -0.00076836200966212708 0 -0.042905926630944446 -0.0011383860672730982 0 -0.043256425592730248 -0.00076203871337620938 0 -0.042495261090922005 -0.00076836200966212708 0 -0.042036460178334831 -0.00040054372331008035 0 -0.041876801021731545 -0.00096846755066518878 0 -0.041840547240681703 -0.0012306897434242934 0 -0.042036460178334831 -0.00040054372331008035 0 -0.042495261090922005 -0.00076836200966212708 0 -0.041876801021731545 -0.00096846755066518878 0 -0.045675549444604759 -0.0003464685841709358 0 -0.044270452496946937 -0.0010012944084594251 0 -0.046578044495195398 -0.00011629238683707496 0 -0.049257227835735849 -0.00035205820072869472 0 -0.046609062031635159 -0.0010337600527563719 0 -0.041840547240681703 -0.0012306897434242934 0 -0.042171907927912859 -0.0010838515685668067 0 -0.041201255798779084 -0.0007973862628783432 0 -0.042329682055360633 -0.0013470605713753663 0 -0.041876801021731545 -0.00096846755066518878 0 -0.041201255798779084 -0.0007973862628783432 0 -0.041876801021731545 -0.00096846755066518878 0 -0.041840547240681703 -0.0012306897434242934 0 -0.041201255798779084 -0.0007973862628783432 0 -0.041201255798779084 -0.0007973862628783432 0 -0.0414587137039285 -0.0026506325427286567 0 -0.039370086529585901 -0.0039352624976891626 0 -0.042329682055360633 -0.0013470605713753663 0 -0.041201255798779084 -0.0007973862628783432 0 -0.042086196529116202 -0.0018569324946616824 0 -0.041201255798779084 -0.0007973862628783432 0 -0.0414587137039285 -0.0026506325427286567 0 -0.042086196529116202 -0.0018569324946616824 0 -0.041201255798779084 -0.0007973862628783432 0 -0.039370086529585901 -0.0039352624976891626 0 -0.03205967384798062 -0.0014658393242562053 0 -0.042171907927912859 -0.0010838515685668067 0 -0.041201255798779084 -0.0007973862628783432 0 -0.042913085472373852 -0.0011968883105030583 0 -0.040760538840448689 -0.00079882472122970319 0 -0.037507588296397811 -0.0014065967067962636 0 -0.035877083256933201 -0.0028099053745865589 0 -0.032230506654664252 -0.0018787848673616164 0 -0.039370086529585901 -0.0039352624976891626 0 -0.032124307569907015 -0.0017547326744555395 0 -0.03205967384798062 -0.0014658393242562053 0 -0.031663841579876742 -0.0014439017400417465 0 -0.031382054313836526 -0.001590203356833331 0 -0.031460994331215048 -0.001304250792822248 0 -0.031663841579876742 -0.0014439017400417465 0 -0.031382054313836526 -0.001590203356833331 0 -0.032124307569907015 -0.0017547326744555395 0 -0.035877083256933201 -0.0028099053745865589 0 -0.033906314229424202 -0.0016399510772106402 0 -0.033906314229424202 -0.0016399510772106402 0 -0.02706780002083153 -0.0019139733526773242 0 -0.031261106429870893 -0.0014899904681948408 0 -0.031382054313836526 -0.001590203356833331 0 -0.031460994331215048 -0.001304250792822248 0 -0.031261106429870893 -0.0014899904681948408 0 -0.031103431761133078 -0.0015141078903021514 0 -0.031460994331215048 -0.001304250792822248 0 -0.0414587137039285 -0.0026506325427286567 0 -0.039370086529585901 -0.0039352624976891626 0 -0.042787632570244226 -0.0037962418880753942 0 -0.031261106429870893 -0.0014899904681948408 0 -0.031382054313836526 -0.001590203356833331 0 -0.031103431761133078 -0.0015141078903021514 0 -0.042528535176132497 -0.0028211645184624485 0 -0.042440264429485931 -0.0026207587213991986 0 -0.043090039859578579 -0.002213456267296529 0 -0.036963353214911253 -0.0011990589734273294 0 -0.033906314229424202 -0.0016399510772106402 0 -0.032011840694714987 0.0014550477777520094 0 -0.031959300454775075 0.0014289251808650455 0 -0.03240887282424823 0.00097464023210005351 0 -0.036963353214911253 -0.0011990589734273294 0 -0.044061604590422368 -0.0014325154566907632 0 -0.042528535176132497 -0.0028211645184624485 0 -0.042480357391695998 -0.0028418429231194214 0 -0.042440264429485931 -0.0026207587213991986 0 -0.0414587137039285 -0.0026506325427286567 0 -0.042787632570244226 -0.0037962418880753942 0 -0.042440264429485931 -0.0026207587213991986 0 -0.033906314229424202 -0.0016399510772106402 0 -0.0380472627387912 -0.0034787622426549914 0 -0.042440264429485931 -0.0026207587213991986 0 -0.04274799911888981 -0.0019287419202111847 0 -0.043090039859578579 -0.002213456267296529 0 -0.042329682055360633 -0.0013470605713753663 0 -0.04274799911888981 -0.0019287419202111847 0 -0.043181735872707287 -0.0016946195876235337 0 -0.042440264429485931 -0.0026207587213991986 0 -0.042086196529116202 -0.0018569324946616824 0 -0.04274799911888981 -0.0019287419202111847 0 -0.0414587137039285 -0.0026506325427286567 0 -0.042440264429485931 -0.0026207587213991986 0 -0.042086196529116202 -0.0018569324946616824 0 -0.042329682055360633 -0.0013470605713753663 0 -0.042086196529116202 -0.0018569324946616824 0 -0.04274799911888981 -0.0019287419202111847 0 -0.043488801985873314 -0.0017009594651211069 0 -0.043181735872707287 -0.0016946195876235337 0 -0.043304862992466504 -0.0019979984079530437 0 -0.04274799911888981 -0.0019287419202111847 0 -0.043181735872707287 -0.0016946195876235337 0 -0.043090039859578579 -0.002213456267296529 0 -0.043181735872707287 -0.0016946195876235337 0 -0.043304862992466504 -0.0019979984079530437 0 -0.043090039859578579 -0.002213456267296529 0 -0.04338075017552933 -0.0021207872049849191 0 -0.043304862992466504 -0.0019979984079530437 0 -0.043090039859578579 -0.002213456267296529 0 -0.043347189796709297 -0.0021434268268571556 0 -0.042849755036950592 -0.002341795819842171 0 -0.043090039859578579 -0.002213456267296529 0 -0.033029228366027209 0.0013154390921959953 0 -0.032011840694714987 0.0014550477777520094 0 -0.03240887282424823 0.00097464023210005351 0 -0.043347189796709297 -0.0021434268268571556 0 -0.04338075017552933 -0.0021207872049849191 0 -0.043090039859578579 -0.002213456267296529 0 -0.038305700421411563 -0.00031769744259450464 0 -0.036963353214911253 -0.0011990589734273294 0 -0.033012163642336737 0.00062369992426605477 0 -0.03240887282424823 0.00097464023210005351 0 -0.032584725464303341 0.00033324099312784933 0 -0.033012163642336737 0.00062369992426605477 0 -0.033029228366027209 0.0013154390921959953 0 -0.03240887282424823 0.00097464023210005351 0 -0.024358114231938378 -0.0023693626909260909 0 -0.024092857727888415 -0.0012112988988723882 0 -0.024586290363083574 -0.0017558252740882368 0 -0.031959300454775075 0.0014289251808650455 0 -0.03240887282424823 0.00097464023210005351 0 -0.032041496529375491 0.00038462049913829299 0 -0.033906314229424202 -0.0016399510772106402 0 -0.027183032239809397 -4.3902787303307001e-05 0 -0.024092857727888415 -0.0012112988988723882 0 -0.024485646477760699 -0.00074756045087670574 0 -0.024586290363083574 -0.0017558252740882368 0 -0.032041496529375491 0.00038462049913829299 0 -0.032584725464303341 0.00033324099312784933 0 -0.032528499649685419 -0.00025799257281755708 0 -0.03240887282424823 0.00097464023210005351 0 -0.032041496529375491 0.00038462049913829299 0 -0.032584725464303341 0.00033324099312784933 0 -0.032949612485342283 1.2748445764048141e-05 0 -0.032584725464303341 0.00033324099312784933 0 -0.032528499649685419 -0.00025799257281755708 0 -0.032041496529375491 0.00038462049913829299 0 -0.032528499649685419 -0.00025799257281755708 0 -0.032124382184986894 -0.00074841298899684596 0 -0.032928202028899664 -0.0005987974695467734 0 -0.032949612485342283 1.2748445764048141e-05 0 -0.032528499649685419 -0.00025799257281755708 0 -0.024002111180639166 -5.669279395246171e-05 0 -0.024602233805279299 -0.00020990440200313129 0 -0.024485646477760699 -0.00074756045087670574 0 -0.027183032239809397 -4.3902787303307001e-05 0 -0.028503887451290816 -0.00060886416065807157 0 -0.024092857727888415 -0.0012112988988723882 0 -0.024002111180639166 -5.669279395246171e-05 0 -0.024485646477760699 -0.00074756045087670574 0 -0.024002111180639166 -5.669279395246171e-05 0 -0.024519548786294133 0.00017889388191381198 0 -0.02425006030066924 0.00031645114900514062 0 -0.024002111180639166 -5.669279395246171e-05 0 -0.024519548786294133 0.00017889388191381198 0 -0.024602233805279299 -0.00020990440200313129 0 -0.032528499649685419 -0.00025799257281755708 0 -0.032124382184986894 -0.00074841298899684596 0 -0.032563055812312565 -0.00095919760251780123 0 -0.032928202028899664 -0.0005987974695467734 0 -0.032528499649685419 -0.00025799257281755708 0 -0.032563055812312565 -0.00095919760251780123 0 -0.032124382184986894 -0.00074841298899684596 0 -0.032563055812312565 -0.00095919760251780123 0 -0.032468029710946152 -0.0013490984852121673 0 -0.025040681787550759 7.8090755652449542e-05 0 -0.025821054611102564 -0.00011830704371438127 0 -0.024995671701433231 0.00064923207857668695 0 -0.025040681787550759 7.8090755652449542e-05 0 -0.024519548786294133 0.00017889388191381198 0 -0.024828819226171264 0.00046669143033284177 0 -0.025040681787550759 7.8090755652449542e-05 0 -0.024519548786294133 0.00017889388191381198 0 -0.024602233805279299 -0.00020990440200313129 0 -0.024602233805279299 -0.00020990440200313129 0 -0.024485646477760699 -0.00074756045087670574 0 -0.025059822148450071 -0.00094237326935525732 0 -0.025040681787550759 7.8090755652449542e-05 0 -0.024602233805279299 -0.00020990440200313129 0 -0.025059822148450071 -0.00094237326935525732 0 -0.025040681787550759 7.8090755652449542e-05 0 -0.025059822148450071 -0.00094237326935525732 0 -0.025821054611102564 -0.00011830704371438127 0 -0.025059822148450071 -0.00094237326935525732 0 -0.025257991335029165 -0.0019662361261944647 0 -0.026410372739102791 -0.0017068472103453167 0 -0.024485646477760699 -0.00074756045087670574 0 -0.025059822148450071 -0.00094237326935525732 0 -0.024586290363083574 -0.0017558252740882368 0 -0.024358114231938378 -0.0023693626909260909 0 -0.024586290363083574 -0.0017558252740882368 0 -0.025257991335029165 -0.0019662361261944647 0 -0.025059822148450071 -0.00094237326935525732 0 -0.024586290363083574 -0.0017558252740882368 0 -0.025257991335029165 -0.0019662361261944647 0 -0.031663841579876742 -0.0014439017400417465 0 -0.031460994331215048 -0.001304250792822248 0 -0.031580442397535886 -0.0013052436986224652 0 -0.031460994331215048 -0.001304250792822248 0 -0.031580442397535886 -0.0013052436986224652 0 -0.031274841624479181 -0.00090598608889134687 0 -0.02706780002083153 -0.0019139733526773242 0 -0.029185425654053538 -0.0011369947867067574 0 -0.031580442397535886 -0.0013052436986224652 0 -0.031274841624479181 -0.00090598608889134687 0 -0.031180471752226928 -0.0013674487769565608 0 -0.031274841624479181 -0.00090598608889134687 0 -0.031231198517458911 -0.00035453228907878035 0 -0.031180471752226928 -0.0013674487769565608 0 -0.026410372739102791 -0.0017068472103453167 0 -0.02704887514927673 -0.00029548715968415027 0 -0.029568233728380383 -0.00042784643394294653 0 -0.029185425654053538 -0.0011369947867067574 0 -0.029495186000863739 -0.00054622351016977955 0 -0.031274841624479181 -0.00090598608889134687 0 -0.029568233728380383 -0.00042784643394294653 0 -0.031231198517458911 -0.00035453228907878035 0 -0.025059822148450071 -0.00094237326935525732 0 -0.026410372739102791 -0.0017068472103453167 0 -0.025821054611102564 -0.00011830704371438127 0 -0.026410372739102791 -0.0017068472103453167 0 -0.025821054611102564 -0.00011830704371438127 0 -0.02704887514927673 -0.00029548715968415027 0 -0.02704887514927673 -0.00029548715968415027 0 -0.026539820229512946 0.00035392292605710085 0 -0.029568233728380383 -0.00042784643394294653 0 -0.025821054611102564 -0.00011830704371438127 0 -0.02704887514927673 -0.00029548715968415027 0 -0.026539820229512946 0.00035392292605710085 0 -0.025821054611102564 -0.00011830704371438127 0 -0.026539820229512946 0.00035392292605710085 0 -0.024995671701433231 0.00064923207857668695 0 -0.026539820229512946 0.00035392292605710085 0 -0.031475932475122044 -5.1114394530239047e-06 0 -0.025306571812024333 0.00044796065452342668 0 -0.026539820229512946 0.00035392292605710085 0 -0.031475932475122044 -5.1114394530239047e-06 0 -0.029568233728380383 -0.00042784643394294653 0 -0.031475932475122044 -5.1114394530239047e-06 0 -0.029568233728380383 -0.00042784643394294653 0 -0.031231198517458911 -0.00035453228907878035 0 -0.031231198517458911 -0.00035453228907878035 0 -0.034143089043626583 -0.0002863808207035755 0 -0.031180471752226928 -0.0013674487769565608 0 -0.031475932475122044 -5.1114394530239047e-06 0 -0.031231198517458911 -0.00035453228907878035 0 -0.034143089043626583 -0.0002863808207035755 0 -0.041810805027209672 1.3045640514321106e-06 0 -0.031475932475122044 -5.1114394530239047e-06 0 -0.034143089043626583 -0.0002863808207035755 0 -0.041810805027209672 1.3045640514321106e-06 0 -0.034143089043626583 -0.0002863808207035755 0 -0.041140007614474915 -0.00042340708716157624 0 -0.034143089043626583 -0.0002863808207035755 0 -0.040228119845832258 -0.0017220651879007833 0 -0.041140007614474915 -0.00042340708716157624 0 -0.034491485281045994 -0.00048594538691781219 0 -0.035729247523264521 -0.0013690225807292428 0 -0.035729247523264521 -0.0013690225807292428 0 -0.037507588296397811 -0.0014065967067962636 0 -0.031180471752226928 -0.0013674487769565608 0 -0.031813851734662148 -0.0014963723975297458 0 -0.032124307569907015 -0.0017547326744555395 0 -0.031180471752226928 -0.0013674487769565608 0 -0.032124307569907015 -0.0017547326744555395 0 -0.03205967384798062 -0.0014658393242562053 0 -0.031580442397535886 -0.0013052436986224652 0 -0.031180471752226928 -0.0013674487769565608 0 -0.031813851734662148 -0.0014963723975297458 0 -0.031663841579876742 -0.0014439017400417465 0 -0.031580442397535886 -0.0013052436986224652 0 -0.031813851734662148 -0.0014963723975297458 0 -0.031663841579876742 -0.0014439017400417465 0 -0.031813851734662148 -0.0014963723975297458 0 -0.032124307569907015 -0.0017547326744555395 0 -0.042171907927912859 -0.0010838515685668067 0 -0.042913085472373852 -0.0011968883105030583 0 -0.042932413014144487 -0.0011567179685901044 0 -0.040228119845832258 -0.0017220651879007833 0 -0.042913085472373852 -0.0011968883105030583 0 -0.042932413014144487 -0.0011567179685901044 0 -0.040228119845832258 -0.0017220651879007833 0 -0.042932413014144487 -0.0011567179685901044 0 -0.041140007614474915 -0.00042340708716157624 0 -0.042932413014144487 -0.0011567179685901044 0 -0.044167700480736767 -0.00062901592571123783 0 -0.041140007614474915 -0.00042340708716157624 0 -0.044167700480736767 -0.00062901592571123783 0 -0.043925425213979977 -0.00018735819914179644 0 -0.041140007614474915 -0.00042340708716157624 0 -0.046609062031635159 -0.0010337600527563719 0 -0.042932413014144487 -0.0011567179685901044 0 -0.044167700480736767 -0.00062901592571123783 0 -0.044270452496946937 -0.0010012944084594251 0 -0.043177694844678927 -0.0011111009721870065 0 -0.041840547240681703 -0.0012306897434242934 0 -0.042171907927912859 -0.0010838515685668067 0 -0.042932413014144487 -0.0011567179685901044 0 -0.046578044495195398 -0.00011629238683707496 0 -0.044167700480736767 -0.00062901592571123783 0 -0.043925425213979977 -0.00018735819914179644 0 -0.046578044495195398 -0.00011629238683707496 0 -0.046609062031635159 -0.0010337600527563719 0 -0.044167700480736767 -0.00062901592571123783 0 -0.041810805027209672 1.3045640514321106e-06 0 -0.043925425213979977 -0.00018735819914179644 0 -0.041140007614474915 -0.00042340708716157624 0 -0.018324975816112105 -5.2922369594067115e-05 0 -0.01495665899323061 -3.4607891399594258e-06 0 -0.024070038128806856 4.3380623596154723e-06 0 -0.016911755075691759 0.0004618599521493488 0 -0.017233113101436218 -0.00011194064112519513 0 -0.017859396226136966 8.6555136688986709e-05 0 -0.016911755075691759 0.0004618599521493488 0 -0.017233113101436218 -0.00011194064112519513 0 -0.016253509441730749 -0.00024250828819903259 0 -0.01765169406214976 0.00025404057395612067 0 -0.014950813651396224 1.6844828046197588e-08 0 -0.016911755075691759 0.0004618599521493488 0 -0.014945375577798362 2.6575722336105999e-06 0 -0.016253509441730749 -0.00024250828819903259 0 -0.014945375577798362 2.6575722336105999e-06 0 -0.014473782646339157 -3.469084204226305e-06 0 -0.016253509441730749 -0.00024250828819903259 0 -0.014473782646339157 -3.469084204226305e-06 0 -0.016253509441730749 -0.00024250828819903259 0 -0.016874400502659002 -0.0012497904312280144 0 -0.017233113101436218 -0.00011194064112519513 0 -0.016253509441730749 -0.00024250828819903259 0 -0.017219410536178238 -0.00068907927636901653 0 -0.017219410536178238 -0.00068907927636901653 0 -0.017602436506044358 -0.00059572903901428684 0 -0.017876106033363336 -0.00016536697615285092 0 -0.017233113101436218 -0.00011194064112519513 0 -0.017219410536178238 -0.00068907927636901653 0 -0.017876106033363336 -0.00016536697615285092 0 -0.017876106033363336 -0.00016536697615285092 0 -0.018299868143933817 -0.00012182091771621129 0 -0.018028780942398896 -0.00050624197593792763 0 -0.017602436506044358 -0.00059572903901428684 0 -0.017876106033363336 -0.00016536697615285092 0 -0.018028780942398896 -0.00050624197593792763 0 -0.017876106033363336 -0.00016536697615285092 0 -0.018363536479254029 9.5276471801532345e-05 0 -0.018299868143933817 -0.00012182091771621129 0 -0.017233113101436218 -0.00011194064112519513 0 -0.017876106033363336 -0.00016536697615285092 0 -0.017859396226136966 8.6555136688986709e-05 0 -0.017876106033363336 -0.00016536697615285092 0 -0.017859396226136966 8.6555136688986709e-05 0 -0.018363536479254029 9.5276471801532345e-05 0 -0.017859396226136966 8.6555136688986709e-05 0 -0.018831023771344126 0.00010519089946847326 0 -0.018363536479254029 9.5276471801532345e-05 0 -0.017859396226136966 8.6555136688986709e-05 0 -0.018831023771344126 0.00010519089946847326 0 -0.018049662039365654 0.00015724864121623955 0 -0.018831023771344126 0.00010519089946847326 0 -0.018598872442319843 -5.8117982558594504e-05 0 -0.018049662039365654 0.00015724864121623955 0 -0.018831023771344126 0.00010519089946847326 0 -0.018363536479254029 9.5276471801532345e-05 0 -0.018704520184342883 0.00011694744813827142 0 -0.018363536479254029 9.5276471801532345e-05 0 -0.018704520184342883 0.00011694744813827142 0 -0.018359783876737021 1.1008671094661586e-05 0 -0.018704520184342883 0.00011694744813827142 0 -0.018292062841914404 -0.00024427079895686729 0 -0.018359783876737021 1.1008671094661586e-05 0 -0.020126334447106042 -0.00010164243725932284 0 -0.022317699449559535 0.00034124097010769728 0 -0.024183004328478648 -0.00041677505463448772 0 -0.018704520184342883 0.00011694744813827142 0 -0.020126334447106042 -0.00010164243725932284 0 -0.018292062841914404 -0.00024427079895686729 0 -0.020242399803279451 -0.00015945617648886821 0 -0.02123575430915051 -0.0002801778002959338 0 -0.019940164603907386 -2.7102931720305687e-05 0 -0.021872465341717742 0.00033810552136636322 0 -0.018831023771344126 0.00010519089946847326 0 -0.018704520184342883 0.00011694744813827142 0 -0.020126334447106042 -0.00010164243725932284 0 -0.020126334447106042 -0.00010164243725932284 0 -0.018598872442319843 -5.8117982558594504e-05 0 -0.022317699449559535 0.00034124097010769728 0 -0.018831023771344126 0.00010519089946847326 0 -0.020126334447106042 -0.00010164243725932284 0 -0.018598872442319843 -5.8117982558594504e-05 0 -0.021274046656511319 -2.5645549062536128e-06 0 -0.022003531089938178 0.00020748039216641001 0 -0.022317699449559535 0.00034124097010769728 0 -0.018324975816112105 -5.2922369594067115e-05 0 -0.021274046656511319 -2.5645549062536128e-06 0 -0.022003531089938178 0.00020748039216641001 0 -0.016911755075691759 0.0004618599521493488 0 -0.017859396226136966 8.6555136688986709e-05 0 -0.018049662039365654 0.00015724864121623955 0 -0.01765169406214976 0.00025404057395612067 0 -0.019940164603907386 -2.7102931720305687e-05 0 -0.016911755075691759 0.0004618599521493488 0 -0.018598872442319843 -5.8117982558594504e-05 0 -0.018049662039365654 0.00015724864121623955 0 -0.031475932475122044 -5.1114394530239047e-06 0 -0.024070038128806856 4.3380623596154723e-06 0 -0.025306571812024333 0.00044796065452342668 0 -0.018324975816112105 -5.2922369594067115e-05 0 -0.022003531089938178 0.00020748039216641001 0 -0.024070038128806856 4.3380623596154723e-06 0 -0.022003531089938178 0.00020748039216641001 0 -0.023567692144809593 0.00035020396242073159 0 -0.022317699449559535 0.00034124097010769728 0 -0.022003531089938178 0.00020748039216641001 0 -0.023567692144809593 0.00035020396242073159 0 -0.024070038128806856 4.3380623596154723e-06 0 -0.023567692144809593 0.00035020396242073159 0 -0.024070038128806856 4.3380623596154723e-06 0 -0.025306571812024333 0.00044796065452342668 0 -0.026539820229512946 0.00035392292605710085 0 -0.024325035109055444 0.00067048245540913664 0 -0.024995671701433231 0.00064923207857668695 0 -0.026539820229512946 0.00035392292605710085 0 -0.025306571812024333 0.00044796065452342668 0 -0.024325035109055444 0.00067048245540913664 0 -0.023567692144809593 0.00035020396242073159 0 -0.025306571812024333 0.00044796065452342668 0 -0.024325035109055444 0.00067048245540913664 0 -0.024325035109055444 0.00067048245540913664 0 -0.024479761006320568 0.00061188333280297953 0 -0.024995671701433231 0.00064923207857668695 0 -0.024325035109055444 0.00067048245540913664 0 -0.023919239713654176 0.00049212134313099517 0 -0.024479761006320568 0.00061188333280297953 0 -0.024325035109055444 0.00067048245540913664 0 -0.022317699449559535 0.00034124097010769728 0 -0.023919239713654176 0.00049212134313099517 0 -0.023567692144809593 0.00035020396242073159 0 -0.024325035109055444 0.00067048245540913664 0 -0.022317699449559535 0.00034124097010769728 0 -0.022317699449559535 0.00034124097010769728 0 -0.023919239713654176 0.00049212134313099517 0 -0.024183004328478648 -0.00041677505463448772 0 -0.024507885455564104 0.00024632655603242914 0 -0.024874558389136239 2.9725021557190929e-05 0 -0.024183004328478648 -0.00041677505463448772 0 -0.023919239713654176 0.00049212134313099517 0 -0.024507885455564104 0.00024632655603242914 0 -0.024183004328478648 -0.00041677505463448772 0 -0.024507885455564104 0.00024632655603242914 0 -0.024874558389136239 2.9725021557190929e-05 0 -0.024767346562579794 0.00038822019249505591 0 -0.024767346562579794 0.00038822019249505591 0 -0.024479761006320568 0.00061188333280297953 0 -0.024716498133176383 0.0006463154599287051 0 -0.024767346562579794 0.00038822019249505591 0 -0.024716498133176383 0.0006463154599287051 0 -0.024912288552944042 0.00053102173337545066 0 -0.024507885455564104 0.00024632655603242914 0 -0.024767346562579794 0.00038822019249505591 0 -0.024479761006320568 0.00061188333280297953 0 -0.023919239713654176 0.00049212134313099517 0 -0.024507885455564104 0.00024632655603242914 0 -0.024479761006320568 0.00061188333280297953 0 -0.024479761006320568 0.00061188333280297953 0 -0.024716498133176383 0.0006463154599287051 0 -0.024995671701433231 0.00064923207857668695 0 -0.024716498133176383 0.0006463154599287051 0 -0.024769928330651367 0.00068395868937007071 0 -0.024995671701433231 0.00064923207857668695 0 -0.024716498133176383 0.0006463154599287051 0 -0.024769928330651367 0.00068395868937007071 0 -0.024912288552944042 0.00053102173337545066 0 -0.024613826887896099 0.00060591993794163745 0 -0.024515689424077756 0.00044489496193394915 0 -0.024828819226171264 0.00046669143033284177 0 -0.024519548786294133 0.00017889388191381198 0 -0.024515689424077756 0.00044489496193394915 0 -0.024828819226171264 0.00046669143033284177 0 -0.025040681787550759 7.8090755652449542e-05 0 -0.024828819226171264 0.00046669143033284177 0 -0.024995671701433231 0.00064923207857668695 0 -0.024613826887896099 0.00060591993794163745 0 -0.024828819226171264 0.00046669143033284177 0 -0.024995671701433231 0.00064923207857668695 0 -0.024428552242111261 0.00077538378308373689 0 -0.025097688164322816 0.00059777453520706251 0 -0.028503887451290816 -0.00060886416065807157 0 -0.026037782626849297 -0.00022731719456579186 0 -0.032124382184986894 -0.00074841298899684596 0 -0.032468029710946152 -0.0013490984852121673 0 -0.03224458433036391 -0.0019425520945785429 0 -0.032591541817207484 -0.0017140647377889974 0 -0.032468029710946152 -0.0013490984852121673 0 -0.03224458433036391 -0.0019425520945785429 0 -0.032591541817207484 -0.0017140647377889974 0 -0.032758674848238321 -0.0019189046809046384 0 -0.032824646310223388 -0.0017313467103775692 0 -0.032563055812312565 -0.00095919760251780123 0 -0.032468029710946152 -0.0013490984852121673 0 -0.032821302802600753 -0.0014086258799107603 0 -0.032591541817207484 -0.0017140647377889974 0 -0.032468029710946152 -0.0013490984852121673 0 -0.032821302802600753 -0.0014086258799107603 0 -0.023705540438829359 0.00091984601503916174 0 -0.026037782626849297 -0.00022731719456579186 0 -0.024613826887896099 0.00060591993794163745 0 -0.024515689424077756 0.00044489496193394915 0 -0.02427297367170039 0.0006239438171094881 0 -0.024002111180639166 -5.669279395246171e-05 0 -0.02425006030066924 0.00031645114900514062 0 -0.023988497973218264 0.00080068182806069122 0 -0.02373844182905609 0.00088641274835504259 0 -0.026037782626849297 -0.00022731719456579186 0 -0.024515689424077756 0.00044489496193394915 0 -0.02425006030066924 0.00031645114900514062 0 -0.023952160289065393 0.00078665267035101416 0 -0.024519548786294133 0.00017889388191381198 0 -0.024515689424077756 0.00044489496193394915 0 -0.02425006030066924 0.00031645114900514062 0 -0.024769928330651367 0.00068395868937007071 0 -0.025144120547653203 0.00065753582200806036 0 -0.024912288552944042 0.00053102173337545066 0 -0.025144120547653203 0.00065753582200806036 0 -0.025065051652105437 0.00049788739459497488 0 -0.024912288552944042 0.00053102173337545066 0 -0.024428552242111261 0.00077538378308373689 0 -0.025832267526893112 -9.4704434186365741e-05 0 -0.024613826887896099 0.00060591993794163745 0 -0.02424986443478035 0.00065741290174802761 0 -0.02427297367170039 0.0006239438171094881 0 -0.027632478673098634 -0.00056485963554260251 0 -0.028063513120494751 -0.00065804124910724899 0 -0.028608647470599217 -0.002011013221469697 0 -0.025144120547653203 0.00065753582200806036 0 -0.025181254901022111 0.00041098279424330269 0 -0.025065051652105437 0.00049788739459497488 0 -0.025832267526893112 -9.4704434186365741e-05 0 -0.025301278771915122 -0.00012192426478933258 0 -0.025832267526893112 -9.4704434186365741e-05 0 -0.027736802948122787 -0.0014270850879460522 0 -0.026705733916142688 -0.00065402849552045244 0 -0.026092022496181491 0.00025694316473040264 0 -0.028555264012777862 -0.0010528942675059215 0 -0.026037782626849297 -0.00022731719456579186 0 -0.029466161825788838 -0.0012055582111201533 0 -0.025832267526893112 -9.4704434186365741e-05 0 -0.026037782626849297 -0.00022731719456579186 0 -0.032591541817207484 -0.0017140647377889974 0 -0.03224458433036391 -0.0019425520945785429 0 -0.032533773364210435 -0.0019137321141893026 0 -0.032591541817207484 -0.0017140647377889974 0 -0.032533773364210435 -0.0019137321141893026 0 -0.032758674848238321 -0.0019189046809046384 0 -0.032533773364210435 -0.0019137321141893026 0 -0.032538874456632977 -0.002103614069664026 0 -0.032758674848238321 -0.0019189046809046384 0 -0.03224458433036391 -0.0019425520945785429 0 -0.032533773364210435 -0.0019137321141893026 0 -0.032538874456632977 -0.002103614069664026 0 -0.025832267526893112 -9.4704434186365741e-05 0 -0.029466161825788838 -0.0012055582111201533 0 -0.02519427608224651 -0.00045028148072955021 0 -0.02520501412278485 -0.00070204887885811902 0 -0.025354947893805241 -0.00070774308847395954 0 -0.025181254901022111 0.00041098279424330269 0 -0.025065051652105437 0.00049788739459497488 0 -0.02502225072931126 0.00023607665852858322 0 -0.02520501412278485 -0.00070204887885811902 0 -0.025223972707285887 -0.00097196719085836699 0 -0.025354947893805241 -0.00070774308847395954 0 -0.025065051652105437 0.00049788739459497488 0 -0.024912288552944042 0.00053102173337545066 0 -0.02502225072931126 0.00023607665852858322 0 -0.024767346562579794 0.00038822019249505591 0 -0.024912288552944042 0.00053102173337545066 0 -0.02502225072931126 0.00023607665852858322 0 -0.018474005456768614 2.9909499686849787e-05 0 -0.018788352320175158 0.00011380283298156071 0 -0.018618678677348916 1.4853940001767295e-05 0 -0.024874558389136239 2.9725021557190929e-05 0 -0.02502225072931126 0.00023607665852858322 0 -0.025209382013204652 0.00015008188097174791 0 -0.021596022115551915 0.00011951276500510336 0 -0.022375119283442681 -0.00073194600738704532 0 -0.024874558389136239 2.9725021557190929e-05 0 -0.024767346562579794 0.00038822019249505591 0 -0.02502225072931126 0.00023607665852858322 0 -0.022375119283442681 -0.00073194600738704532 0 -0.027736802948122787 -0.0014270850879460522 0 -0.025181254901022111 0.00041098279424330269 0 -0.02502225072931126 0.00023607665852858322 0 -0.025209382013204652 0.00015008188097174791 0 -0.025301278771915122 -0.00012192426478933258 0 -0.022375119283442681 -0.00073194600738704532 0 -0.018837957824657914 6.227935673941518e-05 0 -0.018727814154983185 -6.4106570638118598e-05 0 -0.018829033901029902 -6.8457103876300911e-05 0 -0.018788352320175158 0.00011380283298156071 0 -0.018666827337986785 -6.3420707982611229e-05 0 -0.018618678677348916 1.4853940001767295e-05 0 -0.022375119283442681 -0.00073194600738704532 0 -0.018487955433680932 -0.00014073070364704283 0 -0.022375119283442681 -0.00073194600738704532 0 -0.020681027391302693 -0.0015632948102461165 0 -0.018829033901029902 -6.8457103876300911e-05 0 -0.018746472746752393 -0.00015389572712240173 0 -0.018861959804643887 -0.00024983612367572176 0 -0.018746472746752393 -0.00015389572712240173 0 -0.018598705692653639 -0.00019789111683088306 0 -0.018861959804643887 -0.00024983612367572176 0 -0.018727814154983185 -6.4106570638118598e-05 0 -0.018746472746752393 -0.00015389572712240173 0 -0.018598705692653639 -0.00019789111683088306 0 -0.020681027391302693 -0.0015632948102461165 0 -0.019616372765161563 -0.0021573496125079248 0 -0.018727814154983185 -6.4106570638118598e-05 0 -0.018829033901029902 -6.8457103876300911e-05 0 -0.018746472746752393 -0.00015389572712240173 0 -0.018487955433680932 -0.00014073070364704283 0 -0.018645279111333641 -0.00014663928933290104 0 -0.018666827337986785 -6.3420707982611229e-05 0 -0.018554106436365892 -9.5051532061660282e-05 0 -0.018598705692653639 -0.00019789111683088306 0 -0.018554106436365892 -9.5051532061660282e-05 0 -0.0184666675240443 -0.00014873955702653126 0 -0.018598705692653639 -0.00019789111683088306 0 -0.018554106436365892 -9.5051532061660282e-05 0 -0.018559715342315524 -2.2134256751266974e-05 0 -0.018397122609348938 -6.6587223069841981e-05 0 -0.018666827337986785 -6.3420707982611229e-05 0 -0.018554106436365892 -9.5051532061660282e-05 0 -0.018559715342315524 -2.2134256751266974e-05 0 -0.018666827337986785 -6.3420707982611229e-05 0 -0.018559715342315524 -2.2134256751266974e-05 0 -0.018618678677348916 1.4853940001767295e-05 0 -0.018474005456768614 2.9909499686849787e-05 0 -0.018559715342315524 -2.2134256751266974e-05 0 -0.018618678677348916 1.4853940001767295e-05 0 -0.018474005456768614 2.9909499686849787e-05 0 -0.018559715342315524 -2.2134256751266974e-05 0 -0.018397122609348938 -6.6587223069841981e-05 0 -0.018474005456768614 2.9909499686849787e-05 0 -0.018292062841914404 -0.00024427079895686729 0 -0.018397122609348938 -6.6587223069841981e-05 0 -0.018292062841914404 -0.00024427079895686729 0 -0.018359783876737021 1.1008671094661586e-05 0 -0.018397122609348938 -6.6587223069841981e-05 0 -0.021596022115551915 0.00011951276500510336 0 -0.02123575430915051 -0.0002801778002959338 0 -0.018359783876737021 1.1008671094661586e-05 0 -0.018397122609348938 -6.6587223069841981e-05 0 -0.018299868143933817 -0.00012182091771621129 0 -0.018363536479254029 9.5276471801532345e-05 0 -0.018359783876737021 1.1008671094661586e-05 0 -0.018299868143933817 -0.00012182091771621129 0 -0.018554106436365892 -9.5051532061660282e-05 0 -0.018397122609348938 -6.6587223069841981e-05 0 -0.0184666675240443 -0.00014873955702653126 0 -0.018397122609348938 -6.6587223069841981e-05 0 -0.0184666675240443 -0.00014873955702653126 0 -0.018299868143933817 -0.00012182091771621129 0 -0.0184666675240443 -0.00014873955702653126 0 -0.018299868143933817 -0.00012182091771621129 0 -0.018535322067442576 -0.00023523891211668646 0 -0.018341522168410153 -0.00020028933367332726 0 -0.018673964639773326 0.00012787443545548966 0 -0.018724828815625115 -0.00026638280739883102 0 -0.018299868143933817 -0.00012182091771621129 0 -0.018906730643318929 -5.3487689689695327e-05 0 -0.018724828815625115 -0.00026638280739883102 0 -0.018299868143933817 -0.00012182091771621129 0 -0.018494427124457685 -0.00043128373894758674 0 -0.018299868143933817 -0.00012182091771621129 0 -0.018028780942398896 -0.00050624197593792763 0 -0.018494427124457685 -0.00043128373894758674 0 -0.018028780942398896 -0.00050624197593792763 0 -0.018494427124457685 -0.00043128373894758674 0 -0.018599754408594012 -0.00084304969639449471 0 -0.018494427124457685 -0.00043128373894758674 0 -0.018911211801045196 -0.00048474958313474153 0 -0.018599754408594012 -0.00084304969639449471 0 -0.018724828815625115 -0.00026638280739883102 0 -0.018494427124457685 -0.00043128373894758674 0 -0.018911211801045196 -0.00048474958313474153 0 -0.018911211801045196 -0.00048474958313474153 0 -0.019203998767389027 -0.00082187218185468156 0 -0.018599754408594012 -0.00084304969639449471 0 -0.018724828815625115 -0.00026638280739883102 0 -0.018911211801045196 -0.00048474958313474153 0 -0.019072382546250793 -0.00027432529277773024 0 -0.018911211801045196 -0.00048474958313474153 0 -0.019331334428758742 -0.00044154423431062043 0 -0.019072382546250793 -0.00027432529277773024 0 -0.018911211801045196 -0.00048474958313474153 0 -0.019331334428758742 -0.00044154423431062043 0 -0.019203998767389027 -0.00082187218185468156 0 -0.019331334428758742 -0.00044154423431062043 0 -0.019649845999726311 5.4131100065888573e-05 0 -0.019781901721174635 -0.00070993357854610365 0 -0.019331334428758742 -0.00044154423431062043 0 -0.019781901721174635 -0.00070993357854610365 0 -0.019203998767389027 -0.00082187218185468156 0 -0.018673964639773326 0.00012787443545548966 0 -0.019616372765161563 -0.0021573496125079248 0 -0.018598705692653639 -0.00019789111683088306 0 -0.018535322067442576 -0.00023523891211668646 0 -0.018861959804643887 -0.00024983612367572176 0 -0.018906730643318929 -5.3487689689695327e-05 0 -0.019072382546250793 -0.00027432529277773024 0 -0.019649845999726311 5.4131100065888573e-05 0 -0.019331334428758742 -0.00044154423431062043 0 -0.019072382546250793 -0.00027432529277773024 0 -0.019649845999726311 5.4131100065888573e-05 0 -0.0184666675240443 -0.00014873955702653126 0 -0.018598705692653639 -0.00019789111683088306 0 -0.018535322067442576 -0.00023523891211668646 0 -0.018724828815625115 -0.00026638280739883102 0 -0.018906730643318929 -5.3487689689695327e-05 0 -0.019072382546250793 -0.00027432529277773024 0 -0.015028132788648667 -0.0030762839560796694 0 -0.014623054830424597 -0.0042969253664516989 0 -0.015865715937912608 -0.0040808820997392733 0 -0.015028132788648667 -0.0030762839560796694 0 -0.016040133797478293 -0.0030066379353215198 0 -0.015865715937912608 -0.0040808820997392733 0 -0.017125303902429067 -0.003865291140458034 0 -0.016040133797478293 -0.0030066379353215198 0 -0.016759563598437825 -0.0018735218346544631 0 -0.017125303902429067 -0.003865291140458034 0 -0.016040133797478293 -0.0030066379353215198 0 -0.015865715937912608 -0.0040808820997392733 0 -0.019616372765161563 -0.0021573496125079248 0 -0.018187592007829406 -0.0011519182324435098 0 -0.016040133797478293 -0.0030066379353215198 0 -0.016759563598437825 -0.0018735218346544631 0 -0.015420602245203906 -0.0021305212416057118 0 -0.015028132788648667 -0.0030762839560796694 0 -0.016040133797478293 -0.0030066379353215198 0 -0.015420602245203906 -0.0021305212416057118 0 -0.015028132788648667 -0.0030762839560796694 0 -0.015420602245203906 -0.0021305212416057118 0 -0.014623338148925885 -0.0024276772342725359 0 -0.014038150785502787 -0.0021898739375029548 0 -0.014623338148925885 -0.0024276772342725359 0 -0.013415967161249025 -0.0025425696068853238 0 -0.014038150785502787 -0.0021898739375029548 0 -0.013415967161249025 -0.0025425696068853238 0 -0.013832069666168879 -0.0010829334174613664 0 -0.014038150785502787 -0.0021898739375029548 0 -0.014623338148925885 -0.0024276772342725359 0 -0.014489842567292043 -0.0014932385590341857 0 -0.015028132788648667 -0.0030762839560796694 0 -0.014623338148925885 -0.0024276772342725359 0 -0.013415967161249025 -0.0025425696068853238 0 -0.015420602245203906 -0.0021305212416057118 0 -0.014623338148925885 -0.0024276772342725359 0 -0.014489842567292043 -0.0014932385590341857 0 -0.013965425885643458 -0.002030722726499218 0 -0.01357721806076536 -0.0011536409828794426 0 -0.01496097837930567 -0.0020727937593883966 0 -0.014056818552765594 -0.00073850169147577391 0 -0.01496097837930567 -0.0020727937593883966 0 -0.01572676855196356 0.0001029738452198544 0 -0.018138831570822571 -0.002639940538423501 0 -0.017596130883563408 -0.0024972804828761988 0 -0.016644448116694417 -0.00016861307884896104 0 -0.018138831570822571 -0.002639940538423501 0 -0.017988091110158626 -0.002536018190917002 0 -0.01798425361550696 -0.0024852148529215571 0 -0.018138831570822571 -0.002639940538423501 0 -0.017596130883563408 -0.0024972804828761988 0 -0.017988091110158626 -0.002536018190917002 0 -0.01496097837930567 -0.0020727937593883966 0 -0.022630242480712933 -0.003801775037327581 0 -0.015028132788648667 -0.0030762839560796694 0 -0.013415967161249025 -0.0025425696068853238 0 -0.014623054830424597 -0.0042969253664516989 0 -0.033211988159367323 -0.0056446525500029616 0 -0.034794757674499181 -0.0052785205619279556 0 -0.033752971628169676 -0.0044099127697206147 0 -0.022630242480712933 -0.003801775037327581 0 -0.027125053230638269 -0.0037254683539806 0 -0.017988091110158626 -0.002536018190917002 0 -0.01798425361550696 -0.0024852148529215571 0 -0.01802267029136773 -0.0023678621712328539 0 -0.034816821954994304 -0.0044053314549204478 0 -0.034537933028881918 -0.0035763800073158511 0 -0.035355842637553328 -0.0041012005548257255 0 -0.034794757674499181 -0.0052785205619279556 0 -0.034816821954994304 -0.0044053314549204478 0 -0.033752971628169676 -0.0044099127697206147 0 -0.034816821954994304 -0.0044053314549204478 0 -0.033752971628169676 -0.0044099127697206147 0 -0.034537933028881918 -0.0035763800073158511 0 -0.033211988159367323 -0.0056446525500029616 0 -0.033752971628169676 -0.0044099127697206147 0 -0.032436020329795368 -0.0045603418026900011 0 -0.033752971628169676 -0.0044099127697206147 0 -0.032436020329795368 -0.0045603418026900011 0 -0.032806361304570757 -0.0038729753048220663 0 -0.02857044658289529 -0.0041833398409338264 0 -0.028326407016381921 -0.0025052209653428029 0 -0.023669290075290693 -0.0028578120568152131 0 -0.023131696924626025 -0.0031262719673706527 0 -0.023230363483026678 -0.0021596187476330864 0 -0.032436020329795368 -0.0045603418026900011 0 -0.031609948387932352 -0.0033665424444994248 0 -0.032806361304570757 -0.0038729753048220663 0 -0.024097858726593986 -0.0035422640974547706 0 -0.023669290075290693 -0.0028578120568152131 0 -0.023375987544239266 -0.003656967538683469 0 -0.022630242480712933 -0.003801775037327581 0 -0.019079534724471218 -0.0039643727985183303 0 -0.022630242480712933 -0.003801775037327581 0 -0.02857044658289529 -0.0041833398409338264 0 -0.023669290075290693 -0.0028578120568152131 0 -0.023375987544239266 -0.003656967538683469 0 -0.023131696924626025 -0.0031262719673706527 0 -0.019616372765161563 -0.0021573496125079248 0 -0.019079534724471218 -0.0039643727985183303 0 -0.022644124777822735 -0.0037663014420374831 0 -0.023375987544239266 -0.003656967538683469 0 -0.023131696924626025 -0.0031262719673706527 0 -0.022546710925558492 -0.0030110223460610417 0 -0.022644124777822735 -0.0037663014420374831 0 -0.023131696924626025 -0.0031262719673706527 0 -0.022444188049114862 -0.0022493573895275691 0 -0.022546710925558492 -0.0030110223460610417 0 -0.023230363483026678 -0.0021596187476330864 0 -0.022546710925558492 -0.0030110223460610417 0 -0.023131696924626025 -0.0031262719673706527 0 -0.023230363483026678 -0.0021596187476330864 0 -0.028326407016381921 -0.0025052209653428029 0 -0.027736802948122787 -0.0014270850879460522 0 -0.022375119283442681 -0.00073194600738704532 0 -0.028326407016381921 -0.0025052209653428029 0 -0.025367792885442296 -0.0022274526410850947 0 -0.027018572540286143 -0.0020120766996512569 0 -0.026037828638803689 -0.00054463896576054961 0 -0.03117816463142269 -0.0034684013276672062 0 -0.032628115114900685 -0.002312684316177563 0 -0.033429946555899648 -0.0031579557387266316 0 -0.028326407016381921 -0.0025052209653428029 0 -0.034552649299999613 -0.0032845343848995649 0 -0.03117816463142269 -0.0034684013276672062 0 -0.032628115114900685 -0.002312684316177563 0 -0.031204759854726521 -0.0023617925396224372 0 -0.031609948387932352 -0.0033665424444994248 0 -0.032806361304570757 -0.0038729753048220663 0 -0.033429946555899648 -0.0031579557387266316 0 -0.033410475997073912 -0.0027035429248418994 0 -0.031001700993892694 -0.0017035805683952585 0 -0.032628115114900685 -0.002312684316177563 0 -0.031204759854726521 -0.0023617925396224372 0 -0.031134493795315653 -0.0019149513518479878 0 -0.032628115114900685 -0.002312684316177563 0 -0.031134493795315653 -0.0019149513518479878 0 -0.030550630776987553 -0.0010317209658767981 0 -0.033870022495166692 -0.0029760030184867261 0 -0.033591240280477677 -0.0026113378699232138 0 -0.032971374163748721 -0.0024026259139634356 0 -0.033870022495166692 -0.0029760030184867261 0 -0.033591240280477677 -0.0026113378699232138 0 -0.034020771651556689 -0.0025930326614206772 0 -0.03117816463142269 -0.0034684013276672062 0 -0.031204759854726521 -0.0023617925396224372 0 -0.030151928580957228 -0.0019565124096726587 0 -0.031204759854726521 -0.0023617925396224372 0 -0.031134493795315653 -0.0019149513518479878 0 -0.030151928580957228 -0.0019565124096726587 0 -0.031134493795315653 -0.0019149513518479878 0 -0.030151928580957228 -0.0019565124096726587 0 -0.030550630776987553 -0.0010317209658767981 0 -0.027736802948122787 -0.0014270850879460522 0 -0.031001700993892694 -0.0017035805683952585 0 -0.028063513120494751 -0.00065804124910724899 0 -0.028608647470599217 -0.002011013221469697 0 -0.028959509995430253 -0.0012014498388464956 0 -0.029466161825788838 -0.0012055582111201533 0 -0.032247983452211831 -0.0017588298490812438 0 -0.029801960248862325 -0.0012811813875935698 0 -0.031195511619216305 -0.0021315672023597375 0 -0.031409859354095362 -0.0016305735946603773 0 -0.029466161825788838 -0.0012055582111201533 0 -0.031001700993892694 -0.0017035805683952585 0 -0.031001700993892694 -0.0017035805683952585 0 -0.032247983452211831 -0.0017588298490812438 0 -0.032538874456632977 -0.002103614069664026 0 -0.032892961242643855 -0.002042999786290081 0 -0.033054782851726028 -0.0022235302176431796 0 -0.032538874456632977 -0.002103614069664026 0 -0.032892961242643855 -0.002042999786290081 0 -0.032758674848238321 -0.0019189046809046384 0 -0.032892961242643855 -0.002042999786290081 0 -0.03311644908945479 -0.0020826797609103903 0 -0.033054782851726028 -0.0022235302176431796 0 -0.032892961242643855 -0.002042999786290081 0 -0.032989008422154194 -0.0018882513311709672 0 -0.03311644908945479 -0.0020826797609103903 0 -0.032989008422154194 -0.0018882513311709672 0 -0.032758674848238321 -0.0019189046809046384 0 -0.032824646310223388 -0.0017313467103775692 0 -0.032892961242643855 -0.002042999786290081 0 -0.032989008422154194 -0.0018882513311709672 0 -0.032758674848238321 -0.0019189046809046384 0 -0.03311644908945479 -0.0020826797609103903 0 -0.033346122784358175 -0.0020802682185704934 0 -0.033254881818157271 -0.0018451917600404008 0 -0.032989008422154194 -0.0018882513311709672 0 -0.03311644908945479 -0.0020826797609103903 0 -0.033254881818157271 -0.0018451917600404008 0 -0.032368090919297335 -0.0018156796438615057 0 -0.032247983452211831 -0.0017588298490812438 0 -0.03311644908945479 -0.0020826797609103903 0 -0.033346122784358175 -0.0020802682185704934 0 -0.033259561991549932 -0.0022894422381821485 0 -0.032971374163748721 -0.0024026259139634356 0 -0.033259561991549932 -0.0022894422381821485 0 -0.033350061047231441 -0.0023889766372613367 0 -0.033591240280477677 -0.0026113378699232138 0 -0.032971374163748721 -0.0024026259139634356 0 -0.033350061047231441 -0.0023889766372613367 0 -0.03311644908945479 -0.0020826797609103903 0 -0.033259561991549932 -0.0022894422381821485 0 -0.033047475311419876 -0.0022351692154403014 0 -0.032971374163748721 -0.0024026259139634356 0 -0.033259561991549932 -0.0022894422381821485 0 -0.033039919858426053 -0.0022401708672947327 0 -0.03289715576108028 -0.0019767020196341419 0 -0.032247983452211831 -0.0017588298490812438 0 -0.033591240280477677 -0.0026113378699232138 0 -0.033350061047231441 -0.0023889766372613367 0 -0.033576596941475523 -0.0022543309642961964 0 -0.033259561991549932 -0.0022894422381821485 0 -0.033350061047231441 -0.0023889766372613367 0 -0.033576596941475523 -0.0022543309642961964 0 -0.033346122784358175 -0.0020802682185704934 0 -0.033259561991549932 -0.0022894422381821485 0 -0.033576596941475523 -0.0022543309642961964 0 -0.033591240280477677 -0.0026113378699232138 0 -0.033576596941475523 -0.0022543309642961964 0 -0.033927891099914453 -0.0023059567982906671 0 -0.033591240280477677 -0.0026113378699232138 0 -0.033927891099914453 -0.0023059567982906671 0 -0.034020771651556689 -0.0025930326614206772 0 -0.033576596941475523 -0.0022543309642961964 0 -0.033927891099914453 -0.0023059567982906671 0 -0.033811162452481544 -0.0019625771485652409 0 -0.033346122784358175 -0.0020802682185704934 0 -0.033576596941475523 -0.0022543309642961964 0 -0.033523955372320294 -0.0019317234030892547 0 -0.033576596941475523 -0.0022543309642961964 0 -0.033811162452481544 -0.0019625771485652409 0 -0.033523955372320294 -0.0019317234030892547 0 -0.033346122784358175 -0.0020802682185704934 0 -0.033523955372320294 -0.0019317234030892547 0 -0.033254881818157271 -0.0018451917600404008 0 -0.033523955372320294 -0.0019317234030892547 0 -0.033431334622081164 -0.0017482375367627962 0 -0.033254881818157271 -0.0018451917600404008 0 -0.033811162452481544 -0.0019625771485652409 0 -0.033523955372320294 -0.0019317234030892547 0 -0.033651044336733847 -0.0016869482703547902 0 -0.033523955372320294 -0.0019317234030892547 0 -0.033431334622081164 -0.0017482375367627962 0 -0.033651044336733847 -0.0016869482703547902 0 -0.033431334622081164 -0.0017482375367627962 0 -0.033651044336733847 -0.0016869482703547902 0 -0.033399859339025693 -0.0015464980534231133 0 -0.033811162452481544 -0.0019625771485652409 0 -0.033651044336733847 -0.0016869482703547902 0 -0.033952181616333378 -0.0016314227475916576 0 -0.033651044336733847 -0.0016869482703547902 0 -0.033952181616333378 -0.0016314227475916576 0 -0.033704126847405168 -0.0013228979189986562 0 -0.033952181616333378 -0.0016314227475916576 0 -0.033704126847405168 -0.0013228979189986562 0 -0.033994681828713291 -0.0013629243398925912 0 -0.034031151668890529 -0.0010689127549396809 0 -0.033704126847405168 -0.0013228979189986562 0 -0.033994681828713291 -0.0013629243398925912 0 -0.033651044336733847 -0.0016869482703547902 0 -0.033399859339025693 -0.0015464980534231133 0 -0.033704126847405168 -0.0013228979189986562 0 -0.033399859339025693 -0.0015464980534231133 0 -0.033704126847405168 -0.0013228979189986562 0 -0.033423130059853805 -0.001288495168708451 0 -0.033161459443855568 -0.0011806438077098852 0 -0.033423130059853805 -0.001288495168708451 0 -0.033177748911450172 -0.0014599125399335851 0 -0.033399859339025693 -0.0015464980534231133 0 -0.033423130059853805 -0.001288495168708451 0 -0.033177748911450172 -0.0014599125399335851 0 -0.033177748911450172 -0.0014599125399335851 0 -0.032821302802600753 -0.0014086258799107603 0 -0.033037378214511762 -0.0016815832485023946 0 -0.033161459443855568 -0.0011806438077098852 0 -0.033177748911450172 -0.0014599125399335851 0 -0.032821302802600753 -0.0014086258799107603 0 -0.032591541817207484 -0.0017140647377889974 0 -0.032821302802600753 -0.0014086258799107603 0 -0.032824646310223388 -0.0017313467103775692 0 -0.032821302802600753 -0.0014086258799107603 0 -0.033037378214511762 -0.0016815832485023946 0 -0.032824646310223388 -0.0017313467103775692 0 -0.032989008422154194 -0.0018882513311709672 0 -0.033037378214511762 -0.0016815832485023946 0 -0.032824646310223388 -0.0017313467103775692 0 -0.032989008422154194 -0.0018882513311709672 0 -0.033037378214511762 -0.0016815832485023946 0 -0.033254881818157271 -0.0018451917600404008 0 -0.033037378214511762 -0.0016815832485023946 0 -0.033254881818157271 -0.0018451917600404008 0 -0.033228678147217708 -0.0016559137502681525 0 -0.033431334622081164 -0.0017482375367627962 0 -0.033254881818157271 -0.0018451917600404008 0 -0.033228678147217708 -0.0016559137502681525 0 -0.033431334622081164 -0.0017482375367627962 0 -0.033399859339025693 -0.0015464980534231133 0 -0.033228678147217708 -0.0016559137502681525 0 -0.033399859339025693 -0.0015464980534231133 0 -0.033177748911450172 -0.0014599125399335851 0 -0.033228678147217708 -0.0016559137502681525 0 -0.033177748911450172 -0.0014599125399335851 0 -0.033037378214511762 -0.0016815832485023946 0 -0.033228678147217708 -0.0016559137502681525 0 -0.034642424562114603 -0.0017064118264651107 0 -0.035135291713496213 -0.0018351059665897911 0 -0.035050409138842178 -0.00139165976279795 0 -0.035135291713496213 -0.0018351059665897911 0 -0.035050409138842178 -0.00139165976279795 0 -0.035562619827013135 -0.001467190668866184 0 -0.035333271663072013 -0.00087796036944193983 0 -0.035050409138842178 -0.00139165976279795 0 -0.035562619827013135 -0.001467190668866184 0 -0.034768862309596478 -0.0010035681376374401 0 -0.035050409138842178 -0.00139165976279795 0 -0.034708618762953926 -0.0013552504959004575 0 -0.034642424562114603 -0.0017064118264651107 0 -0.035050409138842178 -0.00139165976279795 0 -0.034708618762953926 -0.0013552504959004575 0 -0.034768862309596478 -0.0010035681376374401 0 -0.034708618762953926 -0.0013552504959004575 0 -0.034376273313007438 -0.0013208138829866748 0 -0.034642424562114603 -0.0017064118264651107 0 -0.034708618762953926 -0.0013552504959004575 0 -0.034376273313007438 -0.0013208138829866748 0 -0.033994681828713291 -0.0013629243398925912 0 -0.034376273313007438 -0.0013208138829866748 0 -0.034248615322579549 -0.0016349397907674372 0 -0.034031151668890529 -0.0010689127549396809 0 -0.033994681828713291 -0.0013629243398925912 0 -0.034376273313007438 -0.0013208138829866748 0 -0.033952181616333378 -0.0016314227475916576 0 -0.033994681828713291 -0.0013629243398925912 0 -0.034248615322579549 -0.0016349397907674372 0 -0.033811162452481544 -0.0019625771485652409 0 -0.033952181616333378 -0.0016314227475916576 0 -0.034237578021512546 -0.0019615850586832172 0 -0.033952181616333378 -0.0016314227475916576 0 -0.034248615322579549 -0.0016349397907674372 0 -0.034237578021512546 -0.0019615850586832172 0 -0.034642424562114603 -0.0017064118264651107 0 -0.034376273313007438 -0.0013208138829866748 0 -0.034248615322579549 -0.0016349397907674372 0 -0.034642424562114603 -0.0017064118264651107 0 -0.034248615322579549 -0.0016349397907674372 0 -0.034237578021512546 -0.0019615850586832172 0 -0.034237578021512546 -0.0019615850586832172 0 -0.034269506706211705 -0.0023402809362224742 0 -0.03466544656223617 -0.0021558971719729766 0 -0.034642424562114603 -0.0017064118264651107 0 -0.034237578021512546 -0.0019615850586832172 0 -0.03466544656223617 -0.0021558971719729766 0 -0.033927891099914453 -0.0023059567982906671 0 -0.033811162452481544 -0.0019625771485652409 0 -0.034237578021512546 -0.0019615850586832172 0 -0.033927891099914453 -0.0023059567982906671 0 -0.034237578021512546 -0.0019615850586832172 0 -0.034269506706211705 -0.0023402809362224742 0 -0.033927891099914453 -0.0023059567982906671 0 -0.034269506706211705 -0.0023402809362224742 0 -0.034020771651556689 -0.0025930326614206772 0 -0.034269506706211705 -0.0023402809362224742 0 -0.03466544656223617 -0.0021558971719729766 0 -0.034423876752192877 -0.0027143533685742454 0 -0.03466544656223617 -0.0021558971719729766 0 -0.035235596718566568 -0.0023887396676627519 0 -0.034423876752192877 -0.0027143533685742454 0 -0.034642424562114603 -0.0017064118264651107 0 -0.035135291713496213 -0.0018351059665897911 0 -0.03466544656223617 -0.0021558971719729766 0 -0.035135291713496213 -0.0018351059665897911 0 -0.03466544656223617 -0.0021558971719729766 0 -0.035235596718566568 -0.0023887396676627519 0 -0.035235596718566568 -0.0023887396676627519 0 -0.035041733895676108 -0.002997381689710412 0 -0.034423876752192877 -0.0027143533685742454 0 -0.035041733895676108 -0.002997381689710412 0 -0.034423876752192877 -0.0027143533685742454 0 -0.034445665576386293 -0.0030715052333061287 0 -0.033870022495166692 -0.0029760030184867261 0 -0.034423876752192877 -0.0027143533685742454 0 -0.034445665576386293 -0.0030715052333061287 0 -0.033870022495166692 -0.0029760030184867261 0 -0.034020771651556689 -0.0025930326614206772 0 -0.034423876752192877 -0.0027143533685742454 0 -0.034269506706211705 -0.0023402809362224742 0 -0.034020771651556689 -0.0025930326614206772 0 -0.034423876752192877 -0.0027143533685742454 0 -0.032628115114900685 -0.002312684316177563 0 -0.033429946555899648 -0.0031579557387266316 0 -0.034537933028881918 -0.0035763800073158511 0 -0.033870022495166692 -0.0029760030184867261 0 -0.034445665576386293 -0.0030715052333061287 0 -0.034537933028881918 -0.0035763800073158511 0 -0.033752971628169676 -0.0044099127697206147 0 -0.032806361304570757 -0.0038729753048220663 0 -0.033429946555899648 -0.0031579557387266316 0 -0.033752971628169676 -0.0044099127697206147 0 -0.033429946555899648 -0.0031579557387266316 0 -0.034537933028881918 -0.0035763800073158511 0 -0.033410475997073912 -0.0027035429248418994 0 -0.034419827063581765 -0.0034880643883064607 0 -0.035041733895676108 -0.002997381689710412 0 -0.034537933028881918 -0.0035763800073158511 0 -0.035596976532042343 -0.0035465065893826452 0 -0.035041733895676108 -0.002997381689710412 0 -0.034445665576386293 -0.0030715052333061287 0 -0.034537933028881918 -0.0035763800073158511 0 -0.034537933028881918 -0.0035763800073158511 0 -0.035596976532042343 -0.0035465065893826452 0 -0.035355842637553328 -0.0041012005548257255 0 -0.035596976532042343 -0.0035465065893826452 0 -0.036373263469432114 -0.004272089711346779 0 -0.035355842637553328 -0.0041012005548257255 0 -0.035596976532042343 -0.0035465065893826452 0 -0.036359284860895798 -0.0034531969849421825 0 -0.036373263469432114 -0.004272089711346779 0 -0.036359284860895798 -0.0034531969849421825 0 -0.037088586699621992 -0.0039273834700610417 0 -0.036373263469432114 -0.004272089711346779 0 -0.035596976532042343 -0.0035465065893826452 0 -0.036359284860895798 -0.0034531969849421825 0 -0.035868322923276123 -0.002876874843424357 0 -0.036359284860895798 -0.0034531969849421825 0 -0.035868322923276123 -0.002876874843424357 0 -0.036936832797470724 -0.0026832970694190307 0 -0.035868322923276123 -0.002876874843424357 0 -0.036102382061243374 -0.0022368542607033035 0 -0.036936832797470724 -0.0026832970694190307 0 -0.035041733895676108 -0.002997381689710412 0 -0.035596976532042343 -0.0035465065893826452 0 -0.035868322923276123 -0.002876874843424357 0 -0.035235596718566568 -0.0023887396676627519 0 -0.035041733895676108 -0.002997381689710412 0 -0.035868322923276123 -0.002876874843424357 0 -0.035235596718566568 -0.0023887396676627519 0 -0.035629247416611588 -0.0019197995946575546 0 -0.036102382061243374 -0.0022368542607033035 0 -0.035235596718566568 -0.0023887396676627519 0 -0.035868322923276123 -0.002876874843424357 0 -0.036102382061243374 -0.0022368542607033035 0 -0.035135291713496213 -0.0018351059665897911 0 -0.035235596718566568 -0.0023887396676627519 0 -0.035629247416611588 -0.0019197995946575546 0 -0.035629247416611588 -0.0019197995946575546 0 -0.036102382061243374 -0.0022368542607033035 0 -0.036125130842294226 -0.001681615717020239 0 -0.036102382061243374 -0.0022368542607033035 0 -0.03688781303786047 -0.0019322608895658124 0 -0.036936832797470724 -0.0026832970694190307 0 -0.036102382061243374 -0.0022368542607033035 0 -0.036125130842294226 -0.001681615717020239 0 -0.03688781303786047 -0.0019322608895658124 0 -0.036125130842294226 -0.001681615717020239 0 -0.036515408571510241 -0.0012599237500319947 0 -0.03688781303786047 -0.0019322608895658124 0 -0.035914265278727008 -0.0011047161973717541 0 -0.036125130842294226 -0.001681615717020239 0 -0.036515408571510241 -0.0012599237500319947 0 -0.035914265278727008 -0.0011047161973717541 0 -0.036125130842294226 -0.001681615717020239 0 -0.035562619827013135 -0.001467190668866184 0 -0.035135291713496213 -0.0018351059665897911 0 -0.035629247416611588 -0.0019197995946575546 0 -0.035562619827013135 -0.001467190668866184 0 -0.035629247416611588 -0.0019197995946575546 0 -0.036125130842294226 -0.001681615717020239 0 -0.035562619827013135 -0.001467190668866184 0 -0.038288304416381778 -0.0017978014036280638 0 -0.03767100029938078 -0.0014443807276085746 0 -0.037746573716686181 -0.0022688205382464387 0 -0.038288304416381778 -0.0017978014036280638 0 -0.038332661149104934 -0.0014034240353534143 0 -0.03767100029938078 -0.0014443807276085746 0 -0.03767100029938078 -0.0014443807276085746 0 -0.03688781303786047 -0.0019322608895658124 0 -0.037746573716686181 -0.0022688205382464387 0 -0.036515408571510241 -0.0012599237500319947 0 -0.03767100029938078 -0.0014443807276085746 0 -0.03688781303786047 -0.0019322608895658124 0 -0.03688781303786047 -0.0019322608895658124 0 -0.037746573716686181 -0.0022688205382464387 0 -0.036936832797470724 -0.0026832970694190307 0 -0.038288304416381778 -0.0017978014036280638 0 -0.037746573716686181 -0.0022688205382464387 0 -0.038519537059546957 -0.0023773325469977516 0 -0.037746573716686181 -0.0022688205382464387 0 -0.038125087061359364 -0.003438563315574654 0 -0.038519537059546957 -0.0023773325469977516 0 -0.037746573716686181 -0.0022688205382464387 0 -0.036936832797470724 -0.0026832970694190307 0 -0.038125087061359364 -0.003438563315574654 0 -0.036895836181934524 -0.0033873474676427541 0 -0.037522807377025666 -0.0023235169266912761 0 -0.036936832797470724 -0.0026832970694190307 0 -0.037199181361309834 -0.0038663922562770969 0 -0.038125087061359364 -0.003438563315574654 0 -0.036359284860895798 -0.0034531969849421825 0 -0.036936832797470724 -0.0026832970694190307 0 -0.037088586699621992 -0.0039273834700610417 0 -0.038969484092007921 0.0028482457919821341 0 -0.039007496173597445 0.0028351028533747827 0 -0.039026552333217335 0.0028579305652478965 0 -0.039189567217415851 0.0010889944741252098 0 -0.039172936529670542 0.0034514737481725561 0 -0.037522807377025666 -0.0023235169266912761 0 -0.039189567217415851 0.0010889944741252098 0 -0.029911598991677908 0.00031733509129135021 0 -0.033787660050736593 0.0035872452408363432 0 -0.039026552333217335 0.0028579305652478965 0 -0.038936896183081535 0.0027772590775304771 0 -0.039124240914887809 0.0029325291949988241 0 -0.039205316876002184 0.0028430153567061797 0 -0.039026552333217335 0.0028579305652478965 0 -0.039124240914887809 0.0029325291949988241 0 -0.026779790793816129 0.0030219073688002797 0 -0.026252033290084936 0.0033016658065387638 0 -0.026351913905529496 0.0025313129895582101 0 -0.026779790793816129 0.0030219073688002797 0 -0.026252033290084936 0.0033016658065387638 0 -0.027224075165726027 0.0035104604754071489 0 -0.019056242894848873 -0.0022052546334847228 0 -0.018489199865341272 -0.0023995710320751191 0 -0.019518197166159389 -0.0025992651152750186 0 -0.019056242894848873 -0.0022052546334847228 0 -0.019369162938568621 -0.0016924766288070807 0 -0.018372815658585475 -0.0020210344405160448 0 -0.019056242894848873 -0.0022052546334847228 0 -0.019369162938568621 -0.0016924766288070807 0 -0.019518197166159389 -0.0025992651152750186 0 -0.029911598991677908 0.00031733509129135021 0 -0.021075220777054052 -0.00049336556954926902 0 -0.037522807377025666 -0.0023235169266912761 0 -0.029911598991677908 0.00031733509129135021 0 -0.035837389801346896 -0.0045376674058810705 0 -0.035825445827334081 -0.004627584479690648 0 -0.035785601229735613 -0.0046261598941893739 0 -0.038969484092007921 0.0028482457919821341 0 -0.039026552333217335 0.0028579305652478965 0 -0.038936896183081535 0.0027772590775304771 0 -0.035837389801346896 -0.0045376674058810705 0 -0.035785601229735613 -0.0046261598941893739 0 -0.035742516121369312 -0.0045821957419347314 0 -0.037522807377025666 -0.0023235169266912761 0 -0.035761848096960279 -0.0045138481101181308 0 -0.035825445827334081 -0.004627584479690648 0 -0.035785601229735613 -0.0046261598941893739 0 -0.035710094426061205 -0.0048064295814105266 0 -0.035761848096960279 -0.0045138481101181308 0 -0.035669796198717657 -0.0045791634666604063 0 -0.035742516121369312 -0.0045821957419347314 0 -0.035512860482548765 -0.0046398336685054787 0 -0.035710094426061205 -0.0048064295814105266 0 -0.035785601229735613 -0.0046261598941893739 0 -0.035742516121369312 -0.0045821957419347314 0 -0.035710094426061205 -0.0048064295814105266 0 -0.036373263469432114 -0.004272089711346779 0 -0.035355842637553328 -0.0041012005548257255 0 -0.035512860482548765 -0.0046398336685054787 0 -0.034816821954994304 -0.0044053314549204478 0 -0.035355842637553328 -0.0041012005548257255 0 -0.035512860482548765 -0.0046398336685054787 0 -0.034794757674499181 -0.0052785205619279556 0 -0.034816821954994304 -0.0044053314549204478 0 -0.035512860482548765 -0.0046398336685054787 0 -0.034794757674499181 -0.0052785205619279556 0 -0.035512860482548765 -0.0046398336685054787 0 -0.035710094426061205 -0.0048064295814105266 0 -0.027125053230638269 -0.0037254683539806 0 -0.026372491324688184 -0.0038105589326720424 0 -0.01802267029136773 -0.0023678621712328539 0 -0.018372815658585475 -0.0020210344405160448 0 -0.018130776511465132 -0.0024084292363868846 0 -0.017988091110158626 -0.002536018190917002 0 -0.01802267029136773 -0.0023678621712328539 0 -0.018130776511465132 -0.0024084292363868846 0 -0.029911598991677908 0.00031733509129135021 0 -0.026372491324688184 -0.0038105589326720424 0 -0.019056242894848873 -0.0022052546334847228 0 -0.018372815658585475 -0.0020210344405160448 0 -0.018489199865341272 -0.0023995710320751191 0 -0.018372815658585475 -0.0020210344405160448 0 -0.018489199865341272 -0.0023995710320751191 0 -0.018130776511465132 -0.0024084292363868846 0 -0.018489199865341272 -0.0023995710320751191 0 -0.018227372365041315 -0.0024923483062525911 0 -0.018130776511465132 -0.0024084292363868846 0 -0.018391595045187576 -0.002568499581800813 0 -0.018227372365041315 -0.0024923483062525911 0 -0.018129459313671339 -0.0025636724630409983 0 -0.018489199865341272 -0.0023995710320751191 0 -0.018391595045187576 -0.002568499581800813 0 -0.018227372365041315 -0.0024923483062525911 0 -0.018489199865341272 -0.0023995710320751191 0 -0.018391595045187576 -0.002568499581800813 0 -0.018571168202238666 -0.0025818090538369236 0 -0.017988091110158626 -0.002536018190917002 0 -0.018130776511465132 -0.0024084292363868846 0 -0.018008343541490442 -0.0024941261473591381 0 -0.018227372365041315 -0.0024923483062525911 0 -0.018130776511465132 -0.0024084292363868846 0 -0.018008343541490442 -0.0024941261473591381 0 -0.018227372365041315 -0.0024923483062525911 0 -0.018008343541490442 -0.0024941261473591381 0 -0.018129459313671339 -0.0025636724630409983 0 -0.017596130883563408 -0.0024972804828761988 0 -0.017988091110158626 -0.002536018190917002 0 -0.018008343541490442 -0.0024941261473591381 0 -0.017596130883563408 -0.0024972804828761988 0 -0.01538965919328346 -0.0018703832265289228 0 -0.013616246088354952 -0.0020967144891293442 0 -0.017596130883563408 -0.0024972804828761988 0 -0.018129459313671339 -0.0025636724630409983 0 -0.018403505996570636 -0.0028058139582085389 0 -0.017583514430362074 -0.0024698058081752553 0 -0.015806719141224449 -0.0026758128027514305 0 -0.017596130883563408 -0.0024972804828761988 0 -0.018008343541490442 -0.0024941261473591381 0 -0.018129459313671339 -0.0025636724630409983 0 -0.017596130883563408 -0.0024972804828761988 0 -0.01538965919328346 -0.0018703832265289228 0 -0.016644448116694417 -0.00016861307884896104 0 -0.018391595045187576 -0.002568499581800813 0 -0.018403505996570636 -0.0028058139582085389 0 -0.018571168202238666 -0.0025818090538369236 0 -0.018391595045187576 -0.002568499581800813 0 -0.018129459313671339 -0.0025636724630409983 0 -0.018403505996570636 -0.0028058139582085389 0 -0.01538965919328346 -0.0018703832265289228 0 -0.013616246088354952 -0.0020967144891293442 0 -0.014261872893760406 -0.00025700265049422656 0 -0.018403505996570636 -0.0028058139582085389 0 -0.018763120444208605 -0.0026958736213494642 0 -0.018571168202238666 -0.0025818090538369236 0 -0.013616246088354952 -0.0020967144891293442 0 -0.010075042267242649 -0.0013227770439687265 0 -0.012030019403951119 -0.00073376409199565049 0 -0.015806719141224449 -0.0026758128027514305 0 -0.015545955237369203 1.794599341104072e-05 0 -0.018403505996570636 -0.0028058139582085389 0 -0.018770514046364241 -0.0027829737433540977 0 -0.018763120444208605 -0.0026958736213494642 0 -0.018645855071877687 -0.0010283224525038468 0 -0.019895170683556028 0.0010257211372397708 0 -0.015545955237369203 1.794599341104072e-05 0 -0.018645855071877687 -0.0010283224525038468 0 -0.016283556843292597 0.00086043711223820129 0 -0.016181306606348481 0.0013965017508036676 0 -0.017193968895973674 0.0011767125154392658 0 -0.016181306606348481 0.0013965017508036676 0 -0.01795349920255105 0.002010577092011346 0 -0.017193968895973674 0.0011767125154392658 0 -0.016283556843292597 0.00086043711223820129 0 -0.017193968895973674 0.0011767125154392658 0 -0.017864797487839788 0.00062816085673016479 0 -0.020550076980713393 -0.00071156419293773397 0 -0.020222749460338821 0.0011777277503671295 0 -0.022598164900075091 0.00084873986465625799 0 -0.021075220777054052 -0.00049336556954926902 0 -0.025674321627833206 0.0017935498007942421 0 -0.026779790793816129 0.0030219073688002797 0 -0.026351913905529496 0.0025313129895582101 0 -0.02732135805170197 0.0024001932399195462 0 -0.018645855071877687 -0.0010283224525038468 0 -0.021075220777054052 -0.00049336556954926902 0 -0.017860316183043189 -0.0026355375289767221 0 -0.021075220777054052 -0.00049336556954926902 0 -0.018763120444208605 -0.0026958736213494642 0 -0.018723822169696414 -0.0024369257921791668 0 -0.018571168202238666 -0.0025818090538369236 0 -0.018489199865341272 -0.0023995710320751191 0 -0.018723822169696414 -0.0024369257921791668 0 -0.018571168202238666 -0.0025818090538369236 0 -0.010493996198612436 0.0018604341320321524 0 -0.012501654041135839 0.00071909038332953633 0 -0.011815899061114148 0.0029606619815676807 0 -0.010965025461435206 0.0016341454972346513 0 -0.010822735832637955 -0.00014341206043076197 0 -0.012501654041135839 0.00071909038332953633 0 -0.010525646746796551 0.0018752592004673265 0 -0.01230158471456704 0.00081276046062479193 0 -0.010493996198612436 0.0018604341320321524 0 -0.010228581877377761 0.0033347762476780714 0 -0.011815899061114148 0.0029606619815676807 0 -0.010965025461435206 0.0016341454972346513 0 -0.0097793146822846566 0.00067576894189930073 0 -0.0094553120366849801 0.0025697911120803581 0 -0.013319644170904707 0.0001414876308692488 0 -0.010580230838193309 0.0014900392390655242 0 -0.010525646746796551 0.0018752592004673265 0 -0.010580230838193309 0.0014900392390655242 0 -0.010493996198612436 0.0018604341320321524 0 -0.010228581877377761 0.0033347762476780714 0 -0.0087715914634987693 0.0029635579356766576 0 -0.016822447336416319 -7.378562630229529e-05 0 -0.016980893715143143 -0.00092534952202339034 0 -0.017512248248531332 -0.00066738532881695689 0 -0.017269121049576834 -0.00092498651857987146 0 -0.016980893715143143 -0.00092534952202339034 0 -0.017512248248531332 -0.00066738532881695689 0 -0.010965025461435206 0.0016341454972346513 0 -0.0097793146822846566 0.00067576894189930073 0 -0.010822735832637955 -0.00014341206043076197 0 -0.015545955237369203 1.794599341104072e-05 0 -0.013319644170904707 0.0001414876308692488 0 -0.016639177130694432 0.00085371792970114315 0 -0.017267082225575887 0.00032094214213092471 0 -0.017864797487839788 0.00062816085673016479 0 -0.010075042267242649 -0.0013227770439687265 0 -0.0097793146822846566 0.00067576894189930073 0 -0.010822735832637955 -0.00014341206043076197 0 -0.015545955237369203 1.794599341104072e-05 0 -0.018052715448427219 0.00070710512190965541 0 -0.016822447336416319 -7.378562630229529e-05 0 -0.017267082225575887 0.00032094214213092471 0 -0.017744612478599899 -0.00011983447027980784 0 -0.016639177130694432 0.00085371792970114315 0 -0.016822447336416319 -7.378562630229529e-05 0 -0.017267082225575887 0.00032094214213092471 0 -0.010075042267242649 -0.0013227770439687265 0 -0.010822735832637955 -0.00014341206043076197 0 -0.012030019403951119 -0.00073376409199565049 0 -0.010822735832637955 -0.00014341206043076197 0 -0.012030019403951119 -0.00073376409199565049 0 -0.012501654041135839 0.00071909038332953633 0 -0.013616246088354952 -0.0020967144891293442 0 -0.012030019403951119 -0.00073376409199565049 0 -0.013097638245524889 -0.00058612713398002183 0 -0.013616246088354952 -0.0020967144891293442 0 -0.013097638245524889 -0.00058612713398002183 0 -0.014261872893760406 -0.00025700265049422656 0 -0.012030019403951119 -0.00073376409199565049 0 -0.013097638245524889 -0.00058612713398002183 0 -0.012501654041135839 0.00071909038332953633 0 -0.013097638245524889 -0.00058612713398002183 0 -0.014261872893760406 -0.00025700265049422656 0 -0.012501654041135839 0.00071909038332953633 0 -0.014261872893760406 -0.00025700265049422656 0 -0.01624078917104587 1.6769817202391729e-05 0 -0.014540117687435466 0.0023439555866710746 0 -0.01538965919328346 -0.0018703832265289228 0 -0.014261872893760406 -0.00025700265049422656 0 -0.01624078917104587 1.6769817202391729e-05 0 -0.015520005990791596 -0.001638292714884545 0 -0.01572676855196356 0.0001029738452198544 0 -0.014961445551834878 0.0010558304614419996 0 -0.013738375998762684 0.002904621603880447 0 -0.016041047231202608 0.0031406496289595161 0 -0.01572676855196356 0.0001029738452198544 0 -0.014067873679284673 0.0027179184536598126 0 -0.014261872893760406 -0.00025700265049422656 0 -0.014540117687435466 0.0023439555866710746 0 -0.012501654041135839 0.00071909038332953633 0 -0.014540117687435466 0.0023439555866710746 0 -0.012501654041135839 0.00071909038332953633 0 -0.011815899061114148 0.0029606619815676807 0 -0.013738375998762684 0.002904621603880447 0 -0.012563383002170673 0.0047040257802376051 0 -0.014325628015518739 0.004524458965826492 0 -0.014540117687435466 0.0023439555866710746 0 -0.012563383002170673 0.0047040257802376051 0 -0.011815899061114148 0.0029606619815676807 0 -0.014067873679284673 0.0027179184536598126 0 -0.012753591937264008 0.004492402009525805 0 -0.013738375998762684 0.002904621603880447 0 -0.014325628015518739 0.004524458965826492 0 -0.016041047231202608 0.0031406496289595161 0 -0.014325628015518739 0.004524458965826492 0 -0.015721037479153491 0.0057932097533172234 0 -0.016041047231202608 0.0031406496289595161 0 -0.013730705605206879 0.0058667741793863989 0 -0.014431698734084772 0.0071832474546493991 0 -0.015721037479153491 0.0057932097533172234 0 -0.014325628015518739 0.004524458965826492 0 -0.013730705605206879 0.0058667741793863989 0 -0.015721037479153491 0.0057932097533172234 0 -0.0029023797927875883 0.004259681820556231 0 -0.0053921805856622486 0.0037630777082102084 0 -0.0057123717798748365 0.0014609421681605322 0 -0.0092456223974096592 0.0050756401631162447 0 -0.0096583542295128437 0.0033143054988858107 0 -0.012563383002170673 0.0047040257802376051 0 -0.014325628015518739 0.004524458965826492 0 -0.013730705605206879 0.0058667741793863989 0 -0.012563383002170673 0.0047040257802376051 0 -0.012318887515711915 0.0067493788609789794 0 -0.011443103922170947 0.0056757926230300987 0 -0.013730705605206879 0.0058667741793863989 0 -0.012318887515711915 0.0067493788609789794 0 -0.014431698734084772 0.0071832474546493991 0 -0.012563383002170673 0.0047040257802376051 0 -0.013730705605206879 0.0058667741793863989 0 -0.012318887515711915 0.0067493788609789794 0 -0.012318887515711915 0.0067493788609789794 0 -0.011064488324561189 0.0066729012282338686 0 -0.011443103922170947 0.0056757926230300987 0 -0.011064488324561189 0.0066729012282338686 0 -0.010427763472141024 0.0059856365514770688 0 -0.010224307946712967 0.0072098706025807554 0 -0.011064488324561189 0.0066729012282338686 0 -0.010427763472141024 0.0059856365514770688 0 -0.011443103922170947 0.0056757926230300987 0 -0.010427763472141024 0.0059856365514770688 0 -0.0094094337522446468 0.0066537067539717805 0 -0.010224307946712967 0.0072098706025807554 0 -0.010427763472141024 0.0059856365514770688 0 -0.011443103922170947 0.0056757926230300987 0 -0.010728637586989524 0.0045726974647323547 0 -0.010427763472141024 0.0059856365514770688 0 -0.010728637586989524 0.0045726974647323547 0 -0.0094788997006789288 0.0053057095714320488 0 -0.012563383002170673 0.0047040257802376051 0 -0.011443103922170947 0.0056757926230300987 0 -0.010728637586989524 0.0045726974647323547 0 -0.012563383002170673 0.0047040257802376051 0 -0.010728637586989524 0.0045726974647323547 0 -0.011815899061114148 0.0029606619815676807 0 -0.010728637586989524 0.0045726974647323547 0 -0.010228581877377761 0.0033347762476780714 0 -0.0092952853548389277 0.0041661495475776517 0 -0.010728637586989524 0.0045726974647323547 0 -0.010228581877377761 0.0033347762476780714 0 -0.011815899061114148 0.0029606619815676807 0 -0.0087715914634987693 0.0029635579356766576 0 -0.0092952853548389277 0.0041661495475776517 0 -0.008383772174001906 0.0050779678455089294 0 -0.010580230838193309 0.0014900392390655242 0 -0.0083660096660369554 0.005359081191648251 0 -0.0080619011076095912 0.0032484581330285774 0 -0.008383772174001906 0.0050779678455089294 0 -0.0079122567589702437 0.0054985315133284068 0 -0.0080619011076095912 0.0032484581330285774 0 -0.0088205446058713475 0.0027739118939538133 0 -0.008383772174001906 0.0050779678455089294 0 -0.017265525144699066 -0.0010969920598051918 0 -0.017269121049576834 -0.00092498651857987146 0 -0.016980893715143143 -0.00092534952202339034 0 -0.0085785460121433777 0.0019301695070598768 0 -0.010580230838193309 0.0014900392390655242 0 -0.0085785460121433777 0.0019301695070598768 0 -0.009554283357855145 0.00077884449754233318 0 -0.010228581877377761 0.0033347762476780714 0 -0.0087715914634987693 0.0029635579356766576 0 -0.0092952853548389277 0.0041661495475776517 0 -0.0092952853548389277 0.0041661495475776517 0 -0.008954949899827834 0.0050904860464338602 0 -0.0094788997006789288 0.0053057095714320488 0 -0.010728637586989524 0.0045726974647323547 0 -0.0092952853548389277 0.0041661495475776517 0 -0.0094788997006789288 0.0053057095714320488 0 -0.0092952853548389277 0.0041661495475776517 0 -0.008383772174001906 0.0050779678455089294 0 -0.008954949899827834 0.0050904860464338602 0 -0.0086591505238525213 0.0058182108145824986 0 -0.0079122567589702437 0.0054985315133284068 0 -0.0077511004620094779 0.0075519531945523553 0 -0.008383772174001906 0.0050779678455089294 0 -0.008954949899827834 0.0050904860464338602 0 -0.0086591505238525213 0.0058182108145824986 0 -0.008383772174001906 0.0050779678455089294 0 -0.0086591505238525213 0.0058182108145824986 0 -0.0079122567589702437 0.0054985315133284068 0 -0.008954949899827834 0.0050904860464338602 0 -0.0086591505238525213 0.0058182108145824986 0 -0.0094788997006789288 0.0053057095714320488 0 -0.0086591505238525213 0.0058182108145824986 0 -0.0094788997006789288 0.0053057095714320488 0 -0.0094094337522446468 0.0066537067539717805 0 -0.010427763472141024 0.0059856365514770688 0 -0.0094788997006789288 0.0053057095714320488 0 -0.0094094337522446468 0.0066537067539717805 0 -0.0086591505238525213 0.0058182108145824986 0 -0.0094094337522446468 0.0066537067539717805 0 -0.0077511004620094779 0.0075519531945523553 0 0.004366254810069174 0.010944236108250519 0 0.0029613017492720385 0.0097052351263789121 0 0.0018575364098764283 0.011548605118816476 0 -0.0094094337522446468 0.0066537067539717805 0 -0.010057320333307871 0.008084187104745089 0 -0.0077511004620094779 0.0075519531945523553 0 -0.0020175155525853946 0.009526069916508513 0 -0.00159239571294665 0.0089684822211315365 0 -0.0094094337522446468 0.0066537067539717805 0 -0.010224307946712967 0.0072098706025807554 0 -0.010057320333307871 0.008084187104745089 0 -0.0020175155525853946 0.009526069916508513 0 0.0005902554689077627 0.0075862852547856074 0 -0.012318887515711915 0.0067493788609789794 0 -0.010076271733930022 0.0080002318227813136 0 -0.013026061782801163 0.0086300955051138283 0 -0.012318887515711915 0.0067493788609789794 0 -0.011064488324561189 0.0066729012282338686 0 -0.010076271733930022 0.0080002318227813136 0 -0.011064488324561189 0.0066729012282338686 0 -0.010224307946712967 0.0072098706025807554 0 -0.010076271733930022 0.0080002318227813136 0 -0.0051903937529872721 0.0072410700940097094 0 -0.0020175155525853946 0.009526069916508513 0 0.0066117116024065345 0.0093154614701853929 0 0.0083893445245363935 0.0068607654280918419 0 0.0061457895984073588 0.0060754519888622247 0 0.0066117116024065345 0.0093154614701853929 0 0.0083893445245363935 0.0068607654280918419 0 0.0098802525087529087 0.0084766778309752541 0 0.004366254810069174 0.010944236108250519 0 0.0029613017492720385 0.0097052351263789121 0 0.003968755805756681 0.007533747167082939 0 -0.0020175155525853946 0.009526069916508513 0 0.0058711679778647701 0.0070699985837470837 0 0.0029613017492720385 0.0097052351263789121 0 0.0016753389565513403 0.0087490705768017117 0 0.0018575364098764283 0.011548605118816476 0 0.0029613017492720385 0.0097052351263789121 0 0.003968755805756681 0.007533747167082939 0 0.0016753389565513403 0.0087490705768017117 0 0.003968755805756681 0.007533747167082939 0 0.0016753389565513403 0.0087490705768017117 0 0.0014401662083106603 0.005785197826696154 0 0.003968755805756681 0.007533747167082939 0 0.003777305792286498 0.0039300027118665936 0 0.0014401662083106603 0.005785197826696154 0 0.0058711679778647701 0.0070699985837470837 0 0.0045365495851161387 0.003211540120080068 0 0.0061457895984073588 0.0060754519888622247 0 0.007751821726770078 0.0050984353428490782 0 0.0055189179184171894 0.0029009131924071316 0 0.0083893445245363935 0.0068607654280918419 0 0.0061457895984073588 0.0060754519888622247 0 0.007751821726770078 0.0050984353428490782 0 0.0087695916653912978 0.0033925718110348673 0 0.0055189179184171894 0.0029009131924071316 0 0.008252063987176296 0.00065760158502611008 0 0.007751821726770078 0.0050984353428490782 0 0.0087695916653912978 0.0033925718110348673 0 0.0055189179184171894 0.0029009131924071316 0 0.010966979555869569 0.0035053661883629682 0 0.013040524021043194 0.0043208085170987846 0 0.012284399428423033 0.00015054809366643447 0 0.013304599590247424 0.0015692127731075699 0 0.012209133921945402 0.00012032153825081793 0 0.0087695916653912978 0.0033925718110348673 0 0.010966979555869569 0.0035053661883629682 0 0.010371289140659322 0.0010241710244117278 0 0.010966979555869569 0.0035053661883629682 0 0.010113360993127854 0.0059314790624475245 0 0.011579209537464406 0.0053469156817976529 0 0.007751821726770078 0.0050984353428490782 0 0.0087695916653912978 0.0033925718110348673 0 0.010113360993127854 0.0059314790624475245 0 0.0083893445245363935 0.0068607654280918419 0 0.007751821726770078 0.0050984353428490782 0 0.010113360993127854 0.0059314790624475245 0 0.0087695916653912978 0.0033925718110348673 0 0.010966979555869569 0.0035053661883629682 0 0.010113360993127854 0.0059314790624475245 0 0.010113360993127854 0.0059314790624475245 0 0.011579209537464406 0.0053469156817976529 0 0.011453913288280789 0.0068148139648833705 0 0.013304599590247424 0.0015692127731075699 0 0.0072083782424513234 0.0028462125790612827 0 0.011579209537464406 0.0053469156817976529 0 0.012412763055774455 0.0063150887505173973 0 0.011453913288280789 0.0068148139648833705 0 0.013040524021043194 0.0043208085170987846 0 0.012412763055774455 0.0063150887505173973 0 0.013531205291947315 0.0078471526775420082 0 0.010966979555869569 0.0035053661883629682 0 0.011579209537464406 0.0053469156817976529 0 0.013040524021043194 0.0043208085170987846 0 0.011579209537464406 0.0053469156817976529 0 0.013040524021043194 0.0043208085170987846 0 0.012412763055774455 0.0063150887505173973 0 0.012412763055774455 0.0063150887505173973 0 0.012181737053660083 0.0074414413862484907 0 0.013531205291947315 0.0078471526775420082 0 0.012412763055774455 0.0063150887505173973 0 0.012181737053660083 0.0074414413862484907 0 0.011453913288280789 0.0068148139648833705 0 0.011453913288280789 0.0068148139648833705 0 0.011574813058552253 0.0079606135722799717 0 0.010348489177136867 0.0072533355587373243 0 0.012181737053660083 0.0074414413862484907 0 0.011453913288280789 0.0068148139648833705 0 0.011574813058552253 0.0079606135722799717 0 0.011574813058552253 0.0079606135722799717 0 0.011901822835245395 0.0082639305658942109 0 0.010201160608313166 0.0086942543223561333 0 0.012181737053660083 0.0074414413862484907 0 0.011574813058552253 0.0079606135722799717 0 0.01191371677505537 0.0082582062491265359 0 0.0051616472661049359 0.0060050350606138678 0 0.0005902554689077627 0.0075862852547856074 0 0.0067405088655984723 0.0070954450476614283 0 0.0051616472661049359 0.0060050350606138678 0 0.012181737053660083 0.0074414413862484907 0 0.01191371677505537 0.0082582062491265359 0 0.013531205291947315 0.0078471526775420082 0 0.0051616472661049359 0.0060050350606138678 0 0.0072083782424513234 0.0028462125790612827 0 0.0083893445245363935 0.0068607654280918419 0 0.010113360993127854 0.0059314790624475245 0 0.010348489177136867 0.0072533355587373243 0 0.0083893445245363935 0.0068607654280918419 0 0.010348489177136867 0.0072533355587373243 0 0.010201160608313166 0.0086942543223561333 0 0.010113360993127854 0.0059314790624475245 0 0.011453913288280789 0.0068148139648833705 0 0.010348489177136867 0.0072533355587373243 0 0.011574813058552253 0.0079606135722799717 0 0.010348489177136867 0.0072533355587373243 0 0.010201160608313166 0.0086942543223561333 0 0.010350581335384416 0.0087692949069931511 0 0.0005902554689077627 0.0075862852547856074 0 -0.012318887515711915 0.0067493788609789794 0 -0.013026061782801163 0.0086300955051138283 0 -0.014431698734084772 0.0071832474546493991 0 0.0050318399169016854 0.0047318780728883856 0 0.0016151657611573563 0.0016217691970448983 0 0.002384616702817395 0.0053708064595929987 0 0.0051616472661049359 0.0060050350606138678 0 -0.002358897046720038 0.0020345271986873369 0 -0.0027571043553502208 0.0077256950761945076 0 -0.0029023797927875883 0.004259681820556231 0 -0.0061153724141737448 0.0046687177204367894 0 -0.0027571043553502208 0.0077256950761945076 0 -8.8329251877400787e-05 0.0070803666857692576 0 -0.0029023797927875883 0.004259681820556231 0 0.0005902554689077627 0.0075862852547856074 0 -0.0092456223974096592 0.0050756401631162447 0 -0.0029023797927875883 0.004259681820556231 0 -0.0053921805856622486 0.0037630777082102084 0 -0.0061153724141737448 0.0046687177204367894 0 -0.0053921805856622486 0.0037630777082102084 0 -0.0061153724141737448 0.0046687177204367894 0 -0.005698699992576408 0.0015070597453353766 0 -0.00058290685055726395 -0.0013298645099377635 0 -0.00015875946024547559 -0.00061481904944177648 0 -0.0003005756855107535 -0.001755906618208422 0 0.0030900909344865344 -0.00077319261742032702 0 -0.0033170632402419959 0.00021853451427011197 0 -0.002358897046720038 0.0020345271986873369 0 0.0072083782424513234 0.0028462125790612827 0 0.0010452602683106123 0.00017362512250157505 0 0.00074017005310342949 0.001370595632471302 0 0.00054014111989924456 -0.00027067125152249971 0 -0.002358897046720038 0.0020345271986873369 0 -0.0033170632402419959 0.00021853451427011197 0 -0.00027779683550497257 -0.0025229504980099678 0 -0.0059016498301266594 -0.00040664133400113313 0 -0.00058290685055726395 -0.0013298645099377635 0 -0.00065866878450952142 -0.0020747477014462687 0 -0.0003005756855107535 -0.001755906618208422 0 -0.00058290685055726395 -0.0013298645099377635 0 -0.0010579868254672652 -0.001322170890448685 0 -0.00065866878450952142 -0.0020747477014462687 0 -0.00058290685055726395 -0.0013298645099377635 0 -0.0010579868254672652 -0.001322170890448685 0 -0.00076044786097091656 -0.00088999142657178367 0 -0.0010579868254672652 -0.001322170890448685 0 -0.00076044786097091656 -0.00088999142657178367 0 -0.0011963055021852464 -0.00085787833044997832 0 -0.00076044786097091656 -0.00088999142657178367 0 -0.00094998878846877131 -0.00035981926206572615 0 -0.00015875946024547559 -0.00061481904944177648 0 -0.001910881270176554 -0.00017485117578567379 0 0.0030900909344865344 -0.00077319261742032702 0 -0.00094998878846877131 -0.00035981926206572615 0 0.00035383241609149101 -0.00066326960372982272 0 0.00039503086782109818 -9.8913747919172768e-05 0 -0.00094998878846877131 -0.00035981926206572615 0 0.00039503086782109818 -9.8913747919172768e-05 0 -0.0015232930130609286 -0.000252438492795236 0 0.0063896020681229104 -0.00010155008890872249 0 0.0047217470457850703 -0.0014141661116037023 0 -0.00076044786097091656 -0.00088999142657178367 0 -0.00094998878846877131 -0.00035981926206572615 0 -0.0011963055021852464 -0.00085787833044997832 0 -0.00058290685055726395 -0.0013298645099377635 0 -0.00076044786097091656 -0.00088999142657178367 0 -0.00015875946024547559 -0.00061481904944177648 0 0.0010452602683106123 0.00017362512250157505 0 0.0012969043433386914 0.0012412130216092371 0 0.00074017005310342949 0.001370595632471302 0 0.0072083782424513234 0.0028462125790612827 0 0.0030900909344865344 -0.00077319261742032702 0 0.011936828020002217 -0.0020925919154808166 0 0.012101676610141141 -0.0019445178643538029 0 0.011991530831398575 -0.0018641733099278282 0 0.0030900909344865344 -0.00077319261742032702 0 0.0063896020681229104 -0.00010155008890872249 0 0.012184181334688949 -0.0021614390978378808 0 0.011936828020002217 -0.0020925919154808166 0 0.012101676610141141 -0.0019445178643538029 0 0.012101676610141141 -0.0019445178643538029 0 0.01202373873917495 -0.0017314209622452106 0 0.011991530831398575 -0.0018641733099278282 0 0.012445617395544709 -0.0013922796795573754 0 0.012184181334688949 -0.0021614390978378808 0 0.012101676610141141 -0.0019445178643538029 0 0.012445617395544709 -0.0013922796795573754 0 0.012101676610141141 -0.0019445178643538029 0 0.01202373873917495 -0.0017314209622452106 0 0.012445617395544709 -0.0013922796795573754 0 0.012051530046685606 -0.0014491257379707783 0 0.01202373873917495 -0.0017314209622452106 0 0.011860476681941951 -0.0015803466967586205 0 0.012051530046685606 -0.0014491257379707783 0 0.01202373873917495 -0.0017314209622452106 0 0.011860476681941951 -0.0015803466967586205 0 0.01202373873917495 -0.0017314209622452106 0 0.012007000621282276 -0.001919214765931633 0 0.0076305985246375276 -0.00096234778015329614 0 0.0063896020681229104 -0.00010155008890872249 0 0.012007000621282276 -0.001919214765931633 0 0.01152222575049089 -0.001695358412935236 0 0.011093071625840008 -0.0023214790440439772 0 0.011860476681941951 -0.0015803466967586205 0 0.012007000621282276 -0.001919214765931633 0 0.01152222575049089 -0.001695358412935236 0 0.011860476681941951 -0.0015803466967586205 0 0.01152222575049089 -0.001695358412935236 0 0.011934812789424813 -0.0010692623663321227 0 0.01152222575049089 -0.001695358412935236 0 0.011934812789424813 -0.0010692623663321227 0 0.01161281986776001 -0.00089984033063994387 0 0.012445617395544709 -0.0013922796795573754 0 0.011934812789424813 -0.0010692623663321227 0 0.012284399428423033 0.00015054809366643447 0 0.012445617395544709 -0.0013922796795573754 0 0.012051530046685606 -0.0014491257379707783 0 0.011934812789424813 -0.0010692623663321227 0 0.011860476681941951 -0.0015803466967586205 0 0.012051530046685606 -0.0014491257379707783 0 0.011934812789424813 -0.0010692623663321227 0 0.010267742312080276 -0.0014389214557013841 0 0.010944116302461421 -0.0016293546045134111 0 0.01102366397661635 -0.00087798468080757866 0 0.01152222575049089 -0.001695358412935236 0 0.010944116302461421 -0.0016293546045134111 0 0.01161281986776001 -0.00089984033063994387 0 0.01152222575049089 -0.001695358412935236 0 0.010944116302461421 -0.0016293546045134111 0 0.011093071625840008 -0.0023214790440439772 0 0.010944116302461421 -0.0016293546045134111 0 0.011093071625840008 -0.0023214790440439772 0 0.0099192439850479663 -0.0028050143691263625 0 0.010267742312080276 -0.0014389214557013841 0 0.010944116302461421 -0.0016293546045134111 0 0.0099192439850479663 -0.0028050143691263625 0 0.0047217470457850703 -0.0014141661116037023 0 0.0034503026411437875 -0.0015702330557595884 0 -0.0015232930130609286 -0.000252438492795236 0 -0.0019140442260158906 -0.0013226198435409798 0 -0.002997329194412833 -0.00036899426895496982 0 -0.0015232930130609286 -0.000252438492795236 0 -0.0011963055021852464 -0.00085787833044997832 0 -0.0019140442260158906 -0.0013226198435409798 0 -0.00094998878846877131 -0.00035981926206572615 0 -0.0015232930130609286 -0.000252438492795236 0 -0.0011963055021852464 -0.00085787833044997832 0 -0.0010579868254672652 -0.001322170890448685 0 -0.0019140442260158906 -0.0013226198435409798 0 -0.0013966369114802731 -0.0018813751952271739 0 -0.0010579868254672652 -0.001322170890448685 0 -0.0011963055021852464 -0.00085787833044997832 0 -0.0019140442260158906 -0.0013226198435409798 0 -0.0018625707169746088 -0.0015648238121876495 0 -0.0047655147947533874 -0.0013419330884167689 0 -0.0019140442260158906 -0.0013226198435409798 0 -0.0020897716674536924 -0.0022730905008175014 0 -0.0031071401739172352 -0.0017637127592262766 0 -0.0019140442260158906 -0.0013226198435409798 0 -0.0031071401739172352 -0.0017637127592262766 0 -0.002997329194412833 -0.00036899426895496982 0 -0.0047655147947533874 -0.0013419330884167689 0 -0.0047338785477314708 -0.0010853747403892962 0 -0.0071460345886108015 -8.9340389887022104e-05 0 -0.0066328068654133631 0.00012389357341331106 0 -0.0063787177119886658 -0.00043163348094618235 0 -0.0047655147947533874 -0.0013419330884167689 0 -0.012481273689628794 0.00028213381857223317 0 -0.0071460345886108015 -8.9340389887022104e-05 0 -0.0066328068654133631 0.00012389357341331106 0 -0.0070704954722421694 0.00063607502891539899 0 -0.0092776120396644134 -0.00047458092737737633 0 -0.0092496733038783391 -9.5425999174893772e-05 0 -0.0094057026600687307 -5.8405147334905256e-05 0 -0.012481273689628794 0.00028213381857223317 0 -0.013539010611024666 0.0005735287950874243 0 -0.0092776120396644134 -0.00047458092737737633 0 -0.0094057026600687307 -5.8405147334905256e-05 0 -0.0096405440753028638 -0.00028950439096481938 0 -0.013539010611024666 0.0005735287950874243 0 -0.015255031048286564 0.00080990915983822017 0 -0.015551364169215492 0.00078010641504386638 0 -0.014681138950377186 0.0010253368674200296 0 -0.01485368805460173 0.00062143914449225735 0 -0.015551364169215492 0.00078010641504386638 0 -0.014620822398884389 0.0016294005522285275 0 -0.014681138950377186 0.0010253368674200296 0 -0.013539010611024666 0.0005735287950874243 0 -0.0090255843956156667 7.6608562531894976e-05 0 -0.0047655147947533874 -0.0013419330884167689 0 -0.0090255843956156667 7.6608562531894976e-05 0 -0.0020513743022824598 -0.0021090057067950918 0 -0.0013966369114802731 -0.0018813751952271739 0 -0.0012953010908343765 -0.0024900305105522297 0 -0.0019140442260158906 -0.0013226198435409798 0 -0.0020513743022824598 -0.0021090057067950918 0 -0.0013966369114802731 -0.0018813751952271739 0 -0.0010579868254672652 -0.001322170890448685 0 -0.0013966369114802731 -0.0018813751952271739 0 -0.00079125662743664425 -0.0020518477677313567 0 -0.0059016498301266594 -0.00040664133400113313 0 -0.0033170632402419959 0.00021853451427011197 0 -0.0059016498301266594 -0.00040664133400113313 0 -0.010415441004253737 0.0013197762615738081 0 -0.013732481457921547 0.0023191655969024339 0 -0.014534152610787164 0.0016017243856987409 0 -0.013819978915415632 0.0016735235965917718 0 -0.013732481457921547 0.0023191655969024339 0 -0.013332176492114703 0.001547453933930262 0 -0.013819978915415632 0.0016735235965917718 0 -0.0059016498301266594 -0.00040664133400113313 0 -0.0090255843956156667 7.6608562531894976e-05 0 -0.0013966369114802731 -0.0018813751952271739 0 -0.00079125662743664425 -0.0020518477677313567 0 -0.0012953010908343765 -0.0024900305105522297 0 -0.0061153724141737448 0.0046687177204367894 0 -0.0070347314926183296 0.00016486226123481223 0 -0.005698699992576408 0.0015070597453353766 0 -0.0056780332013273167 0.0024948664955585292 0 -0.0063537945733814242 0.0018955763480222468 0 -0.0060866498355447831 0.00069005388842640931 0 -0.0065093908475466773 0.00042212807632802921 0 -0.0067822922095909215 0.00015953331713237351 0 -0.0067587720064404659 0.00086046285819910877 0 -0.0063537945733814242 0.0018955763480222468 0 -0.0060866498355447831 0.00069005388842640931 0 -0.0065371844092836527 0.00028625444429050066 0 -0.0033170632402419959 0.00021853451427011197 0 -0.010415441004253737 0.0013197762615738081 0 -0.002358897046720038 0.0020345271986873369 0 -0.0091050804071560049 0.0018003739173483679 0 -0.0071421041501919923 0.0032304674900132612 0 -0.0096583542295128437 0.0033143054988858107 0 -0.0091050804071560049 0.0018003739173483679 0 -0.0096583542295128437 0.0033143054988858107 0 -0.0096583542295128437 0.0033143054988858107 0 -0.013923550081334501 0.0021150989407022177 0 -0.010415441004253737 0.0013197762615738081 0 -0.012993127630938303 0.00031157922836434017 0 -0.011540751744933707 0.0027275386152420078 0 -0.011231522105281498 0.0030330150807699676 0 -0.011429157697704662 0.0017619578506511454 0 -0.01222914931409721 0.0016298450630314065 0 -0.012032243576448054 0.0012330910511278135 0 -0.012378947290252039 0.00032857450869984851 0 -0.011540751744933707 0.0027275386152420078 0 -0.011654511759246906 0.0022191951564159624 0 -0.011429157697704662 0.0017619578506511454 0 -0.0091050804071560049 0.0018003739173483679 0 -0.011688261234824479 0.0014669834570938784 0 -0.010338494781725296 0.0017374694980180248 0 -0.010572996617533945 0.0015236554881944058 0 -0.010440304099974637 0.0012626528557233873 0 -0.0091050804071560049 0.0018003739173483679 0 -0.010415441004253737 0.0013197762615738081 0 -0.010415441004253737 0.0013197762615738081 0 -0.011688261234824479 0.0014669834570938784 0 -0.011688261234824479 0.0014669834570938784 0 -0.013923550081334501 0.0021150989407022177 0 -0.013410322651417691 0.0015466467482435249 0 -0.014210353315102762 0.00072998292809129664 0 -0.013554795476644805 0.00027580778038025622 0 -0.014111083240547582 0.0013730092508073084 0 -0.014620822398884389 0.0016294005522285275 0 -0.014681138950377186 0.0010253368674200296 0 -0.014111083240547582 0.0013730092508073084 0 -0.014534152610787164 0.0016017243856987409 0 -0.013819978915415632 0.0016735235965917718 0 -0.013424946863324239 0.0018159197474273343 0 -0.0090255843956156667 7.6608562531894976e-05 0 -0.013332176492114703 0.001547453933930262 0 -0.014111083240547582 0.0013730092508073084 0 -0.013819978915415632 0.0016735235965917718 0 -0.013332176492114703 0.001547453933930262 0 -0.014111083240547582 0.0013730092508073084 0 -0.014210353315102762 0.00072998292809129664 0 -0.010415441004253737 0.0013197762615738081 0 -0.014384215941653775 0.00032301315798115125 0 -0.014111083240547582 0.0013730092508073084 0 -0.014210353315102762 0.00072998292809129664 0 -0.014681138950377186 0.0010253368674200296 0 -0.014210353315102762 0.00072998292809129664 0 -0.014681138950377186 0.0010253368674200296 0 -0.01485368805460173 0.00062143914449225735 0 -0.014410251668210292 -0.00021752017844570823 0 -0.013554795476644805 0.00027580778038025622 0 -0.013726988905104973 -0.00099628831741636914 0 -0.012993127630938303 0.00031157922836434017 0 -0.013418292170458869 -0.00092090300561901875 0 -0.014210353315102762 0.00072998292809129664 0 -0.014410251668210292 -0.00021752017844570823 0 -0.01485368805460173 0.00062143914449225735 0 -0.014210353315102762 0.00072998292809129664 0 -0.014410251668210292 -0.00021752017844570823 0 -0.013554795476644805 0.00027580778038025622 0 -0.01572676855196356 0.0001029738452198544 0 -0.013923550081334501 0.0021150989407022177 0 -0.01395965993121524 -8.856022272330412e-05 0 -0.014781839274370346 0.0015127473705441729 0 -0.01500330381765448 -0.00019784603793069244 0 -0.013305239956120056 0.0015844034684231187 0 -0.012926313163346262 0.00084564167693553449 0 -0.013799672565981479 -0.00088474536339408613 0 -0.012926313163346262 0.00084564167693553449 0 -0.013165020721973572 -0.00089853870448652917 0 -0.013799672565981479 -0.00088474536339408613 0 -0.012032243576448054 0.0012330910511278135 0 -0.012378947290252039 0.00032857450869984851 0 -0.012524566390108481 -0.00093987469832375076 0 -0.011688261234824479 0.0014669834570938784 0 -0.013418292170458869 -0.00092090300561901875 0 -0.013923550081334501 0.0021150989407022177 0 -0.014056818552765594 -0.00073850169147577391 0 -0.013415967161249025 -0.0025425696068853238 0 -0.013165020721973572 -0.00089853870448652917 0 -0.013832069666168879 -0.0010829334174613664 0 -0.015218545435618257 -0.0019024472116958159 0 -0.01395965993121524 -8.856022272330412e-05 0 -0.01500330381765448 -0.00019784603793069244 0 -0.013165020721973572 -0.00089853870448652917 0 -0.013799672565981479 -0.00088474536339408613 0 -0.013832069666168879 -0.0010829334174613664 0 -0.014410251668210292 -0.00021752017844570823 0 -0.014489842567292043 -0.0014932385590341857 0 -0.015424649476041151 -0.0009157465534957405 0 -0.014410251668210292 -0.00021752017844570823 0 -0.013726988905104973 -0.00099628831741636914 0 -0.014489842567292043 -0.0014932385590341857 0 -0.013418292170458869 -0.00092090300561901875 0 -0.01357721806076536 -0.0011536409828794426 0 -0.014038150785502787 -0.0021898739375029548 0 -0.013771757054652669 -0.0011745706315421196 0 -0.014489842567292043 -0.0014932385590341857 0 -0.013726988905104973 -0.00099628831741636914 0 -0.013771757054652669 -0.0011745706315421196 0 -0.014489842567292043 -0.0014932385590341857 0 -0.016759563598437825 -0.0018735218346544631 0 -0.015420602245203906 -0.0021305212416057118 0 -0.015424649476041151 -0.0009157465534957405 0 -0.015420602245203906 -0.0021305212416057118 0 -0.014489842567292043 -0.0014932385590341857 0 -0.015424649476041151 -0.0009157465534957405 0 -0.016759563598437825 -0.0018735218346544631 0 -0.015424649476041151 -0.0009157465534957405 0 -0.01638817427204289 0.00014412317842209954 0 -0.019781901721174635 -0.00070993357854610365 0 -0.019881289965441074 -0.0014858636788504949 0 -0.019537647147291188 -0.0011507991184102888 0 -0.018187592007829406 -0.0011519182324435098 0 -0.017464652386254182 -0.0010493247464085688 0 -0.017464652386254182 -0.0010493247464085688 0 -0.020131709289944868 -0.0016494330898551277 0 -0.01987596616021476 -0.0015354659399108826 0 -0.019538925456531596 -0.0015910052881549235 0 -0.019537647147291188 -0.0011507991184102888 0 -0.019897580339893996 -0.0018093889378890411 0 -0.01987596616021476 -0.0015354659399108826 0 -0.019538925456531596 -0.0015910052881549235 0 -0.013539010611024666 0.0005735287950874243 0 -0.017464652386254182 -0.0010493247464085688 0 -0.01499059595960287 0.0008340407863196321 0 -0.013673016849668481 0.00053027120865978652 0 -0.015286935368323429 -0.00094202841925562102 0 -0.012481273689628794 0.00028213381857223317 0 -0.017464652386254182 -0.0010493247464085688 0 -0.015653910814975237 0.00081137274071724935 0 -0.01638817427204289 0.00014412317842209954 0 -0.015378139914703203 4.4586188939464473e-05 0 -0.015653910814975237 0.00081137274071724935 0 -0.01485368805460173 0.00062143914449225735 0 -0.015378139914703203 4.4586188939464473e-05 0 -0.014410251668210292 -0.00021752017844570823 0 -0.01485368805460173 0.00062143914449225735 0 -0.015378139914703203 4.4586188939464473e-05 0 -0.014410251668210292 -0.00021752017844570823 0 -0.015424649476041151 -0.0009157465534957405 0 -0.015378139914703203 4.4586188939464473e-05 0 -0.015424649476041151 -0.0009157465534957405 0 -0.01638817427204289 0.00014412317842209954 0 -0.015378139914703203 4.4586188939464473e-05 0 -0.019098083200709756 -0.0013490634077605382 0 -0.01849257543546903 -0.0015697470876408456 0 -0.019232510582431594 -0.0020796100324189147 0 -0.019098083200709756 -0.0013490634077605382 0 -0.019538925456531596 -0.0015910052881549235 0 -0.019232510582431594 -0.0020796100324189147 0 -0.019098083200709756 -0.0013490634077605382 0 -0.019538925456531596 -0.0015910052881549235 0 -0.019537647147291188 -0.0011507991184102888 0 -0.019098083200709756 -0.0013490634077605382 0 -0.019537647147291188 -0.0011507991184102888 0 -0.019203998767389027 -0.00082187218185468156 0 -0.019781901721174635 -0.00070993357854610365 0 -0.019537647147291188 -0.0011507991184102888 0 -0.019203998767389027 -0.00082187218185468156 0 -0.019098083200709756 -0.0013490634077605382 0 -0.019203998767389027 -0.00082187218185468156 0 -0.018599754408594012 -0.00084304969639449471 0 -0.018599754408594012 -0.00084304969639449471 0 -0.01769605462235108 -0.0010159595027639623 0 -0.01849257543546903 -0.0015697470876408456 0 -0.018028780942398896 -0.00050624197593792763 0 -0.018599754408594012 -0.00084304969639449471 0 -0.01769605462235108 -0.0010159595027639623 0 -0.01769605462235108 -0.0010159595027639623 0 -0.01849257543546903 -0.0015697470876408456 0 -0.017749619814192409 -0.0020092587980980168 0 -0.019098083200709756 -0.0013490634077605382 0 -0.018599754408594012 -0.00084304969639449471 0 -0.01849257543546903 -0.0015697470876408456 0 -0.01849257543546903 -0.0015697470876408456 0 -0.018483407893308653 -0.0025235521048296902 0 -0.019232510582431594 -0.0020796100324189147 0 -0.01849257543546903 -0.0015697470876408456 0 -0.017749619814192409 -0.0020092587980980168 0 -0.018483407893308653 -0.0025235521048296902 0 -0.017749619814192409 -0.0020092587980980168 0 -0.018483407893308653 -0.0025235521048296902 0 -0.017164577574897758 -0.0035418515593818927 0 -0.0047702288047918812 -0.0002719714415448001 0 -0.0051531489412666616 7.618974444726517e-05 0 -0.0048890232489879563 -0.00039147131871688579 0 -0.011762475210137529 -0.0012434610890460645 0 -0.01085339668741587 -0.0018308320871658591 0 -0.0047702288047918812 -0.0002719714415448001 0 -0.0051531489412666616 7.618974444726517e-05 0 -0.0046099089901574164 -0.00018527732496209081 0 -0.0051531489412666616 7.618974444726517e-05 0 -0.0051178254959778399 -0.00051213607177157127 0 -0.0048890232489879563 -0.00039147131871688579 0 -0.0051531489412666616 7.618974444726517e-05 0 -0.005605659027636674 -0.00019867105607830352 0 -0.0051178254959778399 -0.00051213607177157127 0 -0.0051531489412666616 7.618974444726517e-05 0 -0.005605659027636674 -0.00019867105607830352 0 -0.0060426550580164095 0.00038783215135769006 0 -0.011762475210137529 -0.0012434610890460645 0 -0.012836171293989725 -0.00094578139310449267 0 -0.0066328068654133631 0.00012389357341331106 0 -0.0070704954722421694 0.00063607502891539899 0 -0.0060426550580164095 0.00038783215135769006 0 -0.012481273689628794 0.00028213381857223317 0 -0.012836171293989725 -0.00094578139310449267 0 -0.019897580339893996 -0.0018093889378890411 0 -0.019538925456531596 -0.0015910052881549235 0 -0.019232510582431594 -0.0020796100324189147 0 -0.0066328068654133631 0.00012389357341331106 0 -0.0060426550580164095 0.00038783215135769006 0 -0.0063787177119886658 -0.00043163348094618235 0 -0.005605659027636674 -0.00019867105607830352 0 -0.0060426550580164095 0.00038783215135769006 0 -0.0063787177119886658 -0.00043163348094618235 0 -0.0047338785477314708 -0.0010853747403892962 0 -0.0048884581258224402 -0.00095223791095445118 0 -0.0031071401739172352 -0.0017637127592262766 0 -0.0041749763372642239 -0.0012511423271761904 0 -0.002997329194412833 -0.00036899426895496982 0 -0.005605659027636674 -0.00019867105607830352 0 -0.0056210768971811454 -0.00070657382676383605 0 -0.0051178254959778399 -0.00051213607177157127 0 -0.005605659027636674 -0.00019867105607830352 0 -0.0063787177119886658 -0.00043163348094618235 0 -0.0056210768971811454 -0.00070657382676383605 0 0.0034503026411437875 -0.0015702330557595884 0 0.0019145926904567958 -0.0019099927091274129 0 -0.0041749763372642239 -0.0012511423271761904 0 -0.002997329194412833 -0.00036899426895496982 0 -0.0045384377540659228 -0.00061476579896329556 0 0.0099192439850479663 -0.0028050143691263625 0 0.0089825397223583046 -0.0016016849413147973 0 0.0083366507885531058 -0.0031900464554286694 0 0.010267742312080276 -0.0014389214557013841 0 0.0099192439850479663 -0.0028050143691263625 0 0.0089825397223583046 -0.0016016849413147973 0 0.0072169824121509291 -0.0013041194633361195 0 0.0062439408639190742 -0.0018511799726238991 0 0.0054013186388753237 -0.0010318713989832138 0 0.0072169824121509291 -0.0013041194633361195 0 0.0076209149200940855 -0.002196465788972589 0 0.0062439408639190742 -0.0018511799726238991 0 0.0089825397223583046 -0.0016016849413147973 0 0.0072169824121509291 -0.0013041194633361195 0 0.0076209149200940855 -0.002196465788972589 0 0.0076209149200940855 -0.002196465788972589 0 0.006496449133220397 -0.0026673076698258205 0 0.0083366507885531058 -0.0031900464554286694 0 0.0089825397223583046 -0.0016016849413147973 0 0.0076209149200940855 -0.002196465788972589 0 0.0083366507885531058 -0.0031900464554286694 0 0.0076209149200940855 -0.002196465788972589 0 0.0062439408639190742 -0.0018511799726238991 0 0.006496449133220397 -0.0026673076698258205 0 0.0062439408639190742 -0.0018511799726238991 0 0.006496449133220397 -0.0026673076698258205 0 0.0053944845483473447 -0.0023235328812335888 0 0.006496449133220397 -0.0026673076698258205 0 0.0063268661119150497 -0.0036052551500146443 0 0.0083366507885531058 -0.0031900464554286694 0 -0.00485279468381052 -0.00081323685474790782 0 -0.0047886533903384191 -0.00076322870472796827 0 -0.0048311361805808061 -0.00065297817429071242 0 0.006496449133220397 -0.0026673076698258205 0 0.0063268661119150497 -0.0036052551500146443 0 0.0056530726974266202 -0.0032636741955151152 0 -0.00485279468381052 -0.00081323685474790782 0 -0.0048311361805808061 -0.00065297817429071242 0 -0.0046124021624810102 -0.00066339223110701922 0 -0.0048884581258224402 -0.00095223791095445118 0 -0.0048282519843996455 -0.00081214633004738127 0 0.00068033821215510593 -0.0021754718378552591 0 0.0019145926904567958 -0.0019099927091274129 0 -0.00485279468381052 -0.00081323685474790782 0 -0.0045384377540659228 -0.00061476579896329556 0 -0.0047886533903384191 -0.00076322870472796827 0 -0.0041749763372642239 -0.0012511423271761904 0 -0.0045384377540659228 -0.00061476579896329556 0 -0.0047886533903384191 -0.00076322870472796827 0 -0.0056210768971811454 -0.00070657382676383605 0 -0.0047886533903384191 -0.00076322870472796827 0 -0.0051178254959778399 -0.00051213607177157127 0 -0.0047886533903384191 -0.00076322870472796827 0 -0.0051178254959778399 -0.00051213607177157127 0 -0.0048311361805808061 -0.00065297817429071242 0 -0.0051178254959778399 -0.00051213607177157127 0 -0.0048311361805808061 -0.00065297817429071242 0 -0.0048890232489879563 -0.00039147131871688579 0 -0.0047702288047918812 -0.0002719714415448001 0 -0.0048890232489879563 -0.00039147131871688579 0 -0.0046680718796310748 -0.00045890791129847753 0 -0.0048311361805808061 -0.00065297817429071242 0 -0.0048890232489879563 -0.00039147131871688579 0 -0.0046680718796310748 -0.00045890791129847753 0 -0.0047702288047918812 -0.0002719714415448001 0 -0.0046680718796310748 -0.00045890791129847753 0 -0.0046314645610662248 -0.00029266867906308728 0 -0.0046680718796310748 -0.00045890791129847753 0 -0.0044633771178885706 -0.00039903095895120239 0 -0.0046314645610662248 -0.00029266867906308728 0 -0.0046680718796310748 -0.00045890791129847753 0 -0.0044633771178885706 -0.00039903095895120239 0 -0.0043842289972117338 -0.00056307009783454129 0 -0.0046680718796310748 -0.00045890791129847753 0 -0.0043842289972117338 -0.00056307009783454129 0 -0.0046124021624810102 -0.00066339223110701922 0 -0.0048311361805808061 -0.00065297817429071242 0 -0.0046680718796310748 -0.00045890791129847753 0 -0.0046124021624810102 -0.00066339223110701922 0 -0.0044633771178885706 -0.00039903095895120239 0 -0.003932622021386268 -0.00046465730397593459 0 -0.0046151194942930015 -0.00018514603808827702 0 -0.0044633771178885706 -0.00039903095895120239 0 -0.0043842289972117338 -0.00056307009783454129 0 -0.003932622021386268 -0.00046465730397593459 0 -0.0043842289972117338 -0.00056307009783454129 0 -0.0040809742291455968 -0.00089839289856715138 0 -0.003932622021386268 -0.00046465730397593459 0 -0.0045256500658104977 -0.00015515511185228801 0 -0.0045202516634267886 -0.00023688537307709715 0 -0.004784919164001227 -9.4000850947640241e-05 0 -0.0047956720474603186 -0.00016372215111728111 0 -0.0046151194942930015 -0.00018514603808827702 0 0.0045290102457286926 -0.002769618870001793 0 0.0036455660225977711 -0.0025930027168076185 0 0.0024202551828183647 -0.0033209642176183379 0 0.0024828782656245059 -0.0039062850270611049 0 0.0056530726974266202 -0.0032636741955151152 0 0.0015158452027593814 -0.0033071705199680976 0 0.0056530726974266202 -0.0032636741955151152 0 0.0045290102457286926 -0.002769618870001793 0 0.0024202551828183647 -0.0033209642176183379 0 0.0054741560669785841 -0.0033098099538607885 0 0.0020244971686576656 -0.003139640489530313 0 -0.0043842289972117338 -0.00056307009783454129 0 -0.0040809742291455968 -0.00089839289856715138 0 -0.0046124021624810102 -0.00066339223110701922 0 0.00068033821215510593 -0.0021754718378552591 0 -0.00059371440406065469 -0.0025814661886197281 0 -0.00485279468381052 -0.00081323685474790782 0 -0.0040809742291455968 -0.00089839289856715138 0 -0.0046124021624810102 -0.00066339223110701922 0 0.0063268661119150497 -0.0036052551500146443 0 0.0024828782656245059 -0.0039062850270611049 0 0.0056530726974266202 -0.0032636741955151152 0 0.006496449133220397 -0.0026673076698258205 0 0.0056530726974266202 -0.0032636741955151152 0 0.0054611330023481754 -0.0027764516228093723 0 0.0056530726974266202 -0.0032636741955151152 0 0.0054611330023481754 -0.0027764516228093723 0 0.0045290102457286926 -0.002769618870001793 0 0.006496449133220397 -0.0026673076698258205 0 0.0053944845483473447 -0.0023235328812335888 0 0.0054611330023481754 -0.0027764516228093723 0 0.0062439408639190742 -0.0018511799726238991 0 0.0053944845483473447 -0.0023235328812335888 0 0.005177487331121145 -0.0017045724998135583 0 0.005177487331121145 -0.0017045724998135583 0 0.0044002129960191479 -0.0021708173345366638 0 0.0043411478222466961 -0.0014151710483475109 0 0.0053944845483473447 -0.0023235328812335888 0 0.005177487331121145 -0.0017045724998135583 0 0.0044002129960191479 -0.0021708173345366638 0 0.0053944845483473447 -0.0023235328812335888 0 0.0054611330023481754 -0.0027764516228093723 0 0.0045290102457286926 -0.002769618870001793 0 0.0053944845483473447 -0.0023235328812335888 0 0.0045290102457286926 -0.002769618870001793 0 0.0044002129960191479 -0.0021708173345366638 0 0.0045290102457286926 -0.002769618870001793 0 0.0044002129960191479 -0.0021708173345366638 0 0.0036455660225977711 -0.0025930027168076185 0 0.0044002129960191479 -0.0021708173345366638 0 0.0036455660225977711 -0.0025930027168076185 0 0.0035042740663598537 -0.0016744265297409426 0 0.0036455660225977711 -0.0025930027168076185 0 0.0027732096856944227 -0.0021178164326241494 0 0.0024202551828183647 -0.0033209642176183379 0 0.0036455660225977711 -0.0025930027168076185 0 0.0027732096856944227 -0.0021178164326241494 0 0.0035042740663598537 -0.0016744265297409426 0 0.0035042740663598537 -0.0016744265297409426 0 0.0034366573371481003 -0.00074634189756951662 0 0.0024198994366993244 -0.0013966534137393235 0 0.0027732096856944227 -0.0021178164326241494 0 0.0035042740663598537 -0.0016744265297409426 0 0.0024198994366993244 -0.0013966534137393235 0 0.0044002129960191479 -0.0021708173345366638 0 0.0035042740663598537 -0.0016744265297409426 0 0.0043411478222466961 -0.0014151710483475109 0 0.0043411478222466961 -0.0014151710483475109 0 0.0034366573371481003 -0.00074634189756951662 0 0.0054013186388753237 -0.0010318713989832138 0 0.0034366573371481003 -0.00074634189756951662 0 0.0054013186388753237 -0.0010318713989832138 0 0.0048668721183442298 -0.00034714011262048711 0 0.0035042740663598537 -0.0016744265297409426 0 0.0043411478222466961 -0.0014151710483475109 0 0.0034366573371481003 -0.00074634189756951662 0 0.0062439408639190742 -0.0018511799726238991 0 0.005177487331121145 -0.0017045724998135583 0 0.0054013186388753237 -0.0010318713989832138 0 0.005177487331121145 -0.0017045724998135583 0 0.0043411478222466961 -0.0014151710483475109 0 0.0054013186388753237 -0.0010318713989832138 0 -0.0011742828108201678 1.0590528837998386e-06 0 0.0011544815513684157 -0.00070619299066471347 0 0.0019971008352504716 -5.1968684747802969e-05 0 0.0034366573371481003 -0.00074634189756951662 0 0.0011544815513684157 -0.00070619299066471347 0 0.0019971008352504716 -5.1968684747802969e-05 0 0.0034366573371481003 -0.00074634189756951662 0 0.0011544815513684157 -0.00070619299066471347 0 0.0024198994366993244 -0.0013966534137393235 0 0.0011544815513684157 -0.00070619299066471347 0 0.0024198994366993244 -0.0013966534137393235 0 0.0016330457567965641 -0.0015971862483368864 0 0.0027732096856944227 -0.0021178164326241494 0 0.0016330457567965641 -0.0015971862483368864 0 0.0024202551828183647 -0.0033209642176183379 0 0.0027732096856944227 -0.0021178164326241494 0 0.0024198994366993244 -0.0013966534137393235 0 0.0016330457567965641 -0.0015971862483368864 0 0.0016330457567965641 -0.0015971862483368864 0 -0.00061810163604943808 -0.00097278095143176532 0 0.0024202551828183647 -0.0033209642176183379 0 0.0011544815513684157 -0.00070619299066471347 0 0.0016330457567965641 -0.0015971862483368864 0 -0.00061810163604943808 -0.00097278095143176532 0 -0.0011742828108201678 1.0590528837998386e-06 0 0.0011544815513684157 -0.00070619299066471347 0 -0.00061810163604943808 -0.00097278095143176532 0 -0.0011742828108201678 1.0590528837998386e-06 0 -0.00061810163604943808 -0.00097278095143176532 0 -0.0039701119845122687 -6.6487149108861342e-06 0 -0.00061810163604943808 -0.00097278095143176532 0 -0.0039701119845122687 -6.6487149108861342e-06 0 0.0024202551828183647 -0.0033209642176183379 0 -0.0028404585158821739 -0.0033585123419603126 0 -0.0016620232078849459 -0.0041191490837138734 0 0.0015158452027593814 -0.0033071705199680976 0 -0.0031817754736132692 -0.0019682337473435518 0 0.0020244971686576656 -0.003139640489530313 0 -0.0031817754736132692 -0.0019682337473435518 0 -0.0033702755067550748 -0.0010713377601643597 0 -0.0048162770136768061 -8.1135774415586245e-06 0 -0.0048460473718357671 3.0386633094559514e-07 0 -0.0045920565525416086 -3.656852747393372e-07 0 -0.0039785607320943555 2.4142899516419008e-08 0 -0.0045112529896525078 -5.1893532804326718e-06 0 -0.0045867653219890201 -3.1435241334589751e-08 0 -0.0033702755067550748 -0.0010713377601643597 0 -0.0045892596385786796 -1.1138008542753441e-06 0 0.0024828782656245059 -0.0039062850270611049 0 -0.0016620232078849459 -0.0041191490837138734 0 0.0015158452027593814 -0.0033071705199680976 0 -0.00059371440406065469 -0.0025814661886197281 0 -0.0033702755067550748 -0.0010713377601643597 0 -0.0040809742291455968 -0.00089839289856715138 0 -0.0032367993700105776 -0.00086237079756819931 0 -0.003932622021386268 -0.00046465730397593459 0 -0.0076966085057969527 -0.0014783242061558693 0 -0.0095128716910410863 -0.0025036625703786794 0 -0.0033702755067550748 -0.0010713377601643597 0 -0.0045256500658104977 -0.00015515511185228801 0 -0.0048179182931949961 -8.4929143040209803e-05 0 -0.0048705814099080152 -8.7412393339526893e-05 0 -0.0047956720474603186 -0.00016372215111728111 0 -0.0048162770136768061 -8.1135774415586245e-06 0 -0.004784919164001227 -9.4000850947640241e-05 0 -0.0048179182931949961 -8.4929143040209803e-05 0 -0.004784919164001227 -9.4000850947640241e-05 0 -0.0048179182931949961 -8.4929143040209803e-05 0 -0.0047956720474603186 -0.00016372215111728111 0 -0.0048162770136768061 -8.1135774415586245e-06 0 -0.0048179182931949961 -8.4929143040209803e-05 0 -0.0048705814099080152 -8.7412393339526893e-05 0 -0.0048162770136768061 -8.1135774415586245e-06 0 -0.0048460473718357671 3.0386633094559514e-07 0 -0.0048705814099080152 -8.7412393339526893e-05 0 -0.0048499047507667564 8.2953194370707277e-10 0 -0.0063969046130655152 -1.1974095294795776e-08 0 -0.0064970023347100054 -1.9456529235106172e-06 0 -0.004849707807140855 8.2756769683809362e-07 0 -0.0076966085057969527 -0.0014783242061558693 0 -0.006400103051855374 -3.8154694220636414e-06 0 -0.0076966085057969527 -0.0014783242061558693 0 -0.011152302108207156 -0.0053032591740934006 0 -0.012414654443198789 -0.0040981771052168688 0 -0.011765386048221541 -0.0028546116331291415 0 -0.0068280918615968352 -4.571879254033351e-05 0 -0.0090882155402479646 -1.8586742258035664e-07 0 -0.0094876317796879009 -6.5815577284653111e-05 0 -0.0076966085057969527 -0.0014783242061558693 0 -0.010770949351325025 -0.0014737718886454927 0 -0.0064002236058006857 -5.6789992225406587e-07 0 -0.0068280918615968352 -4.571879254033351e-05 0 -0.0090882155402479646 -1.8586742258035664e-07 0 -0.012414654443198789 -0.0040981771052168688 0 -0.011765386048221541 -0.0028546116331291415 0 -0.013094441730985533 -0.0034412531288638458 0 -0.0094876317796879009 -6.5815577284653111e-05 0 -0.012181323892411852 -0.00018435488020916065 0 -0.010685882626346217 -6.4137357824826585e-05 0 -0.010770949351325025 -0.0014737718886454927 0 -0.01192882741520801 -1.1820470150393869e-05 0 -0.0090882155402479646 -1.8586742258035664e-07 0 -0.0094876317796879009 -6.5815577284653111e-05 0 -0.010685882626346217 -6.4137357824826585e-05 0 -0.011765386048221541 -0.0028546116331291415 0 -0.014058589161825062 -0.002134591448679949 0 -0.013094441730985533 -0.0034412531288638458 0 -0.011765386048221541 -0.0028546116331291415 0 -0.014058589161825062 -0.002134591448679949 0 -0.012181323892411852 -0.00018435488020916065 0 -0.014058589161825062 -0.002134591448679949 0 -0.013094441730985533 -0.0034412531288638458 0 -0.014166733653834364 -0.0045591274430315616 0 -0.011152302108207156 -0.0053032591740934006 0 -0.012414654443198789 -0.0040981771052168688 0 -0.014166733653834364 -0.0045591274430315616 0 -0.012414654443198789 -0.0040981771052168688 0 -0.013094441730985533 -0.0034412531288638458 0 -0.014166733653834364 -0.0045591274430315616 0 -0.014058589161825062 -0.002134591448679949 0 -0.014166733653834364 -0.0045591274430315616 0 -0.017164577574897758 -0.0035418515593818927 0 -0.0095128716910410863 -0.0025036625703786794 0 -0.01085339668741587 -0.0018308320871658591 0 -0.0047956720474603186 -0.00016372215111728111 0 -0.0046151194942930015 -0.00018514603808827702 0 -0.0046099089901574164 -0.00018527732496209081 0 -0.0046314645610662248 -0.00029266867906308728 0 -0.0046151194942930015 -0.00018514603808827702 0 -0.0046099089901574164 -0.00018527732496209081 0 -0.0047702288047918812 -0.0002719714415448001 0 -0.0046314645610662248 -0.00029266867906308728 0 -0.0046099089901574164 -0.00018527732496209081 0 -0.0044633771178885706 -0.00039903095895120239 0 -0.0046314645610662248 -0.00029266867906308728 0 -0.0046151194942930015 -0.00018514603808827702 0 -0.017749619814192409 -0.0020092587980980168 0 -0.017164577574897758 -0.0035418515593818927 0 -0.016551682189157636 -0.0013034064575666426 0 -0.014058589161825062 -0.002134591448679949 0 -0.017164577574897758 -0.0035418515593818927 0 -0.016551682189157636 -0.0013034064575666426 0 -0.016489692753762147 -0.0013117454272348003 0 -0.01486286719288831 -0.00032346508073676102 0 -0.014058589161825062 -0.002134591448679949 0 -0.016551682189157636 -0.0013034064575666426 0 -0.012749502119599215 0.0006085524885273716 0 -0.016551682189157636 -0.0013034064575666426 0 -0.017094710191820423 -0.00100673785880959 0 -0.016874400502659002 -0.0012497904312280144 0 -0.01769605462235108 -0.0010159595027639623 0 -0.016551682189157636 -0.0013034064575666426 0 -0.017094710191820423 -0.00100673785880959 0 -0.01769605462235108 -0.0010159595027639623 0 -0.017749619814192409 -0.0020092587980980168 0 -0.016551682189157636 -0.0013034064575666426 0 -0.017602436506044358 -0.00059572903901428684 0 -0.01769605462235108 -0.0010159595027639623 0 -0.017094710191820423 -0.00100673785880959 0 -0.017602436506044358 -0.00059572903901428684 0 -0.018028780942398896 -0.00050624197593792763 0 -0.01769605462235108 -0.0010159595027639623 0 -0.017219410536178238 -0.00068907927636901653 0 -0.017602436506044358 -0.00059572903901428684 0 -0.017094710191820423 -0.00100673785880959 0 -0.017219410536178238 -0.00068907927636901653 0 -0.017094710191820423 -0.00100673785880959 0 -0.016874400502659002 -0.0012497904312280144 0 -0.016253509441730749 -0.00024250828819903259 0 -0.017219410536178238 -0.00068907927636901653 0 -0.016874400502659002 -0.0012497904312280144 0 -0.012749502119599215 0.0006085524885273716 0 -0.012763549164836907 0.00024236725439417709 0 -0.012181323892411852 -0.00018435488020916065 0 -0.014463602307620668 2.1905939361332711e-07 0 -0.012749502119599215 0.0006085524885273716 0 -0.012763549164836907 0.00024236725439417709 0 -0.014467574749053871 1.0173748050306859e-07 0 -0.01486286719288831 -0.00032346508073676102 0 -0.014463602307620668 2.1905939361332711e-07 0 -0.012763549164836907 0.00024236725439417709 0 -0.011779369662725548 3.3730535060603494e-07 0 -0.0090882155402479646 -1.8586742258035664e-07 0 -0.011779369662725548 3.3730535060603494e-07 0 -0.010685882626346217 -6.4137357824826585e-05 0 -0.012763549164836907 0.00024236725439417709 0 -0.012181323892411852 -0.00018435488020916065 0 -0.011779369662725548 3.3730535060603494e-07 0 -0.012181323892411852 -0.00018435488020916065 0 -0.011779369662725548 3.3730535060603494e-07 0 -0.010685882626346217 -6.4137357824826585e-05 0 -0.014058589161825062 -0.002134591448679949 0 -0.012749502119599215 0.0006085524885273716 0 -0.012181323892411852 -0.00018435488020916065 0 -0.028118155764666856 0.0013681034846929196 0 -0.028045992726396775 0.0014658308041537599 0 -0.027907066982671948 0.0010858674983349611 0 -0.028118155764666856 0.0013681034846929196 0 -0.028045992726396775 0.0014658308041537599 0 -0.02807123469793173 0.0014157036018078051 0 -0.028118155764666856 0.0013681034846929196 0 -0.028155919024218171 0.0014203581592467486 0 -0.028278060655059764 0.0013442626613092948 0 -0.028118155764666856 0.0013681034846929196 0 -0.028255879846527342 0.00096933670258079292 0 -0.028595694000806544 0.0013519603736871044 0 -0.028008208844926493 0.0013886325491091847 0 -0.028803253299813106 0.0011144014295086822 0 -0.028118155764666856 0.0013681034846929196 0 -0.028155919024218171 0.0014203581592467486 0 -0.02807123469793173 0.0014157036018078051 0 -0.030429752159021228 0.0018573859810629141 0 -0.031285341968553482 0.0019667293695944106 0 -0.030891263314266702 0.0021179319241162848 0 -0.028155919024218171 0.0014203581592467486 0 -0.027988407941867455 0.0014003693625037018 0 -0.02825808090845507 0.001514344619979228 0 -0.028155919024218171 0.0014203581592467486 0 -0.028278060655059764 0.0013442626613092948 0 -0.02825808090845507 0.001514344619979228 0 -0.029112329751215568 0.0016434566534528109 0 -0.030149322426156911 0.0018123970803169309 0 -0.028155919024218171 0.0014203581592467486 0 -0.02807123469793173 0.0014157036018078051 0 -0.027988407941867455 0.0014003693625037018 0 -0.030429752159021228 0.0018573859810629141 0 -0.030555761001745514 0.0020776165090207088 0 -0.030891263314266702 0.0021179319241162848 0 -0.028045992726396775 0.0014658308041537599 0 -0.027988407941867455 0.0014003693625037018 0 -0.02820765339044886 0.0015892237891991434 0 -0.028045992726396775 0.0014658308041537599 0 -0.02807123469793173 0.0014157036018078051 0 -0.027988407941867455 0.0014003693625037018 0 -0.030429752159021228 0.0018573859810629141 0 -0.03020145412296435 0.0022039305512719515 0 -0.030555761001745514 0.0020776165090207088 0 -0.029112329751215568 0.0016434566534528109 0 -0.028815215315595492 0.001763238974795497 0 -0.030429752159021228 0.0018573859810629141 0 -0.028769679270621237 0.0017984672887203723 0 -0.029757846947290383 0.0021744556845593077 0 -0.027988407941867455 0.0014003693625037018 0 -0.02820765339044886 0.0015892237891991434 0 -0.028769679270621237 0.0017984672887203723 0 -0.030429752159021228 0.0018573859810629141 0 -0.03020145412296435 0.0022039305512719515 0 -0.029757846947290383 0.0021744556845593077 0 -0.02820765339044886 0.0015892237891991434 0 -0.028769679270621237 0.0017984672887203723 0 -0.028243851079624183 0.0016112073243839226 0 -0.028880166172727977 0.0020391655087605501 0 -0.028769679270621237 0.0017984672887203723 0 -0.02956270850163226 0.0024438441710357747 0 -0.028769679270621237 0.0017984672887203723 0 -0.02946042530153194 0.0023605631366154737 0 -0.029757846947290383 0.0021744556845593077 0 -0.028769679270621237 0.0017984672887203723 0 -0.02956270850163226 0.0024438441710357747 0 -0.02946042530153194 0.0023605631366154737 0 -0.028880166172727977 0.0020391655087605501 0 -0.028769679270621237 0.0017984672887203723 0 -0.028153768249083565 0.0016490914312714657 0 -0.028769679270621237 0.0017984672887203723 0 -0.028243851079624183 0.0016112073243839226 0 -0.028153768249083565 0.0016490914312714657 0 -0.028243851079624183 0.0016112073243839226 0 -0.027800922912958922 0.0014300082086442587 0 -0.028153768249083565 0.0016490914312714657 0 -0.028243851079624183 0.0016112073243839226 0 -0.027800922912958922 0.0014300082086442587 0 -0.027994384028510698 0.0014390667590512356 0 -0.028045992726396775 0.0014658308041537599 0 -0.027994384028510698 0.0014390667590512356 0 -0.027907066982671948 0.0010858674983349611 0 -0.028045992726396775 0.0014658308041537599 0 -0.02820765339044886 0.0015892237891991434 0 -0.027994384028510698 0.0014390667590512356 0 -0.02820765339044886 0.0015892237891991434 0 -0.028243851079624183 0.0016112073243839226 0 -0.027994384028510698 0.0014390667590512356 0 -0.027510655691235706 0.0009951356896132559 0 -0.027518461357719574 0.00042567413067342219 0 -0.027907066982671948 0.0010858674983349611 0 -0.027994384028510698 0.0014390667590512356 0 -0.027510655691235706 0.0009951356896132559 0 -0.027907066982671948 0.0010858674983349611 0 -0.027800922912958922 0.0014300082086442587 0 -0.027510655691235706 0.0009951356896132559 0 -0.027055964577421255 0.001131528413488842 0 -0.027800922912958922 0.0014300082086442587 0 -0.027994384028510698 0.0014390667590512356 0 -0.027510655691235706 0.0009951356896132559 0 -0.027510655691235706 0.0009951356896132559 0 -0.026949385951866228 0.00043374351150898485 0 -0.027055964577421255 0.001131528413488842 0 -0.026949385951866228 0.00043374351150898485 0 -0.027055964577421255 0.001131528413488842 0 -0.026432245261394836 0.00046883430208865629 0 -0.027510655691235706 0.0009951356896132559 0 -0.026949385951866228 0.00043374351150898485 0 -0.027518461357719574 0.00042567413067342219 0 -0.027518461357719574 0.00042567413067342219 0 -0.027907066982671948 0.0010858674983349611 0 -0.02810851545763941 0.00031025781253699058 0 -0.027907066982671948 0.0010858674983349611 0 -0.028255879846527342 0.00096933670258079292 0 -0.02810851545763941 0.00031025781253699058 0 -0.028118155764666856 0.0013681034846929196 0 -0.027907066982671948 0.0010858674983349611 0 -0.028255879846527342 0.00096933670258079292 0 -0.028255879846527342 0.00096933670258079292 0 -0.02810851545763941 0.00031025781253699058 0 -0.028693545403207184 0.00079088588887823053 0 -0.028115316021468637 0.00029178466142279838 0 -0.028363011985660772 0.00030235434553413241 0 -0.02810851545763941 0.00031025781253699058 0 -0.028099967247915525 -9.2192820748972448e-05 0 -0.028086510979982587 6.8864390316709666e-06 0 -0.02810851545763941 0.00031025781253699058 0 -0.028736161083109727 0.00072072297712722877 0 -0.028693545403207184 0.00079088588887823053 0 -0.028099967247915525 -9.2192820748972448e-05 0 -0.028086510979982587 6.8864390316709666e-06 0 -0.028010901531685194 -6.5595774882391106e-05 0 -0.028086510979982587 6.8864390316709666e-06 0 -0.028010901531685194 -6.5595774882391106e-05 0 -0.028007230056537935 -4.8409568450461538e-05 0 -0.028010901531685194 -6.5595774882391106e-05 0 -0.02792653187168842 -9.6823142393318576e-05 0 -0.027935249779226335 -6.0126277097173481e-05 0 -0.02792653187168842 -9.6823142393318576e-05 0 -0.027820183314709139 -9.6890423993737271e-05 0 -0.027935249779226335 -6.0126277097173481e-05 0 -0.027820183314709139 -9.6890423993737271e-05 0 -0.027869504658829147 -6.867973987978809e-05 0 -0.027935249779226335 -6.0126277097173481e-05 0 -0.02792653187168842 -9.6823142393318576e-05 0 -0.027827084125282675 -0.00015825380168060731 0 -0.027820183314709139 -9.6890423993737271e-05 0 -0.02792653187168842 -9.6823142393318576e-05 0 -0.027931309720418712 -0.00016474763229305702 0 -0.027827084125282675 -0.00015825380168060731 0 -0.028099967247915525 -9.2192820748972448e-05 0 -0.028010901531685194 -6.5595774882391106e-05 0 -0.027931309720418712 -0.00016474763229305702 0 -0.028010901531685194 -6.5595774882391106e-05 0 -0.02792653187168842 -9.6823142393318576e-05 0 -0.027931309720418712 -0.00016474763229305702 0 -0.028736161083109727 0.00072072297712722877 0 -0.028620435733742337 0.00070578925937460747 0 -0.028244828660329166 0.00078226187106463624 0 -0.028620435733742337 0.00070578925937460747 0 -0.028508518584057219 0.00065381787451077999 0 -0.028244828660329166 0.00078226187106463624 0 -0.028099967247915525 -9.2192820748972448e-05 0 -0.027931309720418712 -0.00016474763229305702 0 -0.027737376870787835 -0.00053405143812871854 0 -0.028363011985660772 0.00030235434553413241 0 -0.027977977684098723 0.00012700732771931731 0 -0.027931309720418712 -0.00016474763229305702 0 -0.027827084125282675 -0.00015825380168060731 0 -0.027737376870787835 -0.00053405143812871854 0 -0.028355089698807578 0.00061656030926813513 0 -0.028508518584057219 0.00065381787451077999 0 -0.028244828660329166 0.00078226187106463624 0 -0.028620435733742337 0.00070578925937460747 0 -0.028508518584057219 0.00065381787451077999 0 -0.028644833494395297 0.00059455146146430375 0 -0.028620435733742337 0.00070578925937460747 0 -0.028644833494395297 0.00059455146146430375 0 -0.028693545403207184 0.00079088588887823053 0 -0.028255879846527342 0.00096933670258079292 0 -0.028693545403207184 0.00079088588887823053 0 -0.028595694000806544 0.0013519603736871044 0 -0.028644833494395297 0.00059455146146430375 0 -0.028693545403207184 0.00079088588887823053 0 -0.028820812862650553 0.00042353587769243398 0 -0.028699890528853782 0.00071555297535659643 0 -0.028803253299813106 0.0011144014295086822 0 -0.028736161083109727 0.00072072297712722877 0 -0.028620435733742337 0.00070578925937460747 0 -0.028693545403207184 0.00079088588887823053 0 -0.02343360827785082 0.00055233490838907872 0 -0.025246103064405324 -0.00023918021458092228 0 -0.025569395970800036 0.00080339296936909443 0 -0.026265730462238904 0.00013373967665792076 0 -0.026988559618074889 0.00036605023020123512 0 -0.021638811206989118 0.00020696087633029531 0 -0.021267870643829415 0.00032997589372323901 0 -0.021355678691751253 -5.9193635623994587e-05 0 -0.025569395970800036 0.00080339296936909443 0 -0.026265730462238904 0.00013373967665792076 0 -0.025698159185241567 -0.00024256072618513165 0 -0.026265730462238904 0.00013373967665792076 0 -0.026988559618074889 0.00036605023020123512 0 -0.026814259407915403 -0.00040639364352611338 0 -0.025246103064405324 -0.00023918021458092228 0 -0.027379741190599969 -0.0004924048085669121 0 -0.027036774537971226 0.00015925355111560897 0 -0.027687665443222816 -0.00011544057934873598 0 -0.026814259407915403 -0.00040639364352611338 0 -0.025246103064405324 -0.00023918021458092228 0 -0.026167929735417629 -4.9720397291638905e-07 0 -0.027694051538787425 -0.00010974533697529858 0 -0.027820183314709139 -9.6890423993737271e-05 0 -0.027869504658829147 -6.867973987978809e-05 0 -0.027827084125282675 -0.00015825380168060731 0 -0.027820183314709139 -9.6890423993737271e-05 0 -0.027687665443222816 -0.00011544057934873598 0 -0.027694051538787425 -0.00010974533697529858 0 -0.027820183314709139 -9.6890423993737271e-05 0 -0.027687665443222816 -0.00011544057934873598 0 -0.027827084125282675 -0.00015825380168060731 0 -0.027687665443222816 -0.00011544057934873598 0 -0.027737376870787835 -0.00053405143812871854 0 -0.028355089698807578 0.00061656030926813513 0 -0.028244828660329166 0.00078226187106463624 0 -0.028236554268945627 0.0005678606593362309 0 -0.028244828660329166 0.00078226187106463624 0 -0.028236554268945627 0.0005678606593362309 0 -0.027999749653088414 0.00051683072702973603 0 -0.027687665443222816 -0.00011544057934873598 0 -0.027737376870787835 -0.00053405143812871854 0 -0.026814259407915403 -0.00040639364352611338 0 -0.027977977684098723 0.00012700732771931731 0 -0.026473140702368992 -0.00042940035561977275 0 -0.028244828660329166 0.00078226187106463624 0 -0.027522004751869489 0.00060320524579856119 0 -0.027999749653088414 0.00051683072702973603 0 -0.027737376870787835 -0.00053405143812871854 0 -0.026814259407915403 -0.00040639364352611338 0 -0.025647424903657498 -0.0013162106858392066 0 -0.026265730462238904 0.00013373967665792076 0 -0.026814259407915403 -0.00040639364352611338 0 -0.025698159185241567 -0.00024256072618513165 0 -0.025087242439163004 -0.00055823619619163557 0 -0.025647424903657498 -0.0013162106858392066 0 -0.025698159185241567 -0.00024256072618513165 0 -0.026814259407915403 -0.00040639364352611338 0 -0.025647424903657498 -0.0013162106858392066 0 -0.025698159185241567 -0.00024256072618513165 0 -0.027522004751869489 0.00060320524579856119 0 -0.027617887032526444 0.00030372838862338186 0 -0.027999749653088414 0.00051683072702973603 0 -0.028011639408278964 0.0016163278835330734 0 -0.028218544292566369 0.0018113685569245519 0 -0.028191180135736196 0.001542257635094322 0 -0.028218544292566369 0.0018113685569245519 0 -0.028390972456804678 0.0014966936034385371 0 -0.028191180135736196 0.001542257635094322 0 -0.028211329618536736 0.0012053243527742152 0 -0.028692097593778748 0.0010594975050794955 0 -0.027617887032526444 0.00030372838862338186 0 -0.027999749653088414 0.00051683072702973603 0 -0.028362170538562891 0.00037748283165743525 0 -0.028218544292566369 0.0018113685569245519 0 -0.028390972456804678 0.0014966936034385371 0 -0.028971865149648428 0.0017854398462144765 0 -0.028236554268945627 0.0005678606593362309 0 -0.027999749653088414 0.00051683072702973603 0 -0.028362170538562891 0.00037748283165743525 0 -0.028355089698807578 0.00061656030926813513 0 -0.028236554268945627 0.0005678606593362309 0 -0.028362170538562891 0.00037748283165743525 0 -0.028500514203351889 0.0013253035620829495 0 -0.029024931526403029 0.001215729882031073 0 -0.028225836396175576 0.0011515203558562621 0 -0.028722418772859526 0.0014557788970075175 0 -0.028500514203351889 0.0013253035620829495 0 -0.029024931526403029 0.001215729882031073 0 -0.028722418772859526 0.0014557788970075175 0 -0.028390972456804678 0.0014966936034385371 0 -0.028971865149648428 0.0017854398462144765 0 -0.030025148839185369 0.0016508712812257696 0 -0.028856690784790789 0.0014366500799979241 0 -0.028722418772859526 0.0014557788970075175 0 -0.028971865149648428 0.0017854398462144765 0 -0.029024931526403029 0.001215729882031073 0 -0.028722418772859526 0.0014557788970075175 0 -0.028390972456804678 0.0014966936034385371 0 -0.028500514203351889 0.0013253035620829495 0 -0.028390972456804678 0.0014966936034385371 0 -0.028308920928894539 0.0014084140070718763 0 -0.028500514203351889 0.0013253035620829495 0 -0.028500514203351889 0.0013253035620829495 0 -0.028287788040146644 0.0013009332981810519 0 -0.028225836396175576 0.0011515203558562621 0 -0.028308920928894539 0.0014084140070718763 0 -0.028500514203351889 0.0013253035620829495 0 -0.028287788040146644 0.0013009332981810519 0 -0.028287788040146644 0.0013009332981810519 0 -0.028192045967755718 0.0012524430139791752 0 -0.02817268235959914 0.0013775123910952823 0 -0.028308920928894539 0.0014084140070718763 0 -0.028287788040146644 0.0013009332981810519 0 -0.02817268235959914 0.0013775123910952823 0 -0.028287788040146644 0.0013009332981810519 0 -0.028192045967755718 0.0012524430139791752 0 -0.028225836396175576 0.0011515203558562621 0 -0.028036355517016779 0.0012808841329064722 0 -0.028192045967755718 0.0012524430139791752 0 -0.028225836396175576 0.0011515203558562621 0 -0.028036355517016779 0.0012808841329064722 0 -0.028192045967755718 0.0012524430139791752 0 -0.02817268235959914 0.0013775123910952823 0 -0.028027496356541802 0.0014828474204739543 0 -0.02817268235959914 0.0013775123910952823 0 -0.028191180135736196 0.001542257635094322 0 -0.028308920928894539 0.0014084140070718763 0 -0.02817268235959914 0.0013775123910952823 0 -0.028191180135736196 0.001542257635094322 0 -0.028390972456804678 0.0014966936034385371 0 -0.028308920928894539 0.0014084140070718763 0 -0.028191180135736196 0.001542257635094322 0 -0.028644833494395297 0.00059455146146430375 0 -0.028820812862650553 0.00042353587769243398 0 -0.028362170538562891 0.00037748283165743525 0 -0.028803253299813106 0.0011144014295086822 0 -0.028692097593778748 0.0010594975050794955 0 -0.029692871430342119 0.0017614898433910664 0 -0.028971865149648428 0.0017854398462144765 0 -0.029370846146297081 0.0015099713593615298 0 -0.028508518584057219 0.00065381787451077999 0 -0.028644833494395297 0.00059455146146430375 0 -0.028362170538562891 0.00037748283165743525 0 -0.028355089698807578 0.00061656030926813513 0 -0.028508518584057219 0.00065381787451077999 0 -0.028362170538562891 0.00037748283165743525 0 -0.028971865149648428 0.0017854398462144765 0 -0.029370846146297081 0.0015099713593615298 0 -0.029024931526403029 0.001215729882031073 0 -0.030025148839185369 0.0016508712812257696 0 -0.030149322426156911 0.0018123970803169309 0 -0.028803253299813106 0.0011144014295086822 0 -0.030149322426156911 0.0018123970803169309 0 -0.029370846146297081 0.0015099713593615298 0 -0.029024931526403029 0.001215729882031073 0 -0.029789674269843067 0.0012780585307129398 0 -0.029692871430342119 0.0017614898433910664 0 -0.029370846146297081 0.0015099713593615298 0 -0.029789674269843067 0.0012780585307129398 0 -0.030720488424565675 0.0020686441336565742 0 -0.031525825741689897 0.0021250342004151845 0 -0.031132100329009468 0.0018330226175530373 0 -0.031525825741689897 0.0021250342004151845 0 -0.031132100329009468 0.0018330226175530373 0 -0.031620518023992059 0.0016623051989268771 0 -0.031132100329009468 0.0018330226175530373 0 -0.03123699524004292 0.0014123880452681131 0 -0.031620518023992059 0.0016623051989268771 0 -0.031132100329009468 0.0018330226175530373 0 -0.03123699524004292 0.0014123880452681131 0 -0.030427297242212364 0.0015787081866292863 0 -0.030720488424565675 0.0020686441336565742 0 -0.031132100329009468 0.0018330226175530373 0 -0.030427297242212364 0.0015787081866292863 0 -0.033063176925856613 0.0018938556770428188 0 -0.031402753328233633 0.0020628619880759774 0 -0.032794459902596697 0.0018514144054649062 0 -0.033322543916395914 0.0021841477749736733 0 -0.032322022656320878 0.002412007648122101 0 -0.033742314567678108 0.0016075075271957326 0 -0.033063176925856613 0.0018938556770428188 0 -0.03447038264497846 0.0012318986242832437 0 -0.035149673929948298 0.0016570043896948219 0 -0.035433778679995621 0.00097995194149633528 0 -0.033063176925856613 0.0018938556770428188 0 -0.034002147401121348 0.0019645803986382462 0 -0.035149673929948298 0.0016570043896948219 0 -0.035433778679995621 0.00097995194149633528 0 -0.035883363673108494 0.0014893688232005453 0 -0.03290469549876851 0.0020416553088122625 0 -0.032948945510492073 0.0020318227022140785 0 -0.032937990465308591 0.0020647676511399001 0 -0.033063176925856613 0.0018938556770428188 0 -0.031758777400844269 0.0021550096749293549 0 -0.029485404759532586 0.0016042208623775751 0 -0.031402753328233633 0.0020628619880759774 0 -0.0295970426786459 0.0017520369989026134 0 -0.029888386507822502 0.0020104096426474829 0 -0.030427297242212364 0.0015787081866292863 0 -0.029485404759532586 0.0016042208623775751 0 -0.028856690784790789 0.0014366500799979241 0 -0.030720488424565675 0.0020686441336565742 0 -0.029888386507822502 0.0020104096426474829 0 -0.030427297242212364 0.0015787081866292863 0 -0.032794459902596697 0.0018514144054649062 0 -0.032322022656320878 0.002412007648122101 0 -0.032132349468129269 0.0019552136131193083 0 -0.032322022656320878 0.002412007648122101 0 -0.032132349468129269 0.0019552136131193083 0 -0.031721148465848621 0.0021600618634284949 0 -0.03130269403592336 0.0026558602881023873 0 -0.032322022656320878 0.002412007648122101 0 -0.031721148465848621 0.0021600618634284949 0 -0.032132349468129269 0.0019552136131193083 0 -0.031721148465848621 0.0021600618634284949 0 -0.031599703004327205 0.0016640222245859293 0 -0.031250068501752389 0.0020947380623786769 0 -0.031721148465848621 0.0021600618634284949 0 -0.031599703004327205 0.0016640222245859293 0 -0.032102736875651433 0.0015323742317937049 0 -0.033218429699606471 0.0012709382718112602 0 -0.031927575883961598 0.00045358538475518003 0 -0.032132349468129269 0.0019552136131193083 0 -0.031599703004327205 0.0016640222245859293 0 -0.032264367294581438 0.0015123952157125489 0 -0.031721456926734559 0.0016283355913366986 0 -0.033302768008380869 0.0011609300868571397 0 -0.032794459902596697 0.0018514144054649062 0 -0.032132349468129269 0.0019552136131193083 0 -0.032264367294581438 0.0015123952157125489 0 -0.033742314567678108 0.0016075075271957326 0 -0.033302768008380869 0.0011609300868571397 0 -0.033904689076074385 0.0013097738743385727 0 -0.034423476139599028 0.00011179143674568129 0 -0.033568760900110101 0.00045198754972230738 0 -0.033449966391562523 -0.00022921990065763719 0 -0.034423476139599028 0.00011179143674568129 0 -0.033568760900110101 0.00045198754972230738 0 -0.033449966391562523 -0.00022921990065763719 0 -0.033568760900110101 0.00045198754972230738 0 -0.03243977032620337 0.0006196478149218999 0 -0.033904689076074385 0.0013097738743385727 0 -0.033568760900110101 0.00045198754972230738 0 -0.03243977032620337 0.0006196478149218999 0 -0.033302768008380869 0.0011609300868571397 0 -0.032215264238625856 0.00053962012113573045 0 -0.035433778679995621 0.00097995194149633528 0 -0.034941612534090498 0.00053053212620620164 0 -0.036096942304524808 0.00034010881745543629 0 -0.03447038264497846 0.0012318986242832437 0 -0.035433778679995621 0.00097995194149633528 0 -0.034941612534090498 0.00053053212620620164 0 -0.033302768008380869 0.0011609300868571397 0 -0.035219723384650077 0.00062717117474979172 0 -0.03447038264497846 0.0012318986242832437 0 -0.033774560417413252 0.00079746195109501477 0 -0.034941612534090498 0.00053053212620620164 0 -0.03518142152638886 -0.00012317074466209989 0 -0.034423476139599028 0.00011179143674568129 0 -0.035273254042453496 0.00077017285142217166 0 -0.033904689076074385 0.0013097738743385727 0 -0.034423476139599028 0.00011179143674568129 0 -0.035273254042453496 0.00077017285142217166 0 -0.035273254042453496 0.00077017285142217166 0 -0.036019697136315719 0.00012938741438920092 0 -0.036096942304524808 0.00034010881745543629 0 -0.035706978731268595 -4.3018866783275554e-05 0 -0.03518142152638886 -0.00012317074466209989 0 -0.035273254042453496 0.00077017285142217166 0 -0.035219723384650077 0.00062717117474979172 0 -0.035977959944921353 0.00038195770976658534 0 -0.035706978731268595 -4.3018866783275554e-05 0 -0.035273254042453496 0.00077017285142217166 0 -0.036019697136315719 0.00012938741438920092 0 -0.036042515546193907 -9.8799643850464237e-05 0 -0.036019697136315719 0.00012938741438920092 0 -0.036193240334491117 7.674241697273781e-05 0 -0.036193240334491117 7.674241697273781e-05 0 -0.036193456793546991 0.00023818765266786656 0 -0.036422419291848522 0.00024688924010415078 0 -0.036187779525803598 -6.0169387916112406e-05 0 -0.036193240334491117 7.674241697273781e-05 0 -0.036422419291848522 0.00024688924010415078 0 -0.036019697136315719 0.00012938741438920092 0 -0.036193240334491117 7.674241697273781e-05 0 -0.036193456793546991 0.00023818765266786656 0 -0.036019697136315719 0.00012938741438920092 0 -0.036193456793546991 0.00023818765266786656 0 -0.036096942304524808 0.00034010881745543629 0 -0.036096942304524808 0.00034010881745543629 0 -0.036028874799846573 0.00072649186084255209 0 -0.036203533219226341 0.00054538926199485102 0 -0.036193456793546991 0.00023818765266786656 0 -0.036244661494932863 0.0003968342594690414 0 -0.036422419291848522 0.00024688924010415078 0 -0.036193456793546991 0.00023818765266786656 0 -0.036096942304524808 0.00034010881745543629 0 -0.036244661494932863 0.0003968342594690414 0 -0.036096942304524808 0.00034010881745543629 0 -0.036244661494932863 0.0003968342594690414 0 -0.036203533219226341 0.00054538926199485102 0 -0.027938835848307725 -0.0021834227281669798 0 -0.027654031982332867 -0.00057741392345576036 0 -0.029497020955884773 4.7300125617965741e-05 0 -0.036244661494932863 0.0003968342594690414 0 -0.036422419291848522 0.00024688924010415078 0 -0.036360477817931197 0.00042588796776108287 0 -0.036244661494932863 0.0003968342594690414 0 -0.036360477817931197 0.00042588796776108287 0 -0.036203533219226341 0.00054538926199485102 0 -0.033910876825420752 -0.00036187117239330351 0 -0.034444955268822929 -9.2934750574023305e-05 0 -0.036360477817931197 0.00042588796776108287 0 -0.036303245155032846 0.00076140582374413588 0 -0.036704275255592313 0.00092351239185784232 0 -0.036303245155032846 0.00076140582374413588 0 -0.036343477049045433 0.001014153255582996 0 -0.036704275255592313 0.00092351239185784232 0 -0.033910876825420752 -0.00036187117239330351 0 -0.031371199301541773 0.0016118503962527424 0 -0.036384082740993126 0.00030071545035369776 0 -0.036360477817931197 0.00042588796776108287 0 -0.036704275255592313 0.00092351239185784232 0 -0.036360477817931197 0.00042588796776108287 0 -0.036303245155032846 0.00076140582374413588 0 -0.036203533219226341 0.00054538926199485102 0 -0.036303245155032846 0.00076140582374413588 0 -0.036136334004088028 0.00091927160343603642 0 -0.036343477049045433 0.001014153255582996 0 -0.036045616240115902 0.0004667134233279821 0 -0.034002147401121348 0.0019645803986382462 0 -0.036028874799846573 0.00072649186084255209 0 -0.036136334004088028 0.00091927160343603642 0 -0.035943462498572512 0.0011126595414043196 0 -0.035433778679995621 0.00097995194149633528 0 -0.036096942304524808 0.00034010881745543629 0 -0.036028874799846573 0.00072649186084255209 0 -0.035433778679995621 0.00097995194149633528 0 -0.036028874799846573 0.00072649186084255209 0 -0.035883363673108494 0.0014893688232005453 0 -0.036303245155032846 0.00076140582374413588 0 -0.036028874799846573 0.00072649186084255209 0 -0.036203533219226341 0.00054538926199485102 0 -0.036303245155032846 0.00076140582374413588 0 -0.036028874799846573 0.00072649186084255209 0 -0.036136334004088028 0.00091927160343603642 0 -0.034002147401121348 0.0019645803986382462 0 -0.033696509806857317 0.0020783269793130891 0 -0.031317805127533439 0.0031169210977583886 0 -0.030621925026617296 0.0032649011573799565 0 -0.030796336823542946 0.0027864602468301958 0 -0.036136334004088028 0.00091927160343603642 0 -0.035943462498572512 0.0011126595414043196 0 -0.036343477049045433 0.001014153255582996 0 -0.034002147401121348 0.0019645803986382462 0 -0.031758777400844269 0.0021550096749293549 0 -0.031317805127533439 0.0031169210977583886 0 -0.030796336823542946 0.0027864602468301958 0 -0.031406507942591311 0.0026044029113292629 0 -0.033696509806857317 0.0020783269793130891 0 -0.031371199301541773 0.0016118503962527424 0 -0.030621925026617296 0.0032649011573799565 0 -0.030333354741621858 0.0029557719998236005 0 -0.029918284461490079 0.0033955572695668458 0 -0.030333354741621858 0.0029557719998236005 0 -0.030796336823542946 0.0027864602468301958 0 -0.030348559846021202 0.0025206619840214689 0 -0.030333354741621858 0.0029557719998236005 0 -0.030348559846021202 0.0025206619840214689 0 -0.029984594158783739 0.0028308666343055703 0 -0.030621925026617296 0.0032649011573799565 0 -0.030333354741621858 0.0029557719998236005 0 -0.030796336823542946 0.0027864602468301958 0 -0.030796336823542946 0.0027864602468301958 0 -0.030780303894072682 0.0024966406721190558 0 -0.030348559846021202 0.0025206619840214689 0 -0.030348559846021202 0.0025206619840214689 0 -0.03020145412296435 0.0022039305512719515 0 -0.030555761001745514 0.0020776165090207088 0 -0.030780303894072682 0.0024966406721190558 0 -0.030348559846021202 0.0025206619840214689 0 -0.030555761001745514 0.0020776165090207088 0 -0.030149322426156911 0.0018123970803169309 0 -0.031758777400844269 0.0021550096749293549 0 -0.030555761001745514 0.0020776165090207088 0 -0.030891263314266702 0.0021179319241162848 0 -0.031196016965293928 0.0024703000901140984 0 -0.031285341968553482 0.0019667293695944106 0 -0.030891263314266702 0.0021179319241162848 0 -0.031196016965293928 0.0024703000901140984 0 -0.030482227162210985 0.0021554503287006701 0 -0.031758777400844269 0.0021550096749293549 0 -0.030780303894072682 0.0024966406721190558 0 -0.030555761001745514 0.0020776165090207088 0 -0.031406507942591311 0.0026044029113292629 0 -0.030796336823542946 0.0027864602468301958 0 -0.030780303894072682 0.0024966406721190558 0 -0.031406507942591311 0.0026044029113292629 0 -0.02956270850163226 0.0024438441710357747 0 -0.030502372038462428 0.0028268884487178225 0 -0.030978566000746929 0.0030203795992363343 0 -0.029685136736531944 0.0025276003741298118 0 -0.029960033161191439 0.0027844318353521147 0 -0.02956270850163226 0.0024438441710357747 0 -0.02946042530153194 0.0023605631366154737 0 -0.029498745870092689 0.002749511663394572 0 -0.02946042530153194 0.0023605631366154737 0 -0.029757846947290383 0.0021744556845593077 0 -0.029854065406747697 0.0024575360574981557 0 -0.03020145412296435 0.0022039305512719515 0 -0.029757846947290383 0.0021744556845593077 0 -0.029854065406747697 0.0024575360574981557 0 -0.030348559846021202 0.0025206619840214689 0 -0.03020145412296435 0.0022039305512719515 0 -0.029854065406747697 0.0024575360574981557 0 -0.030348559846021202 0.0025206619840214689 0 -0.029854065406747697 0.0024575360574981557 0 -0.029984594158783739 0.0028308666343055703 0 -0.02946042530153194 0.0023605631366154737 0 -0.029854065406747697 0.0024575360574981557 0 -0.029498745870092689 0.002749511663394572 0 -0.029854065406747697 0.0024575360574981557 0 -0.029984594158783739 0.0028308666343055703 0 -0.029498745870092689 0.002749511663394572 0 -0.029984594158783739 0.0028308666343055703 0 -0.029498745870092689 0.002749511663394572 0 -0.029918284461490079 0.0033955572695668458 0 -0.030502372038462428 0.0028268884487178225 0 -0.031244536038808023 0.0016381267753407716 0 -0.029901435215870655 0.0018606507269253816 0 -0.030333354741621858 0.0029557719998236005 0 -0.029984594158783739 0.0028308666343055703 0 -0.029918284461490079 0.0033955572695668458 0 -0.029960033161191439 0.0027844318353521147 0 -0.031371199301541773 0.0016118503962527424 0 -0.030502372038462428 0.0028268884487178225 0 -0.031244536038808023 0.0016381267753407716 0 -0.030978566000746929 0.0030203795992363343 0 -0.031244536038808023 0.0016381267753407716 0 -0.032206642016065337 0.00014284241187698511 0 -0.033328392668830524 0.0010139228584496755 0 -0.031244536038808023 0.0016381267753407716 0 -0.029497020955884773 4.7300125617965741e-05 0 -0.032206642016065337 0.00014284241187698511 0 -0.030509320289950514 0.0017828250178439883 0 -0.031371199301541773 0.0016118503962527424 0 -0.027654031982332867 -0.00057741392345576036 0 -0.029494290103338847 0.0019947816903872536 0 -0.029497020955884773 4.7300125617965741e-05 0 -0.031244536038808023 0.0016381267753407716 0 -0.029494290103338847 0.0019947816903872536 0 -0.029497020955884773 4.7300125617965741e-05 0 -0.030748672346308254 -0.001719769476892057 0 -0.027938835848307725 -0.0021834227281669798 0 -0.029497020955884773 4.7300125617965741e-05 0 -0.030748672346308254 -0.001719769476892057 0 -0.032206642016065337 0.00014284241187698511 0 -0.034787182657509262 -0.00081341467389732796 0 -0.033117863313397979 -0.0015248940076175261 0 -0.034911060006633098 -0.0008434891187680387 0 -0.030748672346308254 -0.001719769476892057 0 -0.029497020955884773 4.7300125617965741e-05 0 -0.032206642016065337 0.00014284241187698511 0 -0.032206642016065337 0.00014284241187698511 0 -0.034787182657509262 -0.00081341467389732796 0 -0.033328392668830524 0.0010139228584496755 0 -0.034787182657509262 -0.00081341467389732796 0 -0.033328392668830524 0.0010139228584496755 0 -0.034961000059745867 0.0005486076771110003 0 -0.031244536038808023 0.0016381267753407716 0 -0.033328392668830524 0.0010139228584496755 0 -0.030978566000746929 0.0030203795992363343 0 -0.034961000059745867 0.0005486076771110003 0 -0.035820576423141716 0.0012652870340873533 0 -0.033964301726823319 0.0020954374334749217 0 -0.033328392668830524 0.0010139228584496755 0 -0.034961000059745867 0.0005486076771110003 0 -0.033964301726823319 0.0020954374334749217 0 -0.034787182657509262 -0.00081341467389732796 0 -0.034961000059745867 0.0005486076771110003 0 -0.036228407487544391 -0.00030952943556112862 0 -0.034961000059745867 0.0005486076771110003 0 -0.036228407487544391 -0.00030952943556112862 0 -0.035820576423141716 0.0012652870340873533 0 -0.037523780271547243 -0.00051297484185661353 0 -0.036228407487544391 -0.00030952943556112862 0 -0.037034128914583755 0.00014512539870725619 0 -0.036228407487544391 -0.00030952943556112862 0 -0.037034128914583755 0.00014512539870725619 0 -0.035820576423141716 0.0012652870340873533 0 -0.037034128914583755 0.00014512539870725619 0 -0.037811340067164863 -4.5917082653710246e-05 0 -0.037852678433846779 0.00086077484066639221 0 -0.03703301149951338 0.0011002370692802554 0 -0.037353971876730001 0.0022185566076930556 0 -0.037852678433846779 0.00086077484066639221 0 -0.037034128914583755 0.00014512539870725619 0 -0.03703301149951338 0.0011002370692802554 0 -0.035820576423141716 0.0012652870340873533 0 -0.037034128914583755 0.00014512539870725619 0 -0.03703301149951338 0.0011002370692802554 0 -0.037852678433846779 0.00086077484066639221 0 -0.03703301149951338 0.0011002370692802554 0 -0.035820576423141716 0.0012652870340873533 0 -0.037353971876730001 0.0022185566076930556 0 -0.035820576423141716 0.0012652870340873533 0 -0.035356709236561229 0.0027456268210108506 0 -0.037353971876730001 0.0022185566076930556 0 -0.035820576423141716 0.0012652870340873533 0 -0.035356709236561229 0.0027456268210108506 0 -0.033964301726823319 0.0020954374334749217 0 -0.037353971876730001 0.0022185566076930556 0 -0.036189486966222414 0.0039744173732927162 0 -0.037864481927229438 0.0036401649092268513 0 -0.035356709236561229 0.0027456268210108506 0 -0.037353971876730001 0.0022185566076930556 0 -0.036189486966222414 0.0039744173732927162 0 -0.035356709236561229 0.0027456268210108506 0 -0.036189486966222414 0.0039744173732927162 0 -0.033118673735063636 0.0040823958661872469 0 -0.033689084723055082 0.0043105521197372744 0 -0.033077047855012948 0.0041277654391240846 0 -0.031355092502545215 0.0048065193073983476 0 -0.033118673735063636 0.0040823958661872469 0 -0.033230778204754563 0.0044869447406364789 0 -0.033118673735063636 0.0040823958661872469 0 -0.030978566000746929 0.0030203795992363343 0 -0.033230778204754563 0.0044869447406364789 0 -0.029111487608858386 0.0023496009891158746 0 -0.030978566000746929 0.0030203795992363343 0 -0.027075338519283721 0.0022014430608993801 0 -0.030759818800767304 0.0030170445474897532 0 -0.030164574013405845 0.0032103275433246737 0 -0.028880166172727977 0.0020391655087605501 0 -0.02956270850163226 0.0024438441710357747 0 -0.029111487608858386 0.0023496009891158746 0 -0.02956270850163226 0.0024438441710357747 0 -0.029111487608858386 0.0023496009891158746 0 -0.030978566000746929 0.0030203795992363343 0 -0.033118673735063636 0.0040823958661872469 0 -0.030978566000746929 0.0030203795992363343 0 -0.033964301726823319 0.0020954374334749217 0 -0.033328392668830524 0.0010139228584496755 0 -0.030978566000746929 0.0030203795992363343 0 -0.033964301726823319 0.0020954374334749217 0 -0.035356709236561229 0.0027456268210108506 0 -0.033118673735063636 0.0040823958661872469 0 -0.033964301726823319 0.0020954374334749217 0 -0.040479636675792637 0.0013773879060741279 0 -0.039849149448549517 0.00069150880176172393 0 -0.039648213747219573 0.0012571894851297826 0 -0.038288304416381778 -0.0017978014036280638 0 -0.038519537059546957 -0.0023773325469977516 0 -0.038723721853227519 -0.0016736997169127911 0 -0.038519537059546957 -0.0023773325469977516 0 -0.038871514036347164 -0.0014190602776897204 0 -0.038723721853227519 -0.0016736997169127911 0 -0.040479636675792637 0.0013773879060741279 0 -0.040051187057806102 0.00011385004181775813 0 -0.039849149448549517 0.00069150880176172393 0 -0.039489812428659926 -0.00080170672299082206 0 -0.039440757412638597 -0.00065476006939193458 0 -0.038288304416381778 -0.0017978014036280638 0 -0.038581425314680361 -0.0015295051426217759 0 -0.038723721853227519 -0.0016736997169127911 0 -0.038288304416381778 -0.0017978014036280638 0 -0.038332661149104934 -0.0014034240353534143 0 -0.038581425314680361 -0.0015295051426217759 0 -0.038672282580426126 -0.0013338538735991525 0 -0.038332661149104934 -0.0014034240353534143 0 -0.038581425314680361 -0.0015295051426217759 0 -0.038672282580426126 -0.0013338538735991525 0 -0.038581425314680361 -0.0015295051426217759 0 -0.038847691936612236 -0.0014671030016409734 0 -0.038581425314680361 -0.0015295051426217759 0 -0.038847691936612236 -0.0014671030016409734 0 -0.038723721853227519 -0.0016736997169127911 0 -0.039440757412638597 -0.00065476006939193458 0 -0.038889316405267958 -0.0015255850238010077 0 -0.039849149448549517 0.00069150880176172393 0 -0.039582532824956641 0.00018336763159571476 0 -0.039411087224233705 0.00059737057093541229 0 -0.040051187057806102 0.00011385004181775813 0 -0.039849149448549517 0.00069150880176172393 0 -0.039582532824956641 0.00018336763159571476 0 -0.039442048967094218 -0.00021975687536124135 0 -0.040051187057806102 0.00011385004181775813 0 -0.039582532824956641 0.00018336763159571476 0 -0.039582532824956641 0.00018336763159571476 0 -0.039411087224233705 0.00059737057093541229 0 -0.03889334006267274 4.9847711001909379e-05 0 -0.039411087224233705 0.00059737057093541229 0 -0.039648213747219573 0.0012571894851297826 0 -0.03881104127935834 0.00080368659508078854 0 -0.039648213747219573 0.0012571894851297826 0 -0.038631362385105325 0.0016783779311285696 0 -0.039824042772649559 0.0020680316632889543 0 -0.040479636675792637 0.0013773879060741279 0 -0.039648213747219573 0.0012571894851297826 0 -0.039824042772649559 0.0020680316632889543 0 -0.039849149448549517 0.00069150880176172393 0 -0.039411087224233705 0.00059737057093541229 0 -0.039648213747219573 0.0012571894851297826 0 -0.038631362385105325 0.0016783779311285696 0 -0.03881104127935834 0.00080368659508078854 0 -0.037852678433846779 0.00086077484066639221 0 -0.039648213747219573 0.0012571894851297826 0 -0.038631362385105325 0.0016783779311285696 0 -0.03881104127935834 0.00080368659508078854 0 -0.039411087224233705 0.00059737057093541229 0 -0.03889334006267274 4.9847711001909379e-05 0 -0.03881104127935834 0.00080368659508078854 0 -0.038332735269028584 -0.00020400585833318759 0 -0.03889334006267274 4.9847711001909379e-05 0 -0.038317637310905171 0.0002976561612596128 0 -0.03889334006267274 4.9847711001909379e-05 0 -0.03881104127935834 0.00080368659508078854 0 -0.038317637310905171 0.0002976561612596128 0 -0.03881104127935834 0.00080368659508078854 0 -0.038317637310905171 0.0002976561612596128 0 -0.037852678433846779 0.00086077484066639221 0 -0.038317637310905171 0.0002976561612596128 0 -0.037811340067164863 -4.5917082653710246e-05 0 -0.037852678433846779 0.00086077484066639221 0 -0.038332735269028584 -0.00020400585833318759 0 -0.038317637310905171 0.0002976561612596128 0 -0.037811340067164863 -4.5917082653710246e-05 0 -0.037353971876730001 0.0022185566076930556 0 -0.038631362385105325 0.0016783779311285696 0 -0.037852678433846779 0.00086077484066639221 0 -0.037353971876730001 0.0022185566076930556 0 -0.038631362385105325 0.0016783779311285696 0 -0.038680501080586127 0.0027445564789547274 0 -0.037353971876730001 0.0022185566076930556 0 -0.038680501080586127 0.0027445564789547274 0 -0.037864481927229438 0.0036401649092268513 0 -0.038680501080586127 0.0027445564789547274 0 -0.038842746553123163 0.0032506038667640155 0 -0.037864481927229438 0.0036401649092268513 0 -0.038631362385105325 0.0016783779311285696 0 -0.038680501080586127 0.0027445564789547274 0 -0.039146967386450807 0.002494648121713234 0 -0.038533543058190359 0.0016477624910471705 0 -0.039687747642483368 0.002492249061049581 0 -0.038680501080586127 0.0027445564789547274 0 -0.039120912629288358 0.0028770842701049356 0 -0.038842746553123163 0.0032506038667640155 0 -0.038680501080586127 0.0027445564789547274 0 -0.039146967386450807 0.002494648121713234 0 -0.039120912629288358 0.0028770842701049356 0 -0.039205316876002184 0.0028430153567061797 0 -0.039120912629288358 0.0028770842701049356 0 -0.039124240914887809 0.0029325291949988241 0 -0.039205316876002184 0.0028430153567061797 0 -0.039146967386450807 0.002494648121713234 0 -0.039120912629288358 0.0028770842701049356 0 -0.040857176274280475 0.0025242757044570503 0 -0.040479636675792637 0.0013773879060741279 0 -0.039824042772649559 0.0020680316632889543 0 -0.039189567217415851 0.0010889944741252098 0 -0.039687747642483368 0.002492249061049581 0 -0.039189567217415851 0.0010889944741252098 0 -0.039489812428659926 -0.00080170672299082206 0 -0.026779790793816129 0.0030219073688002797 0 -0.027271400099188988 0.0030108676377281888 0 -0.02732135805170197 0.0024001932399195462 0 -0.027271400099188988 0.0030108676377281888 0 -0.027761561746791969 0.0030373589189895181 0 -0.02732135805170197 0.0024001932399195462 0 -0.027271400099188988 0.0030108676377281888 0 -0.027224075165726027 0.0035104604754071489 0 -0.027761561746791969 0.0030373589189895181 0 -0.026779790793816129 0.0030219073688002797 0 -0.027271400099188988 0.0030108676377281888 0 -0.027224075165726027 0.0035104604754071489 0 -0.033787660050736593 0.0035872452408363432 0 -0.033349873161387371 0.0034700068761993456 0 -0.027224075165726027 0.0035104604754071489 0 -0.028194052949646962 0.0037732430956072052 0 -0.027761561746791969 0.0030373589189895181 0 -0.039120912629288358 0.0028770842701049356 0 -0.039124240914887809 0.0029325291949988241 0 -0.038842746553123163 0.0032506038667640155 0 -0.027761561746791969 0.0030373589189895181 0 -0.028127879411250407 0.0026852420046563092 0 -0.02732135805170197 0.0024001932399195462 0 -0.028194052949646962 0.0037732430956072052 0 -0.027761561746791969 0.0030373589189895181 0 -0.028608733867755955 0.0031418483547613601 0 -0.027761561746791969 0.0030373589189895181 0 -0.028608733867755955 0.0031418483547613601 0 -0.028127879411250407 0.0026852420046563092 0 -0.028608733867755955 0.0031418483547613601 0 -0.028655339597488939 0.0026463805213123039 0 -0.028127879411250407 0.0026852420046563092 0 -0.028608733867755955 0.0031418483547613601 0 -0.029046262243606145 0.0027847196161773198 0 -0.028655339597488939 0.0026463805213123039 0 -0.028194052949646962 0.0037732430956072052 0 -0.028608733867755955 0.0031418483547613601 0 -0.029280976096390625 0.0042107435893208745 0 -0.033349873161387371 0.0034700068761993456 0 -0.033608577093583801 0.0039427462599122909 0 -0.028608733867755955 0.0031418483547613601 0 -0.029280976096390625 0.0042107435893208745 0 -0.029374154443188916 0.0032030630060921029 0 -0.029280976096390625 0.0042107435893208745 0 -0.029374154443188916 0.0032030630060921029 0 -0.030308762143031957 0.0036890568504115376 0 -0.028608733867755955 0.0031418483547613601 0 -0.029374154443188916 0.0032030630060921029 0 -0.029046262243606145 0.0027847196161773198 0 -0.029374154443188916 0.0032030630060921029 0 -0.029429967805873355 0.0027181994027046003 0 -0.029933169577200377 0.0029607040187254576 0 -0.029374154443188916 0.0032030630060921029 0 -0.029046262243606145 0.0027847196161773198 0 -0.029429967805873355 0.0027181994027046003 0 -0.029429967805873355 0.0027181994027046003 0 -0.02913939645438662 0.0023964576217184773 0 -0.029744291916012383 0.002441394039108126 0 -0.028435935225130365 0.0021146261365816072 0 -0.029744291916012383 0.002441394039108126 0 -0.02873630686827023 0.0019126266772842751 0 -0.029328665349607798 0.0023817946933665022 0 -0.029465503414436017 0.0023886931962293001 0 -0.025926913839075059 0.0021917794695952147 0 -0.024757456645336427 0.0020807262292865227 0 -0.028504565362541989 0.001825066229598777 0 -0.02873630686827023 0.0019126266772842751 0 -0.028449353316552718 0.0022281687431125823 0 -0.029046262243606145 0.0027847196161773198 0 -0.029429967805873355 0.0027181994027046003 0 -0.02913939645438662 0.0023964576217184773 0 -0.029046262243606145 0.0027847196161773198 0 -0.02913939645438662 0.0023964576217184773 0 -0.028655339597488939 0.0026463805213123039 0 -0.028435935225130365 0.0021146261365816072 0 -0.028504565362541989 0.001825066229598777 0 -0.02873630686827023 0.0019126266772842751 0 -0.021538444240187863 0.0015562593568643746 0 -0.019854917876557767 0.0016624387474456104 0 -0.022168953362829546 0.002008757424103062 0 -0.020512320986240829 0.0016927316173051227 0 -0.024757456645336427 0.0020807262292865227 0 -0.021538444240187863 0.0015562593568643746 0 -0.020894892835394641 0.0011676777537421633 0 -0.019854917876557767 0.0016624387474456104 0 -0.023088294545906864 0.0025347578372446164 0 -0.021678128953495881 0.0017371595286662885 0 -0.025330008338525185 0.0022022522388752907 0 -0.02152929299270346 0.0009919481069051259 0 -0.020894892835394641 0.0011676777537421633 0 -0.021082969601931942 0.00049112446688643881 0 -0.021538444240187863 0.0015562593568643746 0 -0.02152929299270346 0.0009919481069051259 0 -0.020894892835394641 0.0011676777537421633 0 -0.020894892835394641 0.0011676777537421633 0 -0.020324493022492677 0.0009692111428392904 0 -0.021082969601931942 0.00049112446688643881 0 -0.019854917876557767 0.0016624387474456104 0 -0.020324493022492677 0.0009692111428392904 0 -0.0197204699440394 0.0008274793122838972 0 -0.020894892835394641 0.0011676777537421633 0 -0.019854917876557767 0.0016624387474456104 0 -0.020324493022492677 0.0009692111428392904 0 -0.019854917876557767 0.0016624387474456104 0 -0.019023446264443921 0.00091245069665144007 0 -0.0197204699440394 0.0008274793122838972 0 -0.023088294545906864 0.0025347578372446164 0 -0.021678128953495881 0.0017371595286662885 0 -0.020858647807359239 0.0028443133257835978 0 -0.02913939645438662 0.0023964576217184773 0 -0.028326117552797993 0.0022166399369416907 0 -0.028655339597488939 0.0026463805213123039 0 -0.029328665349607798 0.0023817946933665022 0 -0.025293226020223648 0.0017142938406541071 0 -0.028435935225130365 0.0021146261365816072 0 -0.028504565362541989 0.001825066229598777 0 -0.027747127171566417 0.0019194858995016427 0 -0.025926913839075059 0.0021917794695952147 0 -0.025293226020223648 0.0017142938406541071 0 -0.028326117552797993 0.0022166399369416907 0 -0.028655339597488939 0.0026463805213123039 0 -0.028127879411250407 0.0026852420046563092 0 -0.025293226020223648 0.0017142938406541071 0 -0.019895170683556028 0.0010257211372397708 0 -0.024995632058314152 0.00053321689984771315 0 -0.022763415464903132 -0.00010118357350401226 0 -0.022598164900075091 0.00084873986465625799 0 -0.025293226020223648 0.0017142938406541071 0 -0.025674321627833206 0.0017935498007942421 0 -0.028326117552797993 0.0022166399369416907 0 -0.028127879411250407 0.0026852420046563092 0 -0.02732135805170197 0.0024001932399195462 0 -0.020858647807359239 0.0028443133257835978 0 -0.01795349920255105 0.002010577092011346 0 -0.018118367236424189 0.0013856754083334511 0 -0.021678128953495881 0.0017371595286662885 0 -0.020858647807359239 0.0028443133257835978 0 -0.018118367236424189 0.0013856754083334511 0 -0.019854917876557767 0.0016624387474456104 0 -0.019023446264443921 0.00091245069665144007 0 -0.018118367236424189 0.0013856754083334511 0 -0.020512320986240829 0.0016927316173051227 0 -0.01835678462729954 0.0014055881709997536 0 -0.019023446264443921 0.00091245069665144007 0 -0.018118367236424189 0.0013856754083334511 0 -0.018351609946641183 0.0008361898087518914 0 -0.01795349920255105 0.002010577092011346 0 -0.018118367236424189 0.0013856754083334511 0 -0.017752954896434234 0.001096292557272496 0 -0.020550076980713393 -0.00071156419293773397 0 -0.022763415464903132 -0.00010118357350401226 0 -0.022598164900075091 0.00084873986465625799 0 -0.018118367236424189 0.0013856754083334511 0 -0.017752954896434234 0.001096292557272496 0 -0.018351609946641183 0.0008361898087518914 0 -0.01795349920255105 0.002010577092011346 0 -0.017193968895973674 0.0011767125154392658 0 -0.017752954896434234 0.001096292557272496 0 -0.017193968895973674 0.0011767125154392658 0 -0.017752954896434234 0.001096292557272496 0 -0.017864797487839788 0.00062816085673016479 0 -0.026908947560729726 0.0014492481340265286 0 -0.027190977696015885 0.0014000413864237854 0 -0.026382779094228433 0.0013509074393267685 0 -0.026908947560729726 0.0014492481340265286 0 -0.027190977696015885 0.0014000413864237854 0 -0.0275222798073602 0.0016760750941782125 0 -0.027800922912958922 0.0014300082086442587 0 -0.027190977696015885 0.0014000413864237854 0 -0.028153768249083565 0.0016490914312714657 0 -0.027190977696015885 0.0014000413864237854 0 -0.028153768249083565 0.0016490914312714657 0 -0.0275222798073602 0.0016760750941782125 0 -0.028153768249083565 0.0016490914312714657 0 -0.028351527354527506 0.0019379048673952087 0 -0.0275222798073602 0.0016760750941782125 0 -0.029111487608858386 0.0023496009891158746 0 -0.028047114911542853 0.0020309504328080703 0 -0.027075338519283721 0.0022014430608993801 0 -0.028880166172727977 0.0020391655087605501 0 -0.028153768249083565 0.0016490914312714657 0 -0.028351527354527506 0.0019379048673952087 0 -0.028880166172727977 0.0020391655087605501 0 -0.029111487608858386 0.0023496009891158746 0 -0.028351527354527506 0.0019379048673952087 0 -0.028351527354527506 0.0019379048673952087 0 -0.028047114911542853 0.0020309504328080703 0 -0.0275222798073602 0.0016760750941782125 0 -0.029111487608858386 0.0023496009891158746 0 -0.028351527354527506 0.0019379048673952087 0 -0.028047114911542853 0.0020309504328080703 0 -0.026908947560729726 0.0014492481340265286 0 -0.027075338519283721 0.0022014430608993801 0 -0.0275222798073602 0.0016760750941782125 0 -0.026908947560729726 0.0014492481340265286 0 -0.027075338519283721 0.0022014430608993801 0 -0.02672965862360965 0.0010286616914307167 0 -0.028047114911542853 0.0020309504328080703 0 -0.027075338519283721 0.0022014430608993801 0 -0.0275222798073602 0.0016760750941782125 0 -0.031355092502545215 0.0048065193073983476 0 -0.033230778204754563 0.0044869447406364789 0 -0.031286920414363234 0.002880662692847234 0 -0.030164574013405845 0.0032103275433246737 0 -0.029064944143203274 0.0020745047894828459 0 -0.031355092502545215 0.0048065193073983476 0 -0.029280976096390625 0.0042107435893208745 0 -0.030308762143031957 0.0036890568504115376 0 -0.031355092502545215 0.0048065193073983476 0 -0.030308762143031957 0.0036890568504115376 0 -0.031286920414363234 0.002880662692847234 0 -0.033689084723055082 0.0043105521197372744 0 -0.033608577093583801 0.0039427462599122909 0 -0.029374154443188916 0.0032030630060921029 0 -0.030308762143031957 0.0036890568504115376 0 -0.029933169577200377 0.0029607040187254576 0 -0.030308762143031957 0.0036890568504115376 0 -0.029933169577200377 0.0029607040187254576 0 -0.031286920414363234 0.002880662692847234 0 -0.029933169577200377 0.0029607040187254576 0 -0.031286920414363234 0.002880662692847234 0 -0.029744291916012383 0.002441394039108126 0 -0.029429967805873355 0.0027181994027046003 0 -0.029933169577200377 0.0029607040187254576 0 -0.029744291916012383 0.002441394039108126 0 -0.026908947560729726 0.0014492481340265286 0 -0.02672965862360965 0.0010286616914307167 0 -0.026382779094228433 0.0013509074393267685 0 -0.02672965862360965 0.0010286616914307167 0 -0.027150179698310423 0.0015708402042045621 0 -0.026382779094228433 0.0013509074393267685 0 -0.027150179698310423 0.0015708402042045621 0 -0.028449353316552718 0.0022281687431125823 0 -0.02578854998021235 0.0017582214513401108 0 -0.027150179698310423 0.0015708402042045621 0 -0.02578854998021235 0.0017582214513401108 0 -0.026382779094228433 0.0013509074393267685 0 -0.022013064781912575 0.0022006473489537357 0 -0.02255722899375364 0.0019981210514053212 0 -0.02578854998021235 0.0017582214513401108 0 -0.024757456645336427 0.0020807262292865227 0 -0.025906205486569016 0.0018804879173675594 0 -0.027150179698310423 0.0015708402042045621 0 -0.02873630686827023 0.0019126266772842751 0 -0.028449353316552718 0.0022281687431125823 0 -0.02672965862360965 0.0010286616914307167 0 -0.027150179698310423 0.0015708402042045621 0 -0.02873630686827023 0.0019126266772842751 0 -0.029064944143203274 0.0020745047894828459 0 -0.02881871351704279 0.0019440092492296281 0 -0.031286920414363234 0.002880662692847234 0 -0.029744291916012383 0.002441394039108126 0 -0.02873630686827023 0.0019126266772842751 0 -0.021538444240187863 0.0015562593568643746 0 -0.022075843395681954 0.0016496663508255387 0 -0.022270937986941491 0.0013261270422542111 0 -0.021538444240187863 0.0015562593568643746 0 -0.022168953362829546 0.002008757424103062 0 -0.022075843395681954 0.0016496663508255387 0 -0.022168953362829546 0.002008757424103062 0 -0.022334068860273133 0.0017069666020051036 0 -0.022075843395681954 0.0016496663508255387 0 -0.024757456645336427 0.0020807262292865227 0 -0.023763455724266244 0.0021728374514367187 0 -0.022168953362829546 0.002008757424103062 0 -0.022334068860273133 0.0017069666020051036 0 -0.02255722899375364 0.0019981210514053212 0 -0.022334068860273133 0.0017069666020051036 0 -0.022075843395681954 0.0016496663508255387 0 -0.022270937986941491 0.0013261270422542111 0 -0.022598993962670018 0.0015519825991001889 0 -0.023253522400751302 0.0011854378392277393 0 -0.022270937986941491 0.0013261270422542111 0 -0.022334068860273133 0.0017069666020051036 0 -0.022598993962670018 0.0015519825991001889 0 -0.022270937986941491 0.0013261270422542111 0 -0.022598993962670018 0.0015519825991001889 0 -0.02255722899375364 0.0019981210514053212 0 -0.023253522400751302 0.0011854378392277393 0 -0.022334068860273133 0.0017069666020051036 0 -0.022598993962670018 0.0015519825991001889 0 -0.02255722899375364 0.0019981210514053212 0 -0.023253522400751302 0.0011854378392277393 0 -0.022270937986941491 0.0013261270422542111 0 -0.022145045430640543 0.00060679999992918577 0 -0.02152929299270346 0.0009919481069051259 0 -0.022270937986941491 0.0013261270422542111 0 -0.022145045430640543 0.00060679999992918577 0 -0.021538444240187863 0.0015562593568643746 0 -0.02152929299270346 0.0009919481069051259 0 -0.022270937986941491 0.0013261270422542111 0 -0.02255722899375364 0.0019981210514053212 0 -0.023253522400751302 0.0011854378392277393 0 -0.02578854998021235 0.0017582214513401108 0 -0.023253522400751302 0.0011854378392277393 0 -0.024384691638615594 0.00059421457431335775 0 -0.02578854998021235 0.0017582214513401108 0 -0.023253522400751302 0.0011854378392277393 0 -0.024384691638615594 0.00059421457431335775 0 -0.023071152347316343 5.2375640549404689e-05 0 -0.025543419693243245 0.00059871526907279583 0 -0.02578854998021235 0.0017582214513401108 0 -0.026336509675233072 0.0013167810549582458 0 -0.024384691638615594 0.00059421457431335775 0 -0.025543419693243245 0.00059871526907279583 0 -0.02578854998021235 0.0017582214513401108 0 -0.02578854998021235 0.0017582214513401108 0 -0.026336509675233072 0.0013167810549582458 0 -0.026382779094228433 0.0013509074393267685 0 -0.027190977696015885 0.0014000413864237854 0 -0.026336509675233072 0.0013167810549582458 0 -0.026382779094228433 0.0013509074393267685 0 -0.027190977696015885 0.0014000413864237854 0 -0.026336509675233072 0.0013167810549582458 0 -0.027055964577421255 0.001131528413488842 0 -0.027800922912958922 0.0014300082086442587 0 -0.027190977696015885 0.0014000413864237854 0 -0.027055964577421255 0.001131528413488842 0 -0.026336509675233072 0.0013167810549582458 0 -0.027055964577421255 0.001131528413488842 0 -0.026432245261394836 0.00046883430208865629 0 -0.025543419693243245 0.00059871526907279583 0 -0.026336509675233072 0.0013167810549582458 0 -0.026432245261394836 0.00046883430208865629 0 -0.025543419693243245 0.00059871526907279583 0 -0.026432245261394836 0.00046883430208865629 0 -0.026261982843535488 -0.00047865018448145784 0 -0.026261982843535488 -0.00047865018448145784 0 -0.025829438655734515 -0.00064755355297702749 0 -0.026169313763276494 -0.00016157653698765291 0 -0.024367228132443481 -0.00085414261146502391 0 -0.024237427517750099 -0.00037740848499933879 0 -0.026261982843535488 -0.00047865018448145784 0 -0.025829438655734515 -0.00064755355297702749 0 -0.024365219695981578 -0.000415877818458259 0 -0.023043585910552736 -0.0013467953763780672 0 -0.024365219695981578 -0.000415877818458259 0 -0.023166311566076715 -0.0012298023073875797 0 -0.025543419693243245 0.00059871526907279583 0 -0.026261982843535488 -0.00047865018448145784 0 -0.024365219695981578 -0.000415877818458259 0 -0.024384691638615594 0.00059421457431335775 0 -0.025543419693243245 0.00059871526907279583 0 -0.024365219695981578 -0.000415877818458259 0 -0.024365219695981578 -0.000415877818458259 0 -0.023071152347316343 5.2375640549404689e-05 0 -0.022767845843122744 -0.00088822656592799673 0 -0.024384691638615594 0.00059421457431335775 0 -0.024365219695981578 -0.000415877818458259 0 -0.023071152347316343 5.2375640549404689e-05 0 -0.022145045430640543 0.00060679999992918577 0 -0.021865842956841061 -0.00030855013801396169 0 -0.021082969601931942 0.00049112446688643881 0 -0.023071152347316343 5.2375640549404689e-05 0 -0.022145045430640543 0.00060679999992918577 0 -0.021865842956841061 -0.00030855013801396169 0 -0.023253522400751302 0.0011854378392277393 0 -0.023071152347316343 5.2375640549404689e-05 0 -0.022145045430640543 0.00060679999992918577 0 -0.023071152347316343 5.2375640549404689e-05 0 -0.021865842956841061 -0.00030855013801396169 0 -0.022767845843122744 -0.00088822656592799673 0 -0.021865842956841061 -0.00030855013801396169 0 -0.022767845843122744 -0.00088822656592799673 0 -0.021812630339060345 -0.0012744820041075335 0 -0.022767845843122744 -0.00088822656592799673 0 -0.022412025630578956 -0.0015722791884351843 0 -0.021812630339060345 -0.0012744820041075335 0 -0.024365219695981578 -0.000415877818458259 0 -0.023166311566076715 -0.0012298023073875797 0 -0.022767845843122744 -0.00088822656592799673 0 -0.023166311566076715 -0.0012298023073875797 0 -0.022767845843122744 -0.00088822656592799673 0 -0.022412025630578956 -0.0015722791884351843 0 -0.022412025630578956 -0.0015722791884351843 0 -0.022111493093006765 -0.0018972129377457069 0 -0.022697796485532461 -0.0015354194703915195 0 -0.023166311566076715 -0.0012298023073875797 0 -0.022412025630578956 -0.0015722791884351843 0 -0.022697796485532461 -0.0015354194703915195 0 -0.022412025630578956 -0.0015722791884351843 0 -0.021892587012583061 -0.0018692237225936981 0 -0.022111493093006765 -0.0018972129377457069 0 -0.021812630339060345 -0.0012744820041075335 0 -0.021892587012583061 -0.0018692237225936981 0 -0.021110181194551554 -0.0020064488990413809 0 -0.022412025630578956 -0.0015722791884351843 0 -0.021812630339060345 -0.0012744820041075335 0 -0.021892587012583061 -0.0018692237225936981 0 -0.021892587012583061 -0.0018692237225936981 0 -0.022111493093006765 -0.0018972129377457069 0 -0.021868740248288759 -0.0021189988485570375 0 -0.021892587012583061 -0.0018692237225936981 0 -0.021110181194551554 -0.0020064488990413809 0 -0.021868740248288759 -0.0021189988485570375 0 -0.022111493093006765 -0.0018972129377457069 0 -0.022178049462183495 -0.0018189250607286011 0 -0.021680506427689449 -0.0020095667214196106 0 -0.022178049462183495 -0.0018189250607286011 0 -0.022622391133534626 -0.0015601831818750215 0 -0.022697796485532461 -0.0015354194703915195 0 -0.022111493093006765 -0.0018972129377457069 0 -0.022178049462183495 -0.0018189250607286011 0 -0.022697796485532461 -0.0015354194703915195 0 -0.022178049462183495 -0.0018189250607286011 0 -0.022622391133534626 -0.0015601831818750215 0 -0.021998443392151359 -0.0019484763011280678 0 -0.024367228132443481 -0.00085414261146502391 0 -0.024568610527786493 -0.00079373395101713594 0 -0.023043585910552736 -0.0013467953763780672 0 -0.022622391133534626 -0.0015601831818750215 0 -0.022697796485532461 -0.0015354194703915195 0 -0.023043585910552736 -0.0013467953763780672 0 -0.023166311566076715 -0.0012298023073875797 0 -0.022697796485532461 -0.0015354194703915195 0 -0.016822447336416319 -7.378562630229529e-05 0 -0.017512248248531332 -0.00066738532881695689 0 -0.017744612478599899 -0.00011983447027980784 0 -0.017512248248531332 -0.00066738532881695689 0 -0.017744612478599899 -0.00011983447027980784 0 -0.018389065383432796 -0.00091029246456957123 0 -0.017512248248531332 -0.00066738532881695689 0 -0.018389065383432796 -0.00091029246456957123 0 -0.017804519528005554 -0.0010224120061623748 0 -0.017269121049576834 -0.00092498651857987146 0 -0.017512248248531332 -0.00066738532881695689 0 -0.017804519528005554 -0.0010224120061623748 0 -0.017267082225575887 0.00032094214213092471 0 -0.017744612478599899 -0.00011983447027980784 0 -0.017864797487839788 0.00062816085673016479 0 -0.017752954896434234 0.001096292557272496 0 -0.017864797487839788 0.00062816085673016479 0 -0.018351609946641183 0.0008361898087518914 0 -0.017864797487839788 0.00062816085673016479 0 -0.018534168036518708 -3.3332654001498294e-05 0 -0.018351609946641183 0.0008361898087518914 0 -0.017744612478599899 -0.00011983447027980784 0 -0.017864797487839788 0.00062816085673016479 0 -0.018534168036518708 -3.3332654001498294e-05 0 -0.019023446264443921 0.00091245069665144007 0 -0.018534168036518708 -3.3332654001498294e-05 0 -0.018351609946641183 0.0008361898087518914 0 -0.019023446264443921 0.00091245069665144007 0 -0.018534168036518708 -3.3332654001498294e-05 0 -0.019234628645226525 0.00014428179149538124 0 -0.018534168036518708 -3.3332654001498294e-05 0 -0.019280331863832566 -0.00066344829427417336 0 -0.019234628645226525 0.00014428179149538124 0 -0.017744612478599899 -0.00011983447027980784 0 -0.018534168036518708 -3.3332654001498294e-05 0 -0.018389065383432796 -0.00091029246456957123 0 -0.018534168036518708 -3.3332654001498294e-05 0 -0.019280331863832566 -0.00066344829427417336 0 -0.018856532217089769 -0.00065839344909431529 0 -0.018551431804386641 9.4382506237689984e-05 0 -0.018604507510862258 -0.0012915184441770963 0 -0.019280331863832566 -0.00066344829427417336 0 -0.020710431017412254 -0.00044447733805668148 0 -0.021110181194551554 -0.0020064488990413809 0 -0.019280331863832566 -0.00066344829427417336 0 -0.019234628645226525 0.00014428179149538124 0 -0.020710431017412254 -0.00044447733805668148 0 -0.019234628645226525 0.00014428179149538124 0 -0.020205689883841582 0.00045586393050143283 0 -0.020710431017412254 -0.00044447733805668148 0 -0.019234628645226525 0.00014428179149538124 0 -0.0197204699440394 0.0008274793122838972 0 -0.020205689883841582 0.00045586393050143283 0 -0.019023446264443921 0.00091245069665144007 0 -0.019234628645226525 0.00014428179149538124 0 -0.0197204699440394 0.0008274793122838972 0 -0.020324493022492677 0.0009692111428392904 0 -0.0197204699440394 0.0008274793122838972 0 -0.020205689883841582 0.00045586393050143283 0 -0.020205689883841582 0.00045586393050143283 0 -0.021082969601931942 0.00049112446688643881 0 -0.020710431017412254 -0.00044447733805668148 0 -0.020324493022492677 0.0009692111428392904 0 -0.020205689883841582 0.00045586393050143283 0 -0.021082969601931942 0.00049112446688643881 0 -0.02152929299270346 0.0009919481069051259 0 -0.022145045430640543 0.00060679999992918577 0 -0.021082969601931942 0.00049112446688643881 0 -0.021865842956841061 -0.00030855013801396169 0 -0.021082969601931942 0.00049112446688643881 0 -0.020710431017412254 -0.00044447733805668148 0 -0.021865842956841061 -0.00030855013801396169 0 -0.021812630339060345 -0.0012744820041075335 0 -0.020710431017412254 -0.00044447733805668148 0 -0.021812630339060345 -0.0012744820041075335 0 -0.020710431017412254 -0.00044447733805668148 0 -0.021110181194551554 -0.0020064488990413809 0 -0.019877147327795969 -0.0010737827650142485 0 -0.020670524391929606 -0.0013662271743080973 0 -0.018633335016530521 -0.00023564575351549936 0 -0.018260656456964824 -0.00036320445638457683 0 -0.019518154899787771 -0.00048820983207610097 0 -0.018633335016530521 -0.00023564575351549936 0 -0.018260656456964824 -0.00036320445638457683 0 -0.01881787767201135 -0.00047819538906567545 0 -0.018260656456964824 -0.00036320445638457683 0 -0.01881787767201135 -0.00047819538906567545 0 -0.018911994077215652 -0.00041940662210759861 0 -0.019280331863832566 -0.00066344829427417336 0 -0.018633335016530521 -0.00023564575351549936 0 -0.01881787767201135 -0.00047819538906567545 0 -0.019293940761664189 -0.00065354633591457585 0 -0.019877147327795969 -0.0010737827650142485 0 -0.018604507510862258 -0.0012915184441770963 0 -0.0134003709132269 0.00205010485166 0 -0.018389065383432796 -0.00091029246456957123 0 -0.018350506690928362 -0.0017209544179710155 0 -0.017804519528005554 -0.0010224120061623748 0 -0.019280331863832566 -0.00066344829427417336 0 -0.01881787767201135 -0.00047819538906567545 0 -0.018856532217089769 -0.00065839344909431529 0 -0.01881787767201135 -0.00047819538906567545 0 -0.018856532217089769 -0.00065839344909431529 0 -0.018911994077215652 -0.00041940662210759861 0 -0.0134003709132269 0.00205010485166 0 -0.0082340869026989363 0.0029132639514164857 0 0.00036149979506468378 0.0058621114052336831 0 4.8035562756291481e-05 0.0065286311941136783 0 0.00029814679791717125 0.0069528001924033696 0 -0.020027877436373687 -0.0012648500007351874 0 -0.0134003709132269 0.00205010485166 0 -0.018260656456964824 -0.00036320445638457683 0 -0.01689006441504988 0.00056094425970731887 0 -0.016971164760525893 -0.0007910747660831017 0 -0.00034828525501567442 0.0063514090948274416 0 -0.00071082692798290776 0.0060195890114132589 0 -0.00042200506056923873 0.0069427838079198665 0 0.00036149979506468378 0.0058621114052336831 0 -0.00034828525501567442 0.0063514090948274416 0 -0.00071082692798290776 0.0060195890114132589 0 -0.0043234480149949885 0.0058318908972211135 0 -0.00159239571294665 0.0089684822211315365 0 0.00036149979506468378 0.0058621114052336831 0 4.8035562756291481e-05 0.0065286311941136783 0 -0.00034828525501567442 0.0063514090948274416 0 4.8035562756291481e-05 0.0065286311941136783 0 -0.00034828525501567442 0.0063514090948274416 0 -9.4883447948298008e-05 0.0067267000353212116 0 -0.017282525185797842 -0.0010930998671279477 0 -0.018350506690928362 -0.0017209544179710155 0 -0.017804519528005554 -0.0010224120061623748 0 -0.00086291415326702331 0.0050352899120861602 0 0.00036149979506468378 0.0058621114052336831 0 -0.00071082692798290776 0.0060195890114132589 0 -0.0085785460121433777 0.0019301695070598768 0 -0.0043234480149949885 0.0058318908972211135 0 -0.0085785460121433777 0.0019301695070598768 0 -0.0134003709132269 0.00205010485166 0 -0.017282525185797842 -0.0010930998671279477 0 -0.017269121049576834 -0.00092498651857987146 0 -0.017804519528005554 -0.0010224120061623748 0 0.00048471821674465356 0.0072041146197581989 0 9.2063371609331715e-05 0.007130002998005926 0 -0.00032014963280807502 0.006973806682851416 0 0.0012157621397881544 0.0079146554068266657 0 -0.00159239571294665 0.0089684822211315365 0 0.0002266536916566149 0.006956080139753751 0 0.00020936435745307576 0.0071932860571310405 0 6.7316095945865921e-05 0.0072513347928217864 0 0.00048471821674465356 0.0072041146197581989 0 0.0002266536916566149 0.006956080139753751 0 0.00020936435745307576 0.0071932860571310405 0 0.00020936435745307576 0.0071932860571310405 0 7.5421115933400854e-05 0.0071321067533322976 0 6.7316095945865921e-05 0.0072513347928217864 0 0.00020936435745307576 0.0071932860571310405 0 9.2063371609331715e-05 0.007130002998005926 0 7.5421115933400854e-05 0.0071321067533322976 0 0.00048471821674465356 0.0072041146197581989 0 0.00020936435745307576 0.0071932860571310405 0 9.2063371609331715e-05 0.007130002998005926 0 9.2063371609331715e-05 0.007130002998005926 0 -7.3395328569512565e-05 0.0070361294807466841 0 -0.00032014963280807502 0.006973806682851416 0 -0.00034828525501567442 0.0063514090948274416 0 -0.00042200506056923873 0.0069427838079198665 0 -0.0002907714233879523 0.0069157115442067055 0 -0.00034828525501567442 0.0063514090948274416 0 -0.0002907714233879523 0.0069157115442067055 0 -9.4883447948298008e-05 0.0067267000353212116 0 -0.00159239571294665 0.0089684822211315365 0 -0.0013202700456288353 0.0088214615256786092 0 -0.0002907714233879523 0.0069157115442067055 0 -9.4883447948298008e-05 0.0067267000353212116 0 -0.0001049023921126114 0.0069104656275594256 0 -7.3395328569512565e-05 0.0070361294807466841 0 -0.00032014963280807502 0.006973806682851416 0 -0.0002907714233879523 0.0069157115442067055 0 -7.3395328569512565e-05 0.0070361294807466841 0 -0.0002907714233879523 0.0069157115442067055 0 -0.0001049023921126114 0.0069104656275594256 0 4.8035562756291481e-05 0.0065286311941136783 0 -9.4883447948298008e-05 0.0067267000353212116 0 2.7168054200809671e-05 0.0069287117267861431 0 -9.4883447948298008e-05 0.0067267000353212116 0 -0.0001049023921126114 0.0069104656275594256 0 2.7168054200809671e-05 0.0069287117267861431 0 -7.3395328569512565e-05 0.0070361294807466841 0 -0.0001049023921126114 0.0069104656275594256 0 2.7168054200809671e-05 0.0069287117267861431 0 2.7168054200809671e-05 0.0069287117267861431 0 7.5421115933400854e-05 0.0071321067533322976 0 0.00029814679791717125 0.0069528001924033696 0 -7.3395328569512565e-05 0.0070361294807466841 0 2.7168054200809671e-05 0.0069287117267861431 0 7.5421115933400854e-05 0.0071321067533322976 0 9.2063371609331715e-05 0.007130002998005926 0 -7.3395328569512565e-05 0.0070361294807466841 0 7.5421115933400854e-05 0.0071321067533322976 0 7.5421115933400854e-05 0.0071321067533322976 0 0.00029814679791717125 0.0069528001924033696 0 6.7316095945865921e-05 0.0072513347928217864 0 4.8035562756291481e-05 0.0065286311941136783 0 2.7168054200809671e-05 0.0069287117267861431 0 0.00029814679791717125 0.0069528001924033696 0 -0.016971164760525893 -0.0007910747660831017 0 -0.017080327193930846 -0.001624669040986525 0 -0.017634205086269356 -0.0012670579936306871 0 0.00029814679791717125 0.0069528001924033696 0 6.7316095945865921e-05 0.0072513347928217864 0 9.096530342034673e-05 0.0074078080986362772 0 -0.0082340869026989363 0.0029132639514164857 0 -0.005204193401081021 0.0049113142953238981 0 0.0002266536916566149 0.006956080139753751 0 6.7316095945865921e-05 0.0072513347928217864 0 -0.00033420161945799191 0.0071147542621329508 0 -0.0011292337148320049 0.0081662652768199461 0 -0.005204193401081021 0.0049113142953238981 0 -0.017080327193930846 -0.001624669040986525 0 -0.017634205086269356 -0.0012670579936306871 0 -0.017578226580177464 -0.0017615862922393986 0 -0.017634205086269356 -0.0012670579936306871 0 -0.018251289316007859 -0.0015484821578530177 0 -0.017578226580177464 -0.0017615862922393986 0 -0.018260656456964824 -0.00036320445638457683 0 -0.016971164760525893 -0.0007910747660831017 0 -0.017634205086269356 -0.0012670579936306871 0 -0.018260656456964824 -0.00036320445638457683 0 -0.017634205086269356 -0.0012670579936306871 0 -0.018251289316007859 -0.0015484821578530177 0 -0.018260656456964824 -0.00036320445638457683 0 -0.018251289316007859 -0.0015484821578530177 0 -0.019518154899787771 -0.00048820983207610097 0 -0.018251289316007859 -0.0015484821578530177 0 -0.017451620683296001 -0.0020297741258671004 0 -0.01769838248866178 -0.0018363605154560329 0 -0.018251289316007859 -0.0015484821578530177 0 -0.017451620683296001 -0.0020297741258671004 0 -0.017578226580177464 -0.0017615862922393986 0 -0.018240293515361966 -0.001557682500456259 0 -0.018779209478089753 -0.002086014108133305 0 -0.017451620683296001 -0.0020297741258671004 0 -0.017237785999463823 -0.0021003890082743823 0 -0.016738670356615439 -0.0028193732646876503 0 -0.017080327193930846 -0.001624669040986525 0 -0.017237785999463823 -0.0021003890082743823 0 -0.017578226580177464 -0.0017615862922393986 0 -0.017451620683296001 -0.0020297741258671004 0 -0.017237785999463823 -0.0021003890082743823 0 -0.017578226580177464 -0.0017615862922393986 0 -0.0018420734187394917 0.010198316654668371 0 -0.0046142527482585924 0.0060182872344306162 0 -0.0019069090541961647 0.0059260077040557343 0 -0.00033420161945799191 0.0071147542621329508 0 -0.0010033957424626433 0.0049766108596700593 0 5.1597641040475118e-05 0.006295921032618018 0 -0.005204193401081021 0.0049113142953238981 0 -0.011625120803482877 0.0016107300600995734 0 -0.005204193401081021 0.0049113142953238981 0 -0.0010466432515583981 0.0061573637568637582 0 0.0002266536916566149 0.006956080139753751 0 -0.00033420161945799191 0.0071147542621329508 0 5.1597641040475118e-05 0.006295921032618018 0 -0.0046142527482585924 0.0060182872344306162 0 -0.0019069090541961647 0.0059260077040557343 0 -0.0017819949375031854 0.0012079089887181793 0 0.003777305792286498 0.0039300027118665936 0 0.0014401662083106603 0.005785197826696154 0 0.0010295955905969135 0.0025674323446446749 0 -0.0010033957424626433 0.0049766108596700593 0 0.0014401662083106603 0.005785197826696154 0 0.0010295955905969135 0.0025674323446446749 0 0.0002266536916566149 0.006956080139753751 0 0.0014401662083106603 0.005785197826696154 0 5.1597641040475118e-05 0.006295921032618018 0 0.00048471821674465356 0.0072041146197581989 0 0.0002266536916566149 0.006956080139753751 0 0.0014401662083106603 0.005785197826696154 0 -0.0010033957424626433 0.0049766108596700593 0 0.0014401662083106603 0.005785197826696154 0 5.1597641040475118e-05 0.006295921032618018 0 0.0012157621397881544 0.0079146554068266657 0 0.0012994611620394815 0.0059025774114285778 0 -0.02142067541573937 -0.002263854909972737 0 -0.021101430989806515 -0.0019207405099347609 0 -0.021042680989699854 -0.0021811745051650289 0 -0.02142067541573937 -0.002263854909972737 0 -0.021680506427689449 -0.0020095667214196106 0 -0.021101430989806515 -0.0019207405099347609 0 -0.02142067541573937 -0.002263854909972737 0 -0.020724518408219261 -0.0023016198781497404 0 -0.021042680989699854 -0.0021811745051650289 0 -0.02142067541573937 -0.002263854909972737 0 -0.020724518408219261 -0.0023016198781497404 0 -0.020763023466029627 -0.0027682970870864091 0 -0.02142067541573937 -0.002263854909972737 0 -0.022388642245493723 -0.0021022859101717775 0 -0.021998443392151359 -0.0019484763011280678 0 -0.021535324342964256 -0.0022846952428004293 0 -0.021403344180558496 -0.0024918727983338925 0 -0.022622391133534626 -0.0015601831818750215 0 -0.022388642245493723 -0.0021022859101717775 0 -0.021998443392151359 -0.0019484763011280678 0 -0.022178049462183495 -0.0018189250607286011 0 -0.021998443392151359 -0.0019484763011280678 0 -0.021680506427689449 -0.0020095667214196106 0 -0.02142067541573937 -0.002263854909972737 0 -0.021998443392151359 -0.0019484763011280678 0 -0.021680506427689449 -0.0020095667214196106 0 -0.022111493093006765 -0.0018972129377457069 0 -0.021680506427689449 -0.0020095667214196106 0 -0.021868740248288759 -0.0021189988485570375 0 -0.021680506427689449 -0.0020095667214196106 0 -0.021868740248288759 -0.0021189988485570375 0 -0.021101430989806515 -0.0019207405099347609 0 -0.020670524391929606 -0.0013662271743080973 0 -0.021122890011682348 -0.0018999259228396808 0 -0.018251289316007859 -0.0015484821578530177 0 -0.019784766957499981 -0.0017340103066986999 0 -0.019906545131779974 -0.0025135535076554545 0 -0.018251289316007859 -0.0015484821578530177 0 -0.019518154899787771 -0.00048820983207610097 0 -0.019784766957499981 -0.0017340103066986999 0 -0.019518154899787771 -0.00048820983207610097 0 -0.019784766957499981 -0.0017340103066986999 0 -0.021101430989806515 -0.0019207405099347609 0 -0.019784766957499981 -0.0017340103066986999 0 -0.021101430989806515 -0.0019207405099347609 0 -0.020721071993163306 -0.002300523460881965 0 -0.019784766957499981 -0.0017340103066986999 0 -0.020721071993163306 -0.002300523460881965 0 -0.019906545131779974 -0.0025135535076554545 0 -0.018779209478089753 -0.002086014108133305 0 -0.019343728251790711 -0.0022695301817681579 0 -0.017451620683296001 -0.0020297741258671004 0 -0.01769838248866178 -0.0018363605154560329 0 -0.017372082703873151 -0.0025466566472292832 0 -0.01769838248866178 -0.0018363605154560329 0 -0.018148757285003415 -0.0020617691366664934 0 -0.017372082703873151 -0.0025466566472292832 0 -0.020721071993163306 -0.002300523460881965 0 -0.019906545131779974 -0.0025135535076554545 0 -0.020507815925319559 -0.0023110725631416838 0 -0.020721071993163306 -0.002300523460881965 0 -0.020507815925319559 -0.0023110725631416838 0 -0.020776435475625448 -0.0022208994858916287 0 -0.020507815925319559 -0.0023110725631416838 0 -0.020613806908190417 -0.0021608846599052191 0 -0.020776435475625448 -0.0022208994858916287 0 -0.020507815925319559 -0.0023110725631416838 0 -0.020613806908190417 -0.0021608846599052191 0 -0.020483266984987539 -0.0022380985016856201 0 -0.021101430989806515 -0.0019207405099347609 0 -0.020721071993163306 -0.002300523460881965 0 -0.021042680989699854 -0.0021811745051650289 0 -0.020721071993163306 -0.002300523460881965 0 -0.020776435475625448 -0.0022208994858916287 0 -0.021042680989699854 -0.0021811745051650289 0 -0.020724518408219261 -0.0023016198781497404 0 -0.021042680989699854 -0.0021811745051650289 0 -0.020573880921962103 -0.002119045271866743 0 -0.020776435475625448 -0.0022208994858916287 0 -0.021042680989699854 -0.0021811745051650289 0 -0.020573880921962103 -0.002119045271866743 0 -0.020613806908190417 -0.0021608846599052191 0 -0.020573880921962103 -0.002119045271866743 0 -0.020475768046357819 -0.0020402093402381474 0 -0.020613806908190417 -0.0021608846599052191 0 -0.020776435475625448 -0.0022208994858916287 0 -0.020573880921962103 -0.002119045271866743 0 -0.020573880921962103 -0.002119045271866743 0 -0.020475768046357819 -0.0020402093402381474 0 -0.020261805362054151 -0.0019634830368565667 0 -0.020613806908190417 -0.0021608846599052191 0 -0.020475768046357819 -0.0020402093402381474 0 -0.020483266984987539 -0.0022380985016856201 0 -0.020573880921962103 -0.002119045271866743 0 -0.020261805362054151 -0.0019634830368565667 0 -0.02002441188874296 -0.0020543408926596879 0 -0.020261805362054151 -0.0019634830368565667 0 -0.02002441188874296 -0.0020543408926596879 0 -0.019945259435368963 -0.0017549587946095577 0 -0.02002441188874296 -0.0020543408926596879 0 -0.019741494391436683 -0.0018197099045840672 0 -0.019945259435368963 -0.0017549587946095577 0 -0.02002441188874296 -0.0020543408926596879 0 -0.019629714601170984 -0.0021105153109381779 0 -0.019951090102734284 -0.0024830015072968476 0 -0.02002441188874296 -0.0020543408926596879 0 -0.020330184645673648 -0.00228941653735251 0 -0.019951090102734284 -0.0024830015072968476 0 -0.020573880921962103 -0.002119045271866743 0 -0.02002441188874296 -0.0020543408926596879 0 -0.020330184645673648 -0.00228941653735251 0 -0.020724518408219261 -0.0023016198781497404 0 -0.020573880921962103 -0.002119045271866743 0 -0.020330184645673648 -0.00228941653735251 0 -0.019629714601170984 -0.0021105153109381779 0 -0.019473479494128441 -0.0021059762365572298 0 -0.019483434269269708 -0.0016346452171902386 0 -0.019473479494128441 -0.0021059762365572298 0 -0.019275964099046635 -0.0014956596142256826 0 -0.019483434269269708 -0.0016346452171902386 0 -0.019741494391436683 -0.0018197099045840672 0 -0.019629714601170984 -0.0021105153109381779 0 -0.019483434269269708 -0.0016346452171902386 0 -0.02002441188874296 -0.0020543408926596879 0 -0.019741494391436683 -0.0018197099045840672 0 -0.019629714601170984 -0.0021105153109381779 0 -0.019741286578065963 -0.0021398393189331288 0 -0.019433358098796649 -0.0022391351698134512 0 -0.019629714601170984 -0.0021105153109381779 0 -0.019473479494128441 -0.0021059762365572298 0 -0.019762522043557315 -0.0020316730223080407 0 -0.019629714601170984 -0.0021105153109381779 0 -0.019762522043557315 -0.0020316730223080407 0 -0.01958626283197596 -0.0019520152847784845 0 -0.019762522043557315 -0.0020316730223080407 0 -0.01986165737706511 -0.001723343133432666 0 -0.01958626283197596 -0.0019520152847784845 0 -0.01986165737706511 -0.001723343133432666 0 -0.01958626283197596 -0.0019520152847784845 0 -0.019615206289173518 -0.0016416015082917994 0 -0.01986165737706511 -0.001723343133432666 0 -0.019615206289173518 -0.0016416015082917994 0 -0.019766138309713202 -0.0012489243606128714 0 -0.019762522043557315 -0.0020316730223080407 0 -0.01986165737706511 -0.001723343133432666 0 -0.020069025693530491 -0.0018543015188148212 0 -0.01986165737706511 -0.001723343133432666 0 -0.020412734652190668 -0.001214974742013368 0 -0.020069025693530491 -0.0018543015188148212 0 -0.020724518408219261 -0.0023016198781497404 0 -0.020763023466029627 -0.0027682970870864091 0 -0.020405467276578167 -0.0025599941808892813 0 -0.020330184645673648 -0.00228941653735251 0 -0.020405467276578167 -0.0025599941808892813 0 -0.019951090102734284 -0.0024830015072968476 0 -0.020724518408219261 -0.0023016198781497404 0 -0.020330184645673648 -0.00228941653735251 0 -0.020405467276578167 -0.0025599941808892813 0 -0.01958626283197596 -0.0019520152847784845 0 -0.019615206289173518 -0.0016416015082917994 0 -0.019283077061359375 -0.0015784175457050581 0 -0.020405467276578167 -0.0025599941808892813 0 -0.019951090102734284 -0.0024830015072968476 0 -0.02034825316901925 -0.0029809354830577267 0 -0.019433358098796649 -0.0022391351698134512 0 -0.022187953864599368 -0.001440134882898994 0 -0.020763023466029627 -0.0027682970870864091 0 -0.020405467276578167 -0.0025599941808892813 0 -0.02034825316901925 -0.0029809354830577267 0 -0.021403344180558496 -0.0024918727983338925 0 -0.022187953864599368 -0.001440134882898994 0 -0.024568610527786493 -0.00079373395101713594 0 -0.022187953864599368 -0.001440134882898994 0 -0.026169313763276494 -0.00016157653698765291 0 -0.025737388423287107 0.0010656530031710823 0 -0.025539357858576247 0.00013140161367232247 0 -0.022622391133534626 -0.0015601831818750215 0 -0.022388642245493723 -0.0021022859101717775 0 -0.022772388201848546 -0.0019186311745444488 0 -0.026169313763276494 -0.00016157653698765291 0 -0.025539357858576247 0.00013140161367232247 0 -0.026418259796379448 -0.00073206632361970132 0 -0.025539357858576247 0.00013140161367232247 0 -0.025150501641253244 -0.00050935461473916859 0 -0.024205914681911949 0.00078884995511985343 0 -0.025539357858576247 0.00013140161367232247 0 -0.025150501641253244 -0.00050935461473916859 0 -0.026418259796379448 -0.00073206632361970132 0 -0.022187953864599368 -0.001440134882898994 0 -0.022074005976179707 -0.00010287100272294445 0 -0.025737388423287107 0.0010656530031710823 0 -0.025539357858576247 0.00013140161367232247 0 -0.024205914681911949 0.00078884995511985343 0 -0.019615206289173518 -0.0016416015082917994 0 -0.019283077061359375 -0.0015784175457050581 0 -0.019766138309713202 -0.0012489243606128714 0 -0.01986165737706511 -0.001723343133432666 0 -0.019766138309713202 -0.0012489243606128714 0 -0.020412734652190668 -0.001214974742013368 0 -0.019766138309713202 -0.0012489243606128714 0 -0.020412734652190668 -0.001214974742013368 0 -0.021099798743393006 -0.00079180464479334297 0 -0.020412734652190668 -0.001214974742013368 0 -0.021099798743393006 -0.00079180464479334297 0 -0.02020871439678127 -0.00095315058885190218 0 -0.021099798743393006 -0.00079180464479334297 0 -0.02308314176487667 -0.0014584289502633115 0 -0.02020871439678127 -0.00095315058885190218 0 -0.025303148244634407 -0.00092065397891339914 0 -0.024245928857544157 -0.00063640289125806908 0 -0.024205914681911949 0.00078884995511985343 0 -0.021099798743393006 -0.00079180464479334297 0 -0.02308314176487667 -0.0014584289502633115 0 -0.022074005976179707 -0.00010287100272294445 0 -0.021072525744641378 -0.00081697117817965213 0 -0.025150501641253244 -0.00050935461473916859 0 -0.024205914681911949 0.00078884995511985343 0 -0.02308314176487667 -0.0014584289502633115 0 -0.027712742148990818 -0.00059243399454490548 0 -0.027884124457288096 -9.7936164546683535e-05 0 -0.026418259796379448 -0.00073206632361970132 0 -0.027712742148990818 -0.00059243399454490548 0 -0.02799186403047324 -0.00023424003813365412 0 -0.027884124457288096 -9.7936164546683535e-05 0 -0.027712742148990818 -0.00059243399454490548 0 -0.02799186403047324 -0.00023424003813365412 0 -0.028006420480531057 -0.00022292014749266144 0 -0.02799186403047324 -0.00023424003813365412 0 -0.028065794720113425 -4.573980060804655e-05 0 -0.028033477290804201 -0.00013340154995544379 0 -0.02799186403047324 -0.00023424003813365412 0 -0.028065794720113425 -4.573980060804655e-05 0 -0.027884124457288096 -9.7936164546683535e-05 0 -0.02810851545763941 0.00031025781253699058 0 -0.028086510979982587 6.8864390316709666e-06 0 -0.028065794720113425 -4.573980060804655e-05 0 -0.02810851545763941 0.00031025781253699058 0 -0.028065794720113425 -4.573980060804655e-05 0 -0.027884124457288096 -9.7936164546683535e-05 0 -0.027518461357719574 0.00042567413067342219 0 -0.02810851545763941 0.00031025781253699058 0 -0.027884124457288096 -9.7936164546683535e-05 0 -0.026949385951866228 0.00043374351150898485 0 -0.027518461357719574 0.00042567413067342219 0 -0.026418259796379448 -0.00073206632361970132 0 -0.027518461357719574 0.00042567413067342219 0 -0.027884124457288096 -9.7936164546683535e-05 0 -0.026418259796379448 -0.00073206632361970132 0 -0.026261982843535488 -0.00047865018448145784 0 -0.026169313763276494 -0.00016157653698765291 0 -0.026418259796379448 -0.00073206632361970132 0 -0.026949385951866228 0.00043374351150898485 0 -0.026261982843535488 -0.00047865018448145784 0 -0.026418259796379448 -0.00073206632361970132 0 -0.026949385951866228 0.00043374351150898485 0 -0.026432245261394836 0.00046883430208865629 0 -0.026261982843535488 -0.00047865018448145784 0 -0.025150501641253244 -0.00050935461473916859 0 -0.02308314176487667 -0.0014584289502633115 0 -0.026418259796379448 -0.00073206632361970132 0 -0.025303148244634407 -0.00092065397891339914 0 -0.026235802500244911 -0.00079264939093069405 0 -0.02122714463003628 -0.00060094766691925778 0 -0.02107958213365433 -0.00024432761007540406 0 -0.02089938104111129 -0.00081987201292851961 0 -0.024410392089287376 -0.00011373678702155212 0 -0.024366260927490467 -0.00046958431705284426 0 -0.027892463381655082 -5.9604807454997844e-05 0 -0.027953573539780278 -0.00011239476034345864 0 -0.027945938124359665 -0.00013327346512125802 0 -0.02122714463003628 -0.00060094766691925778 0 -0.0216414665501201 -0.00051075950998674224 0 -0.021355678691751253 -5.9193635623994587e-05 0 -0.021638811206989118 0.00020696087633029531 0 -0.0216414665501201 -0.00051075950998674224 0 -0.021355678691751253 -5.9193635623994587e-05 0 -0.021267870643829415 0.00032997589372323901 0 -0.021355678691751253 -5.9193635623994587e-05 0 -0.02107958213365433 -0.00024432761007540406 0 -0.027694051538787425 -0.00010974533697529858 0 -0.027892463381655082 -5.9604807454997844e-05 0 -0.027869504658829147 -6.867973987978809e-05 0 -0.025246103064405324 -0.00023918021458092228 0 -0.024410392089287376 -0.00011373678702155212 0 -0.02122714463003628 -0.00060094766691925778 0 -0.021355678691751253 -5.9193635623994587e-05 0 -0.02107958213365433 -0.00024432761007540406 0 -0.027892463381655082 -5.9604807454997844e-05 0 -0.027869504658829147 -6.867973987978809e-05 0 -0.02796175069058638 -7.5729844841137132e-05 0 -0.027869504658829147 -6.867973987978809e-05 0 -0.027935249779226335 -6.0126277097173481e-05 0 -0.02796175069058638 -7.5729844841137132e-05 0 -0.028010901531685194 -6.5595774882391106e-05 0 -0.027935249779226335 -6.0126277097173481e-05 0 -0.028007230056537935 -4.8409568450461538e-05 0 -0.027935249779226335 -6.0126277097173481e-05 0 -0.028007230056537935 -4.8409568450461538e-05 0 -0.02796175069058638 -7.5729844841137132e-05 0 -0.028007230056537935 -4.8409568450461538e-05 0 -0.02796175069058638 -7.5729844841137132e-05 0 -0.028031693242131995 -7.695388674100714e-05 0 -0.028086510979982587 6.8864390316709666e-06 0 -0.028065794720113425 -4.573980060804655e-05 0 -0.028031693242131995 -7.695388674100714e-05 0 -0.028086510979982587 6.8864390316709666e-06 0 -0.028007230056537935 -4.8409568450461538e-05 0 -0.028031693242131995 -7.695388674100714e-05 0 -0.028065794720113425 -4.573980060804655e-05 0 -0.028031693242131995 -7.695388674100714e-05 0 -0.028033477290804201 -0.00013340154995544379 0 -0.02799186403047324 -0.00023424003813365412 0 -0.028007812111162253 -0.00017892588046655025 0 -0.028006420480531057 -0.00022292014749266144 0 -0.02799186403047324 -0.00023424003813365412 0 -0.028033477290804201 -0.00013340154995544379 0 -0.028007812111162253 -0.00017892588046655025 0 -0.028031693242131995 -7.695388674100714e-05 0 -0.028033477290804201 -0.00013340154995544379 0 -0.028009759129967664 -0.00012178616029657451 0 -0.028033477290804201 -0.00013340154995544379 0 -0.028009759129967664 -0.00012178616029657451 0 -0.028007812111162253 -0.00017892588046655025 0 -0.028009759129967664 -0.00012178616029657451 0 -0.028007812111162253 -0.00017892588046655025 0 -0.02798325796757891 -0.00014200519202011219 0 -0.028007812111162253 -0.00017892588046655025 0 -0.02798325796757891 -0.00014200519202011219 0 -0.027989568497693983 -0.00017317418441603315 0 -0.027892463381655082 -5.9604807454997844e-05 0 -0.02796175069058638 -7.5729844841137132e-05 0 -0.027953573539780278 -0.00011239476034345864 0 -0.02796175069058638 -7.5729844841137132e-05 0 -0.028031693242131995 -7.695388674100714e-05 0 -0.028009759129967664 -0.00012178616029657451 0 -0.02796175069058638 -7.5729844841137132e-05 0 -0.028009759129967664 -0.00012178616029657451 0 -0.02798325796757891 -0.00014200519202011219 0 -0.02796175069058638 -7.5729844841137132e-05 0 -0.02798325796757891 -0.00014200519202011219 0 -0.027953573539780278 -0.00011239476034345864 0 -0.027953573539780278 -0.00011239476034345864 0 -0.027959685854714224 -0.00014770098677733241 0 -0.027945938124359665 -0.00013327346512125802 0 -0.027959685854714224 -0.00014770098677733241 0 -0.028006420480531057 -0.00022292014749266144 0 -0.027925415787415586 -0.0001008903098233334 0 -0.024245928857544157 -0.00063640289125806908 0 -0.023884744559711065 -0.00043441190510294295 0 -0.02020871439678127 -0.00095315058885190218 0 -0.020454504923171402 -0.0012051586383874575 0 -0.020836796533178274 -0.0011191523067047386 0 -0.02798325796757891 -0.00014200519202011219 0 -0.027959685854714224 -0.00014770098677733241 0 -0.027989568497693983 -0.00017317418441603315 0 -0.02798325796757891 -0.00014200519202011219 0 -0.027953573539780278 -0.00011239476034345864 0 -0.027959685854714224 -0.00014770098677733241 0 -0.027959685854714224 -0.00014770098677733241 0 -0.027925415787415586 -0.0001008903098233334 0 -0.027945938124359665 -0.00013327346512125802 0 -0.027959685854714224 -0.00014770098677733241 0 -0.028006420480531057 -0.00022292014749266144 0 -0.027989568497693983 -0.00017317418441603315 0 -0.028007812111162253 -0.00017892588046655025 0 -0.028006420480531057 -0.00022292014749266144 0 -0.027989568497693983 -0.00017317418441603315 0 -0.020412734652190668 -0.001214974742013368 0 -0.02020871439678127 -0.00095315058885190218 0 -0.020454504923171402 -0.0012051586383874575 0 -0.020412734652190668 -0.001214974742013368 0 -0.020454504923171402 -0.0012051586383874575 0 -0.020437434586934883 -0.0014488986871225363 0 -0.020454504923171402 -0.0012051586383874575 0 -0.020836796533178274 -0.0011191523067047386 0 -0.020751674518543959 -0.0013600050768821075 0 -0.023884744559711065 -0.00043441190510294295 0 -0.021335314065695249 -0.0017543410972181322 0 -0.020454504923171402 -0.0012051586383874575 0 -0.020437434586934883 -0.0014488986871225363 0 -0.020751674518543959 -0.0013600050768821075 0 -0.020751674518543959 -0.0013600050768821075 0 -0.021066105368904738 -0.0013392455923113295 0 -0.02097926830266381 -0.0011476955676560055 0 -0.021066105368904738 -0.0013392455923113295 0 -0.02097926830266381 -0.0011476955676560055 0 -0.021178591983008442 -0.0010732655162106408 0 -0.02082328610860908 -0.0010744343052248055 0 -0.020751674518543959 -0.0013600050768821075 0 -0.02097926830266381 -0.0011476955676560055 0 -0.02122714463003628 -0.00060094766691925778 0 -0.02089938104111129 -0.00081987201292851961 0 -0.021178591983008442 -0.0010732655162106408 0 -0.023884744559711065 -0.00043441190510294295 0 -0.024366260927490467 -0.00046958431705284426 0 -0.02082328610860908 -0.0010744343052248055 0 -0.02097926830266381 -0.0011476955676560055 0 -0.02089938104111129 -0.00081987201292851961 0 -0.02097926830266381 -0.0011476955676560055 0 -0.02089938104111129 -0.00081987201292851961 0 -0.021178591983008442 -0.0010732655162106408 0 -0.021362230449861182 -0.0010206524789530518 0 -0.021306597265101892 -0.00072844222724682741 0 -0.021178591983008442 -0.0010732655162106408 0 -0.02122714463003628 -0.00060094766691925778 0 -0.0216414665501201 -0.00051075950998674224 0 -0.021178591983008442 -0.0010732655162106408 0 -0.021306152897297519 -0.00069077602680374861 0 -0.021256249212780402 -0.0010042008652379562 0 -0.021362230449861182 -0.0010206524789530518 0 -0.021178591983008442 -0.0010732655162106408 0 -0.02125610734945858 -0.0012274091163759619 0 -0.021066105368904738 -0.0013392455923113295 0 -0.021178591983008442 -0.0010732655162106408 0 -0.02125610734945858 -0.0012274091163759619 0 -0.021066105368904738 -0.0013392455923113295 0 -0.02125610734945858 -0.0012274091163759619 0 -0.021242087416345902 -0.0014988895312722848 0 -0.021390686439170681 -0.0012009528769803817 0 -0.02125610734945858 -0.0012274091163759619 0 -0.021242087416345902 -0.0014988895312722848 0 -0.021066105368904738 -0.0013392455923113295 0 -0.021242087416345902 -0.0014988895312722848 0 -0.020868719106704216 -0.0016480721313478699 0 -0.019922361488291681 -0.0019847752549949152 0 -0.020174901108563438 -0.0019524305726065071 0 -0.020751674518543959 -0.0013600050768821075 0 -0.021066105368904738 -0.0013392455923113295 0 -0.020868719106704216 -0.0016480721313478699 0 -0.019122223432595196 -0.0024554082167511956 0 -0.019343438307326752 -0.0021771917703884429 0 -0.019436217770441383 -0.0022821795868337817 0 -0.019122223432595196 -0.0024554082167511956 0 -0.019343438307326752 -0.0021771917703884429 0 -0.019250932421187195 -0.0021183518535680293 0 -0.018569833632882803 -0.0021827094715396382 0 -0.019122223432595196 -0.0024554082167511956 0 -0.019250932421187195 -0.0021183518535680293 0 -0.020412734652190668 -0.001214974742013368 0 -0.020437434586934883 -0.0014488986871225363 0 -0.020069025693530491 -0.0018543015188148212 0 -0.02000610043954738 -0.0018690750913728405 0 -0.020174901108563438 -0.0019524305726065071 0 -0.020437434586934883 -0.0014488986871225363 0 -0.020751674518543959 -0.0013600050768821075 0 -0.020868719106704216 -0.0016480721313478699 0 -0.020437434586934883 -0.0014488986871225363 0 -0.020069025693530491 -0.0018543015188148212 0 -0.020868719106704216 -0.0016480721313478699 0 -0.020069025693530491 -0.0018543015188148212 0 -0.019436217770441383 -0.0022821795868337817 0 -0.019551710056817807 -0.0021168437174423028 0 -0.019343438307326752 -0.0021771917703884429 0 -0.019436217770441383 -0.0022821795868337817 0 -0.019551710056817807 -0.0021168437174423028 0 -0.019762522043557315 -0.0020316730223080407 0 -0.020069025693530491 -0.0018543015188148212 0 -0.019551710056817807 -0.0021168437174423028 0 -0.019473479494128441 -0.0021059762365572298 0 -0.019551710056817807 -0.0021168437174423028 0 -0.019079233497481543 -0.0024229187239650785 0 -0.019473479494128441 -0.0021059762365572298 0 -0.019762522043557315 -0.0020316730223080407 0 -0.019551710056817807 -0.0021168437174423028 0 -0.019343438307326752 -0.0021771917703884429 0 -0.019551710056817807 -0.0021168437174423028 0 -0.019079233497481543 -0.0024229187239650785 0 -0.019079233497481543 -0.0024229187239650785 0 -0.016841512796022248 -0.0021409063623106244 0 -0.018027861244131086 -0.00052840957589767089 0 -0.019473479494128441 -0.0021059762365572298 0 -0.019079233497481543 -0.0024229187239650785 0 -0.019275964099046635 -0.0014956596142256826 0 -0.019343438307326752 -0.0021771917703884429 0 -0.019079233497481543 -0.0024229187239650785 0 -0.019250932421187195 -0.0021183518535680293 0 -0.018880209816410806 -0.0025936442104893525 0 -0.017607909231580145 -0.0034902617630219739 0 -0.019079233497481543 -0.0024229187239650785 0 -0.015717788234292023 -0.0050323387511883458 0 -0.016841512796022248 -0.0021409063623106244 0 -0.012833239594991519 -0.0040233134225193656 0 -0.015717788234292023 -0.0050323387511883458 0 -0.016841512796022248 -0.0021409063623106244 0 -0.012833239594991519 -0.0040233134225193656 0 -0.016841512796022248 -0.0021409063623106244 0 -0.014391231462337334 -0.00053437503260283885 0 -0.0084344837289894344 -0.0038213416558221126 0 -0.013141659216591488 -0.0029132168064732972 0 -0.016841512796022248 -0.0021409063623106244 0 -0.014391231462337334 -0.00053437503260283885 0 -0.018027861244131086 -0.00052840957589767089 0 -0.0024368818962707821 -0.0071643010950642591 0 -0.0040429715379723024 -0.0033462054900207307 0 -0.0084284705411509162 -0.0052624514081009302 0 -0.0040429715379723024 -0.0033462054900207307 0 -0.0084284705411509162 -0.0052624514081009302 0 -0.006437384899350293 0.00012977408663072794 0 -0.0024368818962707821 -0.0071643010950642591 0 -0.0040429715379723024 -0.0033462054900207307 0 0.0015686875840954444 -0.0040317604949765187 0 -0.019079233497481543 -0.0024229187239650785 0 -0.019275964099046635 -0.0014956596142256826 0 -0.018027861244131086 -0.00052840957589767089 0 -0.013141659216591488 -0.0029132168064732972 0 -0.016692631848201096 -0.0020858217810220481 0 -0.0084284705411509162 -0.0052624514081009302 0 -0.014256507193203108 -0.0032253787150331248 0 -0.012121177611931721 0.00062967176839659152 0 -0.019275964099046635 -0.0014956596142256826 0 -0.018027861244131086 -0.00052840957589767089 0 -0.019189691435529416 -0.0010256290113135062 0 -0.014256507193203108 -0.0032253787150331248 0 -0.012121177611931721 0.00062967176839659152 0 -0.017304516888120746 0.00070219887110115672 0 -0.0074350887201762644 -0.00013179833922510872 0 -0.011548658703799864 -0.00014941779586236554 0 -0.0074350887201762644 -0.00013179833922510872 0 -0.0032101633482859741 -0.00042386143661558173 0 -0.0027472340603596187 -0.00086590451872317782 0 -0.00149189254607807 0.00031117234848164016 0 5.3620675038832962e-05 -0.00096126554525188075 0 -0.0084284705411509162 -0.0052624514081009302 0 -0.012121177611931721 0.00062967176839659152 0 -0.006437384899350293 0.00012977408663072794 0 -0.00149189254607807 0.00031117234848164016 0 -2.0086963078644209e-05 0.0012775157800009836 0 -0.0020040065842318574 0.0018832636316293626 0 -0.00149189254607807 0.00031117234848164016 0 -0.0040401041462138094 0.0010717609134597444 0 -0.0020040065842318574 0.0018832636316293626 0 -0.0027472340603596187 -0.00086590451872317782 0 -0.0040401041462138094 0.0010717609134597444 0 -0.0058970251902076129 -0.00085366013099115109 0 -0.0027472340603596187 -0.00086590451872317782 0 -0.00149189254607807 0.00031117234848164016 0 -0.0040401041462138094 0.0010717609134597444 0 -0.0040429715379723024 -0.0033462054900207307 0 -0.006437384899350293 0.00012977408663072794 0 -0.00077588080813368167 -0.00055530451528699944 0 -0.0032101633482859741 -0.00042386143661558173 0 0.00090094272593429473 -0.00089171744693230311 0 5.3620675038832962e-05 -0.00096126554525188075 0 0.0014560161172670956 0.00016696136193334408 0 0.0024854501693665578 -0.0011557833722404813 0 -0.00149189254607807 0.00031117234848164016 0 5.3620675038832962e-05 -0.00096126554525188075 0 -2.0086963078644209e-05 0.0012775157800009836 0 5.3620675038832962e-05 -0.00096126554525188075 0 0.0014560161172670956 0.00016696136193334408 0 -2.0086963078644209e-05 0.0012775157800009836 0 0.0014560161172670956 0.00016696136193334408 0 0.0021642638310456499 0.0015035285827870585 0 -2.0086963078644209e-05 0.0012775157800009836 0 0.0014560161172670956 0.00016696136193334408 0 0.0025123554400769284 0.00020659235263371773 0 0.0024854501693665578 -0.0011557833722404813 0 0.0014560161172670956 0.00016696136193334408 0 0.0021642638310456499 0.0015035285827870585 0 0.0025123554400769284 0.00020659235263371773 0 0.0021642638310456499 0.0015035285827870585 0 0.00041461003457196773 0.0029519807270183504 0 -2.0086963078644209e-05 0.0012775157800009836 0 0.0029272600954633964 0.0015248953001491964 0 0.00086400584982851154 0.0029968091754291144 0 0.0037221007798393345 0.0015168759261214189 0 0.0033932320208875442 0.0032274783254652183 0 0.0014382608710320963 0.0029413680710547864 0 0.0033932320208875442 0.0032274783254652183 0 0.0023516817251556621 0.0044280957500405487 0 0.0014382608710320963 0.0029413680710547864 0 0.0033932320208875442 0.0032274783254652183 0 0.0023516817251556621 0.0044280957500405487 0 0.0041538984431612105 0.0044185682348115082 0 0.00029100779601532362 0.004518222431103185 0 0.0014382608710320963 0.0029413680710547864 0 -0.0013798558658731253 0.0046339498955048821 0 0.00041461003457196773 0.0029519807270183504 0 -0.001008374582845343 0.0033838965865075898 0 -0.0013798558658731253 0.0046339498955048821 0 0.00086400584982851154 0.0029968091754291144 0 -0.0012378192755269227 0.0045211953558551001 0 0.00029100779601532362 0.004518222431103185 0 0.001331135548642024 0.0043513261472834536 0 0.0011848408556832278 0.0055193977224028308 0 0.00029100779601532362 0.004518222431103185 0 0.001331135548642024 0.0043513261472834536 0 0.0014382608710320963 0.0029413680710547864 0 0.0023516817251556621 0.0044280957500405487 0 0.001331135548642024 0.0043513261472834536 0 0.0011848408556832278 0.0055193977224028308 0 0.0023516817251556621 0.0044280957500405487 0 0.001331135548642024 0.0043513261472834536 0 0.0014382608710320963 0.0029413680710547864 0 0.00041461003457196773 0.0029519807270183504 0 -0.00098628926656679967 0.0026164570459938871 0 -0.001008374582845343 0.0033838965865075898 0 0.00041461003457196773 0.0029519807270183504 0 -2.0086963078644209e-05 0.0012775157800009836 0 -0.00098628926656679967 0.0026164570459938871 0 -2.0086963078644209e-05 0.0012775157800009836 0 -0.0020040065842318574 0.0018832636316293626 0 -0.00098628926656679967 0.0026164570459938871 0 -0.0020040065842318574 0.0018832636316293626 0 -0.00098628926656679967 0.0026164570459938871 0 -0.0021775313693843954 0.0033149050928660711 0 -0.0040401041462138094 0.0010717609134597444 0 -0.0020040065842318574 0.0018832636316293626 0 -0.0037961062509517204 0.0026733913740241426 0 -0.0020040065842318574 0.0018832636316293626 0 -0.0037961062509517204 0.0026733913740241426 0 -0.0021775313693843954 0.0033149050928660711 0 -0.0021419929334058206 0.0046837726161607666 0 0.0014152656955925278 0.0064471481298216671 0 -0.0044936335459733589 0.0055605454393002178 0 -0.0037961062509517204 0.0026733913740241426 0 -0.003430434900162543 0.0042093715260420814 0 -0.0055052329510785272 0.00336781680232101 0 -0.0037961062509517204 0.0026733913740241426 0 -0.003430434900162543 0.0042093715260420814 0 -0.0021775313693843954 0.0033149050928660711 0 -0.0036416243738604938 0.0041701154332996777 0 0.0057230217341330929 0.0045761281787853846 0 -0.003430434900162543 0.0042093715260420814 0 -0.0013798558658731253 0.0046339498955048821 0 -0.0012380751801758134 0.0052470312774230421 0 -0.003430434900162543 0.0042093715260420814 0 -0.0021775313693843954 0.0033149050928660711 0 -0.0013798558658731253 0.0046339498955048821 0 -0.001008374582845343 0.0033838965865075898 0 -0.0021775313693843954 0.0033149050928660711 0 -0.0013798558658731253 0.0046339498955048821 0 -0.00098628926656679967 0.0026164570459938871 0 -0.001008374582845343 0.0033838965865075898 0 -0.0021775313693843954 0.0033149050928660711 0 -0.0013798558658731253 0.0046339498955048821 0 -0.00056546221838581212 0.0048603133724752882 0 -0.0012380751801758134 0.0052470312774230421 0 0.00029100779601532362 0.004518222431103185 0 -0.0013798558658731253 0.0046339498955048821 0 -0.00056546221838581212 0.0048603133724752882 0 0.019713790085899751 0.00034227812766787275 0 0.019776599332349126 -0.00013677880515716292 0 0.02030148238342654 0.00012249708232921523 0 0.019776599332349126 -0.00013677880515716292 0 0.019433858438345539 -0.00055165244990482674 0 0.0197213187139826 -0.00075243131606486603 0 0.019713790085899751 0.00034227812766787275 0 0.019776599332349126 -0.00013677880515716292 0 0.019080287066035633 -0.00034234644779394054 0 0.019776599332349126 -0.00013677880515716292 0 0.019433858438345539 -0.00055165244990482674 0 0.019080287066035633 -0.00034234644779394054 0 0.019713790085899751 0.00034227812766787275 0 0.02030148238342654 0.00012249708232921523 0 0.019851206865570358 -0.00013199829620521319 0 0.0057230217341330929 0.0045761281787853846 0 0.009182021636896515 0.0026531759766034815 0 0.019776599332349126 -0.00013677880515716292 0 0.02030148238342654 0.00012249708232921523 0 0.020153419032756515 -0.00060124140436785623 0 0.02030148238342654 0.00012249708232921523 0 0.02093786114831862 -0.0011973438226125243 0 0.021918321995303528 -0.0004775097635465774 0 0.02030148238342654 0.00012249708232921523 0 0.020153419032756515 -0.00060124140436785623 0 0.02093786114831862 -0.0011973438226125243 0 0.020153419032756515 -0.00060124140436785623 0 0.02093786114831862 -0.0011973438226125243 0 0.020090216344199763 -0.0012174978884349295 0 0.02093786114831862 -0.0011973438226125243 0 0.020090216344199763 -0.0012174978884349295 0 0.020106153801045572 -0.0020822019703196385 0 0.019155403648094205 -0.00097604741047174878 0 0.0197213187139826 -0.00075243131606486603 0 0.019630973042631807 -0.0014314249146005571 0 0.019155403648094205 -0.00097604741047174878 0 0.019433858438345539 -0.00055165244990482674 0 0.019080287066035633 -0.00034234644779394054 0 0.019155403648094205 -0.00097604741047174878 0 0.019433858438345539 -0.00055165244990482674 0 0.0197213187139826 -0.00075243131606486603 0 0.019776599332349126 -0.00013677880515716292 0 0.020153419032756515 -0.00060124140436785623 0 0.0197213187139826 -0.00075243131606486603 0 0.020153419032756515 -0.00060124140436785623 0 0.0197213187139826 -0.00075243131606486603 0 0.020090216344199763 -0.0012174978884349295 0 0.0197213187139826 -0.00075243131606486603 0 0.019630973042631807 -0.0014314249146005571 0 0.020090216344199763 -0.0012174978884349295 0 0.019630973042631807 -0.0014314249146005571 0 0.020090216344199763 -0.0012174978884349295 0 0.020106153801045572 -0.0020822019703196385 0 0.019155403648094205 -0.00097604741047174878 0 0.019630973042631807 -0.0014314249146005571 0 0.019163368116410871 -0.0018739333228919471 0 0.019155403648094205 -0.00097604741047174878 0 0.018552002771086047 -0.0013009118250311633 0 0.019163368116410871 -0.0018739333228919471 0 0.019155403648094205 -0.00097604741047174878 0 0.01838784644212162 -0.00070396283006184275 0 0.019080287066035633 -0.00034234644779394054 0 0.019155403648094205 -0.00097604741047174878 0 0.018552002771086047 -0.0013009118250311633 0 0.01838784644212162 -0.00070396283006184275 0 0.01838784644212162 -0.00070396283006184275 0 0.017939122610541425 -0.00093271359336265279 0 0.017869557216419675 -0.00028326026719099087 0 0.018552002771086047 -0.0013009118250311633 0 0.01838784644212162 -0.00070396283006184275 0 0.017939122610541425 -0.00093271359336265279 0 0.018552002771086047 -0.0013009118250311633 0 0.017939122610541425 -0.00093271359336265279 0 0.01778828088790247 -0.0016897866990761435 0 0.01778828088790247 -0.0016897866990761435 0 0.017093000301192179 -0.00067805645740818589 0 0.017190430070776388 -0.0029303305399941168 0 0.022031502822495046 -0.0016027921218626836 0 0.022120326770206724 -0.002726721249195159 0 0.021460436846252779 -0.0018986602056624273 0 0.017939122610541425 -0.00093271359336265279 0 0.01778828088790247 -0.0016897866990761435 0 0.017093000301192179 -0.00067805645740818589 0 0.017939122610541425 -0.00093271359336265279 0 0.017093000301192179 -0.00067805645740818589 0 0.017869557216419675 -0.00028326026719099087 0 0.012107829296835173 -0.0012619635619115928 0 0.012075828623830229 -0.00065968564984525099 0 0.012679998709229527 -0.00097057423489131732 0 0.011330123557906493 0.0013202756616659162 0 0.0070537224667724481 0.0026201514982776828 0 0.0023516817251556621 0.0044280957500405487 0 0.0018043841959011597 0.0064269670900875932 0 0.0041538984431612105 0.0044185682348115082 0 0.015365208462047262 -0.0013664023831324729 0 0.011330123557906493 0.0013202756616659162 0 0.012075828623830229 -0.00065968564984525099 0 0.012679998709229527 -0.00097057423489131732 0 0.011526180179001326 -6.6503039760491283e-05 0 0.015365208462047262 -0.0013664023831324729 0 0.013267000644028691 -0.00076819687707266359 0 0.012123629051316564 -0.0012735094608793808 0 0.012075828623830229 -0.00065968564984525099 0 0.011428680057880228 -0.00094592754487456501 0 -0.00042247223772832657 0.005235174749391551 0 0.0011848408556832278 0.0055193977224028308 0 0.0018043841959011597 0.0064269670900875932 0 0.0023516817251556621 0.0044280957500405487 0 0.0011848408556832278 0.0055193977224028308 0 0.0018043841959011597 0.0064269670900875932 0 0.019713790085899751 0.00034227812766787275 0 0.019080287066035633 -0.00034234644779394054 0 0.017830564909839593 -0.00022623916748045522 0 0.0057230217341330929 0.0045761281787853846 0 0.011330123557906493 0.0013202756616659162 0 -0.00056546221838581212 0.0048603133724752882 0 -0.0012380751801758134 0.0052470312774230421 0 0.0011848408556832278 0.0055193977224028308 0 0.0057230217341330929 0.0045761281787853846 0 -0.00097259370118889254 0.0051027983662413467 0 0.00029100779601532362 0.004518222431103185 0 -0.00056546221838581212 0.0048603133724752882 0 0.0011848408556832278 0.0055193977224028308 0 0.01838784644212162 -0.00070396283006184275 0 0.019080287066035633 -0.00034234644779394054 0 0.017830564909839593 -0.00022623916748045522 0 0.017003430979216628 -0.0016279963904591802 0 0.011330123557906493 0.0013202756616659162 0 0.025756455772391888 -2.1682318630904834e-05 0 0.024690878191826606 -5.4139538150142095e-05 0 0.025429842070540644 0.00061260724002670862 0 0.024690878191826606 -5.4139538150142095e-05 0 0.024770004249618324 0.00056736374259182059 0 0.024057977977682395 0.00053064391346831533 0 0.024770004249618324 0.00056736374259182059 0 0.025429842070540644 0.00061260724002670862 0 0.024974943111784463 0.0012696183286166197 0 0.024690878191826606 -5.4139538150142095e-05 0 0.024770004249618324 0.00056736374259182059 0 0.025429842070540644 0.00061260724002670862 0 0.024770004249618324 0.00056736374259182059 0 0.024057977977682395 0.00053064391346831533 0 0.024974943111784463 0.0012696183286166197 0 0.025429842070540644 0.00061260724002670862 0 0.025630346727680275 0.00095834418581945615 0 0.024974943111784463 0.0012696183286166197 0 0.025429842070540644 0.00061260724002670862 0 0.025910608423171222 0.00083954405724877116 0 0.025630346727680275 0.00095834418581945615 0 0.025756455772391888 -2.1682318630904834e-05 0 0.025429842070540644 0.00061260724002670862 0 0.026038814825247242 0.00046275732305491968 0 0.025429842070540644 0.00061260724002670862 0 0.025910608423171222 0.00083954405724877116 0 0.026038814825247242 0.00046275732305491968 0 0.025910608423171222 0.00083954405724877116 0 0.026038814825247242 0.00046275732305491968 0 0.026289875479859989 0.00078938440320002964 0 0.026038814825247242 0.00046275732305491968 0 0.026289875479859989 0.00078938440320002964 0 0.026623928763693554 0.00055687630824443181 0 0.026623928763693554 0.00055687630824443181 0 0.02662883431836606 0.00085713416597206233 0 0.027014341942087915 0.000740793701427727 0 0.026289875479859989 0.00078938440320002964 0 0.026623928763693554 0.00055687630824443181 0 0.02662883431836606 0.00085713416597206233 0 0.026038814825247242 0.00046275732305491968 0 0.026623928763693554 0.00055687630824443181 0 0.026470761024996646 -0.00013256606862619487 0 0.026623928763693554 0.00055687630824443181 0 0.026470761024996646 -0.00013256606862619487 0 0.027084454442139052 0.00041607413425372576 0 0.025756455772391888 -2.1682318630904834e-05 0 0.026038814825247242 0.00046275732305491968 0 0.026470761024996646 -0.00013256606862619487 0 0.026470761024996646 -0.00013256606862619487 0 0.026900419156441917 -0.0013779203351412606 0 0.025758646337074642 -0.0010658309281384095 0 0.025756455772391888 -2.1682318630904834e-05 0 0.026470761024996646 -0.00013256606862619487 0 0.025758646337074642 -0.0010658309281384095 0 0.025749806041206504 -0.00015660516025457251 0 0.025629622692650962 -0.0014114804705130696 0 0.025756455772391888 -2.1682318630904834e-05 0 0.024485198368679545 -0.0012689262800743973 0 0.025560312548881005 -0.0018538539364311626 0 0.024690878191826606 -5.4139538150142095e-05 0 0.024485198368679545 -0.0012689262800743973 0 0.023769636169578282 -0.0006434905918524551 0 0.025756455772391888 -2.1682318630904834e-05 0 0.024690878191826606 -5.4139538150142095e-05 0 0.024485198368679545 -0.0012689262800743973 0 0.024485198368679545 -0.0012689262800743973 0 0.02340948557549654 -0.0015707732250089164 0 0.023979529746318107 -0.002342395529282019 0 0.024485198368679545 -0.0012689262800743973 0 0.02340948557549654 -0.0015707732250089164 0 0.023769636169578282 -0.0006434905918524551 0 0.02340948557549654 -0.0015707732250089164 0 0.022734761766297268 -0.00099807626754033676 0 0.022451719341924532 -0.0018569829907561074 0 0.023769636169578282 -0.0006434905918524551 0 0.022734761766297268 -0.00099807626754033676 0 0.023066800545827739 -0.00013626582753632134 0 0.02340948557549654 -0.0015707732250089164 0 0.023769636169578282 -0.0006434905918524551 0 0.022734761766297268 -0.00099807626754033676 0 0.02093786114831862 -0.0011973438226125243 0 0.021859106820734841 -0.0012924916976877802 0 0.021510312743780985 -0.0022963220459137649 0 0.021859106820734841 -0.0012924916976877802 0 0.022734761766297268 -0.00099807626754033676 0 0.022451719341924532 -0.0018569829907561074 0 0.021859106820734841 -0.0012924916976877802 0 0.022734761766297268 -0.00099807626754033676 0 0.021918321995303528 -0.0004775097635465774 0 0.022734761766297268 -0.00099807626754033676 0 0.021918321995303528 -0.0004775097635465774 0 0.023066800545827739 -0.00013626582753632134 0 0.02093786114831862 -0.0011973438226125243 0 0.021859106820734841 -0.0012924916976877802 0 0.021918321995303528 -0.0004775097635465774 0 0.02030148238342654 0.00012249708232921523 0 0.021918321995303528 -0.0004775097635465774 0 0.022810709912762798 0.0008936384358332293 0 0.020455138269710332 0.00025365284193833013 0 0.020253581602709403 0.00047374519329449404 0 0.02030148238342654 0.00012249708232921523 0 0.018607787674230557 0.00035262059950286651 0 0.019851206865570358 -0.00013199829620521319 0 0.021918321995303528 -0.0004775097635465774 0 0.022810709912762798 0.0008936384358332293 0 0.023066800545827739 -0.00013626582753632134 0 0.022810709912762798 0.0008936384358332293 0 0.024057977977682395 0.00053064391346831533 0 0.024974943111784463 0.0012696183286166197 0 0.024690878191826606 -5.4139538150142095e-05 0 0.023769636169578282 -0.0006434905918524551 0 0.024057977977682395 0.00053064391346831533 0 0.023769636169578282 -0.0006434905918524551 0 0.023066800545827739 -0.00013626582753632134 0 0.024057977977682395 0.00053064391346831533 0 0.022810709912762798 0.0008936384358332293 0 0.023066800545827739 -0.00013626582753632134 0 0.024057977977682395 0.00053064391346831533 0 0.018607787674230557 0.00035262059950286651 0 0.019851206865570358 -0.00013199829620521319 0 0.016516348163199902 -0.00061794022410358159 0 0.009182021636896515 0.0026531759766034815 0 0.001439728896769426 0.001845654223151028 0 0.020253581602709403 0.00047374519329449404 0 0.022224779920359108 0.00066266897368721391 0 0.018607787674230557 0.00035262059950286651 0 0.015687020521731571 -0.00030407585955021535 0 0.016516348163199902 -0.00061794022410358159 0 -0.0075161187809080193 0.0033771233828544119 0 -0.0044936335459733589 0.0055605454393002178 0 -0.0090310892558357787 0.0045476367440915521 0 -0.0075161187809080193 0.0033771233828544119 0 -0.0088263145813310476 0.0034182507228827045 0 -0.0090310892558357787 0.0045476367440915521 0 -0.0075161187809080193 0.0033771233828544119 0 -0.0044936335459733589 0.0055605454393002178 0 -0.0055052329510785272 0.00336781680232101 0 -0.0021419929334058206 0.0046837726161607666 0 -0.0044936335459733589 0.0055605454393002178 0 -0.0055052329510785272 0.00336781680232101 0 -0.0036416243738604938 0.0041701154332996777 0 -0.0049242672227772415 0.0035678152670555957 0 -0.0040401041462138094 0.0010717609134597444 0 -0.0037961062509517204 0.0026733913740241426 0 -0.0058498521706700181 0.0021280952027766297 0 -0.0037961062509517204 0.0026733913740241426 0 -0.0055052329510785272 0.00336781680232101 0 -0.0058498521706700181 0.0021280952027766297 0 -0.0075161187809080193 0.0033771233828544119 0 -0.0055052329510785272 0.00336781680232101 0 -0.0058498521706700181 0.0021280952027766297 0 -0.0058498521706700181 0.0021280952027766297 0 -0.0073376379965627821 0.0019706496984580909 0 -0.0059956675329775394 0.00082981584358116122 0 -0.0040401041462138094 0.0010717609134597444 0 -0.0058498521706700181 0.0021280952027766297 0 -0.0059956675329775394 0.00082981584358116122 0 -0.0075161187809080193 0.0033771233828544119 0 -0.0088263145813310476 0.0034182507228827045 0 -0.0084032789744685824 0.0027324033807895561 0 -0.0084032789744685824 0.0027324033807895561 0 -0.0088319637859027959 0.0019857698145560893 0 -0.0093342428007621575 0.0028550899185160275 0 -0.0088263145813310476 0.0034182507228827045 0 -0.0084032789744685824 0.0027324033807895561 0 -0.0093342428007621575 0.0028550899185160275 0 -0.0075161187809080193 0.0033771233828544119 0 -0.0084032789744685824 0.0027324033807895561 0 -0.0073376379965627821 0.0019706496984580909 0 -0.0075161187809080193 0.0033771233828544119 0 -0.0058498521706700181 0.0021280952027766297 0 -0.0073376379965627821 0.0019706496984580909 0 -0.0073376379965627821 0.0019706496984580909 0 -0.0059956675329775394 0.00082981584358116122 0 -0.0079589345167536425 0.00077605253249078438 0 -0.0084032789744685824 0.0027324033807895561 0 -0.0073376379965627821 0.0019706496984580909 0 -0.0088319637859027959 0.0019857698145560893 0 -0.0073376379965627821 0.0019706496984580909 0 -0.0088319637859027959 0.0019857698145560893 0 -0.0079589345167536425 0.00077605253249078438 0 -0.0088319637859027959 0.0019857698145560893 0 -0.0098215689755743046 0.0021789776077313799 0 -0.0097762588502119142 0.0011867957696902914 0 -0.0098215689755743046 0.0021789776077313799 0 -0.010082437959559536 0.0028745038042978701 0 -0.01068570826366619 0.0020619912675774797 0 -0.012833635346554326 0.0024390988532079724 0 -0.010131937532465394 0.0014375021705445056 0 -0.0098215689755743046 0.0021789776077313799 0 -0.01068570826366619 0.0020619912675774797 0 -0.0097762588502119142 0.0011867957696902914 0 -0.010082437959559536 0.0028745038042978701 0 -0.010651242029345474 0.0031359212198853337 0 -0.01068570826366619 0.0020619912675774797 0 -0.0088319637859027959 0.0019857698145560893 0 -0.0098215689755743046 0.0021789776077313799 0 -0.0093342428007621575 0.0028550899185160275 0 -0.0098215689755743046 0.0021789776077313799 0 -0.010082437959559536 0.0028745038042978701 0 -0.0093342428007621575 0.0028550899185160275 0 -0.010082437959559536 0.0028745038042978701 0 -0.0093342428007621575 0.0028550899185160275 0 -0.0095511577706455988 0.003561578600421176 0 0.015687020521731571 -0.00030407585955021535 0 0.016516348163199902 -0.00061794022410358159 0 0.01243454792901592 -0.0011714905596444671 0 -0.0088263145813310476 0.0034182507228827045 0 -0.0095511577706455988 0.003561578600421176 0 -0.0090310892558357787 0.0045476367440915521 0 -0.010291484185926304 0.0037335842077790603 0 -0.0090310892558357787 0.0045476367440915521 0 -0.011527106466957765 0.0034261984653331267 0 -0.0095511577706455988 0.003561578600421176 0 -0.010291484185926304 0.0037335842077790603 0 -0.0090310892558357787 0.0045476367440915521 0 -0.0088263145813310476 0.0034182507228827045 0 -0.0093342428007621575 0.0028550899185160275 0 -0.0095511577706455988 0.003561578600421176 0 0.001439728896769426 0.001845654223151028 0 0.0098690261510090103 0.0011101140041698569 0 0.025630346727680275 0.00095834418581945615 0 0.024974943111784463 0.0012696183286166197 0 0.026191289852346689 0.0010843092438361191 0 -0.010082437959559536 0.0028745038042978701 0 -0.0095511577706455988 0.003561578600421176 0 -0.010291484185926304 0.0037335842077790603 0 -0.010082437959559536 0.0028745038042978701 0 -0.010291484185926304 0.0037335842077790603 0 -0.010651242029345474 0.0031359212198853337 0 0.024974943111784463 0.0012696183286166197 0 0.026191289852346689 0.0010843092438361191 0 0.026668532531567327 0.0012843652022653067 0 0.022224779920359108 0.00066266897368721391 0 0.0098690261510090103 0.0011101140041698569 0 0.02658007940649923 0.0010481558595057678 0 0.026191289852346689 0.0010843092438361191 0 0.026668532531567327 0.0012843652022653067 0 0.02658007940649923 0.0010481558595057678 0 0.026668532531567327 0.0012843652022653067 0 0.026809003753042515 0.00097123069402272775 0 0.02658007940649923 0.0010481558595057678 0 0.02662883431836606 0.00085713416597206233 0 0.026809003753042515 0.00097123069402272775 0 0.02658007940649923 0.0010481558595057678 0 0.02662883431836606 0.00085713416597206233 0 0.026191289852346689 0.0010843092438361191 0 0.026289875479859989 0.00078938440320002964 0 0.02662883431836606 0.00085713416597206233 0 0.026191289852346689 0.0010843092438361191 0 0.025910608423171222 0.00083954405724877116 0 0.026289875479859989 0.00078938440320002964 0 0.026191289852346689 0.0010843092438361191 0 0.025910608423171222 0.00083954405724877116 0 0.025630346727680275 0.00095834418581945615 0 0.026191289852346689 0.0010843092438361191 0 -0.010291484185926304 0.0037335842077790603 0 -0.010944533782267974 0.003498948448446055 0 -0.011527106466957765 0.0034261984653331267 0 -0.010291484185926304 0.0037335842077790603 0 -0.010944533782267974 0.003498948448446055 0 -0.010651242029345474 0.0031359212198853337 0 -0.010944533782267974 0.003498948448446055 0 -0.01122317501366348 0.0031418928972164104 0 -0.010651242029345474 0.0031359212198853337 0 -0.010944533782267974 0.003498948448446055 0 -0.01122317501366348 0.0031418928972164104 0 -0.011320756246005696 0.0033930818965941809 0 -0.01122317501366348 0.0031418928972164104 0 -0.011320756246005696 0.0033930818965941809 0 -0.011495047385969397 0.0034270781184924087 0 -0.010944533782267974 0.003498948448446055 0 -0.011320756246005696 0.0033930818965941809 0 -0.011527106466957765 0.0034261984653331267 0 -0.011320756246005696 0.0033930818965941809 0 -0.011527106466957765 0.0034261984653331267 0 -0.011495047385969397 0.0034270781184924087 0 -0.011527106466957765 0.0034261984653331267 0 -0.011495047385969397 0.0034270781184924087 0 -0.011365223101860845 0.0035595033193964861 0 -0.014785497463187533 0.0033513081079915128 0 -0.019557865449340978 0.00015823210457820548 0 -0.019491766896599497 0.0044404768508774098 0 -0.011115823655362339 0.0027876732983348933 0 -0.01068570826366619 0.0020619912675774797 0 -0.011802643309219265 0.0025991771496459222 0 -0.011495047385969397 0.0034270781184924087 0 -0.011365223101860845 0.0035595033193964861 0 -0.011395126349214225 0.0038841403447097906 0 -0.01122317501366348 0.0031418928972164104 0 -0.011115823655362339 0.0027876732983348933 0 -0.011802643309219265 0.0025991771496459222 0 -0.012684718966728518 0.0042214436687544798 0 -0.016268711200507689 -0.00053390432746415028 0 -0.01122317501366348 0.0031418928972164104 0 -0.011495047385969397 0.0034270781184924087 0 -0.011802643309219265 0.0025991771496459222 0 -0.010651242029345474 0.0031359212198853337 0 -0.011115823655362339 0.0027876732983348933 0 -0.01068570826366619 0.0020619912675774797 0 -0.01122317501366348 0.0031418928972164104 0 -0.010651242029345474 0.0031359212198853337 0 -0.011115823655362339 0.0027876732983348933 0 -0.012833635346554326 0.0024390988532079724 0 -0.016268711200507689 -0.00053390432746415028 0 -0.019689487120616647 -0.00045142126975544652 0 -0.019662077134989703 -0.00030330333002562222 0 -0.019557865449340978 0.00015823210457820548 0 -0.013655389452434634 0.0009297028441339173 0 -0.010603854537825849 -0.0010809910733532726 0 -0.019557865449340978 0.00015823210457820548 0 -0.014785497463187533 0.0033513081079915128 0 -0.013655389452434634 0.0009297028441339173 0 -0.019557865449340978 0.00015823210457820548 0 -0.01520784858285199 -0.00054268950645363495 0 -0.019323962990617418 5.1459226129900222e-05 0 -0.019689487120616647 -0.00045142126975544652 0 -0.01994128014783942 -0.00073340808858159167 0 -0.019557865449340978 0.00015823210457820548 0 -0.014785497463187533 0.0033513081079915128 0 -0.013655389452434634 0.0009297028441339173 0 -0.0097762588502119142 0.0011867957696902914 0 -0.013655389452434634 0.0009297028441339173 0 -0.0097762588502119142 0.0011867957696902914 0 -0.010603854537825849 -0.0010809910733532726 0 -0.0097762588502119142 0.0011867957696902914 0 -0.010603854537825849 -0.0010809910733532726 0 -0.0079589345167536425 0.00077605253249078438 0 -0.019689487120616647 -0.00045142126975544652 0 -0.019662077134989703 -0.00030330333002562222 0 -0.019639202089133456 -0.00058515449411347361 0 -0.01957468255442665 -0.00095102885755732228 0 -0.018981092668022965 -0.0011872091049242885 0 -0.019623732608844969 -0.0013607816207326297 0 -0.019639202089133456 -0.00058515449411347361 0 -0.01957468255442665 -0.00095102885755732228 0 -0.019853077501147429 -0.0009159903994956657 0 -0.019639202089133456 -0.00058515449411347361 0 -0.01957468255442665 -0.00095102885755732228 0 -0.019245403942570072 -0.00058179641921718298 0 -0.019662077134989703 -0.00030330333002562222 0 -0.019639202089133456 -0.00058515449411347361 0 -0.019245403942570072 -0.00058179641921718298 0 -0.01957468255442665 -0.00095102885755732228 0 -0.019853077501147429 -0.0009159903994956657 0 -0.019855759332767065 -0.0012773907755953304 0 -0.019853077501147429 -0.0009159903994956657 0 -0.020149116094393498 -0.0014303391552303417 0 -0.020295603689832048 -0.0011887932552935505 0 -0.019853077501147429 -0.0009159903994956657 0 -0.01994128014783942 -0.00073340808858159167 0 -0.020295603689832048 -0.0011887932552935505 0 -0.019689487120616647 -0.00045142126975544652 0 -0.019853077501147429 -0.0009159903994956657 0 -0.01994128014783942 -0.00073340808858159167 0 -0.019689487120616647 -0.00045142126975544652 0 -0.019639202089133456 -0.00058515449411347361 0 -0.019853077501147429 -0.0009159903994956657 0 -0.0040401041462138094 0.0010717609134597444 0 -0.0059956675329775394 0.00082981584358116122 0 -0.0058970251902076129 -0.00085366013099115109 0 -0.01520784858285199 -0.00054268950645363495 0 -0.011548658703799864 -0.00014941779586236554 0 -0.010603854537825849 -0.0010809910733532726 0 -0.0058970251902076129 -0.00085366013099115109 0 -0.0079589345167536425 0.00077605253249078438 0 -0.019662077134989703 -0.00030330333002562222 0 -0.017304516888120746 0.00070219887110115672 0 -0.019245403942570072 -0.00058179641921718298 0 -0.0059956675329775394 0.00082981584358116122 0 -0.0058970251902076129 -0.00085366013099115109 0 -0.0079589345167536425 0.00077605253249078438 0 -0.0088319637859027959 0.0019857698145560893 0 -0.0097762588502119142 0.0011867957696902914 0 -0.0079589345167536425 0.00077605253249078438 0 -0.01957468255442665 -0.00095102885755732228 0 -0.019245403942570072 -0.00058179641921718298 0 -0.018981092668022965 -0.0011872091049242885 0 -0.017304516888120746 0.00070219887110115672 0 -0.019245403942570072 -0.00058179641921718298 0 -0.018981092668022965 -0.0011872091049242885 0 -0.014256507193203108 -0.0032253787150331248 0 -0.017304516888120746 0.00070219887110115672 0 -0.018981092668022965 -0.0011872091049242885 0 -0.016692631848201096 -0.0020858217810220481 0 -0.018873167016856787 -0.0012582312044322377 0 -0.019275964099046635 -0.0014956596142256826 0 -0.019189691435529416 -0.0010256290113135062 0 -0.019273874144163431 -0.0012859834058928531 0 -0.019189691435529416 -0.0010256290113135062 0 -0.018981092668022965 -0.0011872091049242885 0 -0.019273874144163431 -0.0012859834058928531 0 -0.018981092668022965 -0.0011872091049242885 0 -0.019273874144163431 -0.0012859834058928531 0 -0.019328119766679114 -0.0013518086499309007 0 -0.018981092668022965 -0.0011872091049242885 0 -0.019328119766679114 -0.0013518086499309007 0 -0.019623732608844969 -0.0013607816207326297 0 -0.019328119766679114 -0.0013518086499309007 0 -0.019605123574894821 -0.0015944044533525434 0 -0.019623732608844969 -0.0013607816207326297 0 -0.019273874144163431 -0.0012859834058928531 0 -0.019328119766679114 -0.0013518086499309007 0 -0.019483434269269708 -0.0016346452171902386 0 -0.019328119766679114 -0.0013518086499309007 0 -0.019605123574894821 -0.0015944044533525434 0 -0.019483434269269708 -0.0016346452171902386 0 -0.019741494391436683 -0.0018197099045840672 0 -0.019605123574894821 -0.0015944044533525434 0 -0.019483434269269708 -0.0016346452171902386 0 -0.019275964099046635 -0.0014956596142256826 0 -0.019273874144163431 -0.0012859834058928531 0 -0.019483434269269708 -0.0016346452171902386 0 -0.019978035935309398 -0.0015528706803091923 0 -0.020149116094393498 -0.0014303391552303417 0 -0.019855759332767065 -0.0012773907755953304 0 -0.019978035935309398 -0.0015528706803091923 0 -0.020149116094393498 -0.0014303391552303417 0 -0.020244908804307682 -0.0017946362494444847 0 -0.020149116094393498 -0.0014303391552303417 0 -0.020244908804307682 -0.0017946362494444847 0 -0.020373034559490837 -0.0015832739187619719 0 -0.019853077501147429 -0.0009159903994956657 0 -0.020149116094393498 -0.0014303391552303417 0 -0.019855759332767065 -0.0012773907755953304 0 -0.01957468255442665 -0.00095102885755732228 0 -0.019855759332767065 -0.0012773907755953304 0 -0.019623732608844969 -0.0013607816207326297 0 -0.019978035935309398 -0.0015528706803091923 0 -0.019855759332767065 -0.0012773907755953304 0 -0.019623732608844969 -0.0013607816207326297 0 -0.019978035935309398 -0.0015528706803091923 0 -0.019623732608844969 -0.0013607816207326297 0 -0.019945259435368963 -0.0017549587946095577 0 -0.019605123574894821 -0.0015944044533525434 0 -0.019623732608844969 -0.0013607816207326297 0 -0.019945259435368963 -0.0017549587946095577 0 -0.019741494391436683 -0.0018197099045840672 0 -0.019605123574894821 -0.0015944044533525434 0 -0.019945259435368963 -0.0017549587946095577 0 -0.020261805362054151 -0.0019634830368565667 0 -0.019945259435368963 -0.0017549587946095577 0 -0.020244908804307682 -0.0017946362494444847 0 -0.019978035935309398 -0.0015528706803091923 0 -0.019945259435368963 -0.0017549587946095577 0 -0.020244908804307682 -0.0017946362494444847 0 -0.020475768046357819 -0.0020402093402381474 0 -0.020261805362054151 -0.0019634830368565667 0 -0.020244908804307682 -0.0017946362494444847 0 -0.02041805963441844 -0.0018659498182661989 0 -0.020598796258694256 -0.0014021685594013094 0 -0.020483266984987539 -0.0022380985016856201 0 -0.020475768046357819 -0.0020402093402381474 0 -0.020244908804307682 -0.0017946362494444847 0 -0.02041805963441844 -0.0018659498182661989 0 -0.020475768046357819 -0.0020402093402381474 0 -0.02041805963441844 -0.0018659498182661989 0 -0.020483266984987539 -0.0022380985016856201 0 -0.020244908804307682 -0.0017946362494444847 0 -0.02041805963441844 -0.0018659498182661989 0 -0.020373034559490837 -0.0015832739187619719 0 -0.02041805963441844 -0.0018659498182661989 0 -0.020373034559490837 -0.0015832739187619719 0 -0.020598796258694256 -0.0014021685594013094 0 -0.020149116094393498 -0.0014303391552303417 0 -0.020373034559490837 -0.0015832739187619719 0 -0.020295603689832048 -0.0011887932552935505 0 -0.020373034559490837 -0.0015832739187619719 0 -0.020598796258694256 -0.0014021685594013094 0 -0.020295603689832048 -0.0011887932552935505 0 -0.020483583844928228 -0.0038069119030973292 0 -0.020027487718861578 -0.0029957811419935826 0 -0.020483266984987539 -0.0022380985016856201 0 -0.019175099677236664 -0.0042772204953366935 0 -0.020027487718861578 -0.0029957811419935826 0 -0.017947239169905208 -0.0034950168940131479 0 -0.020509538454278404 -0.0024773749106435225 0 -0.020477438111799404 -0.0022579269138935038 0 -0.020483583844928228 -0.0038069119030973292 0 -0.019175099677236664 -0.0042772204953366935 0 -0.020027487718861578 -0.0029957811419935826 0 -0.019343728251790711 -0.0022695301817681579 0 -0.020054108890511291 -0.0029982479425070757 0 -0.020507815925319559 -0.0023110725631416838 0 -0.020027487718861578 -0.0029957811419935826 0 -0.020483266984987539 -0.0022380985016856201 0 -0.018148757285003415 -0.0020617691366664934 0 -0.020027487718861578 -0.0029957811419935826 0 -0.017947239169905208 -0.0034950168940131479 0 -0.018148757285003415 -0.0020617691366664934 0 -0.017372082703873151 -0.0025466566472292832 0 -0.017947239169905208 -0.0034950168940131479 0 -0.017372082703873151 -0.0025466566472292832 0 -0.016338234857021107 -0.0045849485976586319 0 -0.016738670356615439 -0.0028193732646876503 0 -0.017372082703873151 -0.0025466566472292832 0 -0.017947239169905208 -0.0034950168940131479 0 -0.016338234857021107 -0.0045849485976586319 0 -0.019175099677236664 -0.0042772204953366935 0 -0.017947239169905208 -0.0034950168940131479 0 -0.017498296719565067 -0.0052828414597491631 0 -0.017947239169905208 -0.0034950168940131479 0 -0.017498296719565067 -0.0052828414597491631 0 -0.016338234857021107 -0.0045849485976586319 0 -0.017498296719565067 -0.0052828414597491631 0 -0.016338234857021107 -0.0045849485976586319 0 -0.015818119429252788 -0.0079469930551697762 0 -0.013970730920544773 -0.0039859885624830733 0 -0.015850292055818657 -0.0078110834070053564 0 -0.01140311491824517 -0.0029623585633045645 0 -0.015818119429252788 -0.0079469930551697762 0 -0.011110910872253642 -0.0087385023321550036 0 -0.017498296719565067 -0.0052828414597491631 0 -0.015818119429252788 -0.0079469930551697762 0 -0.017678928468648748 -0.0071319978740498882 0 -0.017498296719565067 -0.0052828414597491631 0 -0.017678928468648748 -0.0071319978740498882 0 -0.018791750826398463 -0.0059839919679044928 0 -0.015818119429252788 -0.0079469930551697762 0 -0.017678928468648748 -0.0071319978740498882 0 -0.017446789005624311 -0.0091020042051760033 0 -0.017678928468648748 -0.0071319978740498882 0 -0.018904533957195341 -0.0078429723417226815 0 -0.017446789005624311 -0.0091020042051760033 0 -0.017678928468648748 -0.0071319978740498882 0 -0.018904533957195341 -0.0078429723417226815 0 -0.018791750826398463 -0.0059839919679044928 0 -0.020108355570215841 -0.0069368445348773084 0 -0.018791750826398463 -0.0059839919679044928 0 -0.019991551251952434 -0.0054319006955859542 0 -0.018904533957195341 -0.0078429723417226815 0 -0.020108355570215841 -0.0069368445348773084 0 -0.018791750826398463 -0.0059839919679044928 0 -0.018904533957195341 -0.0078429723417226815 0 -0.020108355570215841 -0.0069368445348773084 0 -0.020235775965829851 -0.0086408080493583939 0 -0.020851517825441424 -0.0077277513145862882 0 -0.021349122446255541 -0.0086958797056656528 0 -0.020235775965829851 -0.0086408080493583939 0 -0.020108355570215841 -0.0069368445348773084 0 -0.020851517825441424 -0.0077277513145862882 0 -0.020235775965829851 -0.0086408080493583939 0 -0.021617787632514117 -0.0041703204248898793 0 -0.016268711200507689 -0.00053390432746415028 0 -0.020851517825441424 -0.0077277513145862882 0 -0.021521342931675617 -0.0064403523855162109 0 -0.021349122446255541 -0.0086958797056656528 0 -0.021521342931675617 -0.0064403523855162109 0 -0.022595737435908734 -0.0097098778817889721 0 -0.021349122446255541 -0.0086958797056656528 0 -0.019557865449340978 0.00015823210457820548 0 -0.020717292736386464 -0.0008979111248395966 0 -0.019491766896599497 0.0044404768508774098 0 -0.01994128014783942 -0.00073340808858159167 0 -0.019557865449340978 0.00015823210457820548 0 -0.020717292736386464 -0.0008979111248395966 0 -0.020108355570215841 -0.0069368445348773084 0 -0.021521342931675617 -0.0064403523855162109 0 -0.019991551251952434 -0.0054319006955859542 0 -0.020108355570215841 -0.0069368445348773084 0 -0.020851517825441424 -0.0077277513145862882 0 -0.021521342931675617 -0.0064403523855162109 0 -0.020598796258694256 -0.0014021685594013094 0 -0.020717292736386464 -0.0008979111248395966 0 -0.020295603689832048 -0.0011887932552935505 0 -0.020509538454278404 -0.0024773749106435225 0 -0.021617787632514117 -0.0041703204248898793 0 -0.020483583844928228 -0.0038069119030973292 0 -0.021521342931675617 -0.0064403523855162109 0 -0.019991551251952434 -0.0054319006955859542 0 -0.01994128014783942 -0.00073340808858159167 0 -0.020717292736386464 -0.0008979111248395966 0 -0.020295603689832048 -0.0011887932552935505 0 -0.020483583844928228 -0.0038069119030973292 0 -0.019175099677236664 -0.0042772204953366935 0 -0.019991551251952434 -0.0054319006955859542 0 -0.019175099677236664 -0.0042772204953366935 0 -0.018791750826398463 -0.0059839919679044928 0 -0.019991551251952434 -0.0054319006955859542 0 -0.019175099677236664 -0.0042772204953366935 0 -0.017498296719565067 -0.0052828414597491631 0 -0.018791750826398463 -0.0059839919679044928 0 -8.3319470479441775e-05 -0.0011552536733909302 0 0.0017701792981829824 -0.0041812611704659637 0 0.00414782254062665 -0.00049931323714008202 0 -8.3319470479441775e-05 -0.0011552536733909302 0 0.0010295955905969135 0.0025674323446446749 0 0.00414782254062665 -0.00049931323714008202 0 -0.0010466432515583981 0.0061573637568637582 0 -0.00181832428554363 0.0011096224581928159 0 -8.3319470479441775e-05 -0.0011552536733909302 0 0.0010295955905969135 0.0025674323446446749 0 -0.0017819949375031854 0.0012079089887181793 0 -0.0010033957424626433 0.0049766108596700593 0 0.0010295955905969135 0.0025674323446446749 0 -0.0017819949375031854 0.0012079089887181793 0 -8.3319470479441775e-05 -0.0011552536733909302 0 -0.0017819949375031854 0.0012079089887181793 0 -0.0036138667546922344 -0.0016189084697516461 0 -0.0017819949375031854 0.0012079089887181793 0 -0.0036138667546922344 -0.0016189084697516461 0 -0.0077907660081238655 0.0015048260893872065 0 -0.0036138667546922344 -0.0016189084697516461 0 -0.0077907660081238655 0.0015048260893872065 0 -0.006516659965624943 -0.0031525990741410551 0 -0.011625120803482877 0.0016107300600995734 0 -0.012176679615126104 -0.00061474290494846788 0 -0.0046142527482585924 0.0060182872344306162 0 -0.0017819949375031854 0.0012079089887181793 0 -0.0077907660081238655 0.0015048260893872065 0 -0.017451620683296001 -0.0020297741258671004 0 -0.017372082703873151 -0.0025466566472292832 0 -0.016738670356615439 -0.0028193732646876503 0 -0.01140311491824517 -0.0029623585633045645 0 -0.0077907660081238655 0.0015048260893872065 0 -0.006516659965624943 -0.0031525990741410551 0 -0.013970730920544773 -0.0039859885624830733 0 -0.012176679615126104 -0.00061474290494846788 0 -0.01140311491824517 -0.0029623585633045645 0 -0.0083570153704491563 -0.0061208655177309246 0 -0.006516659965624943 -0.0031525990741410551 0 -0.01140311491824517 -0.0029623585633045645 0 -0.0083570153704491563 -0.0061208655177309246 0 -0.011110910872253642 -0.0087385023321550036 0 -0.0083570153704491563 -0.0061208655177309246 0 -0.0048157626820683197 -0.0074609444862839425 0 -0.006516659965624943 -0.0031525990741410551 0 -0.0083570153704491563 -0.0061208655177309246 0 -0.0048157626820683197 -0.0074609444862839425 0 -0.0073619303304972598 -0.011145257610335132 0 -0.0036138667546922344 -0.0016189084697516461 0 -0.006516659965624943 -0.0031525990741410551 0 -0.0022505289522525584 -0.0047271252947698713 0 -0.0048157626820683197 -0.0074609444862839425 0 -0.006516659965624943 -0.0031525990741410551 0 -0.0022505289522525584 -0.0047271252947698713 0 -8.3319470479441775e-05 -0.0011552536733909302 0 -0.0036138667546922344 -0.0016189084697516461 0 -0.0022505289522525584 -0.0047271252947698713 0 -8.3319470479441775e-05 -0.0011552536733909302 0 -0.0022505289522525584 -0.0047271252947698713 0 0.0017701792981829824 -0.0041812611704659637 0 -0.0022505289522525584 -0.0047271252947698713 0 -0.00019879872343214118 -0.0069059107317390699 0 0.0017701792981829824 -0.0041812611704659637 0 -0.0048157626820683197 -0.0074609444862839425 0 -0.0022505289522525584 -0.0047271252947698713 0 -0.0022133397772397968 -0.0075285482407932798 0 -0.0022133397772397968 -0.0075285482407932798 0 -0.00019879872343214118 -0.0069059107317390699 0 -0.0013382057286931398 -0.010261450799064365 0 -0.0048157626820683197 -0.0074609444862839425 0 -0.0022133397772397968 -0.0075285482407932798 0 -0.0013382057286931398 -0.010261450799064365 0 -0.0022505289522525584 -0.0047271252947698713 0 -0.0022133397772397968 -0.0075285482407932798 0 -0.00019879872343214118 -0.0069059107317390699 0 -0.00019879872343214118 -0.0069059107317390699 0 0.0031240608539259444 -0.0074127819956925833 0 0.0017701792981829824 -0.0041812611704659637 0 -0.00019879872343214118 -0.0069059107317390699 0 0.0031240608539259444 -0.0074127819956925833 0 -0.0013382057286931398 -0.010261450799064365 0 0.016772496968709853 -0.0011169721359254898 0 0.017903326701949808 -0.00075458752888037421 0 0.016399599905604065 0.00050113042204266516 0 0.016772496968709853 -0.0011169721359254898 0 0.016399599905604065 0.00050113042204266516 0 0.015446699205899915 -0.00087001145262856751 0 0.0079076449370797611 -0.0047880466691430611 0 0.010776252083214364 -0.0047945765566712109 0 0.014527308997199421 -0.0014187322648080486 0 0.014407586038790419 -0.0015422807912328178 0 0.014092538185929307 -0.0015667988315099695 0 0.016772496968709853 -0.0011169721359254898 0 0.016194868662075999 -0.0020661187895719213 0 0.015446699205899915 -0.00087001145262856751 0 0.01623492433428168 -0.0017171052936692274 0 0.010776252083214364 -0.0047945765566712109 0 0.016772496968709853 -0.0011169721359254898 0 0.016194868662075999 -0.0020661187895719213 0 0.018119340140385114 -0.0025093985257469615 0 0.016772496968709853 -0.0011169721359254898 0 0.018119340140385114 -0.0025093985257469615 0 0.017903326701949808 -0.00075458752888037421 0 0.018119340140385114 -0.0025093985257469615 0 0.019410302785240707 -0.002250773606513786 0 0.017903326701949808 -0.00075458752888037421 0 0.010776252083214364 -0.0047945765566712109 0 0.019265109949005495 -0.0012401916682460343 0 0.017903326701949808 -0.00075458752888037421 0 0.019537570462512574 0.001457827434421691 0 0.016399599905604065 0.00050113042204266516 0 0.017903326701949808 -0.00075458752888037421 0 0.019561609463514689 -0.00052867947024736687 0 0.019537570462512574 0.001457827434421691 0 0.019410302785240707 -0.002250773606513786 0 0.017903326701949808 -0.00075458752888037421 0 0.019561609463514689 -0.00052867947024736687 0 0.019410302785240707 -0.002250773606513786 0 0.021456595926756836 -0.00056753465223405633 0 0.022480018756083381 -0.0027909120795013083 0 0.019561609463514689 -0.00052867947024736687 0 0.021456595926756836 -0.00056753465223405633 0 0.019537570462512574 0.001457827434421691 0 0.019410302785240707 -0.002250773606513786 0 0.019561609463514689 -0.00052867947024736687 0 0.021456595926756836 -0.00056753465223405633 0 0.010776252083214364 -0.0047945765566712109 0 0.007319372577745422 -0.0071047069651034378 0 0.017870138925959789 -0.0030756725222004203 0 0.019410302785240707 -0.002250773606513786 0 0.022480018756083381 -0.0027909120795013083 0 -0.0048157626820683197 -0.0074609444862839425 0 -0.0013382057286931398 -0.010261450799064365 0 -0.0073619303304972598 -0.011145257610335132 0 0.007319372577745422 -0.0071047069651034378 0 0.0045355666425878549 -0.007312477797143324 0 -0.0083570153704491563 -0.0061208655177309246 0 -0.0073619303304972598 -0.011145257610335132 0 -0.011110910872253642 -0.0087385023321550036 0 0.022480018756083381 -0.0027909120795013083 0 0.024174868362180631 -0.00089301746082257494 0 0.02618543114262744 -0.0019971590253741651 0 0.021456595926756836 -0.00056753465223405633 0 0.022480018756083381 -0.0027909120795013083 0 0.024174868362180631 -0.00089301746082257494 0 0.021456595926756836 -0.00056753465223405633 0 0.024174868362180631 -0.00089301746082257494 0 0.023571281190322698 0.0009539160010152884 0 0.023571281190322698 0.0009539160010152884 0 0.024315698243203138 0.0010771926761271144 0 0.024974071409397842 0.00037453499686067337 0 0.024174868362180631 -0.00089301746082257494 0 0.023571281190322698 0.0009539160010152884 0 0.024974071409397842 0.00037453499686067337 0 0.024116270607817993 0.0012295602088745273 0 0.024590916602582093 0.00038087993956827088 0 0.023577318968982224 0.0017614998217982156 0 0.024315698243203138 0.0010771926761271144 0 0.025153288872643089 0.0011933007026871311 0 0.023571281190322698 0.0009539160010152884 0 0.023577318968982224 0.0017614998217982156 0 0.024315698243203138 0.0010771926761271144 0 0.024315698243203138 0.0010771926761271144 0 0.024974071409397842 0.00037453499686067337 0 0.025153288872643089 0.0011933007026871311 0 0.024590916602582093 0.00038087993956827088 0 0.025134942826124326 0.0009766758910347438 0 0.032730278897919365 0.00071647406137258305 0 0.032301727006523721 0.00013826706007346261 0 0.031635082986485923 0.0005758372132204845 0 0.017607745109726916 0.001242986636617217 0 0.017431415255297466 0.0014530799444411647 0 0.01738319632512942 0.001426477926405785 0 0.032730278897919365 0.00071647406137258305 0 0.032301727006523721 0.00013826706007346261 0 0.032863140577076927 -0.00026296712014126506 0 0.032301727006523721 0.00013826706007346261 0 0.032863140577076927 -0.00026296712014126506 0 0.032188174647708262 -0.00076319731516645789 0 0.01738319632512942 0.001426477926405785 0 0.017323171450685168 0.0010069701217013849 0 0.017237835102561418 0.0015112789422789632 0 0.017607745109726916 0.001242986636617217 0 0.01738319632512942 0.001426477926405785 0 0.017323171450685168 0.0010069701217013849 0 0.017431415255297466 0.0014530799444411647 0 0.01738319632512942 0.001426477926405785 0 0.017287697912018198 0.0014714878681129913 0 0.01738319632512942 0.001426477926405785 0 0.017237835102561418 0.0015112789422789632 0 0.017305794376920189 0.0015875938822315877 0 0.021456595926756836 -0.00056753465223405633 0 0.023571281190322698 0.0009539160010152884 0 0.019537570462512574 0.001457827434421691 0 0.024590916602582093 0.00038087993956827088 0 0.017573122771221635 0.0011841989581723627 0 0.023571281190322698 0.0009539160010152884 0 0.023409894927968855 0.0022091862670662052 0 0.019537570462512574 0.001457827434421691 0 0.017323171450685168 0.0010069701217013849 0 0.016833925603827255 0.0011219014399510504 0 0.016399599905604065 0.00050113042204266516 0 0.017573122771221635 0.0011841989581723627 0 0.01684518058660827 0.0006254582517673502 0 0.017323171450685168 0.0010069701217013849 0 0.016833925603827255 0.0011219014399510504 0 0.017237835102561418 0.0015112789422789632 0 0.016833925603827255 0.0011219014399510504 0 0.017237835102561418 0.0015112789422789632 0 0.016783316403118906 0.0015413602496120568 0 0.016833925603827255 0.0011219014399510504 0 0.016783316403118906 0.0015413602496120568 0 0.016256089256797699 0.0011563232029796926 0 0.016783316403118906 0.0015413602496120568 0 0.016095003719927631 0.0015207248661724207 0 0.016256089256797699 0.0011563232029796926 0 0.016095003719927631 0.0015207248661724207 0 0.016256089256797699 0.0011563232029796926 0 0.015608036043132507 0.001205148583100956 0 0.016833925603827255 0.0011219014399510504 0 0.016256089256797699 0.0011563232029796926 0 0.016399599905604065 0.00050113042204266516 0 0.016256089256797699 0.0011563232029796926 0 0.016399599905604065 0.00050113042204266516 0 0.015435088031795635 0.00067787592107640881 0 0.027612228410470955 0.00076823488569332024 0 0.027851432099966541 0.00068985561700755861 0 0.027190624221110966 0.00096543428656962885 0 0.027612228410470955 0.00076823488569332024 0 0.027851432099966541 0.00068985561700755861 0 0.027774768698253301 0.00056679616699004955 0 -0.0080697074751386391 -0.00064875550758826471 0 0.011309942874672303 -0.0028092545597478312 0 0.011309942874672303 -0.0028092545597478312 0 0.029192052515634736 -0.0016353327691084249 0 0.027851432099966541 0.00068985561700755861 0 0.027960300592115291 0.00032549116769561712 0 0.027822031186477504 -8.3217824630328459e-05 0 0.027851432099966541 0.00068985561700755861 0 0.027960300592115291 0.00032549116769561712 0 0.027774768698253301 0.00056679616699004955 0 0.027960300592115291 0.00032549116769561712 0 0.027774768698253301 0.00056679616699004955 0 0.027816062461780606 0.00047047521181874932 0 0.027612228410470955 0.00076823488569332024 0 0.027774768698253301 0.00056679616699004955 0 0.027595851155972545 0.00065524907674511341 0 0.027595851155972545 0.00065524907674511341 0 0.027537740100363674 0.00058434762535367198 0 0.027816062461780606 0.00047047521181874932 0 0.027774768698253301 0.00056679616699004955 0 0.027595851155972545 0.00065524907674511341 0 0.027816062461780606 0.00047047521181874932 0 0.027595851155972545 0.00065524907674511341 0 0.027537740100363674 0.00058434762535367198 0 0.027329517987746358 0.00074739585773965164 0 0.0098690261510090103 0.0011101140041698569 0 -0.0080697074751386391 -0.00064875550758826471 0 0.0098690261510090103 0.0011101140041698569 0 0.011309942874672303 -0.0028092545597478312 0 0.0084042309514935701 0.00011461654110326978 0 0.0035178419357879864 -0.0014446107341869832 0 0.0021522621900209797 -0.00093622897147118875 0 0.026668532531567327 0.0012843652022653067 0 0.027851432099966541 0.00068985561700755861 0 0.027190624221110966 0.00096543428656962885 0 -0.011527106466957765 0.0034261984653331267 0 -0.010519225483421768 0.003456537791012211 0 -0.011147238621517605 0.0035597495010072314 0 0.027537740100363674 0.00058434762535367198 0 0.027329517987746358 0.00074739585773965164 0 0.027309512273907242 0.00059711516540799313 0 0.027329517987746358 0.00074739585773965164 0 0.027434697333421597 0.0007858783111275321 0 0.027190624221110966 0.00096543428656962885 0 0.027612228410470955 0.00076823488569332024 0 0.027595851155972545 0.00065524907674511341 0 0.027434697333421597 0.0007858783111275321 0 0.027595851155972545 0.00065524907674511341 0 0.027329517987746358 0.00074739585773965164 0 0.027434697333421597 0.0007858783111275321 0 0.027014341942087915 0.000740793701427727 0 0.02700496400845551 0.00093713421139346713 0 0.026809003753042515 0.00097123069402272775 0 0.02662883431836606 0.00085713416597206233 0 0.027014341942087915 0.000740793701427727 0 0.026809003753042515 0.00097123069402272775 0 0.027329517987746358 0.00074739585773965164 0 0.027014341942087915 0.000740793701427727 0 0.027309512273907242 0.00059711516540799313 0 0.027329517987746358 0.00074739585773965164 0 0.027014341942087915 0.000740793701427727 0 0.02700496400845551 0.00093713421139346713 0 0.027329517987746358 0.00074739585773965164 0 0.02700496400845551 0.00093713421139346713 0 0.027190624221110966 0.00096543428656962885 0 0.026668532531567327 0.0012843652022653067 0 0.02700496400845551 0.00093713421139346713 0 0.026809003753042515 0.00097123069402272775 0 0.026668532531567327 0.0012843652022653067 0 0.02700496400845551 0.00093713421139346713 0 0.027190624221110966 0.00096543428656962885 0 -0.011527106466957765 0.0034261984653331267 0 -0.011147238621517605 0.0035597495010072314 0 -0.011365223101860845 0.0035595033193964861 0 0.027612228410470955 0.00076823488569332024 0 0.027434697333421597 0.0007858783111275321 0 0.027190624221110966 0.00096543428656962885 0 -0.010519225483421768 0.003456537791012211 0 -0.011147238621517605 0.0035597495010072314 0 -0.011395126349214225 0.0038841403447097906 0 -0.02004257729525151 -0.010975250405593658 0 -0.020513807852745591 -0.0096060450157853753 0 -0.022595737435908734 -0.0097098778817889721 0 -0.0080697074751386391 -0.00064875550758826471 0 -0.016268711200507689 -0.00053390432746415028 0 -0.011147238621517605 0.0035597495010072314 0 -0.011365223101860845 0.0035595033193964861 0 -0.011395126349214225 0.0038841403447097906 0 -0.020513807852745591 -0.0096060450157853753 0 -0.022595737435908734 -0.0097098778817889721 0 -0.021349122446255541 -0.0086958797056656528 0 -0.020513807852745591 -0.0096060450157853753 0 -0.021349122446255541 -0.0086958797056656528 0 -0.020235775965829851 -0.0086408080493583939 0 -0.020513807852745591 -0.0096060450157853753 0 -0.020235775965829851 -0.0086408080493583939 0 -0.019140112014569222 -0.0096307412388959759 0 -0.018904533957195341 -0.0078429723417226815 0 -0.020235775965829851 -0.0086408080493583939 0 -0.019140112014569222 -0.0096307412388959759 0 -0.02004257729525151 -0.010975250405593658 0 -0.019219576703179496 -0.011437622966479084 0 -0.020513807852745591 -0.0096060450157853753 0 -0.019219576703179496 -0.011437622966479084 0 -0.020513807852745591 -0.0096060450157853753 0 -0.019140112014569222 -0.0096307412388959759 0 -0.019219576703179496 -0.011437622966479084 0 -0.019140112014569222 -0.0096307412388959759 0 -0.017536879826337951 -0.010418286257065375 0 -0.019140112014569222 -0.0096307412388959759 0 -0.017446789005624311 -0.0091020042051760033 0 -0.017536879826337951 -0.010418286257065375 0 -0.018904533957195341 -0.0078429723417226815 0 -0.019140112014569222 -0.0096307412388959759 0 -0.017446789005624311 -0.0091020042051760033 0 -0.019219576703179496 -0.011437622966479084 0 -0.017536879826337951 -0.010418286257065375 0 -0.014102236461277817 -0.011652576660753061 0 -0.015818119429252788 -0.0079469930551697762 0 -0.017446789005624311 -0.0091020042051760033 0 -0.014102236461277817 -0.011652576660753061 0 -0.017446789005624311 -0.0091020042051760033 0 -0.017536879826337951 -0.010418286257065375 0 -0.014102236461277817 -0.011652576660753061 0 -0.0073619303304972598 -0.011145257610335132 0 -0.011110910872253642 -0.0087385023321550036 0 -0.014102236461277817 -0.011652576660753061 0 -0.015818119429252788 -0.0079469930551697762 0 -0.011110910872253642 -0.0087385023321550036 0 -0.014102236461277817 -0.011652576660753061 0 0.024174868362180631 -0.00089301746082257494 0 0.02618543114262744 -0.0019971590253741651 0 0.026147287888731049 -0.00037446525555954774 0 0.024174868362180631 -0.00089301746082257494 0 0.026147287888731049 -0.00037446525555954774 0 0.024974071409397842 0.00037453499686067337 0 0.011309942874672303 -0.0028092545597478312 0 0.0045355666425878549 -0.007312477797143324 0 0.027432819859734038 -0.0014278053610688039 0 0.02618543114262744 -0.0019971590253741651 0 0.026846266830031322 -0.0012354440305245252 0 0.02618543114262744 -0.0019971590253741651 0 0.026147287888731049 -0.00037446525555954774 0 0.026846266830031322 -0.0012354440305245252 0 0.025586417697272892 -9.8136181664557011e-05 0 0.029192052515634736 -0.0016353327691084249 0 0.026147287888731049 -0.00037446525555954774 0 0.027822031186477504 -8.3217824630328459e-05 0 0.027753043911611423 0.00026442285740662698 0 0.027960300592115291 0.00032549116769561712 0 0.027822031186477504 -8.3217824630328459e-05 0 0.027753043911611423 0.00026442285740662698 0 0.027960300592115291 0.00032549116769561712 0 0.027753043911611423 0.00026442285740662698 0 0.028137112589452021 0.00038333177347094587 0 0.027753043911611423 0.00026442285740662698 0 0.027959405825082224 0.00060463883254914617 0 0.026593339360658608 0.00065665359496568283 0 0.027959405825082224 0.00060463883254914617 0 0.028436410881899861 0.00035259947309693862 0 0.028137112589452021 0.00038333177347094587 0 0.027753043911611423 0.00026442285740662698 0 0.027959405825082224 0.00060463883254914617 0 0.028137112589452021 0.00038333177347094587 0 0.023577318968982224 0.0017614998217982156 0 0.025153288872643089 0.0011933007026871311 0 0.026441948197275671 0.0017391799925522394 0 0.026147287888731049 -0.00037446525555954774 0 0.024974071409397842 0.00037453499686067337 0 0.026593339360658608 0.00065665359496568283 0 0.026147287888731049 -0.00037446525555954774 0 0.027753043911611423 0.00026442285740662698 0 0.026593339360658608 0.00065665359496568283 0 0.027959405825082224 0.00060463883254914617 0 0.026593339360658608 0.00065665359496568283 0 0.026441948197275671 0.0017391799925522394 0 0.026593339360658608 0.00065665359496568283 0 0.025153288872643089 0.0011933007026871311 0 0.026441948197275671 0.0017391799925522394 0 0.024974071409397842 0.00037453499686067337 0 0.026593339360658608 0.00065665359496568283 0 0.025153288872643089 0.0011933007026871311 0 0.024590916602582093 0.00038087993956827088 0 0.029580886146560292 0.0012250716578254329 0 0.031635082986485923 0.0005758372132204845 0 0.031188053124690231 -0.00044449960967282221 0 0.031851441600224364 -0.00015286051346066469 0 0.032301727006523721 0.00013826706007346261 0 0.031635082986485923 0.0005758372132204845 0 0.031851441600224364 -0.00015286051346066469 0 0.032301727006523721 0.00013826706007346261 0 0.031851441600224364 -0.00015286051346066469 0 0.032188174647708262 -0.00076319731516645789 0 0.031635082986485923 0.0005758372132204845 0 0.031188053124690231 -0.00044449960967282221 0 0.029044397539906737 0.000309546070799986 0 0.027959405825082224 0.00060463883254914617 0 0.026441948197275671 0.0017391799925522394 0 0.029044397539906737 0.000309546070799986 0 0.029580886146560292 0.0012250716578254329 0 0.028594237998345456 0.00042720615742944005 0 0.027959405825082224 0.00060463883254914617 0 0.029044397539906737 0.000309546070799986 0 0.028436410881899861 0.00035259947309693862 0 0.031188053124690231 -0.00044449960967282221 0 0.029044397539906737 0.000309546070799986 0 0.030954083600511099 -0.001499956859420639 0 0.029044397539906737 0.000309546070799986 0 0.028820976696765747 -0.00054435418063624504 0 0.029794733612930453 -0.0013307650891749988 0 0.029044397539906737 0.000309546070799986 0 0.028820976696765747 -0.00054435418063624504 0 0.028239841479585442 -0.0001948673536503505 0 0.028239841479585442 -0.0001948673536503505 0 0.028436410881899861 0.00035259947309693862 0 0.027998684567998294 0.00020777596435249705 0 0.028239841479585442 -0.0001948673536503505 0 0.027998684567998294 0.00020777596435249705 0 0.027591759202130924 -0.00024424720178976421 0 0.029044397539906737 0.000309546070799986 0 0.028239841479585442 -0.0001948673536503505 0 0.028436410881899861 0.00035259947309693862 0 0.028436410881899861 0.00035259947309693862 0 0.028137112589452021 0.00038333177347094587 0 0.027998684567998294 0.00020777596435249705 0 0.028137112589452021 0.00038333177347094587 0 0.027998684567998294 0.00020777596435249705 0 0.02782040749934836 0.00035160770758274699 0 0.027998684567998294 0.00020777596435249705 0 0.02782040749934836 0.00035160770758274699 0 0.027425525455692257 0.0001380510562483589 0 0.028137112589452021 0.00038333177347094587 0 0.02782040749934836 0.00035160770758274699 0 0.027816062461780606 0.00047047521181874932 0 0.02782040749934836 0.00035160770758274699 0 0.027816062461780606 0.00047047521181874932 0 0.02752853858767872 0.00045461551739124737 0 0.027960300592115291 0.00032549116769561712 0 0.028137112589452021 0.00038333177347094587 0 0.027816062461780606 0.00047047521181874932 0 0.026623928763693554 0.00055687630824443181 0 0.027014341942087915 0.000740793701427727 0 0.027084454442139052 0.00041607413425372576 0 0.027014341942087915 0.000740793701427727 0 0.027084454442139052 0.00041607413425372576 0 0.027309512273907242 0.00059711516540799313 0 0.027537740100363674 0.00058434762535367198 0 0.027309512273907242 0.00059711516540799313 0 0.02752853858767872 0.00045461551739124737 0 0.027084454442139052 0.00041607413425372576 0 0.027309512273907242 0.00059711516540799313 0 0.02752853858767872 0.00045461551739124737 0 0.027537740100363674 0.00058434762535367198 0 0.027816062461780606 0.00047047521181874932 0 0.02752853858767872 0.00045461551739124737 0 0.027084454442139052 0.00041607413425372576 0 0.02752853858767872 0.00045461551739124737 0 0.027425525455692257 0.0001380510562483589 0 0.02782040749934836 0.00035160770758274699 0 0.02752853858767872 0.00045461551739124737 0 0.027425525455692257 0.0001380510562483589 0 0.026470761024996646 -0.00013256606862619487 0 0.027084454442139052 0.00041607413425372576 0 0.027425525455692257 0.0001380510562483589 0 0.028239841479585442 -0.0001948673536503505 0 0.027591759202130924 -0.00024424720178976421 0 0.026900419156441917 -0.0013779203351412606 0 0.026470761024996646 -0.00013256606862619487 0 0.027120900075194368 -0.00035669915472291838 0 0.026900419156441917 -0.0013779203351412606 0 0.027120900075194368 -0.00035669915472291838 0 0.027591759202130924 -0.00024424720178976421 0 0.026900419156441917 -0.0013779203351412606 0 0.026470761024996646 -0.00013256606862619487 0 0.027425525455692257 0.0001380510562483589 0 0.027120900075194368 -0.00035669915472291838 0 0.027998684567998294 0.00020777596435249705 0 0.027425525455692257 0.0001380510562483589 0 0.027591759202130924 -0.00024424720178976421 0 0.027425525455692257 0.0001380510562483589 0 0.027120900075194368 -0.00035669915472291838 0 0.027591759202130924 -0.00024424720178976421 0 0.0281988002821674 -0.00032917455035836403 0 0.027017867645406396 -0.0012710674174684455 0 0.027170840589237698 -0.0014195492617073858 0 0.028183747811780083 -0.0026126039068760758 0 0.028243387515722074 -0.0013471620353242555 0 0.028239841479585442 -0.0001948673536503505 0 0.027170840589237698 -0.0014195492617073858 0 0.028243387515722074 -0.0013471620353242555 0 0.027170840589237698 -0.0014195492617073858 0 0.028183747811780083 -0.0026126039068760758 0 0.026927308587227923 -0.0028431421714864903 0 0.031348856701147745 -0.0029502462664786257 0 0.031050399876061757 -0.002580339132632792 0 0.031928895004341172 -0.0031671641770382752 0 0.031348856701147745 -0.0029502462664786257 0 0.029794733612930453 -0.0013307650891749988 0 0.031050399876061757 -0.002580339132632792 0 0.029807186667373926 -0.0026464587826604061 0 0.02997763124657889 -0.0013796747190389196 0 0.028183747811780083 -0.0026126039068760758 0 0.028243387515722074 -0.0013471620353242555 0 0.029794733612930453 -0.0013307650891749988 0 0.028820976696765747 -0.00054435418063624504 0 0.028239841479585442 -0.0001948673536503505 0 0.028243387515722074 -0.0013471620353242555 0 0.028820976696765747 -0.00054435418063624504 0 0.028243387515722074 -0.0013471620353242555 0 0.029794733612930453 -0.0013307650891749988 0 0.029044397539906737 0.000309546070799986 0 0.029794733612930453 -0.0013307650891749988 0 0.030954083600511099 -0.001499956859420639 0 0.030954083600511099 -0.001499956859420639 0 0.031660206420710157 -0.0022125731528085404 0 0.031050399876061757 -0.002580339132632792 0 0.029794733612930453 -0.0013307650891749988 0 0.030954083600511099 -0.001499956859420639 0 0.031050399876061757 -0.002580339132632792 0 0.030954083600511099 -0.001499956859420639 0 0.032393278067696277 -0.0014782634833406646 0 0.031660206420710157 -0.0022125731528085404 0 0.031188053124690231 -0.00044449960967282221 0 0.030954083600511099 -0.001499956859420639 0 0.032393278067696277 -0.0014782634833406646 0 0.031128855590354668 -0.00041429162296245913 0 0.032741560457894739 -0.0014802222922977281 0 0.031188053124690231 -0.00044449960967282221 0 0.031851441600224364 -0.00015286051346066469 0 0.032188174647708262 -0.00076319731516645789 0 0.032393278067696277 -0.0014782634833406646 0 0.032300255916678636 -0.0023364964084662179 0 0.031660206420710157 -0.0022125731528085404 0 0.032300255916678636 -0.0023364964084662179 0 0.031660206420710157 -0.0022125731528085404 0 0.03189380662847232 -0.0029781124357896875 0 0.032300255916678636 -0.0023364964084662179 0 0.03189380662847232 -0.0029781124357896875 0 0.032566838441744669 -0.0027221523681754656 0 0.031660206420710157 -0.0022125731528085404 0 0.031050399876061757 -0.002580339132632792 0 0.03189380662847232 -0.0029781124357896875 0 0.031928895004341172 -0.0031671641770382752 0 0.03189380662847232 -0.0029781124357896875 0 0.03222976668073297 -0.0031994388681274985 0 0.031050399876061757 -0.002580339132632792 0 0.031928895004341172 -0.0031671641770382752 0 0.03189380662847232 -0.0029781124357896875 0 0.031941786800587048 -0.0030447000720464443 0 0.032125129373119107 -0.0035397537298862921 0 0.03189380662847232 -0.0029781124357896875 0 0.03202886886802523 -0.0039460265936184166 0 0.032439729775663277 -0.0035037123475669214 0 0.03189380662847232 -0.0029781124357896875 0 0.032534426970585638 -0.0031201475912746119 0 0.032439729775663277 -0.0035037123475669214 0 0.03189380662847232 -0.0029781124357896875 0 0.032566838441744669 -0.0027221523681754656 0 0.032534426970585638 -0.0031201475912746119 0 0.031928895004341172 -0.0031671641770382752 0 0.03222976668073297 -0.0031994388681274985 0 0.032307546723271463 -0.0031748053435308311 0 0.031928895004341172 -0.0031671641770382752 0 0.032487599800161568 -0.0031626336709938922 0 0.032307546723271463 -0.0031748053435308311 0 0.031928895004341172 -0.0031671641770382752 0 0.032439285515258744 -0.0032155424623054579 0 0.032487599800161568 -0.0031626336709938922 0 0.031928895004341172 -0.0031671641770382752 0 0.032439285515258744 -0.0032155424623054579 0 0.031989676719702154 -0.0031813738027410454 0 0.032439285515258744 -0.0032155424623054579 0 0.032945341168189111 -0.0032388012445953062 0 0.032519236296421741 -0.0033600601029795617 0 0.032439285515258744 -0.0032155424623054579 0 0.032519236296421741 -0.0033600601029795617 0 0.031989676719702154 -0.0031813738027410454 0 0.029807186667373926 -0.0026464587826604061 0 0.030000011000210405 -0.0034373621427213888 0 0.031348856701147745 -0.0029502462664786257 0 0.032519236296421741 -0.0033600601029795617 0 0.031989676719702154 -0.0031813738027410454 0 0.028183747811780083 -0.0026126039068760758 0 0.027367586813346504 -0.0035928019586472393 0 0.026927308587227923 -0.0028431421714864903 0 0.031348856701147745 -0.0029502462664786257 0 0.031928895004341172 -0.0031671641770382752 0 0.031989676719702154 -0.0031813738027410454 0 0.018806348895488271 0.00043275498934723671 0 0.019704927357814535 -0.0018965940713797499 0 0.021083136198483846 6.2711950173537198e-05 0 0.018806348895488271 0.00043275498934723671 0 0.020071152090913553 0.0019494702266220792 0 0.021083136198483846 6.2711950173537198e-05 0 0.018806348895488271 0.00043275498934723671 0 0.020071152090913553 0.0019494702266220792 0 0.017583474921919483 0.0019094201766150789 0 0.018473437031400877 0.0020246351473025784 0 0.017607006836180286 0.0020154830434056864 0 0.016783316403118906 0.0015413602496120568 0 0.016095003719927631 0.0015207248661724207 0 0.016364508464179781 0.0023055621921943942 0 0.016783316403118906 0.0015413602496120568 0 0.016364508464179781 0.0023055621921943942 0 0.017583474921919483 0.0019094201766150789 0 0.017237835102561418 0.0015112789422789632 0 0.016783316403118906 0.0015413602496120568 0 0.017583474921919483 0.0019094201766150789 0 0.017237835102561418 0.0015112789422789632 0 0.017583474921919483 0.0019094201766150789 0 0.017305794376920189 0.0015875938822315877 0 0.017583474921919483 0.0019094201766150789 0 0.017372291753199803 0.0012945133270643979 0 0.017305794376920189 0.0015875938822315877 0 0.018806348895488271 0.00043275498934723671 0 0.017231531863090347 0.00031443311074889039 0 0.019704927357814535 -0.0018965940713797499 0 0.017372291753199803 0.0012945133270643979 0 0.017231531863090347 0.00031443311074889039 0 0.017193136539034277 0.0013620161653321234 0 0.018806348895488271 0.00043275498934723671 0 0.017583474921919483 0.0019094201766150789 0 0.017372291753199803 0.0012945133270643979 0 0.018806348895488271 0.00043275498934723671 0 0.017372291753199803 0.0012945133270643979 0 0.017231531863090347 0.00031443311074889039 0 0.024488660382432782 -0.00330853198880299 0 0.027671281880168017 -0.0057597584512554256 0 0.028662368515134269 -0.0057811252808488301 0 0.028518672395068598 -0.005684867475458549 0 0.028623462089544329 -0.0062887440558127205 0 0.025518879522317687 -0.0047385975702008464 0 0.026082077806215392 -0.0050665857483068524 0 0.025911570385130644 -0.0041837146559060958 0 0.017100055728993112 0.0012572839056040469 0 0.017193136539034277 0.0013620161653321234 0 0.017161907527276955 0.0013554727673865401 0 0.024488660382432782 -0.00330853198880299 0 0.028308850293720138 -0.0016205987278641299 0 0.017231531863090347 0.00031443311074889039 0 0.017100055728993112 0.0012572839056040469 0 0.017193136539034277 0.0013620161653321234 0 0.021021012917619097 -0.0019892652690725143 0 0.024488660382432782 -0.00330853198880299 0 0.017372291753199803 0.0012945133270643979 0 0.017193136539034277 0.0013620161653321234 0 0.017305794376920189 0.0015875938822315877 0 0.017193136539034277 0.0013620161653321234 0 0.017305794376920189 0.0015875938822315877 0 0.017287697912018198 0.0014714878681129913 0 0.01738319632512942 0.001426477926405785 0 0.017305794376920189 0.0015875938822315877 0 0.017287697912018198 0.0014714878681129913 0 0.017193136539034277 0.0013620161653321234 0 0.017287697912018198 0.0014714878681129913 0 0.017161907527276955 0.0013554727673865401 0 0.032863140577076927 -0.00026296712014126506 0 0.032188174647708262 -0.00076319731516645789 0 0.032948345064079912 -0.0012252956890456744 0 0.025134942826124326 0.0009766758910347438 0 0.028308850293720138 -0.0016205987278641299 0 0.017431415255297466 0.0014530799444411647 0 0.017287697912018198 0.0014714878681129913 0 0.017161907527276955 0.0013554727673865401 0 0.032393278067696277 -0.0014782634833406646 0 0.032300255916678636 -0.0023364964084662179 0 0.033022602236868259 -0.0020500322158062152 0 0.032741560457894739 -0.0014802222922977281 0 0.028308850293720138 -0.0016205987278641299 0 0.032300255916678636 -0.0023364964084662179 0 0.033022602236868259 -0.0020500322158062152 0 0.032566838441744669 -0.0027221523681754656 0 0.028308850293720138 -0.0016205987278641299 0 0.031105659576638023 -0.0064532700974704168 0 0.033022602236868259 -0.0020500322158062152 0 0.032566838441744669 -0.0027221523681754656 0 0.033053890895303494 -0.0032301897031998717 0 0.032566838441744669 -0.0027221523681754656 0 0.032534426970585638 -0.0031201475912746119 0 0.033053890895303494 -0.0032301897031998717 0 0.032534426970585638 -0.0031201475912746119 0 0.032439729775663277 -0.0035037123475669214 0 0.033053890895303494 -0.0032301897031998717 0 0.03202886886802523 -0.0039460265936184166 0 0.032439729775663277 -0.0035037123475669214 0 0.032652667781721184 -0.0040715490912704546 0 0.031831828250260312 -0.0079013613266386545 0 0.030716059657604686 -0.0080196053530237222 0 0.030995257476444934 -0.0099704684596081568 0 0.032439729775663277 -0.0035037123475669214 0 0.032652667781721184 -0.0040715490912704546 0 0.033053890895303494 -0.0032301897031998717 0 0.032354574645024697 -0.0059289889256135507 0 0.031105659576638023 -0.0064532700974704168 0 0.027671281880168017 -0.0057597584512554256 0 0.026994922858412155 -0.0044666806596112586 0 0.028784135999514536 -0.0062198921289481537 0 0.028714212273173164 -0.0063457125438587643 0 0.028623462089544329 -0.0062887440558127205 0 0.028784135999514536 -0.0062198921289481537 0 0.028714212273173164 -0.0063457125438587643 0 0.028374892769957149 -0.0060600698179698381 0 0.029699573978506887 -0.0073898863435415667 0 0.031105659576638023 -0.0064532700974704168 0 0.028662368515134269 -0.0057811252808488301 0 0.028714212273173164 -0.0063457125438587643 0 0.028623462089544329 -0.0062887440558127205 0 0.021021012917619097 -0.0019892652690725143 0 0.022281733460314788 -0.0030935688063509119 0 0.02533255611432219 -0.0042496426586085363 0 0.025269845821826467 -0.0037908099092920067 0 0.024579050914693007 -0.0042879053853058201 0 0.025518879522317687 -0.0047385975702008464 0 0.02533255611432219 -0.0042496426586085363 0 0.024579050914693007 -0.0042879053853058201 0 0.025911570385130644 -0.0041837146559060958 0 0.02533255611432219 -0.0042496426586085363 0 0.025269845821826467 -0.0037908099092920067 0 0.025518879522317687 -0.0047385975702008464 0 0.025911570385130644 -0.0041837146559060958 0 0.02533255611432219 -0.0042496426586085363 0 0.025911570385130644 -0.0041837146559060958 0 0.025269845821826467 -0.0037908099092920067 0 0.02574700852360853 -0.003171268127967166 0 0.025269845821826467 -0.0037908099092920067 0 0.02519352159910546 -0.003018791138680576 0 0.02574700852360853 -0.003171268127967166 0 0.025269845821826467 -0.0037908099092920067 0 0.024460391329055253 -0.0033380788130767552 0 0.024579050914693007 -0.0042879053853058201 0 0.025269845821826467 -0.0037908099092920067 0 0.024460391329055253 -0.0033380788130767552 0 0.02519352159910546 -0.003018791138680576 0 0.024790575271039166 -0.002628097821423832 0 0.025743075644452228 -0.0021672620826686043 0 0.025003276157741235 -0.00173449585167458 0 0.024790575271039166 -0.002628097821423832 0 0.025003276157741235 -0.00173449585167458 0 0.024265634906157282 -0.0021428514605025925 0 0.024460391329055253 -0.0033380788130767552 0 0.024790575271039166 -0.002628097821423832 0 0.02519352159910546 -0.003018791138680576 0 0.024460391329055253 -0.0033380788130767552 0 0.024790575271039166 -0.002628097821423832 0 0.023854202001076318 -0.0028567260054005758 0 0.02519352159910546 -0.003018791138680576 0 0.025743075644452228 -0.0021672620826686043 0 0.02574700852360853 -0.003171268127967166 0 0.026609537393850122 -0.00316420320268561 0 0.026994922858412155 -0.0044666806596112586 0 0.024790575271039166 -0.002628097821423832 0 0.02519352159910546 -0.003018791138680576 0 0.025743075644452228 -0.0021672620826686043 0 0.029563964371801917 -0.005253434539389432 0 0.029257416299242604 -0.0030414036902446703 0 0.027463914368003758 -0.0043278092144053565 0 0.0290117667167628 -0.0051567099479337391 0 0.029222028574725747 -0.0028516624866788188 0 0.027463914368003758 -0.0043278092144053565 0 0.0290117667167628 -0.0051567099479337391 0 0.028374892769957149 -0.0060600698179698381 0 0.030184449232485734 -0.0057318482962479206 0 0.031598435042024517 -0.0046118060918338378 0 0.029222028574725747 -0.0028516624866788188 0 0.029699573978506887 -0.0073898863435415667 0 0.029563964371801917 -0.005253434539389432 0 0.028784135999514536 -0.0062198921289481537 0 0.0290117667167628 -0.0051567099479337391 0 0.028374892769957149 -0.0060600698179698381 0 0.030716059657604686 -0.0080196053530237222 0 0.030184449232485734 -0.0057318482962479206 0 0.031084259463429648 -0.0069626058028285963 0 0.030184449232485734 -0.0057318482962479206 0 0.031559705224054865 -0.0061566696197675793 0 0.031084259463429648 -0.0069626058028285963 0 0.031831828250260312 -0.0079013613266386545 0 0.031559705224054865 -0.0061566696197675793 0 0.032965792495324803 -0.0052439763312566211 0 0.032354574645024697 -0.0059289889256135507 0 0.032598217980230486 -0.005074228584889439 0 0.032652667781721184 -0.0040715490912704546 0 0.032343962890553427 -0.0046656869834261249 0 0.032313623121170559 -0.0043131155921653039 0 0.031831828250260312 -0.0079013613266386545 0 0.031559705224054865 -0.0061566696197675793 0 0.031084259463429648 -0.0069626058028285963 0 0.031831828250260312 -0.0079013613266386545 0 0.030716059657604686 -0.0080196053530237222 0 0.031084259463429648 -0.0069626058028285963 0 0.031559705224054865 -0.0061566696197675793 0 0.032965792495324803 -0.0052439763312566211 0 0.031598435042024517 -0.0046118060918338378 0 0.030184449232485734 -0.0057318482962479206 0 0.031559705224054865 -0.0061566696197675793 0 0.031598435042024517 -0.0046118060918338378 0 0.032965792495324803 -0.0052439763312566211 0 0.031598435042024517 -0.0046118060918338378 0 0.032735499555919402 -0.0037313185156861604 0 0.031979143091608112 -0.0032497858444730547 0 0.032999601256676753 -0.0028525743388439118 0 0.03127341208808241 -0.0021832192090301518 0 0.032735499555919402 -0.0037313185156861604 0 0.031979143091608112 -0.0032497858444730547 0 0.032999601256676753 -0.0028525743388439118 0 0.031598435042024517 -0.0046118060918338378 0 0.032735499555919402 -0.0037313185156861604 0 0.031979143091608112 -0.0032497858444730547 0 0.031598435042024517 -0.0046118060918338378 0 0.031979143091608112 -0.0032497858444730547 0 0.029222028574725747 -0.0028516624866788188 0 0.032999601256676753 -0.0028525743388439118 0 0.033364319446574607 -0.0027175118095797211 0 0.033505214032485534 -0.0028179894244846188 0 0.033003721723916073 -0.0028689470594453967 0 0.032393928918629529 -0.0025458865835543496 0 0.032999601256676753 -0.0028525743388439118 0 0.033364319446574607 -0.0027175118095797211 0 0.033343191696050128 -0.0026503381513438558 0 0.033364319446574607 -0.0027175118095797211 0 0.033560486631808009 -0.0025483144084712502 0 0.033562221161595691 -0.0026707991656285354 0 0.033364319446574607 -0.0027175118095797211 0 0.033343191696050128 -0.0026503381513438558 0 0.033560486631808009 -0.0025483144084712502 0 0.033364319446574607 -0.0027175118095797211 0 0.033505214032485534 -0.0028179894244846188 0 0.033562221161595691 -0.0026707991656285354 0 0.031979143091608112 -0.0032497858444730547 0 0.03127341208808241 -0.0021832192090301518 0 0.030961589437193026 -0.0024662056802823656 0 0.031979143091608112 -0.0032497858444730547 0 0.029222028574725747 -0.0028516624866788188 0 0.027707092938663212 -0.00077158474808460063 0 0.031829631761996616 -0.0031705405352078168 0 0.029410509100732594 -0.0016860068750427705 0 0.025743075644452228 -0.0021672620826686043 0 0.026117879464541867 -0.00092837384416271632 0 0.025003276157741235 -0.00173449585167458 0 0.027463914368003758 -0.0043278092144053565 0 0.027707092938663212 -0.00077158474808460063 0 0.026117879464541867 -0.00092837384416271632 0 0.027463914368003758 -0.0043278092144053565 0 0.029222028574725747 -0.0028516624866788188 0 0.027707092938663212 -0.00077158474808460063 0 0.026609537393850122 -0.00316420320268561 0 0.026113487559753259 -0.0010246923671781566 0 0.027707092938663212 -0.00077158474808460063 0 0.025686561543325059 -0.00050880769240751404 0 0.024991446506036928 0.00035001791985955283 0 0.027707092938663212 -0.00077158474808460063 0 0.026117879464541867 -0.00092837384416271632 0 0.025686561543325059 -0.00050880769240751404 0 0.029410509100732594 -0.0016860068750427705 0 0.027811293285073976 -0.0010355272684251626 0 0.03127341208808241 -0.0021832192090301518 0 0.030961589437193026 -0.0024662056802823656 0 0.030794718650620473 -0.0021814603198066045 0 0.026117879464541867 -0.00092837384416271632 0 0.025686561543325059 -0.00050880769240751404 0 0.024795990565066373 -0.00074682099258277111 0 0.025686561543325059 -0.00050880769240751404 0 0.024795990565066373 -0.00074682099258277111 0 0.024991446506036928 0.00035001791985955283 0 0.024795990565066373 -0.00074682099258277111 0 0.024149295417369994 -0.00011450787991786858 0 0.024991446506036928 0.00035001791985955283 0 0.024795990565066373 -0.00074682099258277111 0 0.025003276157741235 -0.00173449585167458 0 0.024019617513845227 -0.0011811400258643799 0 0.026117879464541867 -0.00092837384416271632 0 0.024795990565066373 -0.00074682099258277111 0 0.025003276157741235 -0.00173449585167458 0 0.032880017848473997 -0.0029909835835174765 0 0.033077294189239492 -0.0030214460420731567 0 0.032790546882752056 -0.0030795146321845059 0 0.032880017848473997 -0.0029909835835174765 0 0.032790546882752056 -0.0030795146321845059 0 0.032576226185477002 -0.0030927157097796372 0 0.032880017848473997 -0.0029909835835174765 0 0.033218523902020985 -0.0028760739134536433 0 0.032976743719170726 -0.0028700676471833573 0 0.032880017848473997 -0.0029909835835174765 0 0.032754319518542817 -0.0029690129221728928 0 0.032976743719170726 -0.0028700676471833573 0 0.032880017848473997 -0.0029909835835174765 0 0.033077294189239492 -0.0030214460420731567 0 0.033218523902020985 -0.0028760739134536433 0 0.033370902272994427 -0.0029567375704967424 0 0.033077294189239492 -0.0030214460420731567 0 0.033218523902020985 -0.0028760739134536433 0 0.033370902272994427 -0.0029567375704967424 0 0.033635415245284628 -0.0028348445416575751 0 0.033614158934631912 -0.0030015818755849809 0 0.033370902272994427 -0.0029567375704967424 0 0.033274490358549333 -0.0030522424033367695 0 0.033614158934631912 -0.0030015818755849809 0 0.033370902272994427 -0.0029567375704967424 0 0.033274490358549333 -0.0030522424033367695 0 0.033077294189239492 -0.0030214460420731567 0 0.033274490358549333 -0.0030522424033367695 0 0.033077294189239492 -0.0030214460420731567 0 0.032942170736065625 -0.0031401417216827192 0 0.033077294189239492 -0.0030214460420731567 0 0.032942170736065625 -0.0031401417216827192 0 0.032790546882752056 -0.0030795146321845059 0 0.033274490358549333 -0.0030522424033367695 0 0.032942170736065625 -0.0031401417216827192 0 0.033392052276951655 -0.0031447399181604519 0 0.032945341168189111 -0.0032388012445953062 0 0.032942170736065625 -0.0031401417216827192 0 0.033392052276951655 -0.0031447399181604519 0 0.032439285515258744 -0.0032155424623054579 0 0.032945341168189111 -0.0032388012445953062 0 0.032942170736065625 -0.0031401417216827192 0 0.032942170736065625 -0.0031401417216827192 0 0.032790546882752056 -0.0030795146321845059 0 0.032487599800161568 -0.0031626336709938922 0 0.032439285515258744 -0.0032155424623054579 0 0.032942170736065625 -0.0031401417216827192 0 0.032487599800161568 -0.0031626336709938922 0 0.032790546882752056 -0.0030795146321845059 0 0.032487599800161568 -0.0031626336709938922 0 0.032576226185477002 -0.0030927157097796372 0 0.032487599800161568 -0.0031626336709938922 0 0.032307546723271463 -0.0031748053435308311 0 0.032576226185477002 -0.0030927157097796372 0 0.032307546723271463 -0.0031748053435308311 0 0.032420835225440661 -0.0031271388729458885 0 0.032576226185477002 -0.0030927157097796372 0 0.03222976668073297 -0.0031994388681274985 0 0.032307546723271463 -0.0031748053435308311 0 0.032420835225440661 -0.0031271388729458885 0 0.032420835225440661 -0.0031271388729458885 0 0.032576226185477002 -0.0030927157097796372 0 0.032555296301600457 -0.0030470204486236175 0 0.032125129373119107 -0.0035397537298862921 0 0.032265664248505938 -0.0039597312919498247 0 0.03202886886802523 -0.0039460265936184166 0 0.032652667781721184 -0.0040715490912704546 0 0.032313623121170559 -0.0043131155921653039 0 0.03202886886802523 -0.0039460265936184166 0 0.032313623121170559 -0.0043131155921653039 0 0.032157921502040457 -0.0046292197027482289 0 0.03222976668073297 -0.0031994388681274985 0 0.032420835225440661 -0.0031271388729458885 0 0.032474608400766325 -0.0030586354564266518 0 0.032420835225440661 -0.0031271388729458885 0 0.032474608400766325 -0.0030586354564266518 0 0.032555296301600457 -0.0030470204486236175 0 0.032343962890553427 -0.0046656869834261249 0 0.032313623121170559 -0.0043131155921653039 0 0.032157921502040457 -0.0046292197027482289 0 0.032265664248505938 -0.0039597312919498247 0 0.032993478113436461 -0.0033202579925824885 0 0.032474608400766325 -0.0030586354564266518 0 0.032696096808652687 -0.0029107877158524803 0 0.032698208413475795 -0.0026813732553358674 0 0.032343962890553427 -0.0046656869834261249 0 0.032157921502040457 -0.0046292197027482289 0 0.032208865257458801 -0.0050123863729980732 0 0.032474608400766325 -0.0030586354564266518 0 0.032555296301600457 -0.0030470204486236175 0 0.032696096808652687 -0.0029107877158524803 0 0.032880017848473997 -0.0029909835835174765 0 0.032576226185477002 -0.0030927157097796372 0 0.032754319518542817 -0.0029690129221728928 0 0.032576226185477002 -0.0030927157097796372 0 0.032555296301600457 -0.0030470204486236175 0 0.032754319518542817 -0.0029690129221728928 0 0.032555296301600457 -0.0030470204486236175 0 0.032696096808652687 -0.0029107877158524803 0 0.032754319518542817 -0.0029690129221728928 0 0.032696096808652687 -0.0029107877158524803 0 0.032854980283703622 -0.0028686602664793111 0 0.032754319518542817 -0.0029690129221728928 0 0.032854980283703622 -0.0028686602664793111 0 0.032754319518542817 -0.0029690129221728928 0 0.032976743719170726 -0.0028700676471833573 0 0.032854980283703622 -0.0028686602664793111 0 0.032844080243254921 -0.0027636626473765704 0 0.033020601032463563 -0.002741852998356685 0 0.032854980283703622 -0.0028686602664793111 0 0.033020601032463563 -0.002741852998356685 0 0.032976743719170726 -0.0028700676471833573 0 0.032696096808652687 -0.0029107877158524803 0 0.032854980283703622 -0.0028686602664793111 0 0.032844080243254921 -0.0027636626473765704 0 0.032844080243254921 -0.0027636626473765704 0 0.033032513320431667 -0.0026266416759107413 0 0.033020601032463563 -0.002741852998356685 0 0.032844080243254921 -0.0027636626473765704 0 0.032901218348189883 -0.0026536530816491416 0 0.033032513320431667 -0.0026266416759107413 0 0.033032513320431667 -0.0026266416759107413 0 0.033020601032463563 -0.002741852998356685 0 0.033239886335375966 -0.0025708182458093688 0 0.032598217980230486 -0.005074228584889439 0 0.032993478113436461 -0.0033202579925824885 0 0.032965792495324803 -0.0052439763312566211 0 0.032735499555919402 -0.0037313185156861604 0 0.033631257868122495 -0.0027736573524705967 0 0.032735499555919402 -0.0037313185156861604 0 0.032999601256676753 -0.0028525743388439118 0 0.033631257868122495 -0.0027736573524705967 0 0.032696096808652687 -0.0029107877158524803 0 0.032844080243254921 -0.0027636626473765704 0 0.032698208413475795 -0.0026813732553358674 0 0.032901218348189883 -0.0026536530816491416 0 0.032698208413475795 -0.0026813732553358674 0 0.033057935350878566 -0.0025521001436447808 0 0.032844080243254921 -0.0027636626473765704 0 0.032901218348189883 -0.0026536530816491416 0 0.032698208413475795 -0.0026813732553358674 0 0.032999601256676753 -0.0028525743388439118 0 0.033631257868122495 -0.0027736573524705967 0 0.033343191696050128 -0.0026503381513438558 0 0.032993478113436461 -0.0033202579925824885 0 0.033449532871785898 -0.002161453863226981 0 0.032698208413475795 -0.0026813732553358674 0 0.033057935350878566 -0.0025521001436447808 0 0.033425325406096953 -0.0023735104473785553 0 0.033569818106466809 -0.0026801164431261727 0 0.033494623428008484 -0.0025491460840861434 0 0.033425325406096953 -0.0023735104473785553 0 0.033631257868122495 -0.0027736573524705967 0 0.033494623428008484 -0.0025491460840861434 0 0.033343191696050128 -0.0026503381513438558 0 0.032993478113436461 -0.0033202579925824885 0 0.033387333164639377 -0.002480110603506449 0 0.033494623428008484 -0.0025491460840861434 0 0.033560486631808009 -0.0025483144084712502 0 0.033425325406096953 -0.0023735104473785553 0 0.033494623428008484 -0.0025491460840861434 0 0.033343191696050128 -0.0026503381513438558 0 0.033560486631808009 -0.0025483144084712502 0 0.033057935350878566 -0.0025521001436447808 0 0.033224517189174851 -0.0024663769929605577 0 0.033425325406096953 -0.0023735104473785553 0 0.033224517189174851 -0.0024663769929605577 0 0.033239886335375966 -0.0025708182458093688 0 0.033381753970162471 -0.0023245646431494776 0 0.033032513320431667 -0.0026266416759107413 0 0.033224517189174851 -0.0024663769929605577 0 0.033239886335375966 -0.0025708182458093688 0 0.033032513320431667 -0.0026266416759107413 0 0.033057935350878566 -0.0025521001436447808 0 0.033224517189174851 -0.0024663769929605577 0 0.032901218348189883 -0.0026536530816491416 0 0.033032513320431667 -0.0026266416759107413 0 0.033057935350878566 -0.0025521001436447808 0 0.033502781094710707 -0.0024838829717094024 0 0.033239886335375966 -0.0025708182458093688 0 0.033381753970162471 -0.0023245646431494776 0 0.033502781094710707 -0.0024838829717094024 0 0.033239886335375966 -0.0025708182458093688 0 0.033441985563339945 -0.0026867291404598028 0 0.033020601032463563 -0.002741852998356685 0 0.033239886335375966 -0.0025708182458093688 0 0.033181300723152889 -0.0027520540554990289 0 0.033239886335375966 -0.0025708182458093688 0 0.033181300723152889 -0.0027520540554990289 0 0.033441985563339945 -0.0026867291404598028 0 0.033181300723152889 -0.0027520540554990289 0 0.033218523902020985 -0.0028760739134536433 0 0.033441985563339945 -0.0026867291404598028 0 0.033181300723152889 -0.0027520540554990289 0 0.033218523902020985 -0.0028760739134536433 0 0.032976743719170726 -0.0028700676471833573 0 0.033020601032463563 -0.002741852998356685 0 0.033181300723152889 -0.0027520540554990289 0 0.032976743719170726 -0.0028700676471833573 0 0.033635415245284628 -0.0028348445416575751 0 0.033441985563339945 -0.0026867291404598028 0 0.033903437708991895 -0.0025842666556326888 0 0.033370902272994427 -0.0029567375704967424 0 0.033218523902020985 -0.0028760739134536433 0 0.033635415245284628 -0.0028348445416575751 0 0.033218523902020985 -0.0028760739134536433 0 0.033635415245284628 -0.0028348445416575751 0 0.033441985563339945 -0.0026867291404598028 0 0.033502781094710707 -0.0024838829717094024 0 0.033441985563339945 -0.0026867291404598028 0 0.033903437708991895 -0.0025842666556326888 0 0.033502781094710707 -0.0024838829717094024 0 0.033903437708991895 -0.0025842666556326888 0 0.033705269250645632 -0.0022896641861345616 0 0.034398271993181274 -0.0025447485218336599 0 0.034725691733449408 -0.0026839182228651898 0 0.034077289499976744 -0.0028653738745877209 0 0.033903437708991895 -0.0025842666556326888 0 0.034398271993181274 -0.0025447485218336599 0 0.034077289499976744 -0.0028653738745877209 0 0.033903437708991895 -0.0025842666556326888 0 0.034398271993181274 -0.0025447485218336599 0 0.034316592626444549 -0.0022510327845344257 0 0.034398271993181274 -0.0025447485218336599 0 0.034725691733449408 -0.0026839182228651898 0 0.03504706070424262 -0.0021628018263777178 0 0.034725691733449408 -0.0026839182228651898 0 0.035361625373011511 -0.0025044552774564476 0 0.03504706070424262 -0.0021628018263777178 0 0.034725691733449408 -0.0026839182228651898 0 0.035566838347644722 -0.0034197369304826649 0 0.035361625373011511 -0.0025044552774564476 0 0.034963076934009366 -0.0019586326579339448 0 0.033249397625076747 -0.0054655235215832184 0 0.034725691733449408 -0.0026839182228651898 0 0.034944220306319829 -0.0042406672986961876 0 0.035566838347644722 -0.0034197369304826649 0 0.034725691733449408 -0.0026839182228651898 0 0.034077289499976744 -0.0028653738745877209 0 0.034120928048512009 -0.0030831326805733561 0 0.033635415245284628 -0.0028348445416575751 0 0.033903437708991895 -0.0025842666556326888 0 0.034077289499976744 -0.0028653738745877209 0 0.033635415245284628 -0.0028348445416575751 0 0.034077289499976744 -0.0028653738745877209 0 0.033614158934631912 -0.0030015818755849809 0 0.034077289499976744 -0.0028653738745877209 0 0.033614158934631912 -0.0030015818755849809 0 0.033748637022796499 -0.0030848821490747922 0 0.033614158934631912 -0.0030015818755849809 0 0.033748637022796499 -0.0030848821490747922 0 0.033392052276951655 -0.0031447399181604519 0 0.033274490358549333 -0.0030522424033367695 0 0.033614158934631912 -0.0030015818755849809 0 0.033392052276951655 -0.0031447399181604519 0 0.034077289499976744 -0.0028653738745877209 0 0.033748637022796499 -0.0030848821490747922 0 0.034120928048512009 -0.0030831326805733561 0 0.033249397625076747 -0.0054655235215832184 0 0.029768937852161812 -0.0036581448593541442 0 0.033249397625076747 -0.0054655235215832184 0 0.030954432449387382 -0.0076585014342627263 0 0.033748637022796499 -0.0030848821490747922 0 0.034120928048512009 -0.0030831326805733561 0 0.033475176734032781 -0.0033087323091996559 0 0.026511334497203401 -0.0046266696421499078 0 0.026519872033848143 -0.0043017176950365266 0 0.026721829271983487 -0.004342868474684119 0 0.026511334497203401 -0.0046266696421499078 0 0.026519872033848143 -0.0043017176950365266 0 0.026417975882724345 -0.004241179447179581 0 0.033748637022796499 -0.0030848821490747922 0 0.033475176734032781 -0.0033087323091996559 0 0.033392052276951655 -0.0031447399181604519 0 0.032945341168189111 -0.0032388012445953062 0 0.033475176734032781 -0.0033087323091996559 0 0.033392052276951655 -0.0031447399181604519 0 0.022686773122713971 -0.0085878267777496492 0 0.024728268861727055 -0.0086030648078311948 0 0.022662800692329829 -0.010593887648490155 0 0.022686773122713971 -0.0085878267777496492 0 0.024728268861727055 -0.0086030648078311948 0 0.0232822859411029 -0.006967773921916243 0 0.024728268861727055 -0.0086030648078311948 0 0.024854961607574395 -0.0065578000194446489 0 0.0232822859411029 -0.006967773921916243 0 0.039030499827455267 -0.0094783125108030917 0 0.041447259479531602 -0.011053455307118421 0 0.039490541680123392 -0.012798338841659434 0 0.033003598992072537 -0.010164794589783933 0 0.030954432449387382 -0.0076585014342627263 0 0.039030499827455267 -0.0094783125108030917 0 0.041590538633703482 -0.0089668614986051533 0 0.040439679971593825 -0.007766827069204181 0 0.039030499827455267 -0.0094783125108030917 0 0.041447259479531602 -0.011053455307118421 0 0.041590538633703482 -0.0089668614986051533 0 0.033249397625076747 -0.0054655235215832184 0 0.038085828137459997 -0.0055211392771951154 0 0.041447259479531602 -0.011053455307118421 0 0.041590538633703482 -0.0089668614986051533 0 0.043435909846690685 -0.0092547085765980718 0 0.033003598992072537 -0.010164794589783933 0 0.034514490471192628 -0.00889536435258588 0 0.041590538633703482 -0.0089668614986051533 0 0.043435909846690685 -0.0092547085765980718 0 0.042848091487808639 -0.0083804391515021979 0 0.034514490471192628 -0.00889536435258588 0 0.04024789938690769 -0.010694362036012272 0 0.042848091487808639 -0.0083804391515021979 0 0.04314342626828533 -0.0075202385323435003 0 0.043738264579091399 -0.0083405597348365796 0 0.042848091487808639 -0.0083804391515021979 0 0.04195161195199431 -0.0079826610890983158 0 0.04314342626828533 -0.0075202385323435003 0 0.041590538633703482 -0.0089668614986051533 0 0.042848091487808639 -0.0083804391515021979 0 0.04195161195199431 -0.0079826610890983158 0 0.041714666715509378 -0.0073049441663376588 0 0.04314342626828533 -0.0075202385323435003 0 0.041858338226722823 -0.0059294882585159735 0 0.043154513315646979 -0.0071514890964257151 0 0.04314342626828533 -0.0075202385323435003 0 0.042826340173504847 -0.0067266791047289731 0 0.04195161195199431 -0.0079826610890983158 0 0.041714666715509378 -0.0073049441663376588 0 0.04314342626828533 -0.0075202385323435003 0 0.043361716506168657 -0.0077351202374050434 0 0.040960634941498521 -0.0051966400427335985 0 0.043154513315646979 -0.0071514890964257151 0 0.04314342626828533 -0.0075202385323435003 0 0.043738264579091399 -0.0083405597348365796 0 0.04195161195199431 -0.0079826610890983158 0 0.041714666715509378 -0.0073049441663376588 0 0.040439679971593825 -0.007766827069204181 0 0.041590538633703482 -0.0089668614986051533 0 0.04195161195199431 -0.0079826610890983158 0 0.040439679971593825 -0.007766827069204181 0 0.041714666715509378 -0.0073049441663376588 0 0.040439679971593825 -0.007766827069204181 0 0.041858338226722823 -0.0059294882585159735 0 0.038085828137459997 -0.0055211392771951154 0 0.040960634941498521 -0.0051966400427335985 0 0.035361625373011511 -0.0025044552774564476 0 0.036080921343842526 -0.0026743185536354948 0 0.035435666101733335 -0.0019870419998510359 0 0.035566838347644722 -0.0034197369304826649 0 0.035361625373011511 -0.0025044552774564476 0 0.036080921343842526 -0.0026743185536354948 0 0.040960634941498521 -0.0051966400427335985 0 0.038429422240118423 -0.0036967906693668269 0 0.042837514251613855 -0.006775597681205477 0 0.043098212615090566 -0.0064460824236116914 0 0.041877908477194921 -0.0057770863403472207 0 0.043154513315646979 -0.0071514890964257151 0 0.043616387503846617 -0.0066370361580463796 0 0.043876613746683051 -0.00712653448022205 0 0.043154513315646979 -0.0071514890964257151 0 0.043616387503846617 -0.0066370361580463796 0 0.043160842390162511 -0.0067406724720867573 0 0.043616387503846617 -0.0066370361580463796 0 0.043160842390162511 -0.0067406724720867573 0 0.043098212615090566 -0.0064460824236116914 0 0.043154513315646979 -0.0071514890964257151 0 0.043160842390162511 -0.0067406724720867573 0 0.042826340173504847 -0.0067266791047289731 0 0.040960634941498521 -0.0051966400427335985 0 0.041715155469604068 -0.0056101972087615869 0 0.043160842390162511 -0.0067406724720867573 0 0.042826340173504847 -0.0067266791047289731 0 0.043098212615090566 -0.0064460824236116914 0 0.043616387503846617 -0.0066370361580463796 0 0.043098212615090566 -0.0064460824236116914 0 0.043698499683835615 -0.0060998308172549249 0 0.043098212615090566 -0.0064460824236116914 0 0.043698499683835615 -0.0060998308172549249 0 0.043380270328015877 -0.0059476266156185424 0 0.043616387503846617 -0.0066370361580463796 0 0.043698499683835615 -0.0060998308172549249 0 0.04432748202219533 -0.006565746109443161 0 0.043698499683835615 -0.0060998308172549249 0 0.04432748202219533 -0.006565746109443161 0 0.04452014726184314 -0.0057212190717887794 0 0.043616387503846617 -0.0066370361580463796 0 0.04432748202219533 -0.006565746109443161 0 0.043876613746683051 -0.00712653448022205 0 0.04432748202219533 -0.006565746109443161 0 0.043876613746683051 -0.00712653448022205 0 0.04439588913667343 -0.0072503793107908387 0 0.04432748202219533 -0.006565746109443161 0 0.045316649558982229 -0.0071203257963444724 0 0.04439588913667343 -0.0072503793107908387 0 0.04432748202219533 -0.006565746109443161 0 0.045069410095002392 -0.0060931865888716749 0 0.04452014726184314 -0.0057212190717887794 0 0.045069410095002392 -0.0060931865888716749 0 0.045316649558982229 -0.0071203257963444724 0 0.045849892385684946 -0.0058638539505882969 0 0.045316649558982229 -0.0071203257963444724 0 0.046440487952280306 -0.0062748733584713935 0 0.045849892385684946 -0.0058638539505882969 0 0.04432748202219533 -0.006565746109443161 0 0.045069410095002392 -0.0060931865888716749 0 0.045316649558982229 -0.0071203257963444724 0 0.045316649558982229 -0.0071203257963444724 0 0.044437309257504366 -0.0079155772722915765 0 0.045339918657612159 -0.0079640032053885628 0 0.045316649558982229 -0.0071203257963444724 0 0.046253519697636851 -0.0075942752243189707 0 0.045339918657612159 -0.0079640032053885628 0 0.045898478356472996 -0.0069510154525408352 0 0.041521673225273656 -0.0076904410001567775 0 0.043723275224290072 -0.0077683724332510487 0 0.041521673225273656 -0.0076904410001567775 0 0.043876613746683051 -0.00712653448022205 0 0.04439588913667343 -0.0072503793107908387 0 0.044177713648531958 -0.0083257823562503299 0 0.043154513315646979 -0.0071514890964257151 0 0.043876613746683051 -0.00712653448022205 0 0.044177713648531958 -0.0083257823562503299 0 0.045316649558982229 -0.0071203257963444724 0 0.04439588913667343 -0.0072503793107908387 0 0.044177713648531958 -0.0083257823562503299 0 0.04719178540747538 -0.0064313479622230205 0 0.047164303061633987 -0.0073524483005294712 0 0.04806539476984277 -0.0063500671008051577 0 0.04719178540747538 -0.0064313479622230205 0 0.047461087430541657 -0.0053818462828239952 0 0.04806539476984277 -0.0063500671008051577 0 0.04719178540747538 -0.0064313479622230205 0 0.046705603124629257 -0.0069383230590660989 0 0.047164303061633987 -0.0073524483005294712 0 0.045316649558982229 -0.0071203257963444724 0 0.046705603124629257 -0.0069383230590660989 0 0.046440487952280306 -0.0062748733584713935 0 0.04719178540747538 -0.0064313479622230205 0 0.046705603124629257 -0.0069383230590660989 0 0.046440487952280306 -0.0062748733584713935 0 0.04719178540747538 -0.0064313479622230205 0 0.046440487952280306 -0.0062748733584713935 0 0.046913362350588891 -0.0058561925263737923 0 0.046253519697636851 -0.0075942752243189707 0 0.047119983836237334 -0.0078189859832709357 0 0.046065580869442624 -0.0081994765767633114 0 0.045316649558982229 -0.0071203257963444724 0 0.046705603124629257 -0.0069383230590660989 0 0.046253519697636851 -0.0075942752243189707 0 0.046705603124629257 -0.0069383230590660989 0 0.046253519697636851 -0.0075942752243189707 0 0.047164303061633987 -0.0073524483005294712 0 0.038885002335796823 -0.0071422564409532761 0 0.042465115170951077 -0.0057548356369008583 0 0.047164303061633987 -0.0073524483005294712 0 0.047141687516043994 -0.0078412953228909343 0 0.04806539476984277 -0.0063500671008051577 0 0.046253519697636851 -0.0075942752243189707 0 0.047164303061633987 -0.0073524483005294712 0 0.047119983836237334 -0.0078189859832709357 0 0.042535278770759612 -0.0075759289629356054 0 0.038885002335796823 -0.0071422564409532761 0 0.032585923772638865 -0.0073472522853441835 0 0.033066783620320193 -0.006327442488647258 0 0.032401781293964101 -0.0057454228001306779 0 0.032843740145697992 -0.0060649338362195543 0 0.03271175777235287 -0.0053563242638352531 0 0.032217451159151235 -0.0056827919936631296 0 0.038885002335796823 -0.0071422564409532761 0 0.031705431334511237 -0.0054365983984334355 0 0.038885002335796823 -0.0071422564409532761 0 0.039881215404133682 -0.0076409177140170041 0 0.047119983836237334 -0.0078189859832709357 0 0.046065580869442624 -0.0081994765767633114 0 0.046471293873843966 -0.0087738156474881281 0 0.046065580869442624 -0.0081994765767633114 0 0.046471293873843966 -0.0087738156474881281 0 0.045188034704843207 -0.0088098482027742387 0 0.046253519697636851 -0.0075942752243189707 0 0.046065580869442624 -0.0081994765767633114 0 0.045339918657612159 -0.0079640032053885628 0 0.039881215404133682 -0.0076409177140170041 0 0.038096207893858994 -0.0062215204828863068 0 0.046471293873843966 -0.0087738156474881281 0 0.045188034704843207 -0.0088098482027742387 0 0.045881720837501361 -0.0096669892832422031 0 0.032984261977214262 -0.0055850390945883094 0 0.033066783620320193 -0.006327442488647258 0 0.033667298704653841 -0.0052503863737247266 0 0.032984261977214262 -0.0055850390945883094 0 0.033066783620320193 -0.006327442488647258 0 0.032401781293964101 -0.0057454228001306779 0 0.032984261977214262 -0.0055850390945883094 0 0.032401781293964101 -0.0057454228001306779 0 0.032811412500998872 -0.0049969998943171058 0 0.041521673225273656 -0.0076904410001567775 0 0.040164898705529847 -0.008185734279075263 0 0.034514490471192628 -0.00889536435258588 0 0.027474961558739519 -0.0069122397662918717 0 0.036702277845504852 -0.0079346014782568745 0 0.036103082622560054 -0.0085298925218495174 0 0.034805945684312209 -0.0069791235012724977 0 0.043218420976508472 -0.0088622946953542513 0 0.042848091487808639 -0.0083804391515021979 0 0.043738264579091399 -0.0083405597348365796 0 0.034514490471192628 -0.00889536435258588 0 0.041521673225273656 -0.0076904410001567775 0 0.044437309257504366 -0.0079155772722915765 0 0.045339918657612159 -0.0079640032053885628 0 0.045188034704843207 -0.0088098482027742387 0 0.046065580869442624 -0.0081994765767633114 0 0.045339918657612159 -0.0079640032053885628 0 0.045188034704843207 -0.0088098482027742387 0 0.034805945684312209 -0.0069791235012724977 0 0.034379412482803337 -0.0057397000097403885 0 0.033606922510252289 -0.0054749198183684476 0 0.040164898705529847 -0.008185734279075263 0 0.038096207893858994 -0.0062215204828863068 0 0.034805945684312209 -0.0069791235012724977 0 0.034379412482803337 -0.0057397000097403885 0 0.035383679876708457 -0.0062281406826792647 0 0.036702277845504852 -0.0079346014782568745 0 0.034805945684312209 -0.0069791235012724977 0 0.035383679876708457 -0.0062281406826792647 0 0.022686773122713971 -0.0085878267777496492 0 0.022662800692329829 -0.010593887648490155 0 0.020741956987322556 -0.0080594669837800153 0 0.022686773122713971 -0.0085878267777496492 0 0.020741956987322556 -0.0080594669837800153 0 0.021273944780365886 -0.0064408914043123829 0 0.022686773122713971 -0.0085878267777496492 0 0.021273944780365886 -0.0064408914043123829 0 0.0232822859411029 -0.006967773921916243 0 0.021273944780365886 -0.0064408914043123829 0 0.019422643191131919 -0.0059850603592043212 0 0.021215972543498929 -0.0047107552928078843 0 0.020741956987322556 -0.0080594669837800153 0 0.021273944780365886 -0.0064408914043123829 0 0.019422643191131919 -0.0059850603592043212 0 0.034379412482803337 -0.0057397000097403885 0 0.035383679876708457 -0.0062281406826792647 0 0.034122902879686418 -0.0046419288583500031 0 0.027474961558739519 -0.0069122397662918717 0 0.026917847026009079 -0.005458143265600319 0 0.034379412482803337 -0.0057397000097403885 0 0.033606922510252289 -0.0054749198183684476 0 0.033746037877674474 -0.0052220473517198204 0 0.034379412482803337 -0.0057397000097403885 0 0.034122902879686418 -0.0046419288583500031 0 0.033746037877674474 -0.0052220473517198204 0 0.019422643191131919 -0.0059850603592043212 0 0.021215972543498929 -0.0047107552928078843 0 0.019764568358259241 -0.0042727324597823507 0 0.019422643191131919 -0.0059850603592043212 0 0.018287382262267698 -0.0044275970578680568 0 0.019764568358259241 -0.0042727324597823507 0 0.021273944780365886 -0.0064408914043123829 0 0.021215972543498929 -0.0047107552928078843 0 0.022482665592894385 -0.0053902007738326858 0 0.031705431334511237 -0.0054365983984334355 0 0.03323949203960587 -0.0042831403325174809 0 0.032401781293964101 -0.0057454228001306779 0 0.032811412500998872 -0.0049969998943171058 0 0.03218289393689875 -0.003965485989212196 0 0.03271175777235287 -0.0053563242638352531 0 0.032667057587522745 -0.0046150540675213509 0 0.032075898228299468 -0.0048220409109074524 0 0.032811412500998872 -0.0049969998943171058 0 0.032771660633982923 -0.0042812637015845877 0 0.03218289393689875 -0.003965485989212196 0 0.038096207893858994 -0.0062215204828863068 0 0.031913471951774575 -0.0035293644997311112 0 0.032811412500998872 -0.0049969998943171058 0 0.033667298704653841 -0.0052503863737247266 0 0.032771660633982923 -0.0042812637015845877 0 0.032984261977214262 -0.0055850390945883094 0 0.032811412500998872 -0.0049969998943171058 0 0.033667298704653841 -0.0052503863737247266 0 0.033630963712738347 -0.0054287011849970708 0 0.033746037877674474 -0.0052220473517198204 0 0.033412776455732776 -0.0045488724689812226 0 0.038096207893858994 -0.0062215204828863068 0 0.03753462242924549 -0.0063941476410524231 0 0.034122902879686418 -0.0046419288583500031 0 0.033746037877674474 -0.0052220473517198204 0 0.033412776455732776 -0.0045488724689812226 0 0.033630963712738347 -0.0054287011849970708 0 0.033412776455732776 -0.0045488724689812226 0 0.032771660633982923 -0.0042812637015845877 0 0.033412776455732776 -0.0045488724689812226 0 0.033073190909911884 -0.0033311788845771383 0 0.032771660633982923 -0.0042812637015845877 0 0.034122902879686418 -0.0046419288583500031 0 0.033412776455732776 -0.0045488724689812226 0 0.033073190909911884 -0.0033311788845771383 0 0.026917847026009079 -0.005458143265600319 0 0.025374896158272122 -0.0036834531595632785 0 0.033073190909911884 -0.0033311788845771383 0 0.032771660633982923 -0.0042812637015845877 0 0.03218289393689875 -0.003965485989212196 0 0.033073190909911884 -0.0033311788845771383 0 0.03218289393689875 -0.003965485989212196 0 0.03202454802185091 -0.0020364322391737497 0 0.03323949203960587 -0.0042831403325174809 0 0.026717017599151915 -0.0028192842918304119 0 0.025374896158272122 -0.0036834531595632785 0 0.026717017599151915 -0.0028192842918304119 0 0.032667057587522745 -0.0046150540675213509 0 0.032848465104518956 -0.0034024314361404866 0 0.032209679045845749 -0.0039464676743555865 0 0.018287382262267698 -0.0044275970578680568 0 0.018367785180721716 -0.0025606895288480206 0 0.017190430070776388 -0.0029303305399941168 0 0.018287382262267698 -0.0044275970578680568 0 0.018367785180721716 -0.0025606895288480206 0 0.01939191058816666 -0.0030437827599839101 0 0.018552002771086047 -0.0013009118250311633 0 0.01778828088790247 -0.0016897866990761435 0 0.018367785180721716 -0.0025606895288480206 0 0.018552002771086047 -0.0013009118250311633 0 0.018367785180721716 -0.0025606895288480206 0 0.019163368116410871 -0.0018739333228919471 0 0.018367785180721716 -0.0025606895288480206 0 0.01939191058816666 -0.0030437827599839101 0 0.019163368116410871 -0.0018739333228919471 0 0.015365208462047262 -0.0013664023831324729 0 0.026717017599151915 -0.0028192842918304119 0 0.01778828088790247 -0.0016897866990761435 0 0.018367785180721716 -0.0025606895288480206 0 0.017190430070776388 -0.0029303305399941168 0 0.021215972543498929 -0.0047107552928078843 0 0.020636241621752639 -0.0033248601349736132 0 0.021827853786733051 -0.003575039013831533 0 0.021215972543498929 -0.0047107552928078843 0 0.020636241621752639 -0.0033248601349736132 0 0.019764568358259241 -0.0042727324597823507 0 0.020636241621752639 -0.0033248601349736132 0 0.021510312743780985 -0.0022963220459137649 0 0.021827853786733051 -0.003575039013831533 0 0.018287382262267698 -0.0044275970578680568 0 0.019764568358259241 -0.0042727324597823507 0 0.01939191058816666 -0.0030437827599839101 0 0.020636241621752639 -0.0033248601349736132 0 0.019764568358259241 -0.0042727324597823507 0 0.01939191058816666 -0.0030437827599839101 0 0.020636241621752639 -0.0033248601349736132 0 0.01939191058816666 -0.0030437827599839101 0 0.020106153801045572 -0.0020822019703196385 0 0.01939191058816666 -0.0030437827599839101 0 0.019163368116410871 -0.0018739333228919471 0 0.020106153801045572 -0.0020822019703196385 0 0.019630973042631807 -0.0014314249146005571 0 0.019163368116410871 -0.0018739333228919471 0 0.020106153801045572 -0.0020822019703196385 0 0.020636241621752639 -0.0033248601349736132 0 0.020106153801045572 -0.0020822019703196385 0 0.021510312743780985 -0.0022963220459137649 0 0.02093786114831862 -0.0011973438226125243 0 0.020106153801045572 -0.0020822019703196385 0 0.021510312743780985 -0.0022963220459137649 0 0.021859106820734841 -0.0012924916976877802 0 0.021510312743780985 -0.0022963220459137649 0 0.022451719341924532 -0.0018569829907561074 0 0.021510312743780985 -0.0022963220459137649 0 0.022451719341924532 -0.0018569829907561074 0 0.022899027482911762 -0.0030057163176114669 0 0.021510312743780985 -0.0022963220459137649 0 0.021827853786733051 -0.003575039013831533 0 0.022899027482911762 -0.0030057163176114669 0 0.021827853786733051 -0.003575039013831533 0 0.022769773023262583 -0.0043212161283895049 0 0.022899027482911762 -0.0030057163176114669 0 0.021215972543498929 -0.0047107552928078843 0 0.021827853786733051 -0.003575039013831533 0 0.022769773023262583 -0.0043212161283895049 0 0.022769773023262583 -0.0043212161283895049 0 0.023791173059683025 -0.0038811421624846036 0 0.022899027482911762 -0.0030057163176114669 0 0.024548895987094383 -0.0039462839533108375 0 0.024998368205943079 -0.0037840830862291034 0 0.022769773023262583 -0.0043212161283895049 0 0.023791173059683025 -0.0038811421624846036 0 0.023875303859889022 -0.0044448958825640426 0 0.023791173059683025 -0.0038811421624846036 0 0.023783356449557674 -0.003105002918373124 0 0.022899027482911762 -0.0030057163176114669 0 0.023791173059683025 -0.0038811421624846036 0 0.023783356449557674 -0.003105002918373124 0 0.024468788458809867 -0.0031861511980401376 0 0.02340948557549654 -0.0015707732250089164 0 0.022451719341924532 -0.0018569829907561074 0 0.022899027482911762 -0.0030057163176114669 0 0.023783356449557674 -0.003105002918373124 0 0.023979529746318107 -0.002342395529282019 0 0.024468788458809867 -0.0031861511980401376 0 0.02340948557549654 -0.0015707732250089164 0 0.022899027482911762 -0.0030057163176114669 0 0.023979529746318107 -0.002342395529282019 0 0.023783356449557674 -0.003105002918373124 0 0.022899027482911762 -0.0030057163176114669 0 0.023979529746318107 -0.002342395529282019 0 0.025629622692650962 -0.0014114804705130696 0 0.026368672448741824 -0.0030042758775217066 0 0.023979529746318107 -0.002342395529282019 0 0.025560312548881005 -0.0018538539364311626 0 0.024468788458809867 -0.0031861511980401376 0 0.024485198368679545 -0.0012689262800743973 0 0.023979529746318107 -0.002342395529282019 0 0.025560312548881005 -0.0018538539364311626 0 0.025560312548881005 -0.0018538539364311626 0 0.025397296218044711 -0.0035355717243988594 0 0.024468788458809867 -0.0031861511980401376 0 0.027017867645406396 -0.0012710674174684455 0 0.026368672448741824 -0.0030042758775217066 0 0.026900419156441917 -0.0013779203351412606 0 0.025758646337074642 -0.0010658309281384095 0 0.025685989748630522 -0.0022266355350505649 0 0.027170840589237698 -0.0014195492617073858 0 0.026927308587227923 -0.0028431421714864903 0 0.026202263098645692 -0.0022888699533188594 0 0.026368672448741824 -0.0030042758775217066 0 0.024998368205943079 -0.0037840830862291034 0 0.023791173059683025 -0.0038811421624846036 0 0.025397296218044711 -0.0035355717243988594 0 0.024468788458809867 -0.0031861511980401376 0 0.023791173059683025 -0.0038811421624846036 0 0.025397296218044711 -0.0035355717243988594 0 0.023897157618349089 -0.004507424215339991 0 0.027763646799520925 -0.0052530806387003021 0 0.027105835076540429 -0.0059124959805152821 0 0.026820512329303402 -0.004334701522358003 0 0.027849096559896935 -0.0036261987791645681 0 0.027763646799520925 -0.0052530806387003021 0 0.026820512329303402 -0.004334701522358003 0 0.026202263098645692 -0.0022888699533188594 0 0.026447950596957728 -0.0034855561402125667 0 0.026262544197598253 -0.0036838697875181225 0 0.026368672448741824 -0.0030042758775217066 0 0.026753639849057629 -0.0043453117357100494 0 0.0267600092637942 -0.004065108202914676 0 0.026753639849057629 -0.0043453117357100494 0 0.026927308587227923 -0.0028431421714864903 0 0.026202263098645692 -0.0022888699533188594 0 0.026447950596957728 -0.0034855561402125667 0 0.026927308587227923 -0.0028431421714864903 0 0.026447950596957728 -0.0034855561402125667 0 0.026891500975406289 -0.0034822145452556071 0 0.026447950596957728 -0.0034855561402125667 0 0.026891500975406289 -0.0034822145452556071 0 0.026749558673290531 -0.0038331238284781571 0 0.027367586813346504 -0.0035928019586472393 0 0.026927308587227923 -0.0028431421714864903 0 0.026891500975406289 -0.0034822145452556071 0 0.027367586813346504 -0.0035928019586472393 0 0.026891500975406289 -0.0034822145452556071 0 0.026749558673290531 -0.0038331238284781571 0 0.030000011000210405 -0.0034373621427213888 0 0.029768937852161812 -0.0036581448593541442 0 0.032945341168189111 -0.0032388012445953062 0 0.032519236296421741 -0.0033600601029795617 0 0.033475176734032781 -0.0033087323091996559 0 0.027367586813346504 -0.0035928019586472393 0 0.026721829271983487 -0.004342868474684119 0 0.026749558673290531 -0.0038331238284781571 0 0.026721829271983487 -0.004342868474684119 0 0.026749558673290531 -0.0038331238284781571 0 0.026592638456950472 -0.0040485860261911923 0 0.026519872033848143 -0.0043017176950365266 0 0.026538900137655006 -0.0041358019201296302 0 0.026417975882724345 -0.004241179447179581 0 0.026506451306264542 -0.0040930581631290416 0 0.026753639849057629 -0.0043453117357100494 0 0.026519872033848143 -0.0043017176950365266 0 0.026339976476664303 -0.0036571135693868229 0 0.026592638456950472 -0.0040485860261911923 0 0.026753639849057629 -0.0043453117357100494 0 0.030954432449387382 -0.0076585014342627263 0 0.026339976476664303 -0.0036571135693868229 0 0.026749558673290531 -0.0038331238284781571 0 0.026592638456950472 -0.0040485860261911923 0 0.026447950596957728 -0.0034855561402125667 0 0.026339976476664303 -0.0036571135693868229 0 0.026749558673290531 -0.0038331238284781571 0 0.026519872033848143 -0.0043017176950365266 0 0.026721829271983487 -0.004342868474684119 0 0.026592638456950472 -0.0040485860261911923 0 0.026873095578548847 -0.0065817219103319786 0 0.02547428820910284 -0.0052587282493088659 0 0.024854961607574395 -0.0065578000194446489 0 0.02547428820910284 -0.0052587282493088659 0 0.024854961607574395 -0.0065578000194446489 0 0.023829776421384209 -0.0046943529429914494 0 0.024728268861727055 -0.0086030648078311948 0 0.026873095578548847 -0.0065817219103319786 0 0.024854961607574395 -0.0065578000194446489 0 0.021273944780365886 -0.0064408914043123829 0 0.0232822859411029 -0.006967773921916243 0 0.023829776421384209 -0.0046943529429914494 0 0.021402401775074447 -0.0063195050176978098 0 0.02314360474946978 -0.0050713422493130142 0 0.024854961607574395 -0.0065578000194446489 0 0.0232822859411029 -0.006967773921916243 0 0.023829776421384209 -0.0046943529429914494 0 0.021215972543498929 -0.0047107552928078843 0 0.022769773023262583 -0.0043212161283895049 0 0.022482665592894385 -0.0053902007738326858 0 0.030954432449387382 -0.0076585014342627263 0 0.024998368205943079 -0.0037840830862291034 0 0.022769773023262583 -0.0043212161283895049 0 0.022482665592894385 -0.0053902007738326858 0 0.023875303859889022 -0.0044448958825640426 0 0.02547428820910284 -0.0052587282493088659 0 0.023829776421384209 -0.0046943529429914494 0 0.026280366213580448 -0.0030616375442610835 0 0.026873095578548847 -0.0065817219103319786 0 0.02547428820910284 -0.0052587282493088659 0 0.026280366213580448 -0.0030616375442610835 0 0.02314360474946978 -0.0050713422493130142 0 0.024998368205943079 -0.0037840830862291034 0 0.0073098088431118877 -0.00023616714014167649 0 0.0072069665298940024 0.0002713998835511955 0 0.0076778129974296901 0.0002639947153295755 0 0.0073098088431118877 -0.00023616714014167649 0 0.0073773104628833998 0.00026599219031122408 0 0.0072069665298940024 0.0002713998835511955 0 0.010219846262986391 8.6983102768738374e-05 0 0.010030630120975065 1.2017854994529135e-07 0 0.011379114429017831 7.9378158872775564e-08 0 0.013543425753366718 0.00052830899576821486 0 0.012906937320183685 0.00010266692264004898 0 0.011371675640512323 2.2735732522469974e-06 0 0.012693072576360001 0.00065483776760817886 0 0.0073098088431118877 -0.00023616714014167649 0 0.0076778129974296901 0.0002639947153295755 0 0.010024682847699277 -1.2249165699177854e-06 0 0.012906937320183685 0.00010266692264004898 0 0.011371675640512323 2.2735732522469974e-06 0 0.010037195321283974 -2.2064644767842384e-06 0 0.014824994733289153 0.00025477729038696494 0 0.014528617209523618 0.00016426481276586184 0 0.014206833499633814 1.7369642589675397e-06 0 0.011383042347066937 -2.2964557854660371e-06 0 0.014528617209523618 0.00016426481276586184 0 0.014206833499633814 1.7369642589675397e-06 0 0.014824994733289153 0.00025477729038696494 0 0.014528617209523618 0.00016426481276586184 0 0.014827011427127289 0.00057585289364134882 0 0.012906937320183685 0.00010266692264004898 0 0.012693072576360001 0.00065483776760817886 0 0.014334132932887036 0.0012730550130395527 0 0.013543425753366718 0.00052830899576821486 0 0.014237321878563119 0.0010764207367543676 0 0.014528617209523618 0.00016426481276586184 0 0.014827011427127289 0.00057585289364134882 0 0.014334132932887036 0.0012730550130395527 0 0.014827011427127289 0.00057585289364134882 0 0.014334132932887036 0.0012730550130395527 0 0.014857843309664633 0.0005470576794287717 0 0.010219846262986391 8.6983102768738374e-05 0 0.010824282936377759 0.0011080375542376923 0 0.012906937320183685 0.00010266692264004898 0 0.014403071354548321 0.0015186475451310951 0 0.014334132932887036 0.0012730550130395527 0 0.014403071354548321 0.0015186475451310951 0 0.014334132932887036 0.0012730550130395527 0 0.014063379768941739 0.00082125709802852447 0 0.0075035140368182292 0.00095888449466085234 0 0.007634572745669887 0.00053887217167704901 0 0.0073773104628833998 0.00026599219031122408 0 0.010824282936377759 0.0011080375542376923 0 0.0097148447357700285 0.00074109179449125386 0 0.0075035140368182292 0.00095888449466085234 0 0.0085431642454232102 0.00084713262433993945 0 0.0097551095330318475 0.00079906439826467064 0 0.014403071354548321 0.0015186475451310951 0 0.012830502542636143 0.00071079147325829107 0 0.014063379768941739 0.00082125709802852447 0 0.0075035140368182292 0.00095888449466085234 0 0.0085431642454232102 0.00084713262433993945 0 0.0079924100857826624 0.00070939470290730649 0 0.0075035140368182292 0.00095888449466085234 0 0.0079924100857826624 0.00070939470290730649 0 0.007634572745669887 0.00053887217167704901 0 0.0085431642454232102 0.00084713262433993945 0 0.0079924100857826624 0.00070939470290730649 0 0.0083652697611061051 0.00075980398430353232 0 0.0079924100857826624 0.00070939470290730649 0 0.007836173516912898 0.00053590119601071979 0 0.0083652697611061051 0.00075980398430353232 0 0.007836173516912898 0.00053590119601071979 0 0.0079459063816318815 0.00053434549358755557 0 0.0083652697611061051 0.00075980398430353232 0 0.0079924100857826624 0.00070939470290730649 0 0.007836173516912898 0.00053590119601071979 0 0.007634572745669887 0.00053887217167704901 0 0.007836173516912898 0.00053590119601071979 0 0.007634572745669887 0.00053887217167704901 0 0.0075159722300821132 0.0003967270318378127 0 0.007836173516912898 0.00053590119601071979 0 0.0075112265785716066 0.00042054585052433692 0 0.0075159722300821132 0.0003967270318378127 0 0.007836173516912898 0.00053590119601071979 0 0.0075112265785716066 0.00042054585052433692 0 0.0079459063816318815 0.00053434549358755557 0 0.0073098088431118877 -0.00023616714014167649 0 0.0075035140368182292 0.00095888449466085234 0 0.0073773104628833998 0.00026599219031122408 0 0.007634572745669887 0.00053887217167704901 0 0.0073773104628833998 0.00026599219031122408 0 0.0075159722300821132 0.0003967270318378127 0 0.0073773104628833998 0.00026599219031122408 0 0.0073148394152590434 0.00033134367117090233 0 0.0075159722300821132 0.0003967270318378127 0 0.0075112265785716066 0.00042054585052433692 0 0.0073148394152590434 0.00033134367117090233 0 0.0075159722300821132 0.0003967270318378127 0 0.0073773104628833998 0.00026599219031122408 0 0.0073148394152590434 0.00033134367117090233 0 0.0072069665298940024 0.0002713998835511955 0 0.0073148394152590434 0.00033134367117090233 0 0.0072069665298940024 0.0002713998835511955 0 0.0070925256456206391 0.00048283063166902705 0 0.0072069665298940024 0.0002713998835511955 0 0.0070925256456206391 0.00048283063166902705 0 0.0069109929474053845 0.00049745212787223657 0 0.0075112265785716066 0.00042054585052433692 0 0.0073148394152590434 0.00033134367117090233 0 0.0070925256456206391 0.00048283063166902705 0 0.0075112265785716066 0.00042054585052433692 0 0.0075172298243087275 0.00046948260279184342 0 0.0079459063816318815 0.00053434549358755557 0 0.0075112265785716066 0.00042054585052433692 0 0.0070925256456206391 0.00048283063166902705 0 0.0075172298243087275 0.00046948260279184342 0 0.0070925256456206391 0.00048283063166902705 0 0.0069928741818098741 0.00075395816268965048 0 0.0064206751044932411 0.00064529102220210158 0 0.0070925256456206391 0.00048283063166902705 0 0.0075172298243087275 0.00046948260279184342 0 0.0069928741818098741 0.00075395816268965048 0 0.0070925256456206391 0.00048283063166902705 0 0.0069109929474053845 0.00049745212787223657 0 0.0064206751044932411 0.00064529102220210158 0 0.0069109929474053845 0.00049745212787223657 0 0.0059897991059612412 0.00050241141678394159 0 0.0064206751044932411 0.00064529102220210158 0 0.0069109929474053845 0.00049745212787223657 0 0.0074477110307875983 0.00036041913656372453 0 0.0059897991059612412 0.00050241141678394159 0 0.0072069665298940024 0.0002713998835511955 0 0.0069109929474053845 0.00049745212787223657 0 0.0076778129974296901 0.0002639947153295755 0 0.0069109929474053845 0.00049745212787223657 0 0.0076778129974296901 0.0002639947153295755 0 0.0074477110307875983 0.00036041913656372453 0 0.0076778129974296901 0.0002639947153295755 0 0.010024682847699277 -1.2249165699177854e-06 0 0.0074477110307875983 0.00036041913656372453 0 0.010024682847699277 -1.2249165699177854e-06 0 0.0072295615448911424 1.4779646048246183e-06 0 0.0074477110307875983 0.00036041913656372453 0 0.0072295615448911424 1.4779646048246183e-06 0 0.0074477110307875983 0.00036041913656372453 0 0.0059897991059612412 0.00050241141678394159 0 0.0072295615448911424 1.4779646048246183e-06 0 0.0059897991059612412 0.00050241141678394159 0 0.004427829974788953 6.7561770239793109e-07 0 0.0043419738965822527 0.0002961961179241967 0 0.0038296085129723039 0.00019573501364437805 0 0.0055081645763503644 0.00049575594975123411 0 0.0059897991059612412 0.00050241141678394159 0 0.0043419738965822527 0.0002961961179241967 0 0.0055081645763503644 0.00049575594975123411 0 0.0059897991059612412 0.00050241141678394159 0 0.0043419738965822527 0.0002961961179241967 0 0.004427829974788953 6.7561770239793109e-07 0 0.0043419738965822527 0.0002961961179241967 0 0.004427829974788953 6.7561770239793109e-07 0 0.0016276895583362864 1.6020634670262535e-07 0 0.0043419738965822527 0.0002961961179241967 0 0.0038296085129723039 0.00019573501364437805 0 0.0016276895583362864 1.6020634670262535e-07 0 0.0034366573371481003 -0.00074634189756951662 0 0.0019971008352504716 -5.1968684747802969e-05 0 0.0037579895998206079 -9.2050790777212607e-05 0 0.0038296085129723039 0.00019573501364437805 0 0.0019971008352504716 -5.1968684747802969e-05 0 0.0037579895998206079 -9.2050790777212607e-05 0 0.0038296085129723039 0.00019573501364437805 0 0.0019971008352504716 -5.1968684747802969e-05 0 0.0016276895583362864 1.6020634670262535e-07 0 -0.0011742828108201678 1.0590528837998386e-06 0 0.0019971008352504716 -5.1968684747802969e-05 0 0.0016276895583362864 1.6020634670262535e-07 0 0.0063138711327431702 -0.00042647534842488931 0 0.0048668721183442298 -0.00034714011262048711 0 0.005424195845694973 0.00013812125241512727 0 0.0054013186388753237 -0.0010318713989832138 0 0.0063138711327431702 -0.00042647534842488931 0 0.0048668721183442298 -0.00034714011262048711 0 0.0048668721183442298 -0.00034714011262048711 0 0.0037579895998206079 -9.2050790777212607e-05 0 0.005424195845694973 0.00013812125241512727 0 0.0034366573371481003 -0.00074634189756951662 0 0.0048668721183442298 -0.00034714011262048711 0 0.0037579895998206079 -9.2050790777212607e-05 0 0.0038296085129723039 0.00019573501364437805 0 0.0037579895998206079 -9.2050790777212607e-05 0 0.005424195845694973 0.00013812125241512727 0 0.0038296085129723039 0.00019573501364437805 0 0.005424195845694973 0.00013812125241512727 0 0.0055081645763503644 0.00049575594975123411 0 0.0063138711327431702 -0.00042647534842488931 0 0.005424195845694973 0.00013812125241512727 0 0.0070744891737559009 9.3671358070368689e-05 0 0.005424195845694973 0.00013812125241512727 0 0.0064528690118335879 0.0005079194260737877 0 0.0070744891737559009 9.3671358070368689e-05 0 0.005424195845694973 0.00013812125241512727 0 0.0064528690118335879 0.0005079194260737877 0 0.0055081645763503644 0.00049575594975123411 0 0.0059897991059612412 0.00050241141678394159 0 0.0055081645763503644 0.00049575594975123411 0 0.0064206751044932411 0.00064529102220210158 0 0.0064528690118335879 0.0005079194260737877 0 0.0055081645763503644 0.00049575594975123411 0 0.0064206751044932411 0.00064529102220210158 0 0.0069928741818098741 0.00075395816268965048 0 0.0064528690118335879 0.0005079194260737877 0 0.0074435305326314904 0.00050779060112977317 0 0.0069928741818098741 0.00075395816268965048 0 0.0064528690118335879 0.0005079194260737877 0 0.0064206751044932411 0.00064529102220210158 0 0.0069928741818098741 0.00075395816268965048 0 0.0074435305326314904 0.00050779060112977317 0 0.0082530889020255242 0.00086396564806081114 0 0.0074435305326314904 0.00050779060112977317 0 0.0087130432275465131 0.00016565768967652709 0 0.0082530889020255242 0.00086396564806081114 0 0.0087130432275465131 0.00016565768967652709 0 0.0094306916086295978 0.00077613622497207046 0 0.0082530889020255242 0.00086396564806081114 0 0.0064528690118335879 0.0005079194260737877 0 0.0074435305326314904 0.00050779060112977317 0 0.0070744891737559009 9.3671358070368689e-05 0 0.0074435305326314904 0.00050779060112977317 0 0.0087130432275465131 0.00016565768967652709 0 0.0070744891737559009 9.3671358070368689e-05 0 0.0063138711327431702 -0.00042647534842488931 0 0.0070744891737559009 9.3671358070368689e-05 0 0.0078139423777176739 -0.00054476310288970378 0 0.0087130432275465131 0.00016565768967652709 0 0.0070744891737559009 9.3671358070368689e-05 0 0.0078139423777176739 -0.00054476310288970378 0 0.0087130432275465131 0.00016565768967652709 0 0.0078139423777176739 -0.00054476310288970378 0 0.0091082378090008732 -0.00056162884555251136 0 0.0089825397223583046 -0.0016016849413147973 0 0.0072169824121509291 -0.0013041194633361195 0 0.0078139423777176739 -0.00054476310288970378 0 0.0072169824121509291 -0.0013041194633361195 0 0.0063138711327431702 -0.00042647534842488931 0 0.0078139423777176739 -0.00054476310288970378 0 0.0072169824121509291 -0.0013041194633361195 0 0.0054013186388753237 -0.0010318713989832138 0 0.0063138711327431702 -0.00042647534842488931 0 0.010267742312080276 -0.0014389214557013841 0 0.0089825397223583046 -0.0016016849413147973 0 0.010109177963130413 -0.00079686332554813877 0 0.0089825397223583046 -0.0016016849413147973 0 0.0078139423777176739 -0.00054476310288970378 0 0.0091082378090008732 -0.00056162884555251136 0 0.0089825397223583046 -0.0016016849413147973 0 0.010109177963130413 -0.00079686332554813877 0 0.0091082378090008732 -0.00056162884555251136 0 0.010109177963130413 -0.00079686332554813877 0 0.010031872985123282 -0.000130299532157093 0 0.011002816129273046 -0.00038394154750072596 0 0.010109177963130413 -0.00079686332554813877 0 0.0091082378090008732 -0.00056162884555251136 0 0.010031872985123282 -0.000130299532157093 0 0.0087130432275465131 0.00016565768967652709 0 0.0091082378090008732 -0.00056162884555251136 0 0.010031872985123282 -0.000130299532157093 0 0.0087130432275465131 0.00016565768967652709 0 0.010031872985123282 -0.000130299532157093 0 0.010380260208244162 0.00044749137373425156 0 0.0087130432275465131 0.00016565768967652709 0 0.010380260208244162 0.00044749137373425156 0 0.0094306916086295978 0.00077613622497207046 0 0.010031872985123282 -0.000130299532157093 0 0.010380260208244162 0.00044749137373425156 0 0.011192077713110232 0.00017822745279321773 0 0.010380260208244162 0.00044749137373425156 0 0.010448694267321248 0.0010561023107300378 0 0.011464310312311364 0.00080257094249977989 0 0.010448694267321248 0.0010561023107300378 0 0.011761428717610994 0.0014504465734655192 0 0.011464310312311364 0.00080257094249977989 0 0.010448694267321248 0.0010561023107300378 0 0.011761428717610994 0.0014504465734655192 0 0.010361215833287448 0.0017254636109480541 0 0.010361215833287448 0.0017254636109480541 0 0.0092992111334948401 0.0015289710432096133 0 0.010071104213516226 0.0029722648891740452 0 0.010448694267321248 0.0010561023107300378 0 0.010361215833287448 0.0017254636109480541 0 0.0092992111334948401 0.0015289710432096133 0 0.010448694267321248 0.0010561023107300378 0 0.0094306916086295978 0.00077613622497207046 0 0.0092992111334948401 0.0015289710432096133 0 0.010380260208244162 0.00044749137373425156 0 0.010448694267321248 0.0010561023107300378 0 0.0094306916086295978 0.00077613622497207046 0 0.0094306916086295978 0.00077613622497207046 0 0.0082530889020255242 0.00086396564806081114 0 0.0092992111334948401 0.0015289710432096133 0 0.0083413287717913516 0.00083357541184901033 0 0.0088903173589445442 0.0017600430767096245 0 0.0069928741818098741 0.00075395816268965048 0 0.0082530889020255242 0.00086396564806081114 0 0.0078920164545337526 0.0020900963261695376 0 0.0071640542090056093 0.00074958420244782518 0 0.0078327125721528688 0.0013956289434586236 0 0.0075172298243087275 0.00046948260279184342 0 0.0081023270808908126 0.00039826249400525519 0 0.0079459063816318815 0.00053434549358755557 0 0.0075172298243087275 0.00046948260279184342 0 0.0069928741818098741 0.00075395816268965048 0 0.0081023270808908126 0.00039826249400525519 0 0.0082530889020255242 0.00086396564806081114 0 0.0078920164545337526 0.0020900963261695376 0 0.0087242565356377127 0.001827930413186168 0 0.0078327125721528688 0.0013956289434586236 0 0.0097623127027478742 0.0013179171762034898 0 0.0078920164545337526 0.0020900963261695376 0 0.0087242565356377127 0.001827930413186168 0 0.0086528829806999923 0.0031806267699530781 0 0.0081023270808908126 0.00039826249400525519 0 0.0083500844734722413 0.00070942206126227371 0 0.0088611231959147829 0.00088511677507092435 0 0.0081023270808908126 0.00039826249400525519 0 0.0079459063816318815 0.00053434549358755557 0 0.0083500844734722413 0.00070942206126227371 0 0.0079459063816318815 0.00053434549358755557 0 0.0083500844734722413 0.00070942206126227371 0 0.0083652697611061051 0.00075980398430353232 0 0.0083652697611061051 0.00075980398430353232 0 0.0085772917637063923 0.00088682418357184244 0 0.0088747771292575755 0.0009754788970630766 0 0.0083500844734722413 0.00070942206126227371 0 0.0083652697611061051 0.00075980398430353232 0 0.0085772917637063923 0.00088682418357184244 0 0.0083500844734722413 0.00070942206126227371 0 0.0085772917637063923 0.00088682418357184244 0 0.0085728051580831483 0.00087392692610520307 0 0.0085772917637063923 0.00088682418357184244 0 0.0085728051580831483 0.00087392692610520307 0 0.0085988064942829658 0.00097090389947446232 0 0.0085988064942829658 0.00097090389947446232 0 0.0088747771292575755 0.0009754788970630766 0 0.0085830036119186152 0.00109003860418971 0 0.0085772917637063923 0.00088682418357184244 0 0.0085988064942829658 0.00097090389947446232 0 0.0088747771292575755 0.0009754788970630766 0 0.0085431642454232102 0.00084713262433993945 0 0.0088747771292575755 0.0009754788970630766 0 0.0097551095330318475 0.00079906439826467064 0 0.0085431642454232102 0.00084713262433993945 0 0.0083652697611061051 0.00075980398430353232 0 0.0088747771292575755 0.0009754788970630766 0 0.0085988064942829658 0.00097090389947446232 0 0.0088611231959147829 0.00088511677507092435 0 0.0085830036119186152 0.00109003860418971 0 0.0085728051580831483 0.00087392692610520307 0 0.0085988064942829658 0.00097090389947446232 0 0.0088611231959147829 0.00088511677507092435 0 0.0097623127027478742 0.0013179171762034898 0 0.010230657957392529 0.00045987765884188489 0 0.010782575167908303 0.00052988287924688707 0 0.010361122073218021 -0.00015690948630283204 0 0.010941735026480083 -4.6986982376956291e-06 0 0.010782575167908303 0.00052988287924688707 0 0.010941735026480083 -4.6986982376956291e-06 0 0.011503342895342021 4.4201394103452115e-06 0 0.0083500844734722413 0.00070942206126227371 0 0.0085728051580831483 0.00087392692610520307 0 0.0088611231959147829 0.00088511677507092435 0 0.011542490388273064 0.0014566389365218845 0 0.011641776386381322 0.0014955943732654605 0 0.011548355414480968 0.0013373117020149031 0 0.011432856293445958 0.0014218203870597539 0 0.011542490388273064 0.0014566389365218845 0 0.011546509078014185 0.0015718270622546756 0 0.0097623127027478742 0.0013179171762034898 0 0.012945395069755148 0.00079014206989564415 0 0.012842728810684689 0.0014618262649906749 0 0.010629766115604924 0.0021572602482230127 0 0.0097623127027478742 0.0013179171762034898 0 0.010629766115604924 0.0021572602482230127 0 0.011432856293445958 0.0014218203870597539 0 0.011542490388273064 0.0014566389365218845 0 0.011548355414480968 0.0013373117020149031 0 0.011542490388273064 0.0014566389365218845 0 0.011641776386381322 0.0014955943732654605 0 0.011546509078014185 0.0015718270622546756 0 0.011893878942060619 0.0022784631810386755 0 0.012095740336808675 0.0015686867726699384 0 0.012999155283937835 0.0014856964281482043 0 0.01429323212643858 0.0012591858030015059 0 0.012999155283937835 0.0014856964281482043 0 0.013918508189201619 0.0011952564350126331 0 0.011893878942060619 0.0022784631810386755 0 0.012095740336808675 0.0015686867726699384 0 0.01180443735089394 0.0015398607735399807 0 0.012842728810684689 0.0014618262649906749 0 0.013118779534979811 0.0015568594769403948 0 0.011800705009218969 0.0015146441060920933 0 0.010629766115604924 0.0021572602482230127 0 0.011761428717610994 0.0014504465734655192 0 0.012095740336808675 0.0015686867726699384 0 0.01180443735089394 0.0015398607735399807 0 0.011761428717610994 0.0014504465734655192 0 0.012095740336808675 0.0015686867726699384 0 0.012999155283937835 0.0014856964281482043 0 0.011761428717610994 0.0014504465734655192 0 0.010361215833287448 0.0017254636109480541 0 0.010071104213516226 0.0029722648891740452 0 0.0087242565356377127 0.001827930413186168 0 0.0086528829806999923 0.0031806267699530781 0 0.009208897566091407 0.0027536903803466869 0 0.0088903173589445442 0.0017600430767096245 0 0.010629766115604924 0.0021572602482230127 0 0.013104279348458739 0.0011155995463431913 0 0.012589047710568546 0.00097758459607950009 0 0.012291944140709271 0.0010368311299305477 0 0.013104279348458739 0.0011155995463431913 0 0.012999155283937835 0.0014856964281482043 0 0.012291944140709271 0.0010368311299305477 0 0.011761428717610994 0.0014504465734655192 0 0.012999155283937835 0.0014856964281482043 0 0.012291944140709271 0.0010368311299305477 0 0.013104279348458739 0.0011155995463431913 0 0.012999155283937835 0.0014856964281482043 0 0.0136860604266963 0.0012246250813317766 0 0.012999155283937835 0.0014856964281482043 0 0.013918508189201619 0.0011952564350126331 0 0.0136860604266963 0.0012246250813317766 0 0.013918508189201619 0.0011952564350126331 0 0.0136860604266963 0.0012246250813317766 0 0.014588024268078238 0.0012536949599563361 0 0.013104279348458739 0.0011155995463431913 0 0.0136860604266963 0.0012246250813317766 0 0.013849550873976211 0.00091915834865762621 0 0.013104279348458739 0.0011155995463431913 0 0.013532376753948127 0.0010176516403361719 0 0.013849550873976211 0.00091915834865762621 0 0.013122778255033395 0.0011048209870764198 0 0.01307771164484388 0.0010693060334575934 0 0.012576374816958953 0.0010401808265276787 0 0.012613923738685114 0.00083639879188992486 0 0.012833692927138197 0.0014250493184645367 0 0.01307771164484388 0.0010693060334575934 0 0.012722822707074241 0.0010281712680971617 0 0.013104279348458739 0.0011155995463431913 0 0.012576374816958953 0.0010401808265276787 0 0.012589047710568546 0.00097758459607950009 0 0.012576374816958953 0.0010401808265276787 0 0.012613923738685114 0.00083639879188992486 0 0.012589047710568546 0.00097758459607950009 0 0.012589047710568546 0.00097758459607950009 0 0.012489741310619818 0.00060217227470838288 0 0.012117519344476937 0.00045720421852700168 0 0.012613923738685114 0.00083639879188992486 0 0.012589047710568546 0.00097758459607950009 0 0.012489741310619818 0.00060217227470838288 0 0.012613923738685114 0.00083639879188992486 0 0.012489741310619818 0.00060217227470838288 0 0.012775341154584955 0.00025497302240280604 0 0.012489741310619818 0.00060217227470838288 0 0.012360332844388752 7.8848712094138417e-05 0 0.012775341154584955 0.00025497302240280604 0 0.012360332844388752 7.8848712094138417e-05 0 0.012117519344476937 0.00045720421852700168 0 0.012165980161011062 -0.00016458562935088634 0 0.012489741310619818 0.00060217227470838288 0 0.012360332844388752 7.8848712094138417e-05 0 0.012117519344476937 0.00045720421852700168 0 0.012117519344476937 0.00045720421852700168 0 0.012291944140709271 0.0010368311299305477 0 0.011464310312311364 0.00080257094249977989 0 0.012589047710568546 0.00097758459607950009 0 0.012117519344476937 0.00045720421852700168 0 0.012291944140709271 0.0010368311299305477 0 0.011761428717610994 0.0014504465734655192 0 0.012291944140709271 0.0010368311299305477 0 0.011464310312311364 0.00080257094249977989 0 0.012117519344476937 0.00045720421852700168 0 0.011464310312311364 0.00080257094249977989 0 0.011192077713110232 0.00017822745279321773 0 0.010380260208244162 0.00044749137373425156 0 0.011464310312311364 0.00080257094249977989 0 0.011192077713110232 0.00017822745279321773 0 0.012117519344476937 0.00045720421852700168 0 0.011192077713110232 0.00017822745279321773 0 0.011739686415877634 -0.00020338365950181141 0 0.011192077713110232 0.00017822745279321773 0 0.011739686415877634 -0.00020338365950181141 0 0.011002816129273046 -0.00038394154750072596 0 0.011739686415877634 -0.00020338365950181141 0 0.011002816129273046 -0.00038394154750072596 0 0.011682431174475339 -0.00056780064116134464 0 0.010031872985123282 -0.000130299532157093 0 0.011192077713110232 0.00017822745279321773 0 0.011002816129273046 -0.00038394154750072596 0 0.010109177963130413 -0.00079686332554813877 0 0.011002816129273046 -0.00038394154750072596 0 0.01102366397661635 -0.00087798468080757866 0 0.011002816129273046 -0.00038394154750072596 0 0.01102366397661635 -0.00087798468080757866 0 0.011682431174475339 -0.00056780064116134464 0 0.01102366397661635 -0.00087798468080757866 0 0.01161281986776001 -0.00089984033063994387 0 0.011682431174475339 -0.00056780064116134464 0 0.010944116302461421 -0.0016293546045134111 0 0.01102366397661635 -0.00087798468080757866 0 0.01161281986776001 -0.00089984033063994387 0 0.010267742312080276 -0.0014389214557013841 0 0.010109177963130413 -0.00079686332554813877 0 0.01102366397661635 -0.00087798468080757866 0 0.012016449408570974 -0.00059592379672910331 0 0.012120314424679065 -0.00060041654701049072 0 0.012284399428423033 0.00015054809366643447 0 0.011934812789424813 -0.0010692623663321227 0 0.012016449408570974 -0.00059592379672910331 0 0.012284399428423033 0.00015054809366643447 0 0.012016449408570974 -0.00059592379672910331 0 0.01161281986776001 -0.00089984033063994387 0 0.012120314424679065 -0.00060041654701049072 0 0.011934812789424813 -0.0010692623663321227 0 0.012016449408570974 -0.00059592379672910331 0 0.01161281986776001 -0.00089984033063994387 0 0.01161281986776001 -0.00089984033063994387 0 0.011682431174475339 -0.00056780064116134464 0 0.012120314424679065 -0.00060041654701049072 0 0.011682431174475339 -0.00056780064116134464 0 0.012120314424679065 -0.00060041654701049072 0 0.012094930775616727 -0.00059140874495968235 0 0.012120314424679065 -0.00060041654701049072 0 0.012195947771427547 -0.0010521955895991331 0 0.012284399428423033 0.00015054809366643447 0 0.012120314424679065 -0.00060041654701049072 0 0.012094930775616727 -0.00059140874495968235 0 0.012195947771427547 -0.0010521955895991331 0 0.012094930775616727 -0.00059140874495968235 0 0.012464610685347237 -0.00056452883404806262 0 0.012195947771427547 -0.0010521955895991331 0 0.011739686415877634 -0.00020338365950181141 0 0.011682431174475339 -0.00056780064116134464 0 0.012094930775616727 -0.00059140874495968235 0 0.011739686415877634 -0.00020338365950181141 0 0.012094930775616727 -0.00059140874495968235 0 0.012165980161011062 -0.00016458562935088634 0 0.012117519344476937 0.00045720421852700168 0 0.011739686415877634 -0.00020338365950181141 0 0.012165980161011062 -0.00016458562935088634 0 0.012360332844388752 7.8848712094138417e-05 0 0.012165980161011062 -0.00016458562935088634 0 0.012464610685347237 -0.00056452883404806262 0 0.012094930775616727 -0.00059140874495968235 0 0.012165980161011062 -0.00016458562935088634 0 0.012464610685347237 -0.00056452883404806262 0 0.012464610685347237 -0.00056452883404806262 0 0.012560849609279473 -0.0011498470133161015 0 0.01339701882217045 -0.00090102978067676143 0 0.012560849609279473 -0.0011498470133161015 0 0.011767444671944653 -0.0016719220372379533 0 0.013727057131532225 -0.0015598757591915751 0 0.011696718125154774 -0.0018591842594953116 0 0.010798348144130653 -0.0029336886994650018 0 0.012560849609279473 -0.0011498470133161015 0 0.012195947771427547 -0.0010521955895991331 0 0.011767444671944653 -0.0016719220372379533 0 0.012464610685347237 -0.00056452883404806262 0 0.012560849609279473 -0.0011498470133161015 0 0.012195947771427547 -0.0010521955895991331 0 0.012195947771427547 -0.0010521955895991331 0 0.011767444671944653 -0.0016719220372379533 0 0.012284399428423033 0.00015054809366643447 0 0.011767444671944653 -0.0016719220372379533 0 0.010371289140659322 0.0010241710244117278 0 0.008252063987176296 0.00065760158502611008 0 0.0087695916653912978 0.0033925718110348673 0 0.010371289140659322 0.0010241710244117278 0 0.008252063987176296 0.00065760158502611008 0 0.011767444671944653 -0.0016719220372379533 0 0.010371289140659322 0.0010241710244117278 0 0.012284399428423033 0.00015054809366643447 0 0.010966979555869569 0.0035053661883629682 0 0.010371289140659322 0.0010241710244117278 0 0.012284399428423033 0.00015054809366643447 0 0.0045365495851161387 0.003211540120080068 0 0.0041687000642346601 -0.00031672722682841656 0 0.0055189179184171894 0.0029009131924071316 0 0.008252063987176296 0.00065760158502611008 0 0.00414782254062665 -0.00049931323714008202 0 0.003777305792286498 0.0039300027118665936 0 0.0010295955905969135 0.0025674323446446749 0 0.00414782254062665 -0.00049931323714008202 0 0.008252063987176296 0.00065760158502611008 0 0.00414782254062665 -0.00049931323714008202 0 0.0074757121141691401 -0.0046265969585286577 0 0.011767444671944653 -0.0016719220372379533 0 0.008252063987176296 0.00065760158502611008 0 0.0074757121141691401 -0.0046265969585286577 0 0.0017701792981829824 -0.0041812611704659637 0 0.00414782254062665 -0.00049931323714008202 0 0.0074757121141691401 -0.0046265969585286577 0 0.012560849609279473 -0.0011498470133161015 0 0.013727057131532225 -0.0015598757591915751 0 0.01339701882217045 -0.00090102978067676143 0 0.013727057131532225 -0.0015598757591915751 0 0.01339701882217045 -0.00090102978067676143 0 0.014539405202789357 -0.0013224302984424468 0 0.014527308997199421 -0.0014187322648080486 0 0.013727057131532225 -0.0015598757591915751 0 0.014539405202789357 -0.0013224302984424468 0 0.0079076449370797611 -0.0047880466691430611 0 0.010798348144130653 -0.0029336886994650018 0 0.0031240608539259444 -0.0074127819956925833 0 0.0017701792981829824 -0.0041812611704659637 0 0.0074757121141691401 -0.0046265969585286577 0 0.014527308997199421 -0.0014187322648080486 0 0.014407586038790419 -0.0015422807912328178 0 0.014539405202789357 -0.0013224302984424468 0 0.014539405202789357 -0.0013224302984424468 0 0.015446699205899915 -0.00087001145262856751 0 0.014145134382227996 -0.00061195498668437684 0 0.01623492433428168 -0.0017171052936692274 0 0.014467385454183572 -0.0015621480570950704 0 0.016194868662075999 -0.0020661187895719213 0 0.014539405202789357 -0.0013224302984424468 0 0.015446699205899915 -0.00087001145262856751 0 0.015446699205899915 -0.00087001145262856751 0 0.014915536464555606 -1.4665862593525884e-05 0 0.014145134382227996 -0.00061195498668437684 0 0.016399599905604065 0.00050113042204266516 0 0.015446699205899915 -0.00087001145262856751 0 0.014915536464555606 -1.4665862593525884e-05 0 0.013917082021422054 -1.2916617194682748e-05 0 0.014145134382227996 -0.00061195498668437684 0 0.013268363796043993 -0.00026851563663167868 0 0.014915536464555606 -1.4665862593525884e-05 0 0.013917082021422054 -1.2916617194682748e-05 0 0.014332579461826707 0.00042607200386556547 0 0.014915536464555606 -1.4665862593525884e-05 0 0.013917082021422054 -1.2916617194682748e-05 0 0.014145134382227996 -0.00061195498668437684 0 0.01339701882217045 -0.00090102978067676143 0 0.014145134382227996 -0.00061195498668437684 0 0.013268363796043993 -0.00026851563663167868 0 0.01339701882217045 -0.00090102978067676143 0 0.014539405202789357 -0.0013224302984424468 0 0.014145134382227996 -0.00061195498668437684 0 0.012464610685347237 -0.00056452883404806262 0 0.01339701882217045 -0.00090102978067676143 0 0.013268363796043993 -0.00026851563663167868 0 0.012360332844388752 7.8848712094138417e-05 0 0.012464610685347237 -0.00056452883404806262 0 0.012775341154584955 0.00025497302240280604 0 0.012464610685347237 -0.00056452883404806262 0 0.013268363796043993 -0.00026851563663167868 0 0.012775341154584955 0.00025497302240280604 0 0.012775341154584955 0.00025497302240280604 0 0.013299130583116303 0.00032926506822162683 0 0.013016909774571249 0.00085652650884264275 0 0.013917082021422054 -1.2916617194682748e-05 0 0.013299130583116303 0.00032926506822162683 0 0.013678976537881624 0.00079657441300878308 0 0.013268363796043993 -0.00026851563663167868 0 0.012775341154584955 0.00025497302240280604 0 0.013299130583116303 0.00032926506822162683 0 0.013917082021422054 -1.2916617194682748e-05 0 0.013268363796043993 -0.00026851563663167868 0 0.013299130583116303 0.00032926506822162683 0 0.013299130583116303 0.00032926506822162683 0 0.013678976537881624 0.00079657441300878308 0 0.013016909774571249 0.00085652650884264275 0 0.013678976537881624 0.00079657441300878308 0 0.013016909774571249 0.00085652650884264275 0 0.013359544402080547 0.0013066764050348081 0 0.012613923738685114 0.00083639879188992486 0 0.012775341154584955 0.00025497302240280604 0 0.013016909774571249 0.00085652650884264275 0 0.012613923738685114 0.00083639879188992486 0 0.013016909774571249 0.00085652650884264275 0 0.012833692927138197 0.0014250493184645367 0 0.013016909774571249 0.00085652650884264275 0 0.013359544402080547 0.0013066764050348081 0 0.012833692927138197 0.0014250493184645367 0 0.013678976537881624 0.00079657441300878308 0 0.013359544402080547 0.0013066764050348081 0 0.01396363684555498 0.001511884733742065 0 0.013359544402080547 0.0013066764050348081 0 0.01396363684555498 0.001511884733742065 0 0.01345037159836136 0.001873353080398533 0 0.013678976537881624 0.00079657441300878308 0 0.01396363684555498 0.001511884733742065 0 0.014207722451655381 0.00095047846414312383 0 0.014213822149646595 0.0019305947916576879 0 0.015004959871592463 0.0016109401762226638 0 0.014901119707092448 0.0010111705068673489 0 0.01396363684555498 0.001511884733742065 0 0.014901119707092448 0.0010111705068673489 0 0.014207722451655381 0.00095047846414312383 0 0.014088025566372699 0.00178595082871627 0 0.014847789117605613 0.0010118248682718103 0 0.014213822149646595 0.0019305947916576879 0 0.015176572888784561 0.0021628192415006102 0 0.015004959871592463 0.0016109401762226638 0 0.016095003719927631 0.0015207248661724207 0 0.015738880419495845 0.0017644490146347675 0 0.015608036043132507 0.001205148583100956 0 0.015445305249400165 0.002192238694586329 0 0.015636760136968346 0.001204874142691268 0 0.015608036043132507 0.001205148583100956 0 0.015004959871592463 0.0016109401762226638 0 0.014901119707092448 0.0010111705068673489 0 0.015176572888784561 0.0021628192415006102 0 0.015608036043132507 0.001205148583100956 0 0.015004959871592463 0.0016109401762226638 0 0.016399599905604065 0.00050113042204266516 0 0.014915536464555606 -1.4665862593525884e-05 0 0.015435088031795635 0.00067787592107640881 0 0.015608036043132507 0.001205148583100956 0 0.014901119707092448 0.0010111705068673489 0 0.015435088031795635 0.00067787592107640881 0 0.016256089256797699 0.0011563232029796926 0 0.015608036043132507 0.001205148583100956 0 0.015435088031795635 0.00067787592107640881 0 0.014901119707092448 0.0010111705068673489 0 0.015435088031795635 0.00067787592107640881 0 0.014332579461826707 0.00042607200386556547 0 0.014915536464555606 -1.4665862593525884e-05 0 0.015435088031795635 0.00067787592107640881 0 0.014332579461826707 0.00042607200386556547 0 0.013917082021422054 -1.2916617194682748e-05 0 0.013678976537881624 0.00079657441300878308 0 0.014332579461826707 0.00042607200386556547 0 0.013678976537881624 0.00079657441300878308 0 0.014332579461826707 0.00042607200386556547 0 0.014207722451655381 0.00095047846414312383 0 0.014901119707092448 0.0010111705068673489 0 0.014332579461826707 0.00042607200386556547 0 0.014207722451655381 0.00095047846414312383 0 0.01286556839707868 -0.0008974382139766274 0 0.012550290583026332 -0.00056468972726194321 0 0.012707281180016912 -0.0013464276317680874 0 0.012847068213124526 -0.0006193536871172405 0 0.012937381399718569 -0.00037835206967075477 0 0.012550290583026332 -0.00056468972726194321 0 0.013892828867136553 0.00073540259300005609 0 0.018396740137782221 0.00013556725629856634 0 0.015081637652915394 0.00062083836669784859 0 0.017144130029264095 0.0015674926983417845 0 0.017513147977901138 0.00026387627281054983 0 0.012847068213124526 -0.0006193536871172405 0 0.012937381399718569 -0.00037835206967075477 0 0.013126946917468584 -0.00066412014287839025 0 0.013126946917468584 -0.00066412014287839025 0 0.01286556839707868 -0.0008974382139766274 0 0.013253929632561929 -0.00093505527386159796 0 0.012847068213124526 -0.0006193536871172405 0 0.013126946917468584 -0.00066412014287839025 0 0.01286556839707868 -0.0008974382139766274 0 0.012847068213124526 -0.0006193536871172405 0 0.01286556839707868 -0.0008974382139766274 0 0.012550290583026332 -0.00056468972726194321 0 0.022150704757103016 0.00082990992515935807 0 0.018396740137782221 0.00013556725629856634 0 0.021083136198483846 6.2711950173537198e-05 0 0.022978031732777425 0.00093356507198115825 0 0.022532189535705717 -0.00093499864892896518 0 0.020071152090913553 0.0019494702266220792 0 0.021083136198483846 6.2711950173537198e-05 0 0.02151637634386001 0.00094074515017142509 0 0.021083136198483846 6.2711950173537198e-05 0 0.02151637634386001 0.00094074515017142509 0 0.022488145088473795 0.00075826206605887495 0 0.02151637634386001 0.00094074515017142509 0 0.022488145088473795 0.00075826206605887495 0 0.022270301202249973 0.0016478099594917904 0 0.018396740137782221 0.00013556725629856634 0 0.017241885653251934 0.0015326458780876178 0 0.020071152090913553 0.0019494702266220792 0 0.02151637634386001 0.00094074515017142509 0 0.022270301202249973 0.0016478099594917904 0 0.018473437031400877 0.0020246351473025784 0 0.017241885653251934 0.0015326458780876178 0 0.016364508464179781 0.0023055621921943942 0 0.015738880419495845 0.0017644490146347675 0 0.015584039963455665 0.0024346646751995092 0 0.016095003719927631 0.0015207248661724207 0 0.016364508464179781 0.0023055621921943942 0 0.015738880419495845 0.0017644490146347675 0 0.015176572888784561 0.0021628192415006102 0 0.014929889476319536 0.0029642834179333371 0 0.014427246748709901 0.0025549242347848332 0 0.015445305249400165 0.002192238694586329 0 0.017241885653251934 0.0015326458780876178 0 0.014210276488501684 0.0030652696276315329 0 0.014427246748709901 0.0025549242347848332 0 0.013493835369355764 0.0027345615986155598 0 0.014213822149646595 0.0019305947916576879 0 0.014427246748709901 0.0025549242347848332 0 0.013493835369355764 0.0027345615986155598 0 0.014213822149646595 0.0019305947916576879 0 0.015176572888784561 0.0021628192415006102 0 0.014427246748709901 0.0025549242347848332 0 0.013892828867136553 0.00073540259300005609 0 0.017241885653251934 0.0015326458780876178 0 0.014210276488501684 0.0030652696276315329 0 0.014929889476319536 0.0029642834179333371 0 0.014427246748709901 0.0025549242347848332 0 0.014088025566372699 0.00178595082871627 0 0.01320680075193395 0.0013939480378318291 0 0.013629821676610447 0.00058613133127591777 0 0.013466967924014479 0.00051040544236884253 0 0.013364362939297388 0.00061967399562708658 0 0.013359544402080547 0.0013066764050348081 0 0.01345037159836136 0.001873353080398533 0 0.012833692927138197 0.0014250493184645367 0 0.01320680075193395 0.0013939480378318291 0 0.01333245646194248 -9.7036237818786512e-05 0 0.013892828867136553 0.00073540259300005609 0 0.01320680075193395 0.0013939480378318291 0 0.01320680075193395 0.0013939480378318291 0 0.012722822707074241 0.0010281712680971617 0 0.011933689029229774 0.00035135191969283883 0 0.012726333246307021 0.00021153451087529119 0 0.012270795595682371 -3.0311849949963829e-05 0 0.011933689029229774 0.00035135191969283883 0 0.012726333246307021 0.00021153451087529119 0 0.012793688103850823 0.0007459013705660365 0 0.01373466141316276 -0.00049199424694469987 0 0.013667553029187089 -0.0011145253839450731 0 0.014161857425465703 -0.00096524358212319336 0 0.01333245646194248 -9.7036237818786512e-05 0 0.013705455978271769 -0.00046559187281040057 0 0.013922612105104893 -0.00063650710280139795 0 0.014169683231842024 -0.00090649394689478163 0 0.01436707476287144 -0.00072320182639463418 0 0.012726333246307021 0.00021153451087529119 0 0.012270795595682371 -3.0311849949963829e-05 0 0.013080032808818946 -0.00021442442970752776 0 0.01333245646194248 -9.7036237818786512e-05 0 0.014250549184169984 -0.0010339346224783599 0 0.013892828867136553 0.00073540259300005609 0 0.01333245646194248 -9.7036237818786512e-05 0 0.01373466141316276 -0.00049199424694469987 0 0.013253929632561929 -0.00093505527386159796 0 0.013667553029187089 -0.0011145253839450731 0 0.012937381399718569 -0.00037835206967075477 0 0.013126946917468584 -0.00066412014287839025 0 0.01373466141316276 -0.00049199424694469987 0 0.013126946917468584 -0.00066412014287839025 0 0.01373466141316276 -0.00049199424694469987 0 0.013253929632561929 -0.00093505527386159796 0 0.013253929632561929 -0.00093505527386159796 0 0.013667553029187089 -0.0011145253839450731 0 0.013080236173474201 -0.0012868967051712402 0 0.013535786239702932 -0.0015388208871807759 0 0.013115004549333025 -0.0017093921156956342 0 0.013080236173474201 -0.0012868967051712402 0 0.013667553029187089 -0.0011145253839450731 0 0.013535786239702932 -0.0015388208871807759 0 0.013080236173474201 -0.0012868967051712402 0 0.014161857425465703 -0.00096524358212319336 0 0.01411092584663321 -0.0015559741402905757 0 0.014526529136056609 -0.0013492561043658955 0 0.013667553029187089 -0.0011145253839450731 0 0.014161857425465703 -0.00096524358212319336 0 0.01411092584663321 -0.0015559741402905757 0 0.013667553029187089 -0.0011145253839450731 0 0.013535786239702932 -0.0015388208871807759 0 0.01411092584663321 -0.0015559741402905757 0 0.01382714593197493 -0.0019040853405551223 0 0.013445661171263732 -0.0021735564327659642 0 0.014240099984504319 -0.0023918894914583999 0 0.01411092584663321 -0.0015559741402905757 0 0.014240099984504319 -0.0023918894914583999 0 0.014878251969272853 -0.0020081241910481838 0 0.01411092584663321 -0.0015559741402905757 0 0.01382714593197493 -0.0019040853405551223 0 0.014240099984504319 -0.0023918894914583999 0 0.013535786239702932 -0.0015388208871807759 0 0.01411092584663321 -0.0015559741402905757 0 0.01382714593197493 -0.0019040853405551223 0 0.013535786239702932 -0.0015388208871807759 0 0.013115004549333025 -0.0017093921156956342 0 0.013445661171263732 -0.0021735564327659642 0 0.013535786239702932 -0.0015388208871807759 0 0.01382714593197493 -0.0019040853405551223 0 0.013445661171263732 -0.0021735564327659642 0 0.013115004549333025 -0.0017093921156956342 0 0.013445661171263732 -0.0021735564327659642 0 0.012834533182422066 -0.0022384748776662069 0 0.01803862216781139 -0.0027134898397282873 0 0.018132916999656159 -0.0017561837516696991 0 0.013115004549333025 -0.0017093921156956342 0 0.012834533182422066 -0.0022384748776662069 0 0.012707281180016912 -0.0013464276317680874 0 0.023387400159141959 -0.0034465161777475395 0 0.023734620840198496 -0.0022899694960607959 0 0.023303080505521993 -0.0034480545130746291 0 0.018396740137782221 0.00013556725629856634 0 0.018132916999656159 -0.0017561837516696991 0 0.013115004549333025 -0.0017093921156956342 0 0.013080236173474201 -0.0012868967051712402 0 0.012707281180016912 -0.0013464276317680874 0 0.01286556839707868 -0.0008974382139766274 0 0.013253929632561929 -0.00093505527386159796 0 0.013080236173474201 -0.0012868967051712402 0 0.01286556839707868 -0.0008974382139766274 0 0.013080236173474201 -0.0012868967051712402 0 0.012707281180016912 -0.0013464276317680874 0 0.022978031732777425 0.00093356507198115825 0 0.023734620840198496 -0.0022899694960607959 0 0.022532189535705717 -0.00093499864892896518 0 0.019704927357814535 -0.0018965940713797499 0 0.022188397330293281 -0.0018968038490605947 0 0.023303080505521993 -0.0034480545130746291 0 0.019704927357814535 -0.0018965940713797499 0 0.021083136198483846 6.2711950173537198e-05 0 0.022188397330293281 -0.0018968038490605947 0 0.021083136198483846 6.2711950173537198e-05 0 0.022532189535705717 -0.00093499864892896518 0 0.022188397330293281 -0.0018968038490605947 0 0.023734620840198496 -0.0022899694960607959 0 0.022532189535705717 -0.00093499864892896518 0 0.022188397330293281 -0.0018968038490605947 0 0.023734620840198496 -0.0022899694960607959 0 0.022188397330293281 -0.0018968038490605947 0 0.023303080505521993 -0.0034480545130746291 0 0.022281733460314788 -0.0030935688063509119 0 0.023133680439981427 -0.0034314759330698213 0 0.024460391329055253 -0.0033380788130767552 0 0.024579050914693007 -0.0042879053853058201 0 0.023303080505521993 -0.0034480545130746291 0 0.024460391329055253 -0.0033380788130767552 0 0.023303080505521993 -0.0034480545130746291 0 0.023854202001076318 -0.0028567260054005758 0 0.01803862216781139 -0.0027134898397282873 0 0.019534788256591981 -0.0031608763124597304 0 0.023387400159141959 -0.0034465161777475395 0 0.023854202001076318 -0.0028567260054005758 0 0.023107254969405713 -0.0026982247383774759 0 0.023387400159141959 -0.0034465161777475395 0 0.023303080505521993 -0.0034480545130746291 0 0.023854202001076318 -0.0028567260054005758 0 0.025050410200684471 -0.0029527589522587347 0 0.019534788256591981 -0.0031608763124597304 0 0.023854202001076318 -0.0028567260054005758 0 0.023435157582020819 -0.0019625189473728034 0 0.022701243593046021 -0.0025572780088190263 0 0.023435157582020819 -0.0019625189473728034 0 0.022382634066655322 -0.001461328200942852 0 0.022701243593046021 -0.0025572780088190263 0 0.023854202001076318 -0.0028567260054005758 0 0.023435157582020819 -0.0019625189473728034 0 0.024265634906157282 -0.0021428514605025925 0 0.024790575271039166 -0.002628097821423832 0 0.023854202001076318 -0.0028567260054005758 0 0.024265634906157282 -0.0021428514605025925 0 0.023435157582020819 -0.0019625189473728034 0 0.024265634906157282 -0.0021428514605025925 0 0.024019617513845227 -0.0011811400258643799 0 0.025003276157741235 -0.00173449585167458 0 0.024265634906157282 -0.0021428514605025925 0 0.024019617513845227 -0.0011811400258643799 0 0.023435157582020819 -0.0019625189473728034 0 0.024019617513845227 -0.0011811400258643799 0 0.022989986735818653 -0.00084825541265018834 0 0.023435157582020819 -0.0019625189473728034 0 0.022989986735818653 -0.00084825541265018834 0 0.022382634066655322 -0.001461328200942852 0 0.024019617513845227 -0.0011811400258643799 0 0.022989986735818653 -0.00084825541265018834 0 0.023370932155362106 -0.00012650890237134575 0 0.022989986735818653 -0.00084825541265018834 0 0.023370932155362106 -0.00012650890237134575 0 0.022611812199390024 2.9757982008009113e-05 0 0.024019617513845227 -0.0011811400258643799 0 0.023370932155362106 -0.00012650890237134575 0 0.024149295417369994 -0.00011450787991786858 0 0.024795990565066373 -0.00074682099258277111 0 0.024019617513845227 -0.0011811400258643799 0 0.024149295417369994 -0.00011450787991786858 0 0.019368368922871391 -0.0042420691753337287 0 0.018509551589123738 -0.0043003199843807318 0 0.018903572103804774 -0.0040092264461078922 0 0.019368368922871391 -0.0042420691753337287 0 0.018903572103804774 -0.0040092264461078922 0 0.019224292186862828 -0.0034607975549756872 0 0.019777078283847765 -0.0037223236875486665 0 0.019368368922871391 -0.0042420691753337287 0 0.019224292186862828 -0.0034607975549756872 0 0.019142696874998821 -0.0038879802106876432 0 0.019472393960596922 -0.0037275817258013476 0 0.022989986735818653 -0.00084825541265018834 0 0.022092543855367151 -0.00032481613855584726 0 0.022382634066655322 -0.001461328200942852 0 0.019777078283847765 -0.0037223236875486665 0 0.020057207821902765 -0.0045789620627711101 0 0.019368368922871391 -0.0042420691753337287 0 0.022989986735818653 -0.00084825541265018834 0 0.022092543855367151 -0.00032481613855584726 0 0.022611812199390024 2.9757982008009113e-05 0 0.020866286841061163 -0.0017993343515853046 0 0.021391573843127232 -0.0032886135577499236 0 0.020057207821902765 -0.0045789620627711101 0 0.019368368922871391 -0.0042420691753337287 0 0.019080584434196274 -0.0052207740352694688 0 0.019368368922871391 -0.0042420691753337287 0 0.019080584434196274 -0.0052207740352694688 0 0.018509551589123738 -0.0043003199843807318 0 0.014394932610234118 -0.0038522653368695957 0 0.013034700333325842 -0.0032907932308678875 0 0.014240099984504319 -0.0023918894914583999 0 0.021391573843127232 -0.0032886135577499236 0 0.019534788256591981 -0.0031608763124597304 0 0.020057207821902765 -0.0045789620627711101 0 0.019080584434196274 -0.0052207740352694688 0 0.020300147198521704 -0.0054840387824195858 0 0.016130611273446005 -0.0046040091260322914 0 0.019534788256591981 -0.0031608763124597304 0 0.013445661171263732 -0.0021735564327659642 0 0.012834533182422066 -0.0022384748776662069 0 0.013034700333325842 -0.0032907932308678875 0 0.013445661171263732 -0.0021735564327659642 0 0.013034700333325842 -0.0032907932308678875 0 0.014240099984504319 -0.0023918894914583999 0 0.014240099984504319 -0.0023918894914583999 0 0.015310853129627057 -0.0028506547012012969 0 0.014878251969272853 -0.0020081241910481838 0 0.014394932610234118 -0.0038522653368695957 0 0.014240099984504319 -0.0023918894914583999 0 0.015310853129627057 -0.0028506547012012969 0 0.015310853129627057 -0.0028506547012012969 0 0.015650937484784661 -0.0022658998165753933 0 0.014878251969272853 -0.0020081241910481838 0 0.015310853129627057 -0.0028506547012012969 0 0.01648187699006165 -0.003264516157706533 0 0.015650937484784661 -0.0022658998165753933 0 0.01648187699006165 -0.003264516157706533 0 0.016313104128783593 -0.0025384649483537829 0 0.015650937484784661 -0.0022658998165753933 0 0.015310853129627057 -0.0028506547012012969 0 0.01648187699006165 -0.003264516157706533 0 0.017034839402828027 -0.004408737123982388 0 0.016130611273446005 -0.0046040091260322914 0 0.017269546817127734 -0.0044472843621845585 0 0.014394932610234118 -0.0038522653368695957 0 0.015310853129627057 -0.0028506547012012969 0 0.017034839402828027 -0.004408737123982388 0 0.019080584434196274 -0.0052207740352694688 0 0.018509551589123738 -0.0043003199843807318 0 0.017034839402828027 -0.004408737123982388 0 0.018509551589123738 -0.0043003199843807318 0 0.017034839402828027 -0.004408737123982388 0 0.018114100824671738 -0.0040697339065472469 0 0.017034839402828027 -0.004408737123982388 0 0.018114100824671738 -0.0040697339065472469 0 0.017562762694496512 -0.0041988936678219874 0 0.018114100824671738 -0.0040697339065472469 0 0.017562762694496512 -0.0041988936678219874 0 0.018326179736806177 -0.0037090436164884132 0 0.018114100824671738 -0.0040697339065472469 0 0.018903572103804774 -0.0040092264461078922 0 0.019184844431730803 -0.0035782021915655928 0 0.018509551589123738 -0.0043003199843807318 0 0.018114100824671738 -0.0040697339065472469 0 0.018903572103804774 -0.0040092264461078922 0 0.019385797927387372 -0.0020787942106723131 0 0.019025631470705035 -0.0021752424265994289 0 0.019159112132405256 -0.0016750091360135933 0 0.017427488715881064 -0.0041591471176188471 0 0.017562762694496512 -0.0041988936678219874 0 0.017656227194538694 -0.0034787260847705384 0 0.017034839402828027 -0.004408737123982388 0 0.017562762694496512 -0.0041988936678219874 0 0.017263444246436284 -0.0039042977124475377 0 0.017427488715881064 -0.0041591471176188471 0 0.017562762694496512 -0.0041988936678219874 0 0.017263444246436284 -0.0039042977124475377 0 0.017427488715881064 -0.0041591471176188471 0 0.017779015946280098 -0.0039902742694430983 0 0.017263444246436284 -0.0039042977124475377 0 0.019385797927387372 -0.0020787942106723131 0 0.019108977348831314 -0.0025243769077958975 0 0.019025631470705035 -0.0021752424265994289 0 0.018417807351073526 -0.0031036311683677654 0 0.018449692958962274 -0.0032102457697966028 0 0.017779015946280098 -0.0039902742694430983 0 0.017263444246436284 -0.0039042977124475377 0 0.017716022869824509 -0.0032790272904604117 0 0.017263444246436284 -0.0039042977124475377 0 0.017716022869824509 -0.0032790272904604117 0 0.017063128392882428 -0.0028518840404093905 0 0.01648187699006165 -0.003264516157706533 0 0.017034839402828027 -0.004408737123982388 0 0.017263444246436284 -0.0039042977124475377 0 0.01648187699006165 -0.003264516157706533 0 0.017263444246436284 -0.0039042977124475377 0 0.017063128392882428 -0.0028518840404093905 0 0.01648187699006165 -0.003264516157706533 0 0.016313104128783593 -0.0025384649483537829 0 0.017063128392882428 -0.0028518840404093905 0 0.016313104128783593 -0.0025384649483537829 0 0.017063128392882428 -0.0028518840404093905 0 0.016684569604846863 -0.0021764096121363692 0 0.017716022869824509 -0.0032790272904604117 0 0.017063128392882428 -0.0028518840404093905 0 0.017923897562851211 -0.0028327738355822941 0 0.017063128392882428 -0.0028518840404093905 0 0.017923897562851211 -0.0028327738355822941 0 0.017527009968966247 -0.0021998227146539135 0 0.020461363552002412 -0.0016769845617882681 0 0.025447669226328899 -0.0028302350112432537 0 0.017527009968966247 -0.0021998227146539135 0 0.016904909893464205 -0.0012011537399418408 0 0.018554896690212444 -0.0027695085058507501 0 0.017527009968966247 -0.0021998227146539135 0 0.016882160313795677 -0.0018431937553265558 0 0.016684569604846863 -0.0021764096121363692 0 0.017063128392882428 -0.0028518840404093905 0 0.017527009968966247 -0.0021998227146539135 0 0.016684569604846863 -0.0021764096121363692 0 0.017527009968966247 -0.0021998227146539135 0 0.016882160313795677 -0.0018431937553265558 0 0.016904909893464205 -0.0012011537399418408 0 0.016882160313795677 -0.0018431937553265558 0 0.016904909893464205 -0.0012011537399418408 0 0.016415770356557693 -0.0016949590517437772 0 0.020461363552002412 -0.0016769845617882681 0 0.025004819120178719 -0.0031626061807918365 0 0.015329418056881991 -0.0022338526806332296 0 0.016583439059085815 -0.0017043294199044429 0 0.018201074531484548 -0.0033495758123001235 0 0.015329418056881991 -0.0022338526806332296 0 0.015554583679660021 -0.0013473404547417222 0 0.015275693063682406 -0.0011459685490963979 0 0.015554583679660021 -0.0013473404547417222 0 0.015275693063682406 -0.0011459685490963979 0 0.015151961249526764 -0.000569237355707044 0 0.015554583679660021 -0.0013473404547417222 0 0.016583439059085815 -0.0017043294199044429 0 0.016132295398200124 -0.000642542290014057 0 0.015329418056881991 -0.0022338526806332296 0 0.015554583679660021 -0.0013473404547417222 0 0.016583439059085815 -0.0017043294199044429 0 0.015275693063682406 -0.0011459685490963979 0 0.015351558590988117 -0.0012110523687339813 0 0.014815260827531889 -0.00067998390799392863 0 0.016113250697855522 -0.0012952680887454821 0 0.015275693063682406 -0.0011459685490963979 0 0.015860854576984742 -0.00129688011751804 0 0.020461363552002412 -0.0016769845617882681 0 0.015812245211313126 -0.0003093467230483367 0 0.015275693063682406 -0.0011459685490963979 0 0.015860854576984742 -0.00129688011751804 0 0.015351558590988117 -0.0012110523687339813 0 0.020461363552002412 -0.0016769845617882681 0 0.016612607633334726 -0.0015102554446024517 0 0.016904909893464205 -0.0012011537399418408 0 0.015860854576984742 -0.00129688011751804 0 0.016415770356557693 -0.0016949590517437772 0 0.015860854576984742 -0.00129688011751804 0 0.015351558590988117 -0.0012110523687339813 0 0.015843156043325379 -0.0017459164004608818 0 0.015860854576984742 -0.00129688011751804 0 0.015843156043325379 -0.0017459164004608818 0 0.016415770356557693 -0.0016949590517437772 0 0.015843156043325379 -0.0017459164004608818 0 0.016415770356557693 -0.0016949590517437772 0 0.016684569604846863 -0.0021764096121363692 0 0.016882160313795677 -0.0018431937553265558 0 0.016415770356557693 -0.0016949590517437772 0 0.016684569604846863 -0.0021764096121363692 0 0.016313104128783593 -0.0025384649483537829 0 0.015843156043325379 -0.0017459164004608818 0 0.016684569604846863 -0.0021764096121363692 0 0.016313104128783593 -0.0025384649483537829 0 0.015843156043325379 -0.0017459164004608818 0 0.015650937484784661 -0.0022658998165753933 0 0.015843156043325379 -0.0017459164004608818 0 0.015650937484784661 -0.0022658998165753933 0 0.01499540054801091 -0.0012583257344052742 0 0.015650937484784661 -0.0022658998165753933 0 0.014878251969272853 -0.0020081241910481838 0 0.01499540054801091 -0.0012583257344052742 0 0.01411092584663321 -0.0015559741402905757 0 0.014878251969272853 -0.0020081241910481838 0 0.014526529136056609 -0.0013492561043658955 0 0.014878251969272853 -0.0020081241910481838 0 0.014526529136056609 -0.0013492561043658955 0 0.01499540054801091 -0.0012583257344052742 0 0.014497616627840314 -0.00084272966483707218 0 0.014526529136056609 -0.0013492561043658955 0 0.01499540054801091 -0.0012583257344052742 0 0.014169683231842024 -0.00090649394689478163 0 0.014497616627840314 -0.00084272966483707218 0 0.014526529136056609 -0.0013492561043658955 0 0.014250549184169984 -0.0010339346224783599 0 0.014459748403297711 -0.00127061144434153 0 0.01499540054801091 -0.0012583257344052742 0 0.014351141672622759 -0.00051433873890609108 0 0.014815260827531889 -0.00067998390799392863 0 0.014497616627840314 -0.00084272966483707218 0 0.01499540054801091 -0.0012583257344052742 0 0.014351141672622759 -0.00051433873890609108 0 0.015351558590988117 -0.0012110523687339813 0 0.015843156043325379 -0.0017459164004608818 0 0.01499540054801091 -0.0012583257344052742 0 0.015351558590988117 -0.0012110523687339813 0 0.01499540054801091 -0.0012583257344052742 0 0.014815260827531889 -0.00067998390799392863 0 0.014351141672622759 -0.00051433873890609108 0 0.013613617691880448 0.00046686361663446612 0 0.014234675684876869 0.00017090354958437389 0 0.014351141672622759 -0.00051433873890609108 0 0.014234675684876869 0.00017090354958437389 0 0.014815260827531889 -0.00067998390799392863 0 0.014169683231842024 -0.00090649394689478163 0 0.014497616627840314 -0.00084272966483707218 0 0.01436707476287144 -0.00072320182639463418 0 0.014329417502389809 -0.00052418014280135035 0 0.013705455978271769 -0.00046559187281040057 0 0.014497616627840314 -0.00084272966483707218 0 0.014351141672622759 -0.00051433873890609108 0 0.01436707476287144 -0.00072320182639463418 0 0.014351141672622759 -0.00051433873890609108 0 0.013080032808818946 -0.00021442442970752776 0 0.013613617691880448 0.00046686361663446612 0 0.012726333246307021 0.00021153451087529119 0 0.012793688103850823 0.0007459013705660365 0 0.013613617691880448 0.00046686361663446612 0 0.013532376753948127 0.0010176516403361719 0 0.012793688103850823 0.0007459013705660365 0 0.013613617691880448 0.00046686361663446612 0 0.012726333246307021 0.00021153451087529119 0 0.013080032808818946 -0.00021442442970752776 0 0.013613617691880448 0.00046686361663446612 0 0.013532376753948127 0.0010176516403361719 0 0.013613617691880448 0.00046686361663446612 0 0.013849550873976211 0.00091915834865762621 0 0.013613617691880448 0.00046686361663446612 0 0.013849550873976211 0.00091915834865762621 0 0.014234675684876869 0.00017090354958437389 0 0.0136860604266963 0.0012246250813317766 0 0.013849550873976211 0.00091915834865762621 0 0.014588024268078238 0.0012536949599563361 0 0.013849550873976211 0.00091915834865762621 0 0.014574137404674673 0.00030430577299137457 0 0.014588024268078238 0.0012536949599563361 0 0.013849550873976211 0.00091915834865762621 0 0.014234675684876869 0.00017090354958437389 0 0.014574137404674673 0.00030430577299137457 0 0.014588024268078238 0.0012536949599563361 0 0.01530502132948156 0.0001781791250158347 0 0.016730736954908024 0.00048723679136782896 0 0.014574137404674673 0.00030430577299137457 0 0.014588024268078238 0.0012536949599563361 0 0.01530502132948156 0.0001781791250158347 0 0.014574137404674673 0.00030430577299137457 0 0.01530502132948156 0.0001781791250158347 0 0.015151961249526764 -0.000569237355707044 0 0.01530502132948156 0.0001781791250158347 0 0.016132295398200124 -0.000642542290014057 0 0.016730736954908024 0.00048723679136782896 0 0.015554583679660021 -0.0013473404547417222 0 0.016132295398200124 -0.000642542290014057 0 0.015151961249526764 -0.000569237355707044 0 0.01530502132948156 0.0001781791250158347 0 0.016132295398200124 -0.000642542290014057 0 0.015151961249526764 -0.000569237355707044 0 0.015275693063682406 -0.0011459685490963979 0 0.015151961249526764 -0.000569237355707044 0 0.014815260827531889 -0.00067998390799392863 0 0.014574137404674673 0.00030430577299137457 0 0.015151961249526764 -0.000569237355707044 0 0.014815260827531889 -0.00067998390799392863 0 0.014234675684876869 0.00017090354958437389 0 0.014574137404674673 0.00030430577299137457 0 0.014815260827531889 -0.00067998390799392863 0 0.020789788913221367 0.00024046014339340919 0 0.018291481263850173 -0.00059135652608876383 0 0.019489565734231128 0.0017581433657183104 0 0.020789788913221367 0.00024046014339340919 0 0.019489565734231128 0.0017581433657183104 0 0.022535228145062661 0.0014908684125943851 0 0.020789788913221367 0.00024046014339340919 0 0.023571815064758611 -0.0012477472254457057 0 0.020721085724389771 -0.0016245003039656596 0 0.020789788913221367 0.00024046014339340919 0 0.018291481263850173 -0.00059135652608876383 0 0.020721085724389771 -0.0016245003039656596 0 0.018291481263850173 -0.00059135652608876383 0 0.016730736954908024 0.00048723679136782896 0 0.019489565734231128 0.0017581433657183104 0 0.016583439059085815 -0.0017043294199044429 0 0.016132295398200124 -0.000642542290014057 0 0.018291481263850173 -0.00059135652608876383 0 0.016132295398200124 -0.000642542290014057 0 0.018291481263850173 -0.00059135652608876383 0 0.016730736954908024 0.00048723679136782896 0 0.014075858832348423 0.0011998672201265148 0 0.013838427657430095 0.0011687670900338047 0 0.013723445028389257 0.0013560259746243999 0 0.014588024268078238 0.0012536949599563361 0 0.016730736954908024 0.00048723679136782896 0 0.019489565734231128 0.0017581433657183104 0 0.014588024268078238 0.0012536949599563361 0 0.014075858832348423 0.0011998672201265148 0 0.013723445028389257 0.0013560259746243999 0 0.014946538454628507 0.0014438047218366611 0 0.016251033307934062 0.0010625088704202404 0 0.013918508189201619 0.0011952564350126331 0 0.014588024268078238 0.0012536949599563361 0 0.014075858832348423 0.0011998672201265148 0 0.01429323212643858 0.0012591858030015059 0 0.013918508189201619 0.0011952564350126331 0 0.014075858832348423 0.0011998672201265148 0 0.013931769772621901 0.00092895131830663183 0 0.014075858832348423 0.0011998672201265148 0 0.013838427657430095 0.0011687670900338047 0 0.012842728810684689 0.0014618262649906749 0 0.013620594416680018 0.0014473276419458602 0 0.013931769772621901 0.00092895131830663183 0 0.013613804287563577 0.0011883058669898271 0 0.013838427657430095 0.0011687670900338047 0 0.012842728810684689 0.0014618262649906749 0 0.012945395069755148 0.00079014206989564415 0 0.012945395069755148 0.00079014206989564415 0 0.016251033307934062 0.0010625088704202404 0 0.013613804287563577 0.0011883058669898271 0 0.013838427657430095 0.0011687670900338047 0 0.013723445028389257 0.0013560259746243999 0 0.014997791872559629 0.0011783078775014699 0 0.01450360899713787 0.0004130541783479486 0 0.016516632194696328 -5.8572080105756007e-05 0 0.016251033307934062 0.0010625088704202404 0 0.017165443817635299 -4.3563033028096116e-05 0 0.012945395069755148 0.00079014206989564415 0 0.017165443817635299 -4.3563033028096116e-05 0 0.010941735026480083 -4.6986982376956291e-06 0 0.011217778675492673 -0.00018476136460688359 0 0.011503342895342021 4.4201394103452115e-06 0 0.010941735026480083 -4.6986982376956291e-06 0 0.011217778675492673 -0.00018476136460688359 0 0.010826320610042241 -0.00056226048403636608 0 0.011217778675492673 -0.00018476136460688359 0 0.0112798867085591 -0.00049441468825285433 0 0.010826320610042241 -0.00056226048403636608 0 0.010361122073218021 -0.00015690948630283204 0 0.010941735026480083 -4.6986982376956291e-06 0 0.010826320610042241 -0.00056226048403636608 0 0.011503342895342021 4.4201394103452115e-06 0 0.011707544465171766 -0.00040589468400644216 0 0.012500583779687562 -0.00063523274009315907 0 0.010230657957392529 0.00045987765884188489 0 0.012138872475591568 -0.00053515324591554532 0 0.0097551095330318475 0.00079906439826467064 0 0.0085830036119186152 0.00109003860418971 0 0.012500583779687562 -0.00063523274009315907 0 0.0088747771292575755 0.0009754788970630766 0 0.0097551095330318475 0.00079906439826467064 0 0.0085830036119186152 0.00109003860418971 0 0.011217778675492673 -0.00018476136460688359 0 0.011503342895342021 4.4201394103452115e-06 0 0.011707544465171766 -0.00040589468400644216 0 0.0112798867085591 -0.00049441468825285433 0 0.011707544465171766 -0.00040589468400644216 0 0.011634955069751849 -0.00089648887779617296 0 0.011217778675492673 -0.00018476136460688359 0 0.0112798867085591 -0.00049441468825285433 0 0.011707544465171766 -0.00040589468400644216 0 0.011707544465171766 -0.00040589468400644216 0 0.012138061858104378 -0.00068601921139900838 0 0.012500583779687562 -0.00063523274009315907 0 0.018113387277166281 -0.0006333751484266355 0 0.018464930414365387 -0.00070527810168204868 0 0.018151149170431438 -0.00042604123335394521 0 0.011707544465171766 -0.00040589468400644216 0 0.011634955069751849 -0.00089648887779617296 0 0.012138061858104378 -0.00068601921139900838 0 0.018113387277166281 -0.0006333751484266355 0 0.018151149170431438 -0.00042604123335394521 0 0.017858677144722869 -0.0004062121733107074 0 0.0112798867085591 -0.00049441468825285433 0 0.011634955069751849 -0.00089648887779617296 0 0.010826320610042241 -0.00056226048403636608 0 0.017165443817635299 -4.3563033028096116e-05 0 0.022924308891844509 -0.0011467820583429382 0 0.022535228145062661 0.0014908684125943851 0 0.023571815064758611 -0.0012477472254457057 0 0.026723571100540012 -0.0015949647799963047 0 0.014436071460069118 -0.00073072286652051924 0 0.017165443817635299 -4.3563033028096116e-05 0 0.020789788913221367 0.00024046014339340919 0 0.022535228145062661 0.0014908684125943851 0 0.023571815064758611 -0.0012477472254457057 0 0.023571815064758611 -0.0012477472254457057 0 0.023030100067514374 -0.0039641597654353454 0 0.020721085724389771 -0.0016245003039656596 0 0.023571815064758611 -0.0012477472254457057 0 0.023030100067514374 -0.0039641597654353454 0 0.026723571100540012 -0.0015949647799963047 0 0.023030100067514374 -0.0039641597654353454 0 0.026723571100540012 -0.0015949647799963047 0 0.027726279173787581 -0.0033827504809210512 0 0.02625711119350118 -0.0035088437339743871 0 0.027660150856682244 -0.0034440343507415134 0 0.029805462586565978 -0.003229804202910871 0 0.027726279173787581 -0.0033827504809210512 0 0.028814112563123828 -0.0027989279341718901 0 0.027726279173787581 -0.0033827504809210512 0 0.028814112563123828 -0.0027989279341718901 0 0.02824792290774273 -0.0030525455585229846 0 0.028814112563123828 -0.0027989279341718901 0 0.029668253190002027 -0.0022739694965136698 0 0.029009807822555387 -0.0023260284717987207 0 0.028814112563123828 -0.0027989279341718901 0 0.029009807822555387 -0.0023260284717987207 0 0.02824792290774273 -0.0030525455585229846 0 0.029805462586565978 -0.003229804202910871 0 0.028814112563123828 -0.0027989279341718901 0 0.029668253190002027 -0.0022739694965136698 0 0.029805462586565978 -0.003229804202910871 0 0.030257334639531175 -0.0025303006397344847 0 0.029668253190002027 -0.0022739694965136698 0 0.029805462586565978 -0.003229804202910871 0 0.030257334639531175 -0.0025303006397344847 0 0.030537384977608141 -0.0028052103154491896 0 0.030257334639531175 -0.0025303006397344847 0 0.030526092893968262 -0.002540663290509997 0 0.030441945835364241 -0.0023231570019943281 0 0.030257334639531175 -0.0025303006397344847 0 0.030537384977608141 -0.0028052103154491896 0 0.030526092893968262 -0.002540663290509997 0 0.023030100067514374 -0.0039641597654353454 0 0.020721085724389771 -0.0016245003039656596 0 0.018201074531484548 -0.0033495758123001235 0 0.02625711119350118 -0.0035088437339743871 0 0.025004819120178719 -0.0031626061807918365 0 0.018291481263850173 -0.00059135652608876383 0 0.020721085724389771 -0.0016245003039656596 0 0.018201074531484548 -0.0033495758123001235 0 0.016583439059085815 -0.0017043294199044429 0 0.018291481263850173 -0.00059135652608876383 0 0.018201074531484548 -0.0033495758123001235 0 0.030805311591351518 -0.0027493916251219858 0 0.030526092893968262 -0.002540663290509997 0 0.030670823472864466 -0.0022972263565398362 0 0.030805311591351518 -0.0027493916251219858 0 0.030537384977608141 -0.0028052103154491896 0 0.030526092893968262 -0.002540663290509997 0 0.030526092893968262 -0.002540663290509997 0 0.030670823472864466 -0.0022972263565398362 0 0.030441945835364241 -0.0023231570019943281 0 0.017923897562851211 -0.0028327738355822941 0 0.017527009968966247 -0.0021998227146539135 0 0.018554896690212444 -0.0027695085058507501 0 0.017923897562851211 -0.0028327738355822941 0 0.018554896690212444 -0.0027695085058507501 0 0.018612903975449634 -0.0028171568145354763 0 0.017716022869824509 -0.0032790272904604117 0 0.017923897562851211 -0.0028327738355822941 0 0.018612903975449634 -0.0028171568145354763 0 0.030257334639531175 -0.0025303006397344847 0 0.030260095888995989 -0.0018910990564343941 0 0.029668253190002027 -0.0022739694965136698 0 0.030670823472864466 -0.0022972263565398362 0 0.030260095888995989 -0.0018910990564343941 0 0.030211302835811943 -0.0012253547873900858 0 0.030670823472864466 -0.0022972263565398362 0 0.030441945835364241 -0.0023231570019943281 0 0.030260095888995989 -0.0018910990564343941 0 0.018554896690212444 -0.0027695085058507501 0 0.018612903975449634 -0.0028171568145354763 0 0.018743081405223551 -0.002661171029150713 0 0.025447669226328899 -0.0028302350112432537 0 0.023266730090773319 -0.0014030733717053628 0 0.030257334639531175 -0.0025303006397344847 0 0.030441945835364241 -0.0023231570019943281 0 0.030260095888995989 -0.0018910990564343941 0 0.018612903975449634 -0.0028171568145354763 0 0.018743081405223551 -0.002661171029150713 0 0.018848410775265417 -0.0025328721993706682 0 0.030260095888995989 -0.0018910990564343941 0 0.030211302835811943 -0.0012253547873900858 0 0.029941760875232992 -0.0015991875634998303 0 0.019108977348831314 -0.0025243769077958975 0 0.018612903975449634 -0.0028171568145354763 0 0.018848410775265417 -0.0025328721993706682 0 0.018449692958962274 -0.0032102457697966028 0 0.018620689370806503 -0.0028302309177129594 0 0.017779015946280098 -0.0039902742694430983 0 0.017716022869824509 -0.0032790272904604117 0 0.018612903975449634 -0.0028171568145354763 0 0.019108977348831314 -0.0025243769077958975 0 0.018848410775265417 -0.0025328721993706682 0 0.019025631470705035 -0.0021752424265994289 0 0.018743081405223551 -0.002661171029150713 0 0.018848410775265417 -0.0025328721993706682 0 0.018760453695703845 -0.0023215990696917235 0 0.018848410775265417 -0.0025328721993706682 0 0.018760453695703845 -0.0023215990696917235 0 0.019025631470705035 -0.0021752424265994289 0 0.018760453695703845 -0.0023215990696917235 0 0.019025631470705035 -0.0021752424265994289 0 0.0187042096696848 -0.0017976508871741259 0 0.029662610154491981 -0.0024356129576787061 0 0.031692111119970015 -0.0022118457765388645 0 0.035273859542321789 -0.0038646642644265127 0 0.029784416297279535 -0.002709615648449432 0 0.036481680960588535 -0.0048978015914005503 0 0.038142456364980523 -0.0067711936486590553 0 0.035273859542321789 -0.0038646642644265127 0 0.038119742087363455 -0.0039555728315010304 0 0.038142456364980523 -0.0067711936486590553 0 0.038119742087363455 -0.0039555728315010304 0 0.040268668624019427 -0.0037533179315633282 0 0.018760453695703845 -0.0023215990696917235 0 0.018483615742037145 -0.002262449145416828 0 0.0187042096696848 -0.0017976508871741259 0 0.029784416297279535 -0.002709615648449432 0 0.02915600902252808 -0.0032063970880078395 0 0.018743081405223551 -0.002661171029150713 0 0.018760453695703845 -0.0023215990696917235 0 0.018483615742037145 -0.002262449145416828 0 0.023266730090773319 -0.0014030733717053628 0 0.029784416297279535 -0.002709615648449432 0 0.030211302835811943 -0.0012253547873900858 0 0.030045987179976131 -0.00059657906784841164 0 0.029927251622264076 -0.0010587248179920112 0 0.030045987179976131 -0.00059657906784841164 0 0.029978899647559364 -0.00080072037538646279 0 0.029927251622264076 -0.0010587248179920112 0 0.030125268334898304 -0.00062510922978666419 0 0.030045987179976131 -0.00059657906784841164 0 0.030308046267469812 -0.00064562782591988074 0 0.030125268334898304 -0.00062510922978666419 0 0.030045987179976131 -0.00059657906784841164 0 0.029978899647559364 -0.00080072037538646279 0 0.029784416297279535 -0.002709615648449432 0 0.030572799396643934 -0.00075250797911712995 0 0.031692111119970015 -0.0022118457765388645 0 0.030427993174148609 -0.00026081169448079086 0 0.03284906680100088 -0.0023048242003494398 0 0.029662610154491981 -0.0024356129576787061 0 0.031692111119970015 -0.0022118457765388645 0 0.030308046267469812 -0.00064562782591988074 0 0.031692111119970015 -0.0022118457765388645 0 0.030308046267469812 -0.00064562782591988074 0 0.030427993174148609 -0.00026081169448079086 0 0.030125268334898304 -0.00062510922978666419 0 0.030427993174148609 -0.00026081169448079086 0 0.029843010767496247 -0.00081520020726312656 0 0.030125268334898304 -0.00062510922978666419 0 0.030308046267469812 -0.00064562782591988074 0 0.030427993174148609 -0.00026081169448079086 0 0.030427993174148609 -0.00026081169448079086 0 0.029255041775501953 -0.00097399533292634563 0 0.029843010767496247 -0.00081520020726312656 0 0.029255041775501953 -0.00097399533292634563 0 0.029843010767496247 -0.00081520020726312656 0 0.029326170408653797 -0.0012696474753601172 0 0.030125268334898304 -0.00062510922978666419 0 0.029843010767496247 -0.00081520020726312656 0 0.029978899647559364 -0.00080072037538646279 0 0.029978899647559364 -0.00080072037538646279 0 0.029655243875001427 -0.0012038166806264343 0 0.029927251622264076 -0.0010587248179920112 0 0.029843010767496247 -0.00081520020726312656 0 0.029978899647559364 -0.00080072037538646279 0 0.029655243875001427 -0.0012038166806264343 0 0.029655243875001427 -0.0012038166806264343 0 0.029153660635548903 -0.0017307834413310508 0 0.029564937011017384 -0.0016920299961499768 0 0.029655243875001427 -0.0012038166806264343 0 0.029927251622264076 -0.0010587248179920112 0 0.029564937011017384 -0.0016920299961499768 0 0.029326170408653797 -0.0012696474753601172 0 0.029153660635548903 -0.0017307834413310508 0 0.02842826729911143 -0.0016188969785058793 0 0.029655243875001427 -0.0012038166806264343 0 0.029326170408653797 -0.0012696474753601172 0 0.029153660635548903 -0.0017307834413310508 0 0.029843010767496247 -0.00081520020726312656 0 0.029655243875001427 -0.0012038166806264343 0 0.029326170408653797 -0.0012696474753601172 0 0.030211302835811943 -0.0012253547873900858 0 0.029927251622264076 -0.0010587248179920112 0 0.029941760875232992 -0.0015991875634998303 0 0.029927251622264076 -0.0010587248179920112 0 0.029941760875232992 -0.0015991875634998303 0 0.029564937011017384 -0.0016920299961499768 0 0.030260095888995989 -0.0018910990564343941 0 0.029941760875232992 -0.0015991875634998303 0 0.029668253190002027 -0.0022739694965136698 0 0.029941760875232992 -0.0015991875634998303 0 0.029668253190002027 -0.0022739694965136698 0 0.029564937011017384 -0.0016920299961499768 0 0.028660834901527446 -0.0021428874850382045 0 0.029153660635548903 -0.0017307834413310508 0 0.02842826729911143 -0.0016188969785058793 0 0.028660834901527446 -0.0021428874850382045 0 0.029153660635548903 -0.0017307834413310508 0 0.029009807822555387 -0.0023260284717987207 0 0.029153660635548903 -0.0017307834413310508 0 0.029564937011017384 -0.0016920299961499768 0 0.029009807822555387 -0.0023260284717987207 0 0.029668253190002027 -0.0022739694965136698 0 0.029564937011017384 -0.0016920299961499768 0 0.029009807822555387 -0.0023260284717987207 0 0.028660834901527446 -0.0021428874850382045 0 0.029009807822555387 -0.0023260284717987207 0 0.02824792290774273 -0.0030525455585229846 0 0.028146455745007508 -0.0024674361261000631 0 0.02748105902084045 -0.0025709047543521811 0 0.02824792290774273 -0.0030525455585229846 0 0.028660834901527446 -0.0021428874850382045 0 0.028146455745007508 -0.0024674361261000631 0 0.02824792290774273 -0.0030525455585229846 0 0.02748105902084045 -0.0025709047543521811 0 0.026882776553735666 -0.00078671185675982319 0 0.02842826729911143 -0.0016188969785058793 0 0.028146455745007508 -0.0024674361261000631 0 0.02748105902084045 -0.0025709047543521811 0 0.02842826729911143 -0.0016188969785058793 0 0.028660834901527446 -0.0021428874850382045 0 0.028146455745007508 -0.0024674361261000631 0 0.02842826729911143 -0.0016188969785058793 0 0.02748105902084045 -0.0025709047543521811 0 0.026882776553735666 -0.00078671185675982319 0 0.025220561832816416 -0.0011309693463581879 0 0.02748105902084045 -0.0025709047543521811 0 0.025759161486075606 -0.0031174093579155464 0 0.025220561832816416 -0.0011309693463581879 0 0.026882776553735666 -0.00078671185675982319 0 0.025070889215138129 0.00018516116467147032 0 0.025220561832816416 -0.0011309693463581879 0 0.029255041775501953 -0.00097399533292634563 0 0.029326170408653797 -0.0012696474753601172 0 0.02842826729911143 -0.0016188969785058793 0 0.026882776553735666 -0.00078671185675982319 0 0.02842826729911143 -0.0016188969785058793 0 0.028278967710349701 -0.00061050340252197146 0 0.029255041775501953 -0.00097399533292634563 0 0.02842826729911143 -0.0016188969785058793 0 0.028278967710349701 -0.00061050340252197146 0 0.030427993174148609 -0.00026081169448079086 0 0.029255041775501953 -0.00097399533292634563 0 0.028278967710349701 -0.00061050340252197146 0 0.026882776553735666 -0.00078671185675982319 0 0.028278967710349701 -0.00061050340252197146 0 0.026550763216276821 0.0010960493939337439 0 0.030427993174148609 -0.00026081169448079086 0 0.03284906680100088 -0.0023048242003494398 0 0.03504541651846544 -0.0030664527843037742 0 0.030472074146949357 -0.00036644884159980483 0 0.030717427039830693 -0.0010241715604830755 0 0.030427993174148609 -0.00026081169448079086 0 0.028278967710349701 -0.00061050340252197146 0 0.026550763216276821 0.0010960493939337439 0 0.026882776553735666 -0.00078671185675982319 0 0.026550763216276821 0.0010960493939337439 0 0.025070889215138129 0.00018516116467147032 0 0.03504541651846544 -0.0030664527843037742 0 0.035273859542321789 -0.0038646642644265127 0 0.034854511873160063 -0.0027138543099845176 0 0.03504541651846544 -0.0030664527843037742 0 0.033317618367881517 -0.003447651728059639 0 0.034854511873160063 -0.0027138543099845176 0 0.030717427039830693 -0.0010241715604830755 0 0.029434340839468325 -0.0012740195157373657 0 0.03284906680100088 -0.0023048242003494398 0 0.03504541651846544 -0.0030664527843037742 0 0.035273859542321789 -0.0038646642644265127 0 0.031692111119970015 -0.0022118457765388645 0 0.03284906680100088 -0.0023048242003494398 0 0.035273859542321789 -0.0038646642644265127 0 0.02540498435013256 0.00055584051904699228 0 0.025523239760640002 1.9169295989853249e-06 0 0.02834678244348561 -1.6637040349271467e-06 0 0.026550763216276821 0.0010960493939337439 0 0.02540498435013256 0.00055584051904699228 0 0.025070889215138129 0.00018516116467147032 0 0.02540498435013256 0.00055584051904699228 0 0.025070889215138129 0.00018516116467147032 0 0.024132639959799706 0.00013861200299045159 0 0.024132639959799706 0.00013861200299045159 0 0.025523239760640002 1.9169295989853249e-06 0 0.022693413818465652 -1.7159306018405672e-06 0 0.02540498435013256 0.00055584051904699228 0 0.024132639959799706 0.00013861200299045159 0 0.025523239760640002 1.9169295989853249e-06 0 0.024132639959799706 0.00013861200299045159 0 0.022371616488855776 -0.00067174838295850617 0 0.022693413818465652 -1.7159306018405672e-06 0 0.025070889215138129 0.00018516116467147032 0 0.022371616488855776 -0.00067174838295850617 0 0.025220561832816416 -0.0011309693463581879 0 0.025070889215138129 0.00018516116467147032 0 0.024132639959799706 0.00013861200299045159 0 0.022371616488855776 -0.00067174838295850617 0 0.022099264515909722 -0.0015845153232175557 0 0.022111279373068664 -0.00077267785133783621 0 0.018305657398304795 -0.00039286861076883708 0 0.022371616488855776 -0.00067174838295850617 0 0.020394665109124268 -0.00026626724866466724 0 0.025759161486075606 -0.0031174093579155464 0 0.022371616488855776 -0.00067174838295850617 0 0.025220561832816416 -0.0011309693463581879 0 0.022693413818465652 -1.7159306018405672e-06 0 0.020394665109124268 -0.00026626724866466724 0 0.019864512426821881 6.5738830821069186e-08 0 0.022371616488855776 -0.00067174838295850617 0 0.022693413818465652 -1.7159306018405672e-06 0 0.020394665109124268 -0.00026626724866466724 0 0.020394665109124268 -0.00026626724866466724 0 0.019864512426821881 6.5738830821069186e-08 0 0.018117085475703832 3.0332798939609491e-05 0 0.019864512426821881 6.5738830821069186e-08 0 0.018117085475703832 3.0332798939609491e-05 0 0.017036192437431482 -1.0403246678074354e-07 0 0.018117085475703832 3.0332798939609491e-05 0 0.016235128363932504 5.1910225635401384e-05 0 0.017036192437431482 -1.0403246678074354e-07 0 0.018117085475703832 3.0332798939609491e-05 0 0.017645610046571704 -0.00010320553924233018 0 0.016742163488036834 -0.00039314680860435397 0 0.018117085475703832 3.0332798939609491e-05 0 0.016235128363932504 5.1910225635401384e-05 0 0.016742163488036834 -0.00039314680860435397 0 0.018305657398304795 -0.00039286861076883708 0 0.020394665109124268 -0.00026626724866466724 0 0.018117085475703832 3.0332798939609491e-05 0 0.018305657398304795 -0.00039286861076883708 0 0.018117085475703832 3.0332798939609491e-05 0 0.017645610046571704 -0.00010320553924233018 0 0.018305657398304795 -0.00039286861076883708 0 0.017657927886781128 -0.00012552283235877509 0 0.017645610046571704 -0.00010320553924233018 0 0.022099264515909722 -0.0015845153232175557 0 0.022741025702303453 -0.001834989470186488 0 0.02748105902084045 -0.0025709047543521811 0 0.025759161486075606 -0.0031174093579155464 0 0.028190497825028082 -0.0037382100121491394 0 0.02748105902084045 -0.0025709047543521811 0 0.02824792290774273 -0.0030525455585229846 0 0.028190497825028082 -0.0037382100121491394 0 0.027726279173787581 -0.0033827504809210512 0 0.02824792290774273 -0.0030525455585229846 0 0.028190497825028082 -0.0037382100121491394 0 0.022924308891844509 -0.0011467820583429382 0 0.022741025702303453 -0.001834989470186488 0 0.026723571100540012 -0.0015949647799963047 0 0.027726279173787581 -0.0033827504809210512 0 0.028190497825028082 -0.0037382100121491394 0 0.018151149170431438 -0.00042604123335394521 0 0.017657927886781128 -0.00012552283235877509 0 0.017858677144722869 -0.0004062121733107074 0 0.017858677144722869 -0.0004062121733107074 0 0.017592485349109937 -0.00022464369678564173 0 0.017705079975708415 -0.00059702037831354431 0 0.017657927886781128 -0.00012552283235877509 0 0.017858677144722869 -0.0004062121733107074 0 0.017592485349109937 -0.00022464369678564173 0 0.017657927886781128 -0.00012552283235877509 0 0.017645610046571704 -0.00010320553924233018 0 0.017592485349109937 -0.00022464369678564173 0 0.017645610046571704 -0.00010320553924233018 0 0.017592485349109937 -0.00022464369678564173 0 0.016742163488036834 -0.00039314680860435397 0 0.017592485349109937 -0.00022464369678564173 0 0.017705079975708415 -0.00059702037831354431 0 0.016742163488036834 -0.00039314680860435397 0 0.015612391910371342 -0.00084725053251690364 0 0.016440060071871127 -0.00055699293635236898 0 0.015020742137580171 -0.00026845391767908343 0 0.013314922680030795 -0.001314203642934103 0 0.016742163488036834 -0.00039314680860435397 0 0.015020742137580171 -0.00026845391767908343 0 0.01372874964869714 -0.0003484270221142294 0 0.014441685627749863 0.00018969610793272056 0 0.015020742137580171 -0.00026845391767908343 0 0.013314922680030795 -0.001314203642934103 0 0.01372874964869714 -0.0003484270221142294 0 0.015020742137580171 -0.00026845391767908343 0 0.016742163488036834 -0.00039314680860435397 0 0.015667096564130692 1.9352668101514572e-05 0 0.015020742137580171 -0.00026845391767908343 0 0.014441685627749863 0.00018969610793272056 0 0.015667096564130692 1.9352668101514572e-05 0 0.014436071460069118 -0.00073072286652051924 0 0.015612391910371342 -0.00084725053251690364 0 0.018113387277166281 -0.0006333751484266355 0 0.017858677144722869 -0.0004062121733107074 0 0.017705079975708415 -0.00059702037831354431 0 0.011634955069751849 -0.00089648887779617296 0 0.012138061858104378 -0.00068601921139900838 0 0.013314922680030795 -0.001314203642934103 0 0.013314922680030795 -0.001314203642934103 0 0.01372874964869714 -0.0003484270221142294 0 0.012500583779687562 -0.00063523274009315907 0 0.012138061858104378 -0.00068601921139900838 0 0.013314922680030795 -0.001314203642934103 0 0.012500583779687562 -0.00063523274009315907 0 0.014403071354548321 0.0015186475451310951 0 0.0097551095330318475 0.00079906439826467064 0 0.012830502542636143 0.00071079147325829107 0 0.0097551095330318475 0.00079906439826467064 0 0.012500583779687562 -0.00063523274009315907 0 0.012292023686077303 0.00019397620824903409 0 0.01372874964869714 -0.0003484270221142294 0 0.012500583779687562 -0.00063523274009315907 0 0.013345352847305829 0.00015872391828115082 0 0.012292023686077303 0.00019397620824903409 0 0.013345352847305829 0.00015872391828115082 0 0.012830502542636143 0.00071079147325829107 0 0.012500583779687562 -0.00063523274009315907 0 0.012292023686077303 0.00019397620824903409 0 0.013345352847305829 0.00015872391828115082 0 0.013345352847305829 0.00015872391828115082 0 0.012830502542636143 0.00071079147325829107 0 0.014063379768941739 0.00082125709802852447 0 0.0097551095330318475 0.00079906439826467064 0 0.012292023686077303 0.00019397620824903409 0 0.012830502542636143 0.00071079147325829107 0 0.014441685627749863 0.00018969610793272056 0 0.014857843309664633 0.0005470576794287717 0 0.015667096564130692 1.9352668101514572e-05 0 0.01372874964869714 -0.0003484270221142294 0 0.013345352847305829 0.00015872391828115082 0 0.014441685627749863 0.00018969610793272056 0 0.013345352847305829 0.00015872391828115082 0 0.014441685627749863 0.00018969610793272056 0 0.014063379768941739 0.00082125709802852447 0 0.014334132932887036 0.0012730550130395527 0 0.014063379768941739 0.00082125709802852447 0 0.014857843309664633 0.0005470576794287717 0 0.014441685627749863 0.00018969610793272056 0 0.014063379768941739 0.00082125709802852447 0 0.014857843309664633 0.0005470576794287717 0 0.014827011427127289 0.00057585289364134882 0 0.014857843309664633 0.0005470576794287717 0 0.015352922401823768 0.00030562375735604467 0 0.014857843309664633 0.0005470576794287717 0 0.015352922401823768 0.00030562375735604467 0 0.015667096564130692 1.9352668101514572e-05 0 0.015352922401823768 0.00030562375735604467 0 0.016235128363932504 5.1910225635401384e-05 0 0.015667096564130692 1.9352668101514572e-05 0 0.014824994733289153 0.00025477729038696494 0 0.014827011427127289 0.00057585289364134882 0 0.015352922401823768 0.00030562375735604467 0 0.014824994733289153 0.00025477729038696494 0 0.015352922401823768 0.00030562375735604467 0 0.014206833499633814 1.7369642589675397e-06 0 0.015352922401823768 0.00030562375735604467 0 0.014206833499633814 1.7369642589675397e-06 0 0.016235128363932504 5.1910225635401384e-05 0 0.014206833499633814 1.7369642589675397e-06 0 0.016235128363932504 5.1910225635401384e-05 0 0.017036192437431482 -1.0403246678074354e-07 0 0.016235128363932504 5.1910225635401384e-05 0 0.016742163488036834 -0.00039314680860435397 0 0.015667096564130692 1.9352668101514572e-05 0 0.041929071284782425 0.00042462604708339116 0 0.037421126763254993 4.6440079509076469e-07 0 0.044769472125349936 1.127364849782574e-06 0 0.041929071284782425 0.00042462604708339116 0 0.040061666472557989 0.00032496104434162761 0 0.037421126763254993 4.6440079509076469e-07 0 0.041929071284782425 0.00042462604708339116 0 0.041895499428647093 0.00050781991338467655 0 0.040061666472557989 0.00032496104434162761 0 0.041929071284782425 0.00042462604708339116 0 0.041895499428647093 0.00050781991338467655 0 0.043410127098297065 0.00060304794823567694 0 0.041895499428647093 0.00050781991338467655 0 0.040061666472557989 0.00032496104434162761 0 0.042114558382737616 0.0006689183781506949 0 0.040061666472557989 0.00032496104434162761 0 0.036508427258312506 1.9679384936975015e-05 0 0.03836450749104893 -0.00066499478797274914 0 0.037421126763254993 4.6440079509076469e-07 0 0.036508427258312506 1.9679384936975015e-05 0 0.032142776898001303 1.6691275185537579e-06 0 0.040061666472557989 0.00032496104434162761 0 0.037421126763254993 4.6440079509076469e-07 0 0.036508427258312506 1.9679384936975015e-05 0 0.036508427258312506 1.9679384936975015e-05 0 0.032142776898001303 1.6691275185537579e-06 0 0.035080675780800416 -0.00086166749438260212 0 0.032142776898001303 1.6691275185537579e-06 0 0.032589212384285367 -0.00085003860228056538 0 0.035080675780800416 -0.00086166749438260212 0 0.032142776898001303 1.6691275185537579e-06 0 0.032589212384285367 -0.00085003860228056538 0 0.02835927228982656 -8.4829736451753374e-06 0 0.032589212384285367 -0.00085003860228056538 0 0.034854511873160063 -0.0027138543099845176 0 0.035080675780800416 -0.00086166749438260212 0 0.033317618367881517 -0.003447651728059639 0 0.032589212384285367 -0.00085003860228056538 0 0.034854511873160063 -0.0027138543099845176 0 0.029434340839468325 -0.0012740195157373657 0 0.02835152277857422 -4.8320911132024114e-07 0 0.033317618367881517 -0.003447651728059639 0 0.032589212384285367 -0.00085003860228056538 0 0.02835927228982656 -8.4829736451753374e-06 0 0.035273859542321789 -0.0038646642644265127 0 0.034854511873160063 -0.0027138543099845176 0 0.036379902578611789 -0.0020578591557393034 0 0.034854511873160063 -0.0027138543099845176 0 0.036379902578611789 -0.0020578591557393034 0 0.035080675780800416 -0.00086166749438260212 0 0.035273859542321789 -0.0038646642644265127 0 0.036379902578611789 -0.0020578591557393034 0 0.038600172590771295 -0.0020444828211192995 0 0.036508427258312506 1.9679384936975015e-05 0 0.035080675780800416 -0.00086166749438260212 0 0.03836450749104893 -0.00066499478797274914 0 0.036379902578611789 -0.0020578591557393034 0 0.035080675780800416 -0.00086166749438260212 0 0.03836450749104893 -0.00066499478797274914 0 0.036379902578611789 -0.0020578591557393034 0 0.03836450749104893 -0.00066499478797274914 0 0.038600172590771295 -0.0020444828211192995 0 0.03836450749104893 -0.00066499478797274914 0 0.040743505417144173 -0.0010635221338017248 0 0.041013248422958108 -0.00015761796641792207 0 0.040743505417144173 -0.0010635221338017248 0 0.038600172590771295 -0.0020444828211192995 0 0.04040913048546086 -0.0020008945972817163 0 0.03836450749104893 -0.00066499478797274914 0 0.040743505417144173 -0.0010635221338017248 0 0.038600172590771295 -0.0020444828211192995 0 0.038600172590771295 -0.0020444828211192995 0 0.04040913048546086 -0.0020008945972817163 0 0.040268668624019427 -0.0037533179315633282 0 0.038600172590771295 -0.0020444828211192995 0 0.038119742087363455 -0.0039555728315010304 0 0.040268668624019427 -0.0037533179315633282 0 0.035273859542321789 -0.0038646642644265127 0 0.038600172590771295 -0.0020444828211192995 0 0.038119742087363455 -0.0039555728315010304 0 0.019025631470705035 -0.0021752424265994289 0 0.019159112132405256 -0.0016750091360135933 0 0.0187042096696848 -0.0017976508871741259 0 0.019159112132405256 -0.0016750091360135933 0 0.0187042096696848 -0.0017976508871741259 0 0.018979436531509689 -0.0012482003808620575 0 0.04040913048546086 -0.0020008945972817163 0 0.040268668624019427 -0.0037533179315633282 0 0.041619385857512743 -0.0020221089548827106 0 0.02915600902252808 -0.0032063970880078395 0 0.030333912764601213 -0.0015448531759996134 0 0.019159112132405256 -0.0016750091360135933 0 0.018979436531509689 -0.0012482003808620575 0 0.019348127765382628 -0.0011650547819829192 0 0.041619385857512743 -0.0020221089548827106 0 0.041656971811571596 -0.0013716989699662232 0 0.041859165776880508 -0.0011508632201507757 0 0.030333912764601213 -0.0015448531759996134 0 0.030618948930514853 -0.00092758171415386974 0 0.04040913048546086 -0.0020008945972817163 0 0.041619385857512743 -0.0020221089548827106 0 0.041656971811571596 -0.0013716989699662232 0 0.040743505417144173 -0.0010635221338017248 0 0.04040913048546086 -0.0020008945972817163 0 0.041656971811571596 -0.0013716989699662232 0 0.040743505417144173 -0.0010635221338017248 0 0.041656971811571596 -0.0013716989699662232 0 0.04227417697436759 -0.0013021430567698765 0 0.041656971811571596 -0.0013716989699662232 0 0.04227417697436759 -0.0013021430567698765 0 0.041859165776880508 -0.0011508632201507757 0 0.04227417697436759 -0.0013021430567698765 0 0.043269705319011441 -0.00056663543178528961 0 0.041929682334606519 -0.00063584838400121435 0 0.04227417697436759 -0.0013021430567698765 0 0.043269705319011441 -0.00056663543178528961 0 0.045277498037352384 -0.0015723716989113727 0 0.043269705319011441 -0.00056663543178528961 0 0.041929682334606519 -0.00063584838400121435 0 0.042515860825085947 0.00020213485456872815 0 0.040743505417144173 -0.0010635221338017248 0 0.04227417697436759 -0.0013021430567698765 0 0.041929682334606519 -0.00063584838400121435 0 0.040061666472557989 0.00032496104434162761 0 0.03836450749104893 -0.00066499478797274914 0 0.041013248422958108 -0.00015761796641792207 0 0.040743505417144173 -0.0010635221338017248 0 0.041929682334606519 -0.00063584838400121435 0 0.041013248422958108 -0.00015761796641792207 0 0.040061666472557989 0.00032496104434162761 0 0.041013248422958108 -0.00015761796641792207 0 0.042114558382737616 0.0006689183781506949 0 0.041929682334606519 -0.00063584838400121435 0 0.041013248422958108 -0.00015761796641792207 0 0.042515860825085947 0.00020213485456872815 0 0.041013248422958108 -0.00015761796641792207 0 0.042114558382737616 0.0006689183781506949 0 0.042515860825085947 0.00020213485456872815 0 0.041895499428647093 0.00050781991338467655 0 0.042114558382737616 0.0006689183781506949 0 0.043410127098297065 0.00060304794823567694 0 0.042114558382737616 0.0006689183781506949 0 0.043039462873840618 0.0010153689435047409 0 0.04330418403591587 0.00086915537401435576 0 0.042114558382737616 0.0006689183781506949 0 0.043039462873840618 0.0010153689435047409 0 0.042515860825085947 0.00020213485456872815 0 0.043039462873840618 0.0010153689435047409 0 0.043892161452705004 0.00050616930107732312 0 0.042515860825085947 0.00020213485456872815 0 0.043892161452705004 0.00050616930107732312 0 0.045440251135923655 0.0013332408753430286 0 0.043906160619278822 0.0013276456079801234 0 0.043039462873840618 0.0010153689435047409 0 0.043892161452705004 0.00050616930107732312 0 0.043906160619278822 0.0013276456079801234 0 0.043269705319011441 -0.00056663543178528961 0 0.043892161452705004 0.00050616930107732312 0 0.044654460918665907 -0.00048023957424941249 0 0.043269705319011441 -0.00056663543178528961 0 0.043892161452705004 0.00050616930107732312 0 0.042515860825085947 0.00020213485456872815 0 0.046443804798136368 -0.00038409789075841507 0 0.046216762436201875 -0.00080498853582375524 0 0.048620317383006595 -0.00078123537426262406 0 0.047747568679798569 1.7325827865494223e-05 0 0.046443804798136368 -0.00038409789075841507 0 0.048620317383006595 -0.00078123537426262406 0 0.047747568679798569 1.7325827865494223e-05 0 0.046443804798136368 -0.00038409789075841507 0 0.045905474512530964 0.00042945792198486042 0 0.046443804798136368 -0.00038409789075841507 0 0.046216762436201875 -0.00080498853582375524 0 0.044654460918665907 -0.00048023957424941249 0 0.046443804798136368 -0.00038409789075841507 0 0.044654460918665907 -0.00048023957424941249 0 0.045905474512530964 0.00042945792198486042 0 0.043892161452705004 0.00050616930107732312 0 0.044654460918665907 -0.00048023957424941249 0 0.045905474512530964 0.00042945792198486042 0 0.043892161452705004 0.00050616930107732312 0 0.045905474512530964 0.00042945792198486042 0 0.045440251135923655 0.0013332408753430286 0 0.045905474512530964 0.00042945792198486042 0 0.046609433946716593 0.0013867388153854042 0 0.045440251135923655 0.0013332408753430286 0 0.045905474512530964 0.00042945792198486042 0 0.046609433946716593 0.0013867388153854042 0 0.047796000373347837 0.00071662896231724431 0 0.047747568679798569 1.7325827865494223e-05 0 0.045905474512530964 0.00042945792198486042 0 0.047796000373347837 0.00071662896231724431 0 0.047747568679798569 1.7325827865494223e-05 0 0.047796000373347837 0.00071662896231724431 0 0.048921120740746935 0.00068721792358626048 0 0.047796000373347837 0.00071662896231724431 0 0.048921120740746935 0.00068721792358626048 0 0.049571242137944407 0.00095389083129124807 0 0.048921120740746935 0.00068721792358626048 0 0.049414733906651666 0.00084489096022859352 0 0.049571242137944407 0.00095389083129124807 0 0.049414733906651666 0.00084489096022859352 0 0.049530374025211349 0.00068137185297452733 0 0.049603293251064849 0.0008039986059718918 0 0.048921120740746935 0.00068721792358626048 0 0.049414733906651666 0.00084489096022859352 0 0.049530374025211349 0.00068137185297452733 0 0.048921120740746935 0.00068721792358626048 0 0.048752658946447792 0.00018462196005270424 0 0.049530374025211349 0.00068137185297452733 0 0.047747568679798569 1.7325827865494223e-05 0 0.048921120740746935 0.00068721792358626048 0 0.048752658946447792 0.00018462196005270424 0 0.049530374025211349 0.00068137185297452733 0 0.048908765221582252 -0.00060350510165755212 0 0.050666197104963624 0.00063110122044151206 0 0.04958202326044172 0.00078240792173982785 0 0.049530374025211349 0.00068137185297452733 0 0.049524165530251074 0.00086495386093677577 0 0.04958202326044172 0.00078240792173982785 0 0.049524165530251074 0.00086495386093677577 0 0.049496286924766549 0.0008019577917694361 0 0.04958202326044172 0.00078240792173982785 0 0.049530374025211349 0.00068137185297452733 0 0.049603293251064849 0.0008039986059718918 0 0.052153957439949356 0.00053910371420664194 0 0.04142952683639968 0.00077461845735553845 0 0.021325087976535755 0.0019979307156968206 0 0.02025333277489557 0.0018945484487202235 0 0.021786765204689983 0.0029203159404864345 0 0.021325087976535755 0.0019979307156968206 0 0.020911680933744996 0.001292474600472185 0 0.02199947810401592 0.0013740728374114677 0 0.021325087976535755 0.0019979307156968206 0 0.02074172614691145 0.001600126557321072 0 0.02025333277489557 0.0018945484487202235 0 0.034729122185109214 -0.0014908535655563375 0 0.04142952683639968 0.00077461845735553845 0 0.021325087976535755 0.0019979307156968206 0 0.02074172614691145 0.001600126557321072 0 0.020911680933744996 0.001292474600472185 0 0.049530374025211349 0.00068137185297452733 0 0.048908765221582252 -0.00060350510165755212 0 0.048620317383006595 -0.00078123537426262406 0 0.048752658946447792 0.00018462196005270424 0 0.049530374025211349 0.00068137185297452733 0 0.048620317383006595 -0.00078123537426262406 0 0.047747568679798569 1.7325827865494223e-05 0 0.048752658946447792 0.00018462196005270424 0 0.048620317383006595 -0.00078123537426262406 0 0.034729122185109214 -0.0014908535655563375 0 0.04166665868618985 -0.00028347633479432552 0 0.02074172614691145 0.001600126557321072 0 0.02025333277489557 0.0018945484487202235 0 0.020463130226636518 0.0012529885843155153 0 0.02025333277489557 0.0018945484487202235 0 0.020036971410976646 0.00090296481508048577 0 0.019374078861613436 0.00026577499230321354 0 0.040087948637155452 -0.0027771989032859047 0 0.040250628493952924 -0.0026929841504034499 0 0.041011098598924788 -0.0017717854225415778 0 0.034729122185109214 -0.0014908535655563375 0 0.029444118668264223 -0.00069620851357072308 0 0.02025333277489557 0.0018945484487202235 0 0.020036971410976646 0.00090296481508048577 0 0.020463130226636518 0.0012529885843155153 0 0.020036971410976646 0.00090296481508048577 0 0.020389773818603341 0.00057055857422687361 0 0.019881503814897786 0.00041124676027849038 0 0.020036971410976646 0.00090296481508048577 0 0.020463130226636518 0.0012529885843155153 0 0.020389773818603341 0.00057055857422687361 0 0.020036971410976646 0.00090296481508048577 0 0.019881503814897786 0.00041124676027849038 0 0.019374078861613436 0.00026577499230321354 0 0.020911680933744996 0.001292474600472185 0 0.021191604596588108 0.0008391805135400059 0 0.02199947810401592 0.0013740728374114677 0 0.020463130226636518 0.0012529885843155153 0 0.020389773818603341 0.00057055857422687361 0 0.020911680933744996 0.001292474600472185 0 0.02074172614691145 0.001600126557321072 0 0.020463130226636518 0.0012529885843155153 0 0.020911680933744996 0.001292474600472185 0 0.020389773818603341 0.00057055857422687361 0 0.020911680933744996 0.001292474600472185 0 0.021191604596588108 0.0008391805135400059 0 0.020389773818603341 0.00057055857422687361 0 0.019858967028003858 -0.00073614854423566353 0 0.021453448015411915 0.00025028200665754078 0 0.020389773818603341 0.00057055857422687361 0 0.021191604596588108 0.0008391805135400059 0 0.021453448015411915 0.00025028200665754078 0 0.020389773818603341 0.00057055857422687361 0 0.019771116121289407 -9.2666460741331911e-05 0 0.019858967028003858 -0.00073614854423566353 0 0.020389773818603341 0.00057055857422687361 0 0.019881503814897786 0.00041124676027849038 0 0.019771116121289407 -9.2666460741331911e-05 0 0.019771116121289407 -9.2666460741331911e-05 0 0.019374078861613436 0.00026577499230321354 0 0.019545028422895596 -0.00063541589757229997 0 0.019881503814897786 0.00041124676027849038 0 0.019771116121289407 -9.2666460741331911e-05 0 0.019374078861613436 0.00026577499230321354 0 0.04166665868618985 -0.00028347633479432552 0 0.043938507204803648 -0.0018252075764600773 0 0.046216762436201875 -0.00080498853582375524 0 0.048620317383006595 -0.00078123537426262406 0 0.045277498037352384 -0.0015723716989113727 0 0.040250628493952924 -0.0026929841504034499 0 0.041011098598924788 -0.0017717854225415778 0 0.041471773805059287 -0.0019720273032898879 0 0.043269705319011441 -0.00056663543178528961 0 0.044654460918665907 -0.00048023957424941249 0 0.045277498037352384 -0.0015723716989113727 0 0.046216762436201875 -0.00080498853582375524 0 0.044654460918665907 -0.00048023957424941249 0 0.045277498037352384 -0.0015723716989113727 0 0.042244026958463306 -0.0013707636914030556 0 0.043938507204803648 -0.0018252075764600773 0 0.029444118668264223 -0.00069620851357072308 0 0.030618948930514853 -0.00092758171415386974 0 0.041011098598924788 -0.0017717854225415778 0 0.041471773805059287 -0.0019720273032898879 0 0.041859165776880508 -0.0011508632201507757 0 0.04227417697436759 -0.0013021430567698765 0 0.041471773805059287 -0.0019720273032898879 0 0.041859165776880508 -0.0011508632201507757 0 0.019177906258792142 -0.00068463050536200516 0 0.019545028422895596 -0.00063541589757229997 0 0.019348127765382628 -0.0011650547819829192 0 0.019374078861613436 0.00026577499230321354 0 0.019177906258792142 -0.00068463050536200516 0 0.019545028422895596 -0.00063541589757229997 0 0.019545028422895596 -0.00063541589757229997 0 0.019348127765382628 -0.0011650547819829192 0 0.019746002339851229 -0.0011063954741905046 0 0.018979436531509689 -0.0012482003808620575 0 0.019177906258792142 -0.00068463050536200516 0 0.019348127765382628 -0.0011650547819829192 0 0.019159112132405256 -0.0016750091360135933 0 0.019348127765382628 -0.0011650547819829192 0 0.019581164206164865 -0.0016037353668519889 0 0.017656227194538694 -0.0034787260847705384 0 0.018619684166322887 -0.0031064048502017698 0 0.018461863833904628 -0.0023036896946055261 0 0.019348127765382628 -0.0011650547819829192 0 0.019581164206164865 -0.0016037353668519889 0 0.019746002339851229 -0.0011063954741905046 0 0.018627819014445168 -0.0025463927662890736 0 0.019123764876473701 -0.0017157488255243993 0 0.017562762694496512 -0.0041988936678219874 0 0.017656227194538694 -0.0034787260847705384 0 0.018326179736806177 -0.0037090436164884132 0 0.018417807351073526 -0.0031036311683677654 0 0.018627819014445168 -0.0025463927662890736 0 0.019385797927387372 -0.0020787942106723131 0 0.019159112132405256 -0.0016750091360135933 0 0.019581164206164865 -0.0016037353668519889 0 0.018903572103804774 -0.0040092264461078922 0 0.019184844431730803 -0.0035782021915655928 0 0.019955586424508096 -0.0037216781462625164 0 0.019184844431730803 -0.0035782021915655928 0 0.019608618092547572 -0.0029615986531466632 0 0.020124358887961324 -0.0032957267805361727 0 0.019184844431730803 -0.0035782021915655928 0 0.019955586424508096 -0.0037216781462625164 0 0.020124358887961324 -0.0032957267805361727 0 0.017656227194538694 -0.0034787260847705384 0 0.018326179736806177 -0.0037090436164884132 0 0.018619684166322887 -0.0031064048502017698 0 0.018114100824671738 -0.0040697339065472469 0 0.019184844431730803 -0.0035782021915655928 0 0.018326179736806177 -0.0037090436164884132 0 0.019184844431730803 -0.0035782021915655928 0 0.018326179736806177 -0.0037090436164884132 0 0.018619684166322887 -0.0031064048502017698 0 0.018619684166322887 -0.0031064048502017698 0 0.019608618092547572 -0.0029615986531466632 0 0.018461863833904628 -0.0023036896946055261 0 0.019608618092547572 -0.0029615986531466632 0 0.020261598088904598 -0.0022775280643132154 0 0.018461863833904628 -0.0023036896946055261 0 0.019184844431730803 -0.0035782021915655928 0 0.018619684166322887 -0.0031064048502017698 0 0.019608618092547572 -0.0029615986531466632 0 0.019608618092547572 -0.0029615986531466632 0 0.020463323469644887 -0.0028666081973552585 0 0.020124358887961324 -0.0032957267805361727 0 0.019608618092547572 -0.0029615986531466632 0 0.020261598088904598 -0.0022775280643132154 0 0.020463323469644887 -0.0028666081973552585 0 0.020261598088904598 -0.0022775280643132154 0 0.020714627454636814 -0.0013448501849923616 0 0.021142576289218472 -0.0018498262598463594 0 0.020261598088904598 -0.0022775280643132154 0 0.018461863833904628 -0.0023036896946055261 0 0.019858967028003858 -0.00073614854423566353 0 0.019123764876473701 -0.0017157488255243993 0 0.01975955074357694 -0.00081617650705121758 0 0.019771116121289407 -9.2666460741331911e-05 0 0.019545028422895596 -0.00063541589757229997 0 0.019858967028003858 -0.00073614854423566353 0 0.019545028422895596 -0.00063541589757229997 0 0.019746002339851229 -0.0011063954741905046 0 0.019858967028003858 -0.00073614854423566353 0 0.020261598088904598 -0.0022775280643132154 0 0.019858967028003858 -0.00073614854423566353 0 0.020714627454636814 -0.0013448501849923616 0 0.019858967028003858 -0.00073614854423566353 0 0.020714627454636814 -0.0013448501849923616 0 0.021453448015411915 0.00025028200665754078 0 0.021720384554405208 -0.00088933549661115584 0 0.023498296273076411 -0.00056672214531882194 0 0.021834560225338983 -0.0021447512121390887 0 0.020714627454636814 -0.0013448501849923616 0 0.021720384554405208 -0.00088933549661115584 0 0.021453448015411915 0.00025028200665754078 0 0.021720384554405208 -0.00088933549661115584 0 0.023498296273076411 -0.00056672214531882194 0 0.021453448015411915 0.00025028200665754078 0 0.021720384554405208 -0.00088933549661115584 0 0.021142576289218472 -0.0018498262598463594 0 0.021834560225338983 -0.0021447512121390887 0 0.020714627454636814 -0.0013448501849923616 0 0.021720384554405208 -0.00088933549661115584 0 0.021142576289218472 -0.0018498262598463594 0 0.023498296273076411 -0.00056672214531882194 0 0.023841126836929284 -0.0020193517957038365 0 0.025903976909672558 -0.0016503088291666451 0 0.023498296273076411 -0.00056672214531882194 0 0.025903976909672558 -0.0016503088291666451 0 0.025284622503911326 0.00044305628976976997 0 0.023498296273076411 -0.00056672214531882194 0 0.023841126836929284 -0.0020193517957038365 0 0.021834560225338983 -0.0021447512121390887 0 0.023841126836929284 -0.0020193517957038365 0 0.024121152274474429 -0.0039133786656807808 0 0.025903976909672558 -0.0016503088291666451 0 0.023841126836929284 -0.0020193517957038365 0 0.024121152274474429 -0.0039133786656807808 0 0.021834560225338983 -0.0021447512121390887 0 0.024343414113781846 -0.0016394635836472333 0 0.022004150269621221 -0.0023575001317455426 0 0.02264075663151437 -0.0026687445447902453 0 0.021834560225338983 -0.0021447512121390887 0 0.021399437576207096 -0.0023657132962257056 0 0.020261598088904598 -0.0022775280643132154 0 0.021142576289218472 -0.0018498262598463594 0 0.021399437576207096 -0.0023657132962257056 0 0.021142576289218472 -0.0018498262598463594 0 0.021834560225338983 -0.0021447512121390887 0 0.021399437576207096 -0.0023657132962257056 0 0.020261598088904598 -0.0022775280643132154 0 0.021399437576207096 -0.0023657132962257056 0 0.020463323469644887 -0.0028666081973552585 0 0.021441052805557328 -0.0029907937332706415 0 0.021008113433791997 -0.0020161800099453408 0 0.021399437576207096 -0.0023657132962257056 0 0.020463323469644887 -0.0028666081973552585 0 0.020681584837457936 -0.0032389309965284475 0 0.020463323469644887 -0.0028666081973552585 0 0.020681584837457936 -0.0032389309965284475 0 0.020124358887961324 -0.0032957267805361727 0 0.02264075663151437 -0.0026687445447902453 0 0.021399437576207096 -0.0023657132962257056 0 0.021831423542061707 -0.0038315624326065996 0 0.022477396845166888 0.0016792493485618244 0 0.021822211229721274 0.00075331721274562232 0 0.022804709552653634 0.00064736696958241774 0 0.024343414113781846 -0.0016394635836472333 0 0.021008113433791997 -0.0020161800099453408 0 0.022092543855367151 -0.00032481613855584726 0 0.021822211229721274 0.00075331721274562232 0 0.022611812199390024 2.9757982008009113e-05 0 0.020866286841061163 -0.0017993343515853046 0 0.021008113433791997 -0.0020161800099453408 0 0.021822211229721274 0.00075331721274562232 0 0.022611812199390024 2.9757982008009113e-05 0 0.022804709552653634 0.00064736696958241774 0 0.019777078283847765 -0.0037223236875486665 0 0.01956841076905725 -0.0029513341693344556 0 0.019224292186862828 -0.0034607975549756872 0 0.020681584837457936 -0.0032389309965284475 0 0.019955586424508096 -0.0037216781462625164 0 0.020124358887961324 -0.0032957267805361727 0 0.021008113433791997 -0.0020161800099453408 0 0.019472393960596922 -0.0037275817258013476 0 0.024149295417369994 -0.00011450787991786858 0 0.02368841831318411 0.00094148707369485086 0 0.024991446506036928 0.00035001791985955283 0 0.029941769084771076 -0.0023306109349184811 0 0.030478776799215984 -0.00218524537757211 0 0.030645619600138459 -0.0023668627430545475 0 0.026944001405241436 -0.00046879830524686357 0 0.027811293285073976 -0.0010355272684251626 0 0.023370932155362106 -0.00012650890237134575 0 0.024149295417369994 -0.00011450787991786858 0 0.02368841831318411 0.00094148707369485086 0 0.023370932155362106 -0.00012650890237134575 0 0.022804709552653634 0.00064736696958241774 0 0.02368841831318411 0.00094148707369485086 0 0.023370932155362106 -0.00012650890237134575 0 0.022611812199390024 2.9757982008009113e-05 0 0.022804709552653634 0.00064736696958241774 0 0.022477396845166888 0.0016792493485618244 0 0.022804709552653634 0.00064736696958241774 0 0.02368841831318411 0.00094148707369485086 0 0.024343414113781846 -0.0016394635836472333 0 0.026944001405241436 -0.00046879830524686357 0 0.028489473025891995 -0.0016576651079102155 0 0.029941769084771076 -0.0023306109349184811 0 0.029628707894200908 -0.0014936086627313151 0 0.029941769084771076 -0.0023306109349184811 0 0.030513102717573484 -0.0018338652454772328 0 0.029628707894200908 -0.0014936086627313151 0 0.029941769084771076 -0.0023306109349184811 0 0.030513102717573484 -0.0018338652454772328 0 0.030478776799215984 -0.00218524537757211 0 0.030513102717573484 -0.0018338652454772328 0 0.029628707894200908 -0.0014936086627313151 0 0.030005524598083231 -0.00076430736059789409 0 0.030513102717573484 -0.0018338652454772328 0 0.030005524598083231 -0.00076430736059789409 0 0.03110670914280924 -0.00056759907188337264 0 0.024343414113781846 -0.0016394635836472333 0 0.027693021212730026 -0.0011482001666974263 0 0.028489473025891995 -0.0016576651079102155 0 0.029628707894200908 -0.0014936086627313151 0 0.029119884394178411 -0.00053811426459558342 0 0.029628707894200908 -0.0014936086627313151 0 0.029119884394178411 -0.00053811426459558342 0 0.030005524598083231 -0.00076430736059789409 0 0.027693021212730026 -0.0011482001666974263 0 0.028868863217189431 0.00066419229978441515 0 0.029119884394178411 -0.00053811426459558342 0 0.030005524598083231 -0.00076430736059789409 0 0.029688452861792239 0.0008353806190943082 0 0.030005524598083231 -0.00076430736059789409 0 0.029688452861792239 0.0008353806190943082 0 0.03110670914280924 -0.00056759907188337264 0 0.029688452861792239 0.0008353806190943082 0 0.030313454135685626 0.002598454376919281 0 0.031599886325729735 0.0005548926355445164 0 0.027957235951954897 0.00028724577865628462 0 0.028099835241905156 0.0042702084694593396 0 0.030313454135685626 0.002598454376919281 0 0.028868863217189431 0.00066419229978441515 0 0.030221199126953611 0.0024980619893421267 0 0.027957235951954897 0.00028724577865628462 0 0.025576097105233894 0.0027665717382791741 0 0.028099835241905156 0.0042702084694593396 0 0.025903976909672558 -0.0016503088291666451 0 0.027957235951954897 0.00028724577865628462 0 0.025284622503911326 0.00044305628976976997 0 0.027957235951954897 0.00028724577865628462 0 0.025576097105233894 0.0027665717382791741 0 0.025284622503911326 0.00044305628976976997 0 0.023498296273076411 -0.00056672214531882194 0 0.025284622503911326 0.00044305628976976997 0 0.023581527017173608 0.001547443051452882 0 0.023498296273076411 -0.00056672214531882194 0 0.021453448015411915 0.00025028200665754078 0 0.023581527017173608 0.001547443051452882 0 0.021191604596588108 0.0008391805135400059 0 0.021453448015411915 0.00025028200665754078 0 0.02199947810401592 0.0013740728374114677 0 0.021453448015411915 0.00025028200665754078 0 0.022114586064398652 0.0033149465149207749 0 0.023581527017173608 0.001547443051452882 0 0.021739983567620153 0.00053340415964683733 0 0.020906153696137825 0.0021380246403627885 0 0.022114586064398652 0.0033149465149207749 0 0.023581527017173608 0.001547443051452882 0 0.024137760091628033 0.0045409919128653331 0 0.025576097105233894 0.0027665717382791741 0 0.023581527017173608 0.001547443051452882 0 0.024137760091628033 0.0045409919128653331 0 0.025576097105233894 0.0027665717382791741 0 0.025284622503911326 0.00044305628976976997 0 0.023581527017173608 0.001547443051452882 0 0.025576097105233894 0.0027665717382791741 0 0.024137760091628033 0.0045409919128653331 0 0.026371447617097959 0.006252693625567067 0 0.020906153696137825 0.0021380246403627885 0 0.035420197268200164 0.0040874912487415122 0 0.022114586064398652 0.0033149465149207749 0 0.024137760091628033 0.0045409919128653331 0 0.022838928401488694 0.0064306484931467974 0 0.021325087976535755 0.0019979307156968206 0 0.02199947810401592 0.0013740728374114677 0 0.022546555163520689 0.00287620345547674 0 0.035420197268200164 0.0040874912487415122 0 0.049291079464746639 0.0022516844089589521 0 0.049220762500412366 0.00086433553909102425 0 0.049252948752666559 0.00086122226042241608 0 0.049238791396270291 0.00084234571855524882 0 0.021325087976535755 0.0019979307156968206 0 0.021786765204689983 0.0029203159404864345 0 0.022546555163520689 0.00287620345547674 0 0.04142952683639968 0.00077461845735553845 0 0.035420197268200164 0.0040874912487415122 0 0.049060472565613994 0.00084910407755556542 0 0.049220762500412366 0.00086433553909102425 0 0.049252948752666559 0.00086122226042241608 0 0.04142952683639968 0.00077461845735553845 0 0.050227981741461952 0.002341490048348817 0 0.049524165530251074 0.00086495386093677577 0 0.049252948752666559 0.00086122226042241608 0 0.049496286924766549 0.0008019577917694361 0 0.049760390765692775 0.0064229597585238295 0 0.04711470739929062 0.0043315557401036224 0 0.049104221476192589 0.0029929082445516522 0 0.024137760091628033 0.0045409919128653331 0 0.022838928401488694 0.0064306484931467974 0 0.026371447617097959 0.006252693625567067 0 0.049760390765692775 0.0064229597585238295 0 0.044619729769472052 0.0068393836129882054 0 0.04711470739929062 0.0043315557401036224 0 0.035420197268200164 0.0040874912487415122 0 0.035650452243052563 0.0067817866712198641 0 0.044619729769472052 0.0068393836129882054 0 0.041532819627876624 0.0050842817144526511 0 0.044767495656680804 0.0032611837548700943 0 0.044619729769472052 0.0068393836129882054 0 0.044767495656680804 0.0032611837548700943 0 0.04711470739929062 0.0043315557401036224 0 0.041532819627876624 0.0050842817144526511 0 0.038481260490120288 0.0068098254124433757 0 0.035769501736691377 0.0047851851766592722 0 0.035650452243052563 0.0067817866712198641 0 0.034335861184080746 0.0061844781933100817 0 0.044619729769472052 0.0068393836129882054 0 0.041532819627876624 0.0050842817144526511 0 0.038481260490120288 0.0068098254124433757 0 0.028099835241905156 0.0042702084694593396 0 0.030313454135685626 0.002598454376919281 0 0.031169829922829736 0.0040787813339528125 0 0.026371447617097959 0.006252693625567067 0 0.030127008968293068 0.0059229361774343183 0 0.028099835241905156 0.0042702084694593396 0 0.030127008968293068 0.0059229361774343183 0 0.028099835241905156 0.0042702084694593396 0 0.031169829922829736 0.0040787813339528125 0 0.025576097105233894 0.0027665717382791741 0 0.026371447617097959 0.006252693625567067 0 0.028099835241905156 0.0042702084694593396 0 0.051741668099585782 0.00053206783726681903 0 0.051638204402313481 0.0010144402357741915 0 0.051882978522540098 0.00030940413610667595 0 0.051741668099585782 0.00053206783726681903 0 0.051882978522540098 0.00030940413610667595 0 0.051809128552898862 0.00036038770745522243 0 0.046337672554371982 0.0015255913840595521 0 0.049376917558489677 3.2468630020106799e-05 0 0.051741668099585782 0.00053206783726681903 0 0.051638204402313481 0.0010144402357741915 0 0.051460335452835869 0.00061954628313436015 0 0.051638204402313481 0.0010144402357741915 0 0.0511978446811081 0.0010803204507771292 0 0.051460335452835869 0.00061954628313436015 0 0.041532819627876624 0.0050842817144526511 0 0.041287891180192972 0.0018610239600685462 0 0.035769501736691377 0.0047851851766592722 0 0.041532819627876624 0.0050842817144526511 0 0.041287891180192972 0.0018610239600685462 0 0.044767495656680804 0.0032611837548700943 0 0.041287891180192972 0.0018610239600685462 0 0.044767495656680804 0.0032611837548700943 0 0.047066776181781664 -0.00045340039283571021 0 0.044767495656680804 0.0032611837548700943 0 0.047369019273378811 0.0021637689508887843 0 0.047066776181781664 -0.00045340039283571021 0 0.047369019273378811 0.0021637689508887843 0 0.049104221476192589 0.0029929082445516522 0 0.048698478627128644 0.00016285179640051334 0 0.044767495656680804 0.0032611837548700943 0 0.04711470739929062 0.0043315557401036224 0 0.047369019273378811 0.0021637689508887843 0 0.04711470739929062 0.0043315557401036224 0 0.047369019273378811 0.0021637689508887843 0 0.049104221476192589 0.0029929082445516522 0 0.049496286924766549 0.0008019577917694361 0 0.049459377289083298 0.00076744221068474994 0 0.049617157539012524 0.00070538469966131151 0 0.049252948752666559 0.00086122226042241608 0 0.049496286924766549 0.0008019577917694361 0 0.049459377289083298 0.00076744221068474994 0 0.049252948752666559 0.00086122226042241608 0 0.049459377289083298 0.00076744221068474994 0 0.049238791396270291 0.00084234571855524882 0 0.049459377289083298 0.00076744221068474994 0 0.049238791396270291 0.00084234571855524882 0 0.049644048502972646 0.00049874241970009113 0 0.049459377289083298 0.00076744221068474994 0 0.049644048502972646 0.00049874241970009113 0 0.049617157539012524 0.00070538469966131151 0 0.049238791396270291 0.00084234571855524882 0 0.049644048502972646 0.00049874241970009113 0 0.048698478627128644 0.00016285179640051334 0 0.049644048502972646 0.00049874241970009113 0 0.04993579269079413 0.00014422670563183154 0 0.048698478627128644 0.00016285179640051334 0 0.048698478627128644 0.00016285179640051334 0 0.047066776181781664 -0.00045340039283571021 0 0.050660373738569763 -9.1766158130284869e-05 0 0.049291079464746639 0.0022516844089589521 0 0.048743300112030555 0.00017961241546277454 0 0.047369019273378811 0.0021637689508887843 0 0.048698478627128644 0.00016285179640051334 0 0.047066776181781664 -0.00045340039283571021 0 0.051882978522540098 0.00030940413610667595 0 0.051585711946113132 0.00025610309802563962 0 0.051809128552898862 0.00036038770745522243 0 0.051882978522540098 0.00030940413610667595 0 0.051585711946113132 0.00025610309802563962 0 0.050660373738569763 -9.1766158130284869e-05 0 0.049376917558489677 3.2468630020106799e-05 0 0.050433173075386598 -7.6731082870304133e-05 0 0.051585711946113132 0.00025610309802563962 0 0.051439329170587106 0.00024856695896472933 0 0.051724847185840681 0.00036522917880822209 0 0.051585711946113132 0.00025610309802563962 0 0.051724847185840681 0.00036522917880822209 0 0.051809128552898862 0.00036038770745522243 0 0.04993579269079413 0.00014422670563183154 0 0.048698478627128644 0.00016285179640051334 0 0.050660373738569763 -9.1766158130284869e-05 0 0.051585711946113132 0.00025610309802563962 0 0.051439329170587106 0.00024856695896472933 0 0.050660373738569763 -9.1766158130284869e-05 0 0.050660373738569763 -9.1766158130284869e-05 0 0.051653555342345447 0.00044904925572407779 0 0.05081197503495468 0.00028865713582150053 0 0.051439329170587106 0.00024856695896472933 0 0.050660373738569763 -9.1766158130284869e-05 0 0.051653555342345447 0.00044904925572407779 0 0.051653555342345447 0.00044904925572407779 0 0.051724847185840681 0.00036522917880822209 0 0.051928714867410186 0.0004877185565235242 0 0.051653555342345447 0.00044904925572407779 0 0.051928714867410186 0.0004877185565235242 0 0.052135500576845233 0.00056292631067133832 0 0.051439329170587106 0.00024856695896472933 0 0.051653555342345447 0.00044904925572407779 0 0.051724847185840681 0.00036522917880822209 0 0.051865470761590156 0.00045393554378324829 0 0.051843463942055398 0.00043869198522905416 0 0.05165778624129079 0.00043201209541216776 0 0.051928714867410186 0.0004877185565235242 0 0.051865470761590156 0.00045393554378324829 0 0.051843463942055398 0.00043869198522905416 0 0.051724847185840681 0.00036522917880822209 0 0.051928714867410186 0.0004877185565235242 0 0.051843463942055398 0.00043869198522905416 0 0.051724847185840681 0.00036522917880822209 0 0.051843463942055398 0.00043869198522905416 0 0.051809128552898862 0.00036038770745522243 0 0.051843463942055398 0.00043869198522905416 0 0.051740350557429649 0.00047169935038907725 0 0.051809128552898862 0.00036038770745522243 0 0.051741668099585782 0.00053206783726681903 0 0.051740350557429649 0.00047169935038907725 0 0.051809128552898862 0.00036038770745522243 0 0.051740350557429649 0.00047169935038907725 0 0.05165778624129079 0.00043201209541216776 0 0.051460335452835869 0.00061954628313436015 0 0.051741668099585782 0.00053206783726681903 0 0.051740350557429649 0.00047169935038907725 0 0.051460335452835869 0.00061954628313436015 0 0.05165778624129079 0.00043201209541216776 0 0.051591152294090843 0.00035354401105195136 0 0.051416586292972362 0.0004207636897399437 0 0.051843463942055398 0.00043869198522905416 0 0.051740350557429649 0.00047169935038907725 0 0.05165778624129079 0.00043201209541216776 0 0.051865470761590156 0.00045393554378324829 0 0.05165778624129079 0.00043201209541216776 0 0.051730101534254586 0.00041136648627200485 0 0.05165778624129079 0.00043201209541216776 0 0.051730101534254586 0.00041136648627200485 0 0.051591152294090843 0.00035354401105195136 0 0.051865470761590156 0.00045393554378324829 0 0.051730101534254586 0.00041136648627200485 0 0.051836563143704752 0.0003994586955583139 0 0.051730101534254586 0.00041136648627200485 0 0.051591152294090843 0.00035354401105195136 0 0.051836563143704752 0.0003994586955583139 0 0.051836563143704752 0.0003994586955583139 0 0.052015298266008432 0.00037957443284684597 0 0.051721454149666855 0.00028533215612978901 0 0.051591152294090843 0.00035354401105195136 0 0.051836563143704752 0.0003994586955583139 0 0.051721454149666855 0.00028533215612978901 0 0.051591152294090843 0.00035354401105195136 0 0.051721454149666855 0.00028533215612978901 0 0.051495810306278741 0.00024277762117213522 0 0.051928714867410186 0.0004877185565235242 0 0.051865470761590156 0.00045393554378324829 0 0.052025127076366903 0.00049035867566310097 0 0.051865470761590156 0.00045393554378324829 0 0.051836563143704752 0.0003994586955583139 0 0.052025127076366903 0.00049035867566310097 0 0.051836563143704752 0.0003994586955583139 0 0.052025127076366903 0.00049035867566310097 0 0.052015298266008432 0.00037957443284684597 0 0.052025127076366903 0.00049035867566310097 0 0.052015298266008432 0.00037957443284684597 0 0.052363645952225958 0.00048792817762012992 0 0.052124691558618812 0.00026156903910525984 0 0.051895703599498522 -4.5026130226878389e-06 0 0.052472290288589636 0.00014922007035074542 0 0.052015298266008432 0.00037957443284684597 0 0.052124691558618812 0.00026156903910525984 0 0.052363645952225958 0.00048792817762012992 0 0.052015298266008432 0.00037957443284684597 0 0.052124691558618812 0.00026156903910525984 0 0.051841892703151773 0.00020523599055122059 0 0.052124691558618812 0.00026156903910525984 0 0.051841892703151773 0.00020523599055122059 0 0.051895703599498522 -4.5026130226878389e-06 0 0.052124691558618812 0.00026156903910525984 0 0.052472290288589636 0.00014922007035074542 0 0.052363645952225958 0.00048792817762012992 0 0.051721454149666855 0.00028533215612978901 0 0.051841892703151773 0.00020523599055122059 0 0.051547499888601592 0.00010572701804699233 0 0.051841892703151773 0.00020523599055122059 0 0.051895703599498522 -4.5026130226878389e-06 0 0.051547499888601592 0.00010572701804699233 0 0.053511846427976996 0.00014361168511111685 0 0.053362883568537488 0.00028541883488312293 0 0.052015298266008432 0.00037957443284684597 0 0.051721454149666855 0.00028533215612978901 0 0.051841892703151773 0.00020523599055122059 0 0.054982108946709088 0.00048517693122193586 0 0.055178385386780396 0.00044339480590444469 0 0.055191087829631391 0.00050078016946721612 0 0.054996085654839447 -0.00010444873625587001 0 0.054988858666208951 -7.5210650206474701e-05 0 0.055011904620122093 -2.7333683436393616e-05 0 0.053511846427976996 0.00014361168511111685 0 0.055388566621339175 0.00026474896784669182 0 0.054996085654839447 -0.00010444873625587001 0 0.055011904620122093 -2.7333683436393616e-05 0 0.05502522853179375 -1.679301170526692e-05 0 0.051715276271918027 4.6327204344033108e-05 0 0.052446142390922205 -0.00024165694182194417 0 0.052472290288589636 0.00014922007035074542 0 0.053511846427976996 0.00014361168511111685 0 0.053657300025756353 -0.00017891161279381596 0 0.053511846427976996 0.00014361168511111685 0 0.05182751534469629 5.3617543136366664e-05 0 0.054996085654839447 -0.00010444873625587001 0 0.054988858666208951 -7.5210650206474701e-05 0 0.054909522387156642 -0.00023413126536419316 0 0.054988858666208951 -7.5210650206474701e-05 0 0.054949814974989582 -5.2569834854410583e-05 0 0.054909522387156642 -0.00023413126536419316 0 0.055000187984951356 4.3478701143571045e-09 0 0.054949814974989582 -5.2569834854410583e-05 0 0.054863056883419629 1.2274081377891282e-05 0 0.054988858666208951 -7.5210650206474701e-05 0 0.055000187984951356 4.3478701143571045e-09 0 0.054949814974989582 -5.2569834854410583e-05 0 0.054988858666208951 -7.5210650206474701e-05 0 0.055000187984951356 4.3478701143571045e-09 0 0.055011904620122093 -2.7333683436393616e-05 0 0.055000187984951356 4.3478701143571045e-09 0 0.055011904620122093 -2.7333683436393616e-05 0 0.054999956866917908 -3.1851938464840094e-08 0 0.054998670668805476 3.2198950937881823e-08 0 0.054149348791617168 -0.00016865423628566569 0 0.054407421581927039 -2.1076014033362745e-05 0 0.055000187984951356 4.3478701143571045e-09 0 0.054998670668805476 3.2198950937881823e-08 0 0.054863056883419629 1.2274081377891282e-05 0 0.054998670668805476 3.2198950937881823e-08 0 0.054863056883419629 1.2274081377891282e-05 0 0.054149348791617168 -0.00016865423628566569 0 0.054949814974989582 -5.2569834854410583e-05 0 0.054863056883419629 1.2274081377891282e-05 0 0.054909522387156642 -0.00023413126536419316 0 0.053657300025756353 -0.00017891161279381596 0 0.054021850039402151 -0.00020027583446122939 0 0.054863056883419629 1.2274081377891282e-05 0 0.054909522387156642 -0.00023413126536419316 0 0.054149348791617168 -0.00016865423628566569 0 0.052446142390922205 -0.00024165694182194417 0 0.052983631858921861 6.6506111218924427e-05 0 0.054149348791617168 -0.00016865423628566569 0 0.052446142390922205 -0.00024165694182194417 0 0.052472290288589636 0.00014922007035074542 0 0.052983631858921861 6.6506111218924427e-05 0 0.052983631858921861 6.6506111218924427e-05 0 0.053188433907594493 0.00024304103953194192 0 0.054149348791617168 -0.00016865423628566569 0 0.052472290288589636 0.00014922007035074542 0 0.052983631858921861 6.6506111218924427e-05 0 0.053188433907594493 0.00024304103953194192 0 0.054149348791617168 -0.00016865423628566569 0 0.053666625504997019 0.00022557586480783919 0 0.054407421581927039 -2.1076014033362745e-05 0 0.053188433907594493 0.00024304103953194192 0 0.054149348791617168 -0.00016865423628566569 0 0.053666625504997019 0.00022557586480783919 0 0.053666625504997019 0.00022557586480783919 0 0.052821051195946801 0.000627097399410633 0 0.05338692093668293 0.00072602900075110892 0 0.053188433907594493 0.00024304103953194192 0 0.053666625504997019 0.00022557586480783919 0 0.052821051195946801 0.000627097399410633 0 0.053188433907594493 0.00024304103953194192 0 0.052821051195946801 0.000627097399410633 0 0.052363645952225958 0.00048792817762012992 0 0.052472290288589636 0.00014922007035074542 0 0.053188433907594493 0.00024304103953194192 0 0.052363645952225958 0.00048792817762012992 0 0.051653555342345447 0.00044904925572407779 0 0.052821051195946801 0.000627097399410633 0 0.052135500576845233 0.00056292631067133832 0 0.052821051195946801 0.000627097399410633 0 0.052363645952225958 0.00048792817762012992 0 0.052135500576845233 0.00056292631067133832 0 0.052025127076366903 0.00049035867566310097 0 0.052363645952225958 0.00048792817762012992 0 0.052135500576845233 0.00056292631067133832 0 0.051928714867410186 0.0004877185565235242 0 0.052025127076366903 0.00049035867566310097 0 0.052135500576845233 0.00056292631067133832 0 0.052648599636876757 0.00060134625709559123 0 0.051878362596630236 0.00062570687920517629 0 0.051653555342345447 0.00044904925572407779 0 0.052821051195946801 0.000627097399410633 0 0.05081197503495468 0.00028865713582150053 0 0.052821051195946801 0.000627097399410633 0 0.05338692093668293 0.00072602900075110892 0 0.052893101497707457 0.0010514479567480962 0 0.05338692093668293 0.00072602900075110892 0 0.053882646446422378 0.00048508792459380705 0 0.053446304061110998 0.00085288836785141805 0 0.05338692093668293 0.00072602900075110892 0 0.053446304061110998 0.00085288836785141805 0 0.052773923499426528 0.0010400097675951295 0 0.05338692093668293 0.00072602900075110892 0 0.053882646446422378 0.00048508792459380705 0 0.054019870656251169 0.00024715897462766518 0 0.053666625504997019 0.00022557586480783919 0 0.05338692093668293 0.00072602900075110892 0 0.054019870656251169 0.00024715897462766518 0 0.054019870656251169 0.00024715897462766518 0 0.054587212228661038 7.5099615500204996e-05 0 0.054407421581927039 -2.1076014033362745e-05 0 0.053666625504997019 0.00022557586480783919 0 0.054019870656251169 0.00024715897462766518 0 0.054407421581927039 -2.1076014033362745e-05 0 0.053882646446422378 0.00048508792459380705 0 0.054019870656251169 0.00024715897462766518 0 0.054587212228661038 7.5099615500204996e-05 0 0.054587212228661038 7.5099615500204996e-05 0 0.054998897390374321 -5.347300161693954e-08 0 0.054999686635763941 2.0911859514531769e-09 0 0.054998670668805476 3.2198950937881823e-08 0 0.054407421581927039 -2.1076014033362745e-05 0 0.054998897390374321 -5.347300161693954e-08 0 0.054587212228661038 7.5099615500204996e-05 0 0.054407421581927039 -2.1076014033362745e-05 0 0.054998897390374321 -5.347300161693954e-08 0 0.054587212228661038 7.5099615500204996e-05 0 0.054999686635763941 2.0911859514531769e-09 0 0.054407605218434442 0.00028050268011478135 0 0.054999785873869486 9.6752613557790272e-08 0 0.054441531796768035 0.00015132483398484442 0 0.053882646446422378 0.00048508792459380705 0 0.054587212228661038 7.5099615500204996e-05 0 0.054407605218434442 0.00028050268011478135 0 0.054995482701171015 1.9310788847474783e-06 0 0.054443600957621442 0.00010238063115098395 0 0.053830601789678863 0.00019312560655988559 0 0.054443600957621442 0.00010238063115098395 0 0.053729190807018073 -0.00031122607715530971 0 0.053830601789678863 0.00019312560655988559 0 0.053882646446422378 0.00048508792459380705 0 0.054407605218434442 0.00028050268011478135 0 0.053446304061110998 0.00085288836785141805 0 0.054443600957621442 0.00010238063115098395 0 0.054469609891783677 -0.0006386697457759806 0 0.053729190807018073 -0.00031122607715530971 0 0.054441531796768035 0.00015132483398484442 0 0.053903226219226281 0.00012893591022839659 0 0.054469609891783677 -0.0006386697457759806 0 0.053729190807018073 -0.00031122607715530971 0 0.053201012227118087 -0.001480194381490312 0 0.054469609891783677 -0.0006386697457759806 0 0.054542162404699848 -0.0021693556263351773 0 0.053201012227118087 -0.001480194381490312 0 0.05349454673016088 -0.0025330774073976854 0 0.054542162404699848 -0.0021693556263351773 0 0.053201012227118087 -0.001480194381490312 0 0.05349454673016088 -0.0025330774073976854 0 0.054542162404699848 -0.0021693556263351773 0 0.054003840653235352 -0.002953277461052718 0 0.053903226219226281 0.00012893591022839659 0 0.053589970730227421 -0.0009753507648351962 0 0.053446304061110998 0.00085288836785141805 0 0.05206802288011083 0.0010991139199071696 0 0.052773923499426528 0.0010400097675951295 0 0.05338692093668293 0.00072602900075110892 0 0.052773923499426528 0.0010400097675951295 0 0.052893101497707457 0.0010514479567480962 0 0.050660373738569763 -9.1766158130284869e-05 0 0.05081197503495468 0.00028865713582150053 0 0.050042573165717578 0.00020233847424216923 0 0.04993579269079413 0.00014422670563183154 0 0.050660373738569763 -9.1766158130284869e-05 0 0.050042573165717578 0.00020233847424216923 0 0.052773923499426528 0.0010400097675951295 0 0.052893101497707457 0.0010514479567480962 0 0.051951043601276968 0.0010560272667595296 0 0.051878362596630236 0.00062570687920517629 0 0.050933447889458937 0.00070173697568037255 0 0.05206802288011083 0.0010991139199071696 0 0.052773923499426528 0.0010400097675951295 0 0.051951043601276968 0.0010560272667595296 0 0.05206802288011083 0.0010991139199071696 0 0.051094439221437422 0.0010280860703971273 0 0.051951043601276968 0.0010560272667595296 0 0.051094439221437422 0.0010280860703971273 0 0.051951043601276968 0.0010560272667595296 0 0.050031769072222218 0.001065431908472746 0 0.049644048502972646 0.00049874241970009113 0 0.050042573165717578 0.00020233847424216923 0 0.049617157539012524 0.00070538469966131151 0 0.049644048502972646 0.00049874241970009113 0 0.04993579269079413 0.00014422670563183154 0 0.050042573165717578 0.00020233847424216923 0 0.050042573165717578 0.00020233847424216923 0 0.049617157539012524 0.00070538469966131151 0 0.049603293251064849 0.0008039986059718918 0 0.04958202326044172 0.00078240792173982785 0 0.049496286924766549 0.0008019577917694361 0 0.049617157539012524 0.00070538469966131151 0 0.04958202326044172 0.00078240792173982785 0 0.049617157539012524 0.00070538469966131151 0 0.049603293251064849 0.0008039986059718918 0 0.050042573165717578 0.00020233847424216923 0 0.049603293251064849 0.0008039986059718918 0 0.049571242137944407 0.00095389083129124807 0 0.051951043601276968 0.0010560272667595296 0 0.049571242137944407 0.00095389083129124807 0 0.050031769072222218 0.001065431908472746 0 0.050933447889458937 0.00070173697568037255 0 0.04981876602449279 0.00092322509740649125 0 0.049414733906651666 0.00084489096022859352 0 0.049603293251064849 0.0008039986059718918 0 0.049571242137944407 0.00095389083129124807 0 0.047934834770085699 0.0011302281019334053 0 0.050383984383467834 0.00014594946347041429 0 0.047796000373347837 0.00071662896231724431 0 0.050031769072222218 0.001065431908472746 0 0.049932586632480763 0.0011104558377807378 0 0.046609433946716593 0.0013867388153854042 0 0.047796000373347837 0.00071662896231724431 0 0.046962562344483164 0.0023113169568215186 0 0.047796000373347837 0.00071662896231724431 0 0.049571242137944407 0.00095389083129124807 0 0.050031769072222218 0.001065431908472746 0 0.051094439221437422 0.0010280860703971273 0 0.050031769072222218 0.001065431908472746 0 0.050373625347866671 0.0010156321963937624 0 0.050157586947917783 0.00035457955040707169 0 0.050383984383467834 0.00014594946347041429 0 0.046609433946716593 0.0013867388153854042 0 0.046962562344483164 0.0023113169568215186 0 0.045440251135923655 0.0013332408753430286 0 0.050383984383467834 0.00014594946347041429 0 0.049228865270696517 -0.00075675155349613765 0 0.045440251135923655 0.0013332408753430286 0 0.044743253478983676 0.0022000955450659724 0 0.043906160619278822 0.0013276456079801234 0 0.046962562344483164 0.0023113169568215186 0 0.045440251135923655 0.0013332408753430286 0 0.044743253478983676 0.0022000955450659724 0 0.054563340009817746 -0.0037479828778847887 0 0.053391547245583357 -0.0034204541881247327 0 0.054003840653235352 -0.002953277461052718 0 0.05349454673016088 -0.0025330774073976854 0 0.053391547245583357 -0.0034204541881247327 0 0.054003840653235352 -0.002953277461052718 0 0.05206802288011083 0.0010991139199071696 0 0.051094439221437422 0.0010280860703971273 0 0.050373625347866671 0.0010156321963937624 0 0.054542162404699848 -0.0021693556263351773 0 0.054563340009817746 -0.0037479828778847887 0 0.054003840653235352 -0.002953277461052718 0 0.053589970730227421 -0.0009753507648351962 0 0.050383984383467834 0.00014594946347041429 0 0.047711760460895945 -0.00090672894726236098 0 0.046861563555331977 -0.0012340237737504868 0 0.05349454673016088 -0.0025330774073976854 0 0.053391547245583357 -0.0034204541881247327 0 0.052027176758180471 -0.0031594044533709014 0 0.044743253478983676 0.0022000955450659724 0 0.043308312077283868 0.0013858639154603163 0 0.043906160619278822 0.0013276456079801234 0 0.049228865270696517 -0.00075675155349613765 0 0.047711760460895945 -0.00090672894726236098 0 0.043039462873840618 0.0010153689435047409 0 0.043308312077283868 0.0013858639154603163 0 0.043906160619278822 0.0013276456079801234 0 0.043039462873840618 0.0010153689435047409 0 0.043308312077283868 0.0013858639154603163 0 0.04330418403591587 0.00086915537401435576 0 0.04330418403591587 0.00086915537401435576 0 0.046351787727851729 -0.00079879206275156012 0 0.043410127098297065 0.00060304794823567694 0 0.042114558382737616 0.0006689183781506949 0 0.04330418403591587 0.00086915537401435576 0 0.043410127098297065 0.00060304794823567694 0 0.04330418403591587 0.00086915537401435576 0 0.043560543811561853 2.4517140499507335e-05 0 0.046351787727851729 -0.00079879206275156012 0 0.043308312077283868 0.0013858639154603163 0 0.04330418403591587 0.00086915537401435576 0 0.043560543811561853 2.4517140499507335e-05 0 0.05000451074209069 -0.0027192613662745282 0 0.049757072970049242 -0.00056560605942621684 0 0.051528528076190627 -0.0015531633064813049 0 0.05000451074209069 -0.0027192613662745282 0 0.046351787727851729 -0.00079879206275156012 0 0.049757072970049242 -0.00056560605942621684 0 0.046861563555331977 -0.0012340237737504868 0 0.046377463154743698 -0.00092059887653419832 0 0.046351787727851729 -0.00079879206275156012 0 0.048168792872377367 -0.00021055097449781336 0 0.049757072970049242 -0.00056560605942621684 0 0.051528528076190627 -0.0015531633064813049 0 0.053201012227118087 -0.001480194381490312 0 0.052027070131898265 -0.0004236146806079784 0 0.049757072970049242 -0.00056560605942621684 0 0.051528528076190627 -0.0015531633064813049 0 0.052027070131898265 -0.0004236146806079784 0 0.052027176758180471 -0.0031594044533709014 0 0.05000451074209069 -0.0027192613662745282 0 0.051528528076190627 -0.0015531633064813049 0 0.05349454673016088 -0.0025330774073976854 0 0.052027176758180471 -0.0031594044533709014 0 0.053201012227118087 -0.001480194381490312 0 0.052027176758180471 -0.0031594044533709014 0 0.051528528076190627 -0.0015531633064813049 0 0.053201012227118087 -0.001480194381490312 0 0.054995482701171015 1.9310788847474783e-06 0 0.054526753416754517 0.00036836644293171411 0 0.054999118880975036 2.7089672651695385e-07 0 0.053729190807018073 -0.00031122607715530971 0 0.053201012227118087 -0.001480194381490312 0 0.052027070131898265 -0.0004236146806079784 0 0.052027070131898265 -0.0004236146806079784 0 0.053830601789678863 0.00019312560655988559 0 0.051717592482921584 9.7804327354510578e-05 0 0.053729190807018073 -0.00031122607715530971 0 0.052027070131898265 -0.0004236146806079784 0 0.053830601789678863 0.00019312560655988559 0 0.054995482701171015 1.9310788847474783e-06 0 0.053830601789678863 0.00019312560655988559 0 0.054526753416754517 0.00036836644293171411 0 0.053830601789678863 0.00019312560655988559 0 0.052627529559658173 0.00027668412817342426 0 0.051717592482921584 9.7804327354510578e-05 0 0.053830601789678863 0.00019312560655988559 0 0.054526753416754517 0.00036836644293171411 0 0.052627529559658173 0.00027668412817342426 0 0.054526753416754517 0.00036836644293171411 0 0.054999118880975036 2.7089672651695385e-07 0 0.054885630521177939 0.00016587686365383207 0 0.050764823272630571 0.0011795852335712682 0 0.050044015714491727 0.00036479707095475052 0 0.050104607385644824 -0.00019720115755183514 0 0.054999118880975036 2.7089672651695385e-07 0 0.054885630521177939 0.00016587686365383207 0 0.054677823247011224 -0.00015414904678029694 0 0.052870594893425965 0.00055638803950549902 0 0.05248527634825461 -7.7674830171116369e-05 0 0.054526753416754517 0.00036836644293171411 0 0.050764823272630571 0.0011795852335712682 0 0.052627529559658173 0.00027668412817342426 0 0.05436297973786014 0.00044788596759152841 0 0.052870594893425965 0.00055638803950549902 0 0.050764823272630571 0.0011795852335712682 0 0.052627529559658173 0.00027668412817342426 0 0.050975992115925718 0.00033772982440649613 0 0.052627529559658173 0.00027668412817342426 0 0.050975992115925718 0.00033772982440649613 0 0.051717592482921584 9.7804327354510578e-05 0 0.050764823272630571 0.0011795852335712682 0 0.050975992115925718 0.00033772982440649613 0 0.050044015714491727 0.00036479707095475052 0 0.050975992115925718 0.00033772982440649613 0 0.050044015714491727 0.00036479707095475052 0 0.050302731232328944 0.00019254023391491776 0 0.050044015714491727 0.00036479707095475052 0 0.050302731232328944 0.00019254023391491776 0 0.049287438832515469 0.00024045143087384101 0 0.050302731232328944 0.00019254023391491776 0 0.050149171969135965 -3.9605763385541491e-05 0 0.049287438832515469 0.00024045143087384101 0 0.050975992115925718 0.00033772982440649613 0 0.050302731232328944 0.00019254023391491776 0 0.051717592482921584 9.7804327354510578e-05 0 0.050302731232328944 0.00019254023391491776 0 0.051717592482921584 9.7804327354510578e-05 0 0.050149171969135965 -3.9605763385541491e-05 0 0.049757072970049242 -0.00056560605942621684 0 0.052027070131898265 -0.0004236146806079784 0 0.050149171969135965 -3.9605763385541491e-05 0 0.052027070131898265 -0.0004236146806079784 0 0.051717592482921584 9.7804327354510578e-05 0 0.050149171969135965 -3.9605763385541491e-05 0 0.048168792872377367 -0.00021055097449781336 0 0.050149171969135965 -3.9605763385541491e-05 0 0.049287438832515469 0.00024045143087384101 0 0.048168792872377367 -0.00021055097449781336 0 0.049757072970049242 -0.00056560605942621684 0 0.050149171969135965 -3.9605763385541491e-05 0 0.054994371271561038 -5.103693217298703e-07 0 0.050167144023928863 0.00024680061297158423 0 0.044769472125349936 1.127364849782574e-06 0 0.049287438832515469 0.00024045143087384101 0 0.050167144023928863 0.00024680061297158423 0 0.0472658630834 -1.7790770042791736e-05 0 0.048168792872377367 -0.00021055097449781336 0 0.049287438832515469 0.00024045143087384101 0 0.0472658630834 -1.7790770042791736e-05 0 0.054999118880975036 2.7089672651695385e-07 0 0.054994371271561038 -5.103693217298703e-07 0 0.053964846611048424 -6.4153858450640333e-05 0 0.049287438832515469 0.00024045143087384101 0 0.050319867221983165 0.00038451678747688823 0 0.050167144023928863 0.00024680061297158423 0 0.054999118880975036 2.7089672651695385e-07 0 0.054677823247011224 -0.00015414904678029694 0 0.053964846611048424 -6.4153858450640333e-05 0 0.050044015714491727 0.00036479707095475052 0 0.049287438832515469 0.00024045143087384101 0 0.050319867221983165 0.00038451678747688823 0 0.050044015714491727 0.00036479707095475052 0 0.050319867221983165 0.00038451678747688823 0 0.050104607385644824 -0.00019720115755183514 0 0.050319867221983165 0.00038451678747688823 0 0.053964846611048424 -6.4153858450640333e-05 0 0.050167144023928863 0.00024680061297158423 0 0.05248527634825461 -7.7674830171116369e-05 0 0.053849762233046217 -0.00010698790888625038 0 0.050319867221983165 0.00038451678747688823 0 0.050104607385644824 -0.00019720115755183514 0 0.053964846611048424 -6.4153858450640333e-05 0 0.054994371271561038 -5.103693217298703e-07 0 0.053964846611048424 -6.4153858450640333e-05 0 0.050167144023928863 0.00024680061297158423 0 0.044769472125349936 1.127364849782574e-06 0 0.0472658630834 -1.7790770042791736e-05 0 0.044813638833136812 2.6480355386588634e-05 0 0.050167144023928863 0.00024680061297158423 0 0.044769472125349936 1.127364849782574e-06 0 0.0472658630834 -1.7790770042791736e-05 0 0.046351787727851729 -0.00079879206275156012 0 0.048168792872377367 -0.00021055097449781336 0 0.0472658630834 -1.7790770042791736e-05 0 0.046351787727851729 -0.00079879206275156012 0 0.0472658630834 -1.7790770042791736e-05 0 0.044813638833136812 2.6480355386588634e-05 0 0.046351787727851729 -0.00079879206275156012 0 0.044813638833136812 2.6480355386588634e-05 0 0.043410127098297065 0.00060304794823567694 0 0.041929071284782425 0.00042462604708339116 0 0.044813638833136812 2.6480355386588634e-05 0 0.043410127098297065 0.00060304794823567694 0 0.041929071284782425 0.00042462604708339116 0 0.044769472125349936 1.127364849782574e-06 0 0.044813638833136812 2.6480355386588634e-05 0 0.042915143324011001 -0.00061584080939630821 0 0.042042287816906054 -0.00060944423161022536 0 0.042581396313032871 -2.8161159203686814e-05 0 0.042915143324011001 -0.00061584080939630821 0 0.042581396313032871 -2.8161159203686814e-05 0 0.043435950445627119 -0.0001964606362949855 0 0.042581396313032871 -2.8161159203686814e-05 0 0.041532127106689187 0.00019902457407477454 0 0.042503265571058185 0.0006971218502534502 0 0.042042287816906054 -0.00060944423161022536 0 0.042581396313032871 -2.8161159203686814e-05 0 0.041532127106689187 0.00019902457407477454 0 0.042581396313032871 -2.8161159203686814e-05 0 0.043435950445627119 -0.0001964606362949855 0 0.043140727393702602 0.00044317391075063126 0 0.043435950445627119 -0.0001964606362949855 0 0.043857477466856122 0.00028904953496887502 0 0.043140727393702602 0.00044317391075063126 0 0.043435950445627119 -0.0001964606362949855 0 0.043857477466856122 0.00028904953496887502 0 0.044469974905375402 -0.00029674151082914244 0 0.043435950445627119 -0.0001964606362949855 0 0.043697217576334747 -0.00092573897384648604 0 0.044469974905375402 -0.00029674151082914244 0 0.042915143324011001 -0.00061584080939630821 0 0.043435950445627119 -0.0001964606362949855 0 0.043697217576334747 -0.00092573897384648604 0 0.042915143324011001 -0.00061584080939630821 0 0.043697217576334747 -0.00092573897384648604 0 0.042821701607027467 -0.0013095022627104241 0 0.043697217576334747 -0.00092573897384648604 0 0.043996586094445282 -0.0017607496657947627 0 0.042821701607027467 -0.0013095022627104241 0 0.043697217576334747 -0.00092573897384648604 0 0.043996586094445282 -0.0017607496657947627 0 0.04476854754784089 -0.0012488418621945372 0 0.043996586094445282 -0.0017607496657947627 0 0.042821701607027467 -0.0013095022627104241 0 0.043137621515389822 -0.0023224471465918589 0 0.042821701607027467 -0.0013095022627104241 0 0.042237367805372489 -0.0017574034221362444 0 0.043137621515389822 -0.0023224471465918589 0 0.042915143324011001 -0.00061584080939630821 0 0.042042287816906054 -0.00060944423161022536 0 0.042821701607027467 -0.0013095022627104241 0 0.042042287816906054 -0.00060944423161022536 0 0.042821701607027467 -0.0013095022627104241 0 0.041566440719384173 -0.0012879987483714692 0 0.042821701607027467 -0.0013095022627104241 0 0.042237367805372489 -0.0017574034221362444 0 0.041566440719384173 -0.0012879987483714692 0 0.042237367805372489 -0.0017574034221362444 0 0.041566440719384173 -0.0012879987483714692 0 0.041273674260005028 -0.0020945927242727318 0 0.041566440719384173 -0.0012879987483714692 0 0.040194734799075191 -0.0014016335306406842 0 0.040911867646859355 -0.00066078774201488283 0 0.041566440719384173 -0.0012879987483714692 0 0.040194734799075191 -0.0014016335306406842 0 0.041273674260005028 -0.0020945927242727318 0 0.042042287816906054 -0.00060944423161022536 0 0.041566440719384173 -0.0012879987483714692 0 0.040911867646859355 -0.00066078774201488283 0 0.040194734799075191 -0.0014016335306406842 0 0.03993704410603708 -0.00079208739334222849 0 0.039248623500514661 -0.0011978958636802005 0 0.040194734799075191 -0.0014016335306406842 0 0.039101579594107851 -0.0018520597039633348 0 0.039248623500514661 -0.0011978958636802005 0 0.040194734799075191 -0.0014016335306406842 0 0.03993704410603708 -0.00079208739334222849 0 0.040911867646859355 -0.00066078774201488283 0 0.03993704410603708 -0.00079208739334222849 0 0.039155272148168524 -0.00066235774605631278 0 0.039248623500514661 -0.0011978958636802005 0 0.044312849095024705 0.001277022162575327 0 0.04110774052342217 -0.0002678272267065775 0 0.03993704410603708 -0.00079208739334222849 0 0.04039128059913151 -0.00023269384462990754 0 0.039155272148168524 -0.00066235774605631278 0 0.04039128059913151 -0.00023269384462990754 0 0.040614164660720868 0.00072495050243461348 0 0.039155272148168524 -0.00066235774605631278 0 0.047306990213953216 0.0015751981665562654 0 0.044448696356824198 0.0017158318866213633 0 0.043107989964837841 3.9651656858432464e-05 0 0.03993704410603708 -0.00079208739334222849 0 0.04039128059913151 -0.00023269384462990754 0 0.040911867646859355 -0.00066078774201488283 0 0.042042287816906054 -0.00060944423161022536 0 0.040911867646859355 -0.00066078774201488283 0 0.041532127106689187 0.00019902457407477454 0 0.04039128059913151 -0.00023269384462990754 0 0.040911867646859355 -0.00066078774201488283 0 0.041532127106689187 0.00019902457407477454 0 0.04039128059913151 -0.00023269384462990754 0 0.041532127106689187 0.00019902457407477454 0 0.040614164660720868 0.00072495050243461348 0 0.040614164660720868 0.00072495050243461348 0 0.042407262502929054 0.0020282524004324328 0 0.041890785846218366 0.00147861855562685 0 0.047306990213953216 0.0015751981665562654 0 0.048536556949476332 0.0032391009070241953 0 0.050852654166772149 0.0032847930200993959 0 0.041532127106689187 0.00019902457407477454 0 0.040614164660720868 0.00072495050243461348 0 0.041841502597090054 0.00083474587727959523 0 0.044312849095024705 0.001277022162575327 0 0.044968889948850205 0.0026328704013173629 0 0.040614164660720868 0.00072495050243461348 0 0.041890785846218366 0.00147861855562685 0 0.041841502597090054 0.00083474587727959523 0 0.047306990213953216 0.0015751981665562654 0 0.044448696356824198 0.0017158318866213633 0 0.045483873045924057 0.0033417227740140981 0 0.047306990213953216 0.0015751981665562654 0 0.045483873045924057 0.0033417227740140981 0 0.048536556949476332 0.0032391009070241953 0 0.051592363435209537 0.0039442614925691557 0 0.049703150731973109 0.0033176023968567157 0 0.04814153080426152 0.0025518398136576896 0 0.050941711900459347 0.0048857133212970062 0 0.046681626347919676 0.0041032372020727726 0 0.046706900070043564 0.0029061379636630157 0 0.051592363435209537 0.0039442614925691557 0 0.045483873045924057 0.0033417227740140981 0 0.048536556949476332 0.0032391009070241953 0 0.048924059571349744 0.0044850646702309389 0 0.048536556949476332 0.0032391009070241953 0 0.049872727842013742 0.0036361848056189502 0 0.050852654166772149 0.0032847930200993959 0 0.048536556949476332 0.0032391009070241953 0 0.048924059571349744 0.0044850646702309389 0 0.049872727842013742 0.0036361848056189502 0 0.048924059571349744 0.0044850646702309389 0 0.049872727842013742 0.0036361848056189502 0 0.05064501315791714 0.003822289258072856 0 0.050652296508743755 0.003582255578222083 0 0.050852654166772149 0.0032847930200993959 0 0.051019583882335677 0.0034336790033317886 0 0.042753905215586294 0.0022130732790670506 0 0.04241303216624976 0.0019530553220052347 0 0.044036962116781535 0.00374224696933951 0 0.049872727842013742 0.0036361848056189502 0 0.050652296508743755 0.003582255578222083 0 0.050852654166772149 0.0032847930200993959 0 0.049872727842013742 0.0036361848056189502 0 0.050652296508743755 0.003582255578222083 0 0.05064501315791714 0.003822289258072856 0 0.042753905215586294 0.0022130732790670506 0 0.042832882156294598 0.0018214156824521766 0 0.043432017075215795 0.0020257687617197422 0 0.042753905215586294 0.0022130732790670506 0 0.042832882156294598 0.0018214156824521766 0 0.042410042298192001 0.0019796617273538522 0 0.043748485148961777 0.0019725748762482961 0 0.044968889948850205 0.0026328704013173629 0 0.042832882156294598 0.0018214156824521766 0 0.042410042298192001 0.0019796617273538522 0 0.042475367013744873 0.0014203932365656048 0 0.042832882156294598 0.0018214156824521766 0 0.042475367013744873 0.0014203932365656048 0 0.043099266277712656 0.0014698574677114171 0 0.044968889948850205 0.0026328704013173629 0 0.042515883244717535 0.0010933931548558562 0 0.042410042298192001 0.0019796617273538522 0 0.041890785846218366 0.00147861855562685 0 0.042475367013744873 0.0014203932365656048 0 0.041890785846218366 0.00147861855562685 0 0.042475367013744873 0.0014203932365656048 0 0.041841502597090054 0.00083474587727959523 0 0.042475367013744873 0.0014203932365656048 0 0.042503265571058185 0.0006971218502534502 0 0.041841502597090054 0.00083474587727959523 0 0.042475367013744873 0.0014203932365656048 0 0.042958257585516746 0.0010004745775068727 0 0.042503265571058185 0.0006971218502534502 0 0.042475367013744873 0.0014203932365656048 0 0.042958257585516746 0.0010004745775068727 0 0.043099266277712656 0.0014698574677114171 0 0.042958257585516746 0.0010004745775068727 0 0.042503265571058185 0.0006971218502534502 0 0.043140727393702602 0.00044317391075063126 0 0.042581396313032871 -2.8161159203686814e-05 0 0.042503265571058185 0.0006971218502534502 0 0.043140727393702602 0.00044317391075063126 0 0.041532127106689187 0.00019902457407477454 0 0.042503265571058185 0.0006971218502534502 0 0.041841502597090054 0.00083474587727959523 0 0.043857477466856122 0.00028904953496887502 0 0.044431209127954764 0.00075406232210387255 0 0.044469974905375402 -0.00029674151082914244 0 0.043857477466856122 0.00028904953496887502 0 0.043515398277115348 0.0009053651189457275 0 0.044431209127954764 0.00075406232210387255 0 0.043857477466856122 0.00028904953496887502 0 0.043140727393702602 0.00044317391075063126 0 0.043515398277115348 0.0009053651189457275 0 0.042958257585516746 0.0010004745775068727 0 0.043140727393702602 0.00044317391075063126 0 0.043515398277115348 0.0009053651189457275 0 0.043515398277115348 0.0009053651189457275 0 0.043099266277712656 0.0014698574677114171 0 0.043904393770047782 0.0014997476773870885 0 0.042958257585516746 0.0010004745775068727 0 0.043515398277115348 0.0009053651189457275 0 0.043099266277712656 0.0014698574677114171 0 0.043515398277115348 0.0009053651189457275 0 0.043904393770047782 0.0014997476773870885 0 0.044431209127954764 0.00075406232210387255 0 0.043904393770047782 0.0014997476773870885 0 0.044162927344691592 0.0021995410902116048 0 0.044807363954062256 0.0016564898310324585 0 0.043904393770047782 0.0014997476773870885 0 0.043432017075215795 0.0020257687617197422 0 0.044162927344691592 0.0021995410902116048 0 0.043099266277712656 0.0014698574677114171 0 0.043904393770047782 0.0014997476773870885 0 0.043432017075215795 0.0020257687617197422 0 0.042832882156294598 0.0018214156824521766 0 0.043099266277712656 0.0014698574677114171 0 0.043432017075215795 0.0020257687617197422 0 0.042753905215586294 0.0022130732790670506 0 0.043432017075215795 0.0020257687617197422 0 0.04384711843482815 0.0025844269207356825 0 0.044162927344691592 0.0021995410902116048 0 0.04384711843482815 0.0025844269207356825 0 0.044877983531653419 0.0027472346900496362 0 0.043432017075215795 0.0020257687617197422 0 0.044162927344691592 0.0021995410902116048 0 0.04384711843482815 0.0025844269207356825 0 0.044807363954062256 0.0016564898310324585 0 0.045833072998725854 0.0022062713264301525 0 0.045708466518561822 0.00067534098584030454 0 0.044162927344691592 0.0021995410902116048 0 0.044807363954062256 0.0016564898310324585 0 0.044877983531653419 0.0027472346900496362 0 0.044807363954062256 0.0016564898310324585 0 0.045833072998725854 0.0022062713264301525 0 0.044877983531653419 0.0027472346900496362 0 0.045833072998725854 0.0022062713264301525 0 0.04705035690812686 0.0017683389103288268 0 0.045708466518561822 0.00067534098584030454 0 0.04705035690812686 0.0017683389103288268 0 0.045708466518561822 0.00067534098584030454 0 0.047199248104813712 9.1647689190710129e-05 0 0.045708466518561822 0.00067534098584030454 0 0.044431209127954764 0.00075406232210387255 0 0.044469974905375402 -0.00029674151082914244 0 0.044807363954062256 0.0016564898310324585 0 0.045708466518561822 0.00067534098584030454 0 0.044431209127954764 0.00075406232210387255 0 0.043904393770047782 0.0014997476773870885 0 0.044807363954062256 0.0016564898310324585 0 0.044431209127954764 0.00075406232210387255 0 0.048506211758531294 0.0011136316352274927 0 0.048963457073904475 0.0034160130671926428 0 0.050327816498132144 0.0013138505730245166 0 0.04705035690812686 0.0017683389103288268 0 0.048506211758531294 0.0011136316352274927 0 0.048963457073904475 0.0034160130671926428 0 0.04705035690812686 0.0017683389103288268 0 0.048506211758531294 0.0011136316352274927 0 0.047199248104813712 9.1647689190710129e-05 0 0.048506211758531294 0.0011136316352274927 0 0.047199248104813712 9.1647689190710129e-05 0 0.048994854448915937 -0.00032462525035599829 0 0.048506211758531294 0.0011136316352274927 0 0.048994854448915937 -0.00032462525035599829 0 0.050327816498132144 0.0013138505730245166 0 0.048994854448915937 -0.00032462525035599829 0 0.048160405681771455 -0.0023699522513366249 0 0.050594536426615488 -0.001159907382391287 0 0.047199248104813712 9.1647689190710129e-05 0 0.048994854448915937 -0.00032462525035599829 0 0.047233494103580541 -0.0013890107312610777 0 0.047233494103580541 -0.0013890107312610777 0 0.048160405681771455 -0.0023699522513366249 0 0.046441746758742276 -0.0028635590756825365 0 0.048994854448915937 -0.00032462525035599829 0 0.047233494103580541 -0.0013890107312610777 0 0.048160405681771455 -0.0023699522513366249 0 0.044469974905375402 -0.00029674151082914244 0 0.045874275935342608 -0.00065926554645815393 0 0.04476854754784089 -0.0012488418621945372 0 0.045708466518561822 0.00067534098584030454 0 0.044469974905375402 -0.00029674151082914244 0 0.045874275935342608 -0.00065926554645815393 0 0.043697217576334747 -0.00092573897384648604 0 0.044469974905375402 -0.00029674151082914244 0 0.04476854754784089 -0.0012488418621945372 0 0.045708466518561822 0.00067534098584030454 0 0.047199248104813712 9.1647689190710129e-05 0 0.045874275935342608 -0.00065926554645815393 0 0.047199248104813712 9.1647689190710129e-05 0 0.047233494103580541 -0.0013890107312610777 0 0.045874275935342608 -0.00065926554645815393 0 0.047233494103580541 -0.0013890107312610777 0 0.045874275935342608 -0.00065926554645815393 0 0.04584820163445117 -0.001661501171455368 0 0.047233494103580541 -0.0013890107312610777 0 0.04584820163445117 -0.001661501171455368 0 0.046441746758742276 -0.0028635590756825365 0 0.04584820163445117 -0.001661501171455368 0 0.04476854754784089 -0.0012488418621945372 0 0.04500972500928295 -0.0022423102027164161 0 0.045874275935342608 -0.00065926554645815393 0 0.04584820163445117 -0.001661501171455368 0 0.04476854754784089 -0.0012488418621945372 0 0.043996586094445282 -0.0017607496657947627 0 0.04476854754784089 -0.0012488418621945372 0 0.04500972500928295 -0.0022423102027164161 0 0.044137047920833242 -0.0025829429012401536 0 0.04500972500928295 -0.0022423102027164161 0 0.044815528513506744 -0.0032838899400656658 0 0.043996586094445282 -0.0017607496657947627 0 0.044137047920833242 -0.0025829429012401536 0 0.04500972500928295 -0.0022423102027164161 0 0.04584820163445117 -0.001661501171455368 0 0.04500972500928295 -0.0022423102027164161 0 0.046441746758742276 -0.0028635590756825365 0 0.04500972500928295 -0.0022423102027164161 0 0.046441746758742276 -0.0028635590756825365 0 0.044815528513506744 -0.0032838899400656658 0 0.046441746758742276 -0.0028635590756825365 0 0.044815528513506744 -0.0032838899400656658 0 0.045852074812378553 -0.0041241394546037242 0 0.044815528513506744 -0.0032838899400656658 0 0.044838466732935039 -0.0040597540954578262 0 0.045852074812378553 -0.0041241394546037242 0 0.044050130795716305 -0.0040476944355298796 0 0.044815528513506744 -0.0032838899400656658 0 0.044838466732935039 -0.0040597540954578262 0 0.044050130795716305 -0.0040476944355298796 0 0.044815528513506744 -0.0032838899400656658 0 0.043694452855964669 -0.0032824779273853671 0 0.044137047920833242 -0.0025829429012401536 0 0.044815528513506744 -0.0032838899400656658 0 0.043694452855964669 -0.0032824779273853671 0 0.048160405681771455 -0.0023699522513366249 0 0.048024209957127521 -0.0029900116297116252 0 0.048300856703315027 -0.0025979112259404166 0 0.048160405681771455 -0.0023699522513366249 0 0.046441746758742276 -0.0028635590756825365 0 0.048024209957127521 -0.0029900116297116252 0 0.046484171622609281 -0.0028867909291103743 0 0.047407504800046914 -0.0036548638335476978 0 0.046441746758742276 -0.0028635590756825365 0 0.047669803857852043 -0.0034727459972979649 0 0.048024209957127521 -0.0029900116297116252 0 0.046441746758742276 -0.0028635590756825365 0 0.047204118284517392 -0.0039341781224275854 0 0.045852074812378553 -0.0041241394546037242 0 0.047669803857852043 -0.0034727459972979649 0 0.048024209957127521 -0.0029900116297116252 0 0.048128675553515535 -0.0033751168614882831 0 0.047669803857852043 -0.0034727459972979649 0 0.048194313444864953 -0.0036862101623913041 0 0.048128675553515535 -0.0033751168614882831 0 0.047204118284517392 -0.0039341781224275854 0 0.047538754525559022 -0.0042934084095519048 0 0.047824881855214357 -0.0041264309497900959 0 0.047204118284517392 -0.0039341781224275854 0 0.046911779986795049 -0.0042434367707258214 0 0.047538754525559022 -0.0042934084095519048 0 0.047407504800046914 -0.0036548638335476978 0 0.048023656300361095 -0.003932378786428257 0 0.04681500387181229 -0.0040889994020996507 0 0.047957003365164522 -0.0051523491325223911 0 0.046911779986795049 -0.0042434367707258214 0 0.045852074812378553 -0.0041241394546037242 0 0.046093161499423219 -0.0048179715950320574 0 0.047204118284517392 -0.0039341781224275854 0 0.046911779986795049 -0.0042434367707258214 0 0.045852074812378553 -0.0041241394546037242 0 0.046911779986795049 -0.0042434367707258214 0 0.046546860871122475 -0.0053372324474342267 0 0.046093161499423219 -0.0048179715950320574 0 0.046546860871122475 -0.0053372324474342267 0 0.046093161499423219 -0.0048179715950320574 0 0.045849892385684946 -0.0058638539505882969 0 0.046440487952280306 -0.0062748733584713935 0 0.046546860871122475 -0.0053372324474342267 0 0.045849892385684946 -0.0058638539505882969 0 0.046913362350588891 -0.0058561925263737923 0 0.046546860871122475 -0.0053372324474342267 0 0.047461087430541657 -0.0053818462828239952 0 0.046440487952280306 -0.0062748733584713935 0 0.046913362350588891 -0.0058561925263737923 0 0.046546860871122475 -0.0053372324474342267 0 0.046911779986795049 -0.0042434367707258214 0 0.046546860871122475 -0.0053372324474342267 0 0.047461087430541657 -0.0053818462828239952 0 0.04719178540747538 -0.0064313479622230205 0 0.046913362350588891 -0.0058561925263737923 0 0.047461087430541657 -0.0053818462828239952 0 0.047957003365164522 -0.0051523491325223911 0 0.042465115170951077 -0.0057548356369008583 0 0.044630636356204755 -0.0047914875219388729 0 0.043755441863897321 -0.0055295430920180291 0 0.043555336898562252 -0.0048672712990992101 0 0.044050130795716305 -0.0040476944355298796 0 0.044630636356204755 -0.0047914875219388729 0 0.043555336898562252 -0.0048672712990992101 0 0.044050130795716305 -0.0040476944355298796 0 0.044630636356204755 -0.0047914875219388729 0 0.044838466732935039 -0.0040597540954578262 0 0.044630636356204755 -0.0047914875219388729 0 0.044838466732935039 -0.0040597540954578262 0 0.045852074812378553 -0.0041241394546037242 0 0.044630636356204755 -0.0047914875219388729 0 0.045852074812378553 -0.0041241394546037242 0 0.045328313337378551 -0.005208820986603916 0 0.045852074812378553 -0.0041241394546037242 0 0.046093161499423219 -0.0048179715950320574 0 0.045328313337378551 -0.005208820986603916 0 0.046093161499423219 -0.0048179715950320574 0 0.045328313337378551 -0.005208820986603916 0 0.045849892385684946 -0.0058638539505882969 0 0.045069410095002392 -0.0060931865888716749 0 0.045328313337378551 -0.005208820986603916 0 0.045849892385684946 -0.0058638539505882969 0 0.045069410095002392 -0.0060931865888716749 0 0.045328313337378551 -0.005208820986603916 0 0.04452014726184314 -0.0057212190717887794 0 0.044630636356204755 -0.0047914875219388729 0 0.045328313337378551 -0.005208820986603916 0 0.04452014726184314 -0.0057212190717887794 0 0.044630636356204755 -0.0047914875219388729 0 0.04452014726184314 -0.0057212190717887794 0 0.043755441863897321 -0.0055295430920180291 0 0.043698499683835615 -0.0060998308172549249 0 0.04452014726184314 -0.0057212190717887794 0 0.043755441863897321 -0.0055295430920180291 0 0.043380270328015877 -0.0059476266156185424 0 0.042973717085891858 -0.0057044429872361935 0 0.043755441863897321 -0.0055295430920180291 0 0.043698499683835615 -0.0060998308172549249 0 0.043380270328015877 -0.0059476266156185424 0 0.043755441863897321 -0.0055295430920180291 0 0.043098212615090566 -0.0064460824236116914 0 0.043380270328015877 -0.0059476266156185424 0 0.042973717085891858 -0.0057044429872361935 0 0.042973717085891858 -0.0057044429872361935 0 0.043555336898562252 -0.0048672712990992101 0 0.04285534879505034 -0.0048482771493078445 0 0.042973717085891858 -0.0057044429872361935 0 0.043755441863897321 -0.0055295430920180291 0 0.043555336898562252 -0.0048672712990992101 0 0.043098212615090566 -0.0064460824236116914 0 0.042973717085891858 -0.0057044429872361935 0 0.041877908477194921 -0.0057770863403472207 0 0.042973717085891858 -0.0057044429872361935 0 0.041877908477194921 -0.0057770863403472207 0 0.042394529929651988 -0.0051437806441573166 0 0.042973717085891858 -0.0057044429872361935 0 0.042394529929651988 -0.0051437806441573166 0 0.04285534879505034 -0.0048482771493078445 0 0.041877908477194921 -0.0057770863403472207 0 0.041867237370397652 -0.0048198373104219585 0 0.042394529929651988 -0.0051437806441573166 0 0.041877908477194921 -0.0057770863403472207 0 0.041867237370397652 -0.0048198373104219585 0 0.041321806113447025 -0.0046474032137042353 0 0.041867237370397652 -0.0048198373104219585 0 0.042394529929651988 -0.0051437806441573166 0 0.042378141955821964 -0.0044958549366201925 0 0.042394529929651988 -0.0051437806441573166 0 0.042378141955821964 -0.0044958549366201925 0 0.04285534879505034 -0.0048482771493078445 0 0.042378141955821964 -0.0044958549366201925 0 0.043066148472891155 -0.0041585551804145483 0 0.042314889149032309 -0.0038936311090970567 0 0.042378141955821964 -0.0044958549366201925 0 0.04285534879505034 -0.0048482771493078445 0 0.043066148472891155 -0.0041585551804145483 0 0.041867237370397652 -0.0048198373104219585 0 0.042378141955821964 -0.0044958549366201925 0 0.041806259370478854 -0.0042227090086474966 0 0.042378141955821964 -0.0044958549366201925 0 0.041806259370478854 -0.0042227090086474966 0 0.042314889149032309 -0.0038936311090970567 0 0.041867237370397652 -0.0048198373104219585 0 0.041806259370478854 -0.0042227090086474966 0 0.041321806113447025 -0.0046474032137042353 0 0.043555336898562252 -0.0048672712990992101 0 0.04285534879505034 -0.0048482771493078445 0 0.043066148472891155 -0.0041585551804145483 0 0.044050130795716305 -0.0040476944355298796 0 0.043555336898562252 -0.0048672712990992101 0 0.043066148472891155 -0.0041585551804145483 0 0.044050130795716305 -0.0040476944355298796 0 0.043066148472891155 -0.0041585551804145483 0 0.043694452855964669 -0.0032824779273853671 0 0.043066148472891155 -0.0041585551804145483 0 0.043694452855964669 -0.0032824779273853671 0 0.042596226692687214 -0.0032038724091682539 0 0.043066148472891155 -0.0041585551804145483 0 0.042314889149032309 -0.0038936311090970567 0 0.042596226692687214 -0.0032038724091682539 0 0.042314889149032309 -0.0038936311090970567 0 0.0417431427310853 -0.0035194941696973939 0 0.042596226692687214 -0.0032038724091682539 0 0.041806259370478854 -0.0042227090086474966 0 0.042314889149032309 -0.0038936311090970567 0 0.0417431427310853 -0.0035194941696973939 0 0.041806259370478854 -0.0042227090086474966 0 0.0417431427310853 -0.0035194941696973939 0 0.041197543099807138 -0.0039396476113119161 0 0.0417431427310853 -0.0035194941696973939 0 0.041752731548130965 -0.0028452410616531506 0 0.042596226692687214 -0.0032038724091682539 0 0.042596226692687214 -0.0032038724091682539 0 0.042294077751941855 -0.0023820654245331288 0 0.043137621515389822 -0.0023224471465918589 0 0.041752731548130965 -0.0028452410616531506 0 0.042596226692687214 -0.0032038724091682539 0 0.042294077751941855 -0.0023820654245331288 0 0.041752731548130965 -0.0028452410616531506 0 0.042294077751941855 -0.0023820654245331288 0 0.041273674260005028 -0.0020945927242727318 0 0.042237367805372489 -0.0017574034221362444 0 0.042294077751941855 -0.0023820654245331288 0 0.041273674260005028 -0.0020945927242727318 0 0.042237367805372489 -0.0017574034221362444 0 0.042294077751941855 -0.0023820654245331288 0 0.043137621515389822 -0.0023224471465918589 0 0.043996586094445282 -0.0017607496657947627 0 0.044137047920833242 -0.0025829429012401536 0 0.043137621515389822 -0.0023224471465918589 0 0.044137047920833242 -0.0025829429012401536 0 0.043694452855964669 -0.0032824779273853671 0 0.043137621515389822 -0.0023224471465918589 0 0.043694452855964669 -0.0032824779273853671 0 0.042596226692687214 -0.0032038724091682539 0 0.043137621515389822 -0.0023224471465918589 0 0.040194734799075191 -0.0014016335306406842 0 0.039943129356152428 -0.0021844887469391321 0 0.039101579594107851 -0.0018520597039633348 0 0.039943129356152428 -0.0021844887469391321 0 0.038794558931680073 -0.0028609393594470575 0 0.039101579594107851 -0.0018520597039633348 0 0.040194734799075191 -0.0014016335306406842 0 0.039943129356152428 -0.0021844887469391321 0 0.041273674260005028 -0.0020945927242727318 0 0.041752731548130965 -0.0028452410616531506 0 0.041273674260005028 -0.0020945927242727318 0 0.040819704980706466 -0.0030455703101611802 0 0.039943129356152428 -0.0021844887469391321 0 0.041273674260005028 -0.0020945927242727318 0 0.040819704980706466 -0.0030455703101611802 0 0.040819704980706466 -0.0030455703101611802 0 0.040475448341381573 -0.0037640244243141966 0 0.038794558931680073 -0.0028609393594470575 0 0.0417431427310853 -0.0035194941696973939 0 0.041752731548130965 -0.0028452410616531506 0 0.040819704980706466 -0.0030455703101611802 0 0.0417431427310853 -0.0035194941696973939 0 0.040819704980706466 -0.0030455703101611802 0 0.041197543099807138 -0.0039396476113119161 0 0.040819704980706466 -0.0030455703101611802 0 0.041197543099807138 -0.0039396476113119161 0 0.040475448341381573 -0.0037640244243141966 0 0.041197543099807138 -0.0039396476113119161 0 0.040475448341381573 -0.0037640244243141966 0 0.040903026361106723 -0.0042774409775359259 0 0.039943129356152428 -0.0021844887469391321 0 0.040819704980706466 -0.0030455703101611802 0 0.038794558931680073 -0.0028609393594470575 0 0.040475448341381573 -0.0037640244243141966 0 0.038794558931680073 -0.0028609393594470575 0 0.040564022505835212 -0.0047168405510063334 0 0.038582101769847388 -0.0028609947055303546 0 0.038318883842391932 -0.0031953399833666847 0 0.035783135442777912 -0.0016581582812085086 0 0.034771928056785605 -0.0020009099928856217 0 0.033750634886131746 -0.0017613824234057247 0 0.035835085274831015 -0.0016935105038408341 0 0.036374120126159912 -0.0020375278990481687 0 0.035783135442777912 -0.0016581582812085086 0 0.035928970747580856 -0.0017507504916285384 0 0.039079770040804242 -0.0022501464638559942 0 0.038794558931680073 -0.0028609393594470575 0 0.035928970747580856 -0.0017507504916285384 0 0.039079770040804242 -0.0022501464638559942 0 0.035435666101733335 -0.0019870419998510359 0 0.035783135442777912 -0.0016581582812085086 0 0.035928970747580856 -0.0017507504916285384 0 0.041877908477194921 -0.0057770863403472207 0 0.041321806113447025 -0.0046474032137042353 0 0.040564022505835212 -0.0047168405510063334 0 0.041806259370478854 -0.0042227090086474966 0 0.041197543099807138 -0.0039396476113119161 0 0.041321806113447025 -0.0046474032137042353 0 0.041197543099807138 -0.0039396476113119161 0 0.041321806113447025 -0.0046474032137042353 0 0.040903026361106723 -0.0042774409775359259 0 0.041321806113447025 -0.0046474032137042353 0 0.040903026361106723 -0.0042774409775359259 0 0.040564022505835212 -0.0047168405510063334 0 0.040475448341381573 -0.0037640244243141966 0 0.040903026361106723 -0.0042774409775359259 0 0.040564022505835212 -0.0047168405510063334 0 0.038429422240118423 -0.0036967906693668269 0 0.038318883842391932 -0.0031953399833666847 0 0.035435666101733335 -0.0019870419998510359 0 0.035783135442777912 -0.0016581582812085086 0 0.03504706070424262 -0.0021628018263777178 0 0.035783135442777912 -0.0016581582812085086 0 0.03504706070424262 -0.0021628018263777178 0 0.034771928056785605 -0.0020009099928856217 0 0.035361625373011511 -0.0025044552774564476 0 0.035435666101733335 -0.0019870419998510359 0 0.03504706070424262 -0.0021628018263777178 0 0.03504706070424262 -0.0021628018263777178 0 0.034771928056785605 -0.0020009099928856217 0 0.034316592626444549 -0.0022510327845344257 0 0.034398271993181274 -0.0025447485218336599 0 0.03504706070424262 -0.0021628018263777178 0 0.034316592626444549 -0.0022510327845344257 0 0.034771928056785605 -0.0020009099928856217 0 0.034316592626444549 -0.0022510327845344257 0 0.033750634886131746 -0.0017613824234057247 0 0.033903437708991895 -0.0025842666556326888 0 0.034316592626444549 -0.0022510327845344257 0 0.033705269250645632 -0.0022896641861345616 0 0.034316592626444549 -0.0022510327845344257 0 0.033705269250645632 -0.0022896641861345616 0 0.033750634886131746 -0.0017613824234057247 0 0.033750634886131746 -0.0017613824234057247 0 0.033381753970162471 -0.0023245646431494776 0 0.033464106851381105 -0.0023343063555152552 0 0.036374120126159912 -0.0020375278990481687 0 0.035596928865469182 -0.0025490347496309185 0 0.033502781094710707 -0.0024838829717094024 0 0.033705269250645632 -0.0022896641861345616 0 0.033381753970162471 -0.0023245646431494776 0 0.033705269250645632 -0.0022896641861345616 0 0.033750634886131746 -0.0017613824234057247 0 0.033381753970162471 -0.0023245646431494776 0 0.033381753970162471 -0.0023245646431494776 0 0.033425325406096953 -0.0023735104473785553 0 0.033464106851381105 -0.0023343063555152552 0 0.033224517189174851 -0.0024663769929605577 0 0.033381753970162471 -0.0023245646431494776 0 0.033425325406096953 -0.0023735104473785553 0 0.033425325406096953 -0.0023735104473785553 0 0.033464106851381105 -0.0023343063555152552 0 0.033836706210933258 -0.0024736973285000925 0 0.033560486631808009 -0.0025483144084712502 0 0.033425325406096953 -0.0023735104473785553 0 0.033836706210933258 -0.0024736973285000925 0 0.033464106851381105 -0.0023343063555152552 0 0.033836706210933258 -0.0024736973285000925 0 0.03445955136756497 -0.0024533955384797783 0 0.035596928865469182 -0.0025490347496309185 0 0.034512883620453377 -0.0024784581074988074 0 0.037752868289882634 -0.0028877048462325546 0 0.035927215155143119 -0.0011933817608899095 0 0.037749563696653735 -0.0013980083877678663 0 0.037752868289882634 -0.0028877048462325546 0 0.037749563696653735 -0.0013980083877678663 0 0.038825230665083782 -0.0020954507817947999 0 0.037752868289882634 -0.0028877048462325546 0 0.035927215155143119 -0.0011933817608899095 0 0.03445955136756497 -0.0024533955384797783 0 0.035927215155143119 -0.0011933817608899095 0 0.035264583313296467 0.00022897544299981088 0 0.036777860397681487 -0.0001389431624386728 0 0.035927215155143119 -0.0011933817608899095 0 0.037749563696653735 -0.0013980083877678663 0 0.036777860397681487 -0.0001389431624386728 0 0.037749563696653735 -0.0013980083877678663 0 0.038807127490793576 -0.0011342025332357882 0 0.037939104286940827 -0.00025933956400728188 0 0.037749563696653735 -0.0013980083877678663 0 0.038825230665083782 -0.0020954507817947999 0 0.038807127490793576 -0.0011342025332357882 0 0.038794558931680073 -0.0028609393594470575 0 0.039101579594107851 -0.0018520597039633348 0 0.038825230665083782 -0.0020954507817947999 0 0.039101579594107851 -0.0018520597039633348 0 0.038825230665083782 -0.0020954507817947999 0 0.038807127490793576 -0.0011342025332357882 0 0.038794558931680073 -0.0028609393594470575 0 0.039079770040804242 -0.0022501464638559942 0 0.038825230665083782 -0.0020954507817947999 0 0.039079770040804242 -0.0022501464638559942 0 0.037752868289882634 -0.0028877048462325546 0 0.038825230665083782 -0.0020954507817947999 0 0.030513102717573484 -0.0018338652454772328 0 0.030478776799215984 -0.00218524537757211 0 0.030794718650620473 -0.0021814603198066045 0 0.030569222517222411 -0.0018508578936214052 0 0.031626691101497482 -0.0024779089455003915 0 0.030513102717573484 -0.0018338652454772328 0 0.032528135535953843 -0.0028982874735337615 0 0.032190013362726956 -0.0016601006080826737 0 0.030478776799215984 -0.00218524537757211 0 0.030645619600138459 -0.0023668627430545475 0 0.030794718650620473 -0.0021814603198066045 0 0.032393928918629529 -0.0025458865835543496 0 0.031626691101497482 -0.0024779089455003915 0 0.030961589437193026 -0.0024662056802823656 0 0.030645619600138459 -0.0023668627430545475 0 0.030794718650620473 -0.0021814603198066045 0 0.032528135535953843 -0.0028982874735337615 0 0.032945773955775838 -0.0022434779385356661 0 0.032190013362726956 -0.0016601006080826737 0 0.032528135535953843 -0.0028982874735337615 0 0.032945773955775838 -0.0022434779385356661 0 0.033607923967928194 -0.0026133230899518028 0 0.033607923967928194 -0.0026133230899518028 0 0.03445955136756497 -0.0024533955384797783 0 0.033369960386027672 -0.0015094365464152976 0 0.032945773955775838 -0.0022434779385356661 0 0.033607923967928194 -0.0026133230899518028 0 0.033369960386027672 -0.0015094365464152976 0 0.033505214032485534 -0.0028179894244846188 0 0.032528135535953843 -0.0028982874735337615 0 0.033607923967928194 -0.0026133230899518028 0 0.033505214032485534 -0.0028179894244846188 0 0.033607923967928194 -0.0026133230899518028 0 0.033562221161595691 -0.0026707991656285354 0 0.033607923967928194 -0.0026133230899518028 0 0.033562221161595691 -0.0026707991656285354 0 0.033836706210933258 -0.0024736973285000925 0 0.033560486631808009 -0.0025483144084712502 0 0.033562221161595691 -0.0026707991656285354 0 0.033836706210933258 -0.0024736973285000925 0 0.033607923967928194 -0.0026133230899518028 0 0.033836706210933258 -0.0024736973285000925 0 0.03445955136756497 -0.0024533955384797783 0 0.03445955136756497 -0.0024533955384797783 0 0.034538491976556028 -0.0010387899230997154 0 0.033369960386027672 -0.0015094365464152976 0 0.035927215155143119 -0.0011933817608899095 0 0.03445955136756497 -0.0024533955384797783 0 0.034538491976556028 -0.0010387899230997154 0 0.034538491976556028 -0.0010387899230997154 0 0.033875922979966153 -7.827218975568626e-05 0 0.035264583313296467 0.00022897544299981088 0 0.035927215155143119 -0.0011933817608899095 0 0.034538491976556028 -0.0010387899230997154 0 0.035264583313296467 0.00022897544299981088 0 0.033875922979966153 -7.827218975568626e-05 0 0.033369960386027672 -0.0015094365464152976 0 0.032868228940098922 -0.00020125006650996904 0 0.034538491976556028 -0.0010387899230997154 0 0.033875922979966153 -7.827218975568626e-05 0 0.033369960386027672 -0.0015094365464152976 0 0.033369960386027672 -0.0015094365464152976 0 0.032190013362726956 -0.0016601006080826737 0 0.03213743430228428 -0.00078264437888708055 0 0.032945773955775838 -0.0022434779385356661 0 0.033369960386027672 -0.0015094365464152976 0 0.032190013362726956 -0.0016601006080826737 0 0.033369960386027672 -0.0015094365464152976 0 0.03213743430228428 -0.00078264437888708055 0 0.032868228940098922 -0.00020125006650996904 0 0.03213743430228428 -0.00078264437888708055 0 0.032868228940098922 -0.00020125006650996904 0 0.031599886325729735 0.0005548926355445164 0 0.03213743430228428 -0.00078264437888708055 0 0.03110670914280924 -0.00056759907188337264 0 0.031599886325729735 0.0005548926355445164 0 0.032190013362726956 -0.0016601006080826737 0 0.03213743430228428 -0.00078264437888708055 0 0.03110670914280924 -0.00056759907188337264 0 0.030513102717573484 -0.0018338652454772328 0 0.032190013362726956 -0.0016601006080826737 0 0.03110670914280924 -0.00056759907188337264 0 0.030313454135685626 0.002598454376919281 0 0.032243693576568352 0.0018741041761518467 0 0.032605974396967254 0.0034172463600361017 0 0.030313454135685626 0.002598454376919281 0 0.031599886325729735 0.0005548926355445164 0 0.032243693576568352 0.0018741041761518467 0 0.029688452861792239 0.0008353806190943082 0 0.03110670914280924 -0.00056759907188337264 0 0.031599886325729735 0.0005548926355445164 0 0.031599886325729735 0.0005548926355445164 0 0.03307446958895692 0.0009136818128027413 0 0.032243693576568352 0.0018741041761518467 0 0.032868228940098922 -0.00020125006650996904 0 0.031599886325729735 0.0005548926355445164 0 0.03307446958895692 0.0009136818128027413 0 0.033875922979966153 -7.827218975568626e-05 0 0.032868228940098922 -0.00020125006650996904 0 0.03307446958895692 0.0009136818128027413 0 0.03307446958895692 0.0009136818128027413 0 0.032243693576568352 0.0018741041761518467 0 0.033445702573105002 0.0023532735873291314 0 0.032243693576568352 0.0018741041761518467 0 0.033445702573105002 0.0023532735873291314 0 0.032605974396967254 0.0034172463600361017 0 0.033445702573105002 0.0023532735873291314 0 0.034518258741349263 0.002235431980390465 0 0.033896284496822901 0.0032466307160643696 0 0.034518258741349263 0.002235431980390465 0 0.03525802547321899 0.0029819591825692646 0 0.033896284496822901 0.0032466307160643696 0 0.033445702573105002 0.0023532735873291314 0 0.034518258741349263 0.002235431980390465 0 0.034316703851565412 0.0011576301573624555 0 0.03307446958895692 0.0009136818128027413 0 0.033445702573105002 0.0023532735873291314 0 0.034316703851565412 0.0011576301573624555 0 0.033875922979966153 -7.827218975568626e-05 0 0.034316703851565412 0.0011576301573624555 0 0.035264583313296467 0.00022897544299981088 0 0.033875922979966153 -7.827218975568626e-05 0 0.03307446958895692 0.0009136818128027413 0 0.034316703851565412 0.0011576301573624555 0 0.035264583313296467 0.00022897544299981088 0 0.035536812122509878 0.0017054037096755415 0 0.036342003149388867 0.0009920965676679743 0 0.034316703851565412 0.0011576301573624555 0 0.035264583313296467 0.00022897544299981088 0 0.035536812122509878 0.0017054037096755415 0 0.034518258741349263 0.002235431980390465 0 0.034316703851565412 0.0011576301573624555 0 0.035536812122509878 0.0017054037096755415 0 0.034518258741349263 0.002235431980390465 0 0.035536812122509878 0.0017054037096755415 0 0.03525802547321899 0.0029819591825692646 0 0.035536812122509878 0.0017054037096755415 0 0.035915529393859377 0.0026224421069320956 0 0.03525802547321899 0.0029819591825692646 0 0.035915529393859377 0.0026224421069320956 0 0.03525802547321899 0.0029819591825692646 0 0.035713594405911972 0.0033027212652912089 0 0.03525802547321899 0.0029819591825692646 0 0.035713594405911972 0.0033027212652912089 0 0.03548683213442521 0.0032001373775819297 0 0.035713594405911972 0.0033027212652912089 0 0.035799181544927131 0.0032955320727829042 0 0.035743740476336744 0.0032710980979586369 0 0.035713594405911972 0.0033027212652912089 0 0.035645913150681961 0.0032630990029433472 0 0.035743740476336744 0.0032710980979586369 0 0.035713594405911972 0.0033027212652912089 0 0.035645913150681961 0.0032630990029433472 0 0.03548683213442521 0.0032001373775819297 0 0.039467290959371633 0.0038981137060177234 0 0.042976773204694493 0.0022515804622863043 0 0.035645913150681961 0.0032630990029433472 0 0.035521955801357044 0.0032267001087149323 0 0.03548683213442521 0.0032001373775819297 0 0.050211600680937621 0.0022106612591365322 0 0.050607353642324729 0.0016170473704505697 0 0.050324440062853526 0.0013351661561046052 0 0.035645913150681961 0.0032630990029433472 0 0.035521955801357044 0.0032267001087149323 0 0.03581400509479632 0.0032562348155094041 0 0.03525802547321899 0.0029819591825692646 0 0.035521955801357044 0.0032267001087149323 0 0.03548683213442521 0.0032001373775819297 0 0.034272534979276667 0.0038709410464716734 0 0.039467290959371633 0.0038981137060177234 0 0.03525802547321899 0.0029819591825692646 0 0.033986637427644684 0.0041604450032113232 0 0.033896284496822901 0.0032466307160643696 0 0.033194287040988195 0.0046414337220177888 0 0.033896284496822901 0.0032466307160643696 0 0.033482507620974981 0.0040917265788984643 0 0.039467290959371633 0.0038981137060177234 0 0.03575199889348505 0.0033166156533350208 0 0.032605974396967254 0.0034172463600361017 0 0.034186568709686983 0.0048755443072401716 0 0.031169829922829736 0.0040787813339528125 0 0.033445702573105002 0.0023532735873291314 0 0.033896284496822901 0.0032466307160643696 0 0.033482507620974981 0.0040917265788984643 0 0.033445702573105002 0.0023532735873291314 0 0.033482507620974981 0.0040917265788984643 0 0.032605974396967254 0.0034172463600361017 0 0.033482507620974981 0.0040917265788984643 0 0.032605974396967254 0.0034172463600361017 0 0.034186568709686983 0.0048755443072401716 0 0.033194287040988195 0.0046414337220177888 0 0.033482507620974981 0.0040917265788984643 0 0.034186568709686983 0.0048755443072401716 0 0.039467290959371633 0.0038981137060177234 0 0.043839481143101149 0.0030041716719466064 0 0.033194287040988195 0.0046414337220177888 0 0.034186568709686983 0.0048755443072401716 0 0.035769501736691377 0.0047851851766592722 0 0.050211600680937621 0.0022106612591365322 0 0.050607353642324729 0.0016170473704505697 0 0.051074060350382491 0.0016307298109384482 0 0.050607353642324729 0.0016170473704505697 0 0.051074060350382491 0.0016307298109384482 0 0.050825987717969458 0.0013201260206799313 0 0.038481260490120288 0.0068098254124433757 0 0.034186568709686983 0.0048755443072401716 0 0.035769501736691377 0.0047851851766592722 0 0.034335861184080746 0.0061844781933100817 0 0.034283317071513879 0.0051942145797515922 0 0.030127008968293068 0.0059229361774343183 0 0.034186568709686983 0.0048755443072401716 0 0.031169829922829736 0.0040787813339528125 0 0.030313454135685626 0.002598454376919281 0 0.032605974396967254 0.0034172463600361017 0 0.031169829922829736 0.0040787813339528125 0 0.038986794833137099 0.00076463145345700306 0 0.039526315838795956 0.0023657613179225122 0 0.040864370686899826 0.0021732059813276525 0 0.038986794833137099 0.00076463145345700306 0 0.041214226367701751 0.0010790423019891079 0 0.041703646868087578 0.0020682487510085964 0 0.039006198288719408 0.00078595121847571529 0 0.042291839342432962 0.0014789236599693791 0 0.038986794833137099 0.00076463145345700306 0 0.038354041105341241 0.0021952634087218392 0 0.039526315838795956 0.0023657613179225122 0 0.041214226367701751 0.0010790423019891079 0 0.043107989964837841 3.9651656858432464e-05 0 0.041909599813710834 0.0019120151176670306 0 0.041812882098506206 0.0012241608996389482 0 0.042291839342432962 0.0014789236599693791 0 0.044448696356824198 0.0017158318866213633 0 0.043107989964837841 3.9651656858432464e-05 0 0.041909599813710834 0.0019120151176670306 0 0.039155272148168524 -0.00066235774605631278 0 0.039248623500514661 -0.0011978958636802005 0 0.038807127490793576 -0.0011342025332357882 0 0.041214226367701751 0.0010790423019891079 0 0.043107989964837841 3.9651656858432464e-05 0 0.038807127490793576 -0.0011342025332357882 0 0.04110774052342217 -0.0002678272267065775 0 0.039082846532945435 -0.0011034643346779368 0 0.039101579594107851 -0.0018520597039633348 0 0.039248623500514661 -0.0011978958636802005 0 0.038807127490793576 -0.0011342025332357882 0 0.038986794833137099 0.00076463145345700306 0 0.041214226367701751 0.0010790423019891079 0 0.038807127490793576 -0.0011342025332357882 0 0.038986794833137099 0.00076463145345700306 0 0.038807127490793576 -0.0011342025332357882 0 0.037939104286940827 -0.00025933956400728188 0 0.037749563696653735 -0.0013980083877678663 0 0.037939104286940827 -0.00025933956400728188 0 0.036777860397681487 -0.0001389431624386728 0 0.037939104286940827 -0.00025933956400728188 0 0.036777860397681487 -0.0001389431624386728 0 0.037526690133791271 0.0011450473557394886 0 0.038986794833137099 0.00076463145345700306 0 0.037939104286940827 -0.00025933956400728188 0 0.037526690133791271 0.0011450473557394886 0 0.036777860397681487 -0.0001389431624386728 0 0.036342003149388867 0.0009920965676679743 0 0.037526690133791271 0.0011450473557394886 0 0.035264583313296467 0.00022897544299981088 0 0.036777860397681487 -0.0001389431624386728 0 0.036342003149388867 0.0009920965676679743 0 0.035536812122509878 0.0017054037096755415 0 0.036342003149388867 0.0009920965676679743 0 0.036644897279867618 0.0019743241955183224 0 0.036342003149388867 0.0009920965676679743 0 0.036644897279867618 0.0019743241955183224 0 0.037526690133791271 0.0011450473557394886 0 0.036644897279867618 0.0019743241955183224 0 0.037526690133791271 0.0011450473557394886 0 0.037397090178983218 0.0024742254858829854 0 0.035536812122509878 0.0017054037096755415 0 0.035915529393859377 0.0026224421069320956 0 0.036644897279867618 0.0019743241955183224 0 0.038986794833137099 0.00076463145345700306 0 0.037526690133791271 0.0011450473557394886 0 0.038354041105341241 0.0021952634087218392 0 0.037526690133791271 0.0011450473557394886 0 0.038354041105341241 0.0021952634087218392 0 0.037397090178983218 0.0024742254858829854 0 0.038354041105341241 0.0021952634087218392 0 0.037891110712916828 0.0031473731734668192 0 0.038965619563656774 0.0031883980758611462 0 0.038354041105341241 0.0021952634087218392 0 0.037397090178983218 0.0024742254858829854 0 0.037891110712916828 0.0031473731734668192 0 0.037397090178983218 0.0024742254858829854 0 0.037891110712916828 0.0031473731734668192 0 0.03732067604339747 0.0034694411664101337 0 0.037891110712916828 0.0031473731734668192 0 0.03760561494257058 0.0036677891558114959 0 0.03787394873913915 0.0038423095564559719 0 0.037891110712916828 0.0031473731734668192 0 0.03732067604339747 0.0034694411664101337 0 0.03760561494257058 0.0036677891558114959 0 0.037891110712916828 0.0031473731734668192 0 0.03787394873913915 0.0038423095564559719 0 0.038965619563656774 0.0031883980758611462 0 0.035713594405911972 0.0033027212652912089 0 0.03732067604339747 0.0034694411664101337 0 0.037608017896042456 0.0040047204241704087 0 0.035713594405911972 0.0033027212652912089 0 0.03732067604339747 0.0034694411664101337 0 0.036581900464562632 0.0028099750677404215 0 0.035915529393859377 0.0026224421069320956 0 0.035713594405911972 0.0033027212652912089 0 0.036581900464562632 0.0028099750677404215 0 0.035915529393859377 0.0026224421069320956 0 0.036644897279867618 0.0019743241955183224 0 0.036581900464562632 0.0028099750677404215 0 0.036644897279867618 0.0019743241955183224 0 0.037397090178983218 0.0024742254858829854 0 0.036581900464562632 0.0028099750677404215 0 0.037397090178983218 0.0024742254858829854 0 0.03732067604339747 0.0034694411664101337 0 0.036581900464562632 0.0028099750677404215 0 0.035713594405911972 0.0033027212652912089 0 0.035942636434544276 0.0032419647025191309 0 0.035799181544927131 0.0032955320727829042 0 0.033489601163420327 0.0033687902646592546 0 0.042675453901196612 0.0023375819809868231 0 0.042675453901196612 0.0023375819809868231 0 0.045392515691733075 0.0018689317032624208 0 0.054199831267790995 0.00090994945736728409 0 0.054250367064790118 0.00097169506985617397 0 0.054203388553585349 0.0010040806544066548 0 0.042675453901196612 0.0023375819809868231 0 0.047358887294755396 0.0027869218120120443 0 0.054199831267790995 0.00090994945736728409 0 0.054291994350571804 0.00094473323636795061 0 0.054352810020211105 0.00089286023146251624 0 0.03787394873913915 0.0038423095564559719 0 0.037607610194743783 0.0041067623066628409 0 0.039732540288178735 0.0046117652663795377 0 0.03760561494257058 0.0036677891558114959 0 0.03787394873913915 0.0038423095564559719 0 0.037608017896042456 0.0040047204241704087 0 0.041321923332368025 0.0033207119895635705 0 0.042675453901196612 0.0023375819809868231 0 0.03732067604339747 0.0034694411664101337 0 0.03760561494257058 0.0036677891558114959 0 0.037608017896042456 0.0040047204241704087 0 0.054199831267790995 0.00090994945736728409 0 0.054291994350571804 0.00094473323636795061 0 0.054250367064790118 0.00097169506985617397 0 0.054291994350571804 0.00094473323636795061 0 0.054352810020211105 0.00089286023146251624 0 0.054351803840611571 0.00095296585148139533 0 0.03787394873913915 0.0038423095564559719 0 0.039732540288178735 0.0046117652663795377 0 0.038965619563656774 0.0031883980758611462 0 0.038965619563656774 0.0031883980758611462 0 0.040201604626148281 0.0034685133714406889 0 0.039526315838795956 0.0023657613179225122 0 0.039732540288178735 0.0046117652663795377 0 0.038965619563656774 0.0031883980758611462 0 0.040201604626148281 0.0034685133714406889 0 0.040201604626148281 0.0034685133714406889 0 0.039526315838795956 0.0023657613179225122 0 0.040864370686899826 0.0021732059813276525 0 0.038354041105341241 0.0021952634087218392 0 0.038965619563656774 0.0031883980758611462 0 0.039526315838795956 0.0023657613179225122 0 0.044448696356824198 0.0017158318866213633 0 0.045483873045924057 0.0033417227740140981 0 0.041909599813710834 0.0019120151176670306 0 0.046706900070043564 0.0029061379636630157 0 0.042291839342432962 0.0014789236599693791 0 0.040201604626148281 0.0034685133714406889 0 0.040864370686899826 0.0021732059813276525 0 0.041949184970844183 0.0050257044066277781 0 0.042291839342432962 0.0014789236599693791 0 0.049703150731973109 0.0033176023968567157 0 0.04814153080426152 0.0025518398136576896 0 0.045317865009122764 0.00021264287247785364 0 0.046681626347919676 0.0041032372020727726 0 0.039732540288178735 0.0046117652663795377 0 0.040201604626148281 0.0034685133714406889 0 0.041949184970844183 0.0050257044066277781 0 0.047358887294755396 0.0027869218120120443 0 0.049703150731973109 0.0033176023968567157 0 0.054352810020211105 0.00089286023146251624 0 0.05451137378009565 0.00089943305099233497 0 0.054437486495830578 0.00098669596270754617 0 0.05451137378009565 0.00089943305099233497 0 0.054437486495830578 0.00098669596270754617 0 0.05466134364588103 0.001042839834672155 0 0.049703150731973109 0.0033176023968567157 0 0.055437448644158817 0.0014577932759768863 0 0.054521126771254043 0.0010689665096510169 0 0.054437486495830578 0.00098669596270754617 0 0.05466134364588103 0.001042839834672155 0 0.054521126771254043 0.0010689665096510169 0 0.054732362852605194 0.0012004700494015373 0 0.05466134364588103 0.001042839834672155 0 0.054521126771254043 0.0010689665096510169 0 0.054377550720465441 0.0010491272655340049 0 0.054442423421243287 0.0011243745817041367 0 0.054521126771254043 0.0010689665096510169 0 0.054437486495830578 0.00098669596270754617 0 0.054377550720465441 0.0010491272655340049 0 0.054352810020211105 0.00089286023146251624 0 0.054437486495830578 0.00098669596270754617 0 0.054351803840611571 0.00095296585148139533 0 0.054437486495830578 0.00098669596270754617 0 0.054310792271528074 0.00098694070226448545 0 0.054377550720465441 0.0010491272655340049 0 0.054437486495830578 0.00098669596270754617 0 0.054351803840611571 0.00095296585148139533 0 0.054310792271528074 0.00098694070226448545 0 0.054291994350571804 0.00094473323636795061 0 0.054351803840611571 0.00095296585148139533 0 0.054310792271528074 0.00098694070226448545 0 0.054291994350571804 0.00094473323636795061 0 0.054310792271528074 0.00098694070226448545 0 0.054250367064790118 0.00097169506985617397 0 0.054310792271528074 0.00098694070226448545 0 0.054273535982191756 0.0010109395500184511 0 0.054377550720465441 0.0010491272655340049 0 0.054310792271528074 0.00098694070226448545 0 0.054250367064790118 0.00097169506985617397 0 0.054273535982191756 0.0010109395500184511 0 0.054203388553585349 0.0010040806544066548 0 0.054299023432307282 0.0010484486697179892 0 0.054229434188934368 0.0010500069320802852 0 0.054273535982191756 0.0010109395500184511 0 0.054203388553585349 0.0010040806544066548 0 0.054299023432307282 0.0010484486697179892 0 0.054250367064790118 0.00097169506985617397 0 0.054273535982191756 0.0010109395500184511 0 0.054203388553585349 0.0010040806544066548 0 0.054299023432307282 0.0010484486697179892 0 0.054355369557733964 0.0010714503555173233 0 0.054229434188934368 0.0010500069320802852 0 0.054299023432307282 0.0010484486697179892 0 0.054377550720465441 0.0010491272655340049 0 0.054380479215150698 0.0010894103726306087 0 0.054273535982191756 0.0010109395500184511 0 0.054299023432307282 0.0010484486697179892 0 0.054377550720465441 0.0010491272655340049 0 0.054380479215150698 0.0010894103726306087 0 0.05441371147788128 0.0010811519563297847 0 0.054442423421243287 0.0011243745817041367 0 0.054377550720465441 0.0010491272655340049 0 0.054380479215150698 0.0010894103726306087 0 0.054442423421243287 0.0011243745817041367 0 0.054380479215150698 0.0010894103726306087 0 0.054355369557733964 0.0010714503555173233 0 0.05441371147788128 0.0010811519563297847 0 0.054299023432307282 0.0010484486697179892 0 0.054380479215150698 0.0010894103726306087 0 0.054355369557733964 0.0010714503555173233 0 0.054355369557733964 0.0010714503555173233 0 0.05441371147788128 0.0010811519563297847 0 0.05451781957497713 0.0010280214371270887 0 0.054355369557733964 0.0010714503555173233 0 0.054336682436039563 0.0010472090271722437 0 0.05451781957497713 0.0010280214371270887 0 0.05441371147788128 0.0010811519563297847 0 0.054442423421243287 0.0011243745817041367 0 0.054393897633537816 0.0011086003148203126 0 0.054732362852605194 0.0012004700494015373 0 0.054442423421243287 0.0011243745817041367 0 0.054393897633537816 0.0011086003148203126 0 0.054734690428336223 0.0011577798023751592 0 0.054754833398769187 0.00094670233057618665 0 0.054732362852605194 0.0012004700494015373 0 0.055112082584449461 0.00081132655107229372 0 0.054807351726677639 0.0010856180393406206 0 0.054521126771254043 0.0010689665096510169 0 0.054732362852605194 0.0012004700494015373 0 0.054442423421243287 0.0011243745817041367 0 0.050926443952068315 0.00093297427163134929 0 0.05111302631054275 0.00060980746525741904 0 0.051460335452835869 0.00061954628313436015 0 0.0511978446811081 0.0010803204507771292 0 0.050926443952068315 0.00093297427163134929 0 0.051460335452835869 0.00061954628313436015 0 0.051074060350382491 0.0016307298109384482 0 0.0511978446811081 0.0010803204507771292 0 0.050825987717969458 0.0013201260206799313 0 0.046337672554371982 0.0015255913840595521 0 0.043839481143101149 0.0030041716719466064 0 0.051638204402313481 0.0010144402357741915 0 0.051074060350382491 0.0016307298109384482 0 0.0511978446811081 0.0010803204507771292 0 0.0511978446811081 0.0010803204507771292 0 0.050825987717969458 0.0013201260206799313 0 0.050926443952068315 0.00093297427163134929 0 0.050825987717969458 0.0013201260206799313 0 0.050926443952068315 0.00093297427163134929 0 0.050324440062853526 0.0013351661561046052 0 0.050607353642324729 0.0016170473704505697 0 0.050825987717969458 0.0013201260206799313 0 0.050324440062853526 0.0013351661561046052 0 0.050926443952068315 0.00093297427163134929 0 0.050482290569059896 0.00066600481592122131 0 0.05111302631054275 0.00060980746525741904 0 0.050926443952068315 0.00093297427163134929 0 0.050482290569059896 0.00066600481592122131 0 0.050324440062853526 0.0013351661561046052 0 0.036013970320729199 0.0029999045257487651 0 0.03581400509479632 0.0032562348155094041 0 0.035785746339013588 0.0031769359091552317 0 0.047482293373302828 0.00081198945432710084 0 0.042976773204694493 0.0022515804622863043 0 0.047482293373302828 0.00081198945432710084 0 0.044589006413518976 0.0024758393448450302 0 0.035645913150681961 0.0032630990029433472 0 0.03581400509479632 0.0032562348155094041 0 0.035743740476336744 0.0032710980979586369 0 0.03581400509479632 0.0032562348155094041 0 0.035743740476336744 0.0032710980979586369 0 0.035785746339013588 0.0031769359091552317 0 0.035799181544927131 0.0032955320727829042 0 0.035743740476336744 0.0032710980979586369 0 0.035785746339013588 0.0031769359091552317 0 0.045392515691733075 0.0018689317032624208 0 0.044589006413518976 0.0024758393448450302 0 0.054264687710281728 0.0010463958070625863 0 0.054229434188934368 0.0010500069320802852 0 0.054336682436039563 0.0010472090271722437 0 0.054355369557733964 0.0010714503555173233 0 0.054229434188934368 0.0010500069320802852 0 0.054336682436039563 0.0010472090271722437 0 0.054336682436039563 0.0010472090271722437 0 0.054384538919580859 0.0010481716240273637 0 0.05451781957497713 0.0010280214371270887 0 0.054336682436039563 0.0010472090271722437 0 0.054384538919580859 0.0010481716240273637 0 0.054328548744442769 0.0010362950749712226 0 0.047482293373302828 0.00081198945432710084 0 0.053062308460659846 0.00070106689482524241 0 0.051142196171720743 0.00046240937242935656 0 0.051168646086096017 0.00038195073056683369 0 0.051231689475874934 0.00038432391570075524 0 0.054264687710281728 0.0010463958070625863 0 0.054336682436039563 0.0010472090271722437 0 0.054328548744442769 0.0010362950749712226 0 0.050482290569059896 0.00066600481592122131 0 0.05111302631054275 0.00060980746525741904 0 0.051231689475874934 0.00038432391570075524 0 0.047482293373302828 0.00081198945432710084 0 0.052373965957265865 2.7975352278071845e-05 0 0.051168646086096017 0.00038195073056683369 0 0.051231689475874934 0.00038432391570075524 0 0.051248279718642424 0.00031736054599881114 0 0.051231689475874934 0.00038432391570075524 0 0.051378192074352104 0.00031950684724474918 0 0.051248279718642424 0.00031736054599881114 0 0.051591152294090843 0.00035354401105195136 0 0.051416586292972362 0.0004207636897399437 0 0.051378192074352104 0.00031950684724474918 0 0.051231689475874934 0.00038432391570075524 0 0.051416586292972362 0.0004207636897399437 0 0.051378192074352104 0.00031950684724474918 0 0.05111302631054275 0.00060980746525741904 0 0.051416586292972362 0.0004207636897399437 0 0.051460335452835869 0.00061954628313436015 0 0.05111302631054275 0.00060980746525741904 0 0.051231689475874934 0.00038432391570075524 0 0.051416586292972362 0.0004207636897399437 0 0.05165778624129079 0.00043201209541216776 0 0.051416586292972362 0.0004207636897399437 0 0.051460335452835869 0.00061954628313436015 0 0.051547499888601592 0.00010572701804699233 0 0.051495810306278741 0.00024277762117213522 0 0.051311668943480888 0.00018444937726458914 0 0.055178385386780396 0.00044339480590444469 0 0.055209760790423522 0.00047504601207664423 0 0.055208874827731097 0.0005350851468616946 0 0.053362883568537488 0.00028541883488312293 0 0.053134871396882062 0.00037215470016291541 0 0.055178385386780396 0.00044339480590444469 0 0.055209760790423522 0.00047504601207664423 0 0.055191087829631391 0.00050078016946721612 0 0.051721454149666855 0.00028533215612978901 0 0.051547499888601592 0.00010572701804699233 0 0.051495810306278741 0.00024277762117213522 0 0.051495810306278741 0.00024277762117213522 0 0.051378192074352104 0.00031950684724474918 0 0.051311668943480888 0.00018444937726458914 0 0.051591152294090843 0.00035354401105195136 0 0.051495810306278741 0.00024277762117213522 0 0.051378192074352104 0.00031950684724474918 0 0.051248279718642424 0.00031736054599881114 0 0.051311668943480888 0.00018444937726458914 0 0.051174603998177706 0.00025441384416443127 0 0.051378192074352104 0.00031950684724474918 0 0.051248279718642424 0.00031736054599881114 0 0.051311668943480888 0.00018444937726458914 0 0.055208874827731097 0.0005350851468616946 0 0.055143444929866434 0.00055574538860979198 0 0.055212710250698231 0.00041285841946704004 0 0.055209760790423522 0.00047504601207664423 0 0.055208874827731097 0.0005350851468616946 0 0.055212710250698231 0.00041285841946704004 0 0.055208874827731097 0.0005350851468616946 0 0.055143444929866434 0.00055574538860979198 0 0.055068228200588897 0.00068795343800340995 0 0.053134871396882062 0.00037215470016291541 0 0.053893522513289292 0.00083908321205291962 0 0.055087147991127274 0.00047016821583837682 0 0.055143444929866434 0.00055574538860979198 0 0.055212710250698231 0.00041285841946704004 0 0.055087147991127274 0.00047016821583837682 0 0.055065997404968578 0.00065104850083317408 0 0.054924471574764933 0.00049105882862220877 0 0.055065997404968578 0.00065104850083317408 0 0.055084476902726394 0.00077273404084142808 0 0.054822966327125189 0.00073062562986315875 0 0.054120108954570881 0.00077764511016972142 0 0.053893522513289292 0.00083908321205291962 0 0.055065997404968578 0.00065104850083317408 0 0.055143444929866434 0.00055574538860979198 0 0.055068228200588897 0.00068795343800340995 0 0.055087147991127274 0.00047016821583837682 0 0.055065997404968578 0.00065104850083317408 0 0.055143444929866434 0.00055574538860979198 0 0.054384538919580859 0.0010481716240273637 0 0.054328548744442769 0.0010362950749712226 0 0.054327172825205612 0.0011352846653424255 0 0.051168646086096017 0.00038195073056683369 0 0.051248279718642424 0.00031736054599881114 0 0.051174603998177706 0.00025441384416443127 0 0.053062308460659846 0.00070106689482524241 0 0.053893522513289292 0.00083908321205291962 0 0.054384538919580859 0.0010481716240273637 0 0.054327172825205612 0.0011352846653424255 0 0.05451781957497713 0.0010280214371270887 0 0.055084476902726394 0.00077273404084142808 0 0.054822966327125189 0.00073062562986315875 0 0.05451781957497713 0.0010280214371270887 0 0.053893522513289292 0.00083908321205291962 0 0.054843712404940792 0.0010083731161540041 0 0.055065997404968578 0.00065104850083317408 0 0.054822966327125189 0.00073062562986315875 0 0.054924471574764933 0.00049105882862220877 0 0.054822966327125189 0.00073062562986315875 0 0.054924471574764933 0.00049105882862220877 0 0.054734003316504395 0.00054985285514089026 0 0.054924471574764933 0.00049105882862220877 0 0.054825641746343842 0.00028321396272912866 0 0.054734003316504395 0.00054985285514089026 0 0.054924471574764933 0.00049105882862220877 0 0.054825641746343842 0.00028321396272912866 0 0.054990897494619724 0.00022083885096844101 0 0.055000278543606687 1.3140098667347955e-07 0 0.054990897494619724 0.00022083885096844101 0 0.054999261633053624 1.9868348776282934e-09 0 0.054825641746343842 0.00028321396272912866 0 0.054990897494619724 0.00022083885096844101 0 0.054999261633053624 1.9868348776282934e-09 0 0.055000278543606687 1.3140098667347955e-07 0 0.054990897494619724 0.00022083885096844101 0 0.055023390044905966 8.1489671182375796e-05 0 0.055007055700807002 0.0002256612404189839 0 0.055036154346157426 0.0002356750169891301 0 0.055087147991127274 0.00047016821583837682 0 0.054990897494619724 0.00022083885096844101 0 0.055212710250698231 0.00041285841946704004 0 0.055087147991127274 0.00047016821583837682 0 0.054924471574764933 0.00049105882862220877 0 0.054990897494619724 0.00022083885096844101 0 0.055000278543606687 1.3140098667347955e-07 0 0.054999956866917908 -3.1851938464840094e-08 0 0.055021917306094008 1.7254746355727487e-05 0 0.055000278543606687 1.3140098667347955e-07 0 0.055023390044905966 8.1489671182375796e-05 0 0.055021917306094008 1.7254746355727487e-05 0 0.055011904620122093 -2.7333683436393616e-05 0 0.054999956866917908 -3.1851938464840094e-08 0 0.055021917306094008 1.7254746355727487e-05 0 0.055209760790423522 0.00047504601207664423 0 0.055212710250698231 0.00041285841946704004 0 0.055191087829631391 0.00050078016946721612 0 0.055036154346157426 0.0002356750169891301 0 0.055388566621339175 0.00026474896784669182 0 0.055023390044905966 8.1489671182375796e-05 0 0.055021917306094008 1.7254746355727487e-05 0 0.05502522853179375 -1.679301170526692e-05 0 0.055011904620122093 -2.7333683436393616e-05 0 0.055021917306094008 1.7254746355727487e-05 0 0.05502522853179375 -1.679301170526692e-05 0 0.055015980208702069 0.00052043768045876876 0 0.055192344694984782 0.00040341287217536716 0 0.055060035594251634 0.00018241755514097549 0 0.055015980208702069 0.00052043768045876876 0 0.054974957993719063 0.0003100546980796661 0 0.054877076234361638 0.00051755127300952654 0 0.055112082584449461 0.00081132655107229372 0 0.054809725205420913 0.00079620548506845852 0 0.054807351726677639 0.0010856180393406206 0 0.055015980208702069 0.00052043768045876876 0 0.055112082584449461 0.00081132655107229372 0 0.054809725205420913 0.00079620548506845852 0 0.054754833398769187 0.00094670233057618665 0 0.05476014473969687 0.00059741584234031492 0 0.055015980208702069 0.00052043768045876876 0 0.055112082584449461 0.00081132655107229372 0 0.055192344694984782 0.00040341287217536716 0 0.05441371147788128 0.0010811519563297847 0 0.054393897633537816 0.0011086003148203126 0 0.054321559902937029 0.00079016932459815442 0 0.05441371147788128 0.0010811519563297847 0 0.054501235929413298 0.00080649484765947575 0 0.054321559902937029 0.00079016932459815442 0 0.054822966327125189 0.00073062562986315875 0 0.05451781957497713 0.0010280214371270887 0 0.054501235929413298 0.00080649484765947575 0 0.05441371147788128 0.0010811519563297847 0 0.05451781957497713 0.0010280214371270887 0 0.054501235929413298 0.00080649484765947575 0 0.054501235929413298 0.00080649484765947575 0 0.054734003316504395 0.00054985285514089026 0 0.054526548188152738 0.00031311942650383713 0 0.054822966327125189 0.00073062562986315875 0 0.054501235929413298 0.00080649484765947575 0 0.054734003316504395 0.00054985285514089026 0 0.054501235929413298 0.00080649484765947575 0 0.054321559902937029 0.00079016932459815442 0 0.054526548188152738 0.00031311942650383713 0 0.05476014473969687 0.00059741584234031492 0 0.054823246528517236 0.0002489359016213533 0 0.055192344694984782 0.00040341287217536716 0 0.05511361934628297 0.00013379116426523072 0 0.055060035594251634 0.00018241755514097549 0 0.054825641746343842 0.00028321396272912866 0 0.054734003316504395 0.00054985285514089026 0 0.054526548188152738 0.00031311942650383713 0 0.054825641746343842 0.00028321396272912866 0 0.054526548188152738 0.00031311942650383713 0 0.054999261633053624 1.9868348776282934e-09 0 0.054823246528517236 0.0002489359016213533 0 0.054999916698952392 9.1551559154360068e-08 0 0.05511361934628297 0.00013379116426523072 0 0.055000106950463201 6.4054083343789551e-09 0 0.055000153220087007 8.8329064834989413e-08 0 0.05511361934628297 0.00013379116426523072 0 0.055000153220087007 8.8329064834989413e-08 0 0.055060035594251634 0.00018241755514097549 0 0.055000153220087007 8.8329064834989413e-08 0 0.055060035594251634 0.00018241755514097549 0 0.055000038664232663 1.0040835462391482e-07 0 0.055015980208702069 0.00052043768045876876 0 0.055060035594251634 0.00018241755514097549 0 0.054974957993719063 0.0003100546980796661 0 0.055060035594251634 0.00018241755514097549 0 0.054974957993719063 0.0003100546980796661 0 0.054989216186641501 0.00011600471363488304 0 0.055060035594251634 0.00018241755514097549 0 0.054989216186641501 0.00011600471363488304 0 0.055000038664232663 1.0040835462391482e-07 0 0.054989216186641501 0.00011600471363488304 0 0.055000038664232663 1.0040835462391482e-07 0 0.054999898726667787 1.0470269058288077e-07 0 0.054989216186641501 0.00011600471363488304 0 0.054999898726667787 1.0470269058288077e-07 0 0.054903224990722088 0.00022162294882596611 0 0.054999898726667787 1.0470269058288077e-07 0 0.054903224990722088 0.00022162294882596611 0 0.05499991974249268 1.3943123572817263e-07 0 0.054903224990722088 0.00022162294882596611 0 0.054759799444431094 0.0002525922510680497 0 0.054743004938295765 0.00055597668698401017 0 0.054974957993719063 0.0003100546980796661 0 0.054989216186641501 0.00011600471363488304 0 0.054903224990722088 0.00022162294882596611 0 0.054974957993719063 0.0003100546980796661 0 0.054903224990722088 0.00022162294882596611 0 0.054877076234361638 0.00051755127300952654 0 0.054999019389328038 -1.0969949343244106e-08 0 0.054759799444431094 0.0002525922510680497 0 0.054484189120593697 0.00027694627388325405 0 0.054903224990722088 0.00022162294882596611 0 0.05499991974249268 1.3943123572817263e-07 0 0.054759799444431094 0.0002525922510680497 0 0.054999019389328038 -1.0969949343244106e-08 0 0.05499991974249268 1.3943123572817263e-07 0 0.054759799444431094 0.0002525922510680497 0 0.054759799444431094 0.0002525922510680497 0 0.054485747859443198 0.00066783830232201727 0 0.054484189120593697 0.00027694627388325405 0 0.054485747859443198 0.00066783830232201727 0 0.054125120123398936 0.00072143637394472902 0 0.054484189120593697 0.00027694627388325405 0 0.054485747859443198 0.00066783830232201727 0 0.054743004938295765 0.00055597668698401017 0 0.054606599365684752 0.00086500128331501761 0 0.054759799444431094 0.0002525922510680497 0 0.054485747859443198 0.00066783830232201727 0 0.054743004938295765 0.00055597668698401017 0 0.054485747859443198 0.00066783830232201727 0 0.054357833126858941 0.0010684923787913367 0 0.054606599365684752 0.00086500128331501761 0 0.054485747859443198 0.00066783830232201727 0 0.054207510441076384 0.0010217687719059909 0 0.054125120123398936 0.00072143637394472902 0 0.054485747859443198 0.00066783830232201727 0 0.054357833126858941 0.0010684923787913367 0 0.054207510441076384 0.0010217687719059909 0 0.055015980208702069 0.00052043768045876876 0 0.054877076234361638 0.00051755127300952654 0 0.054809725205420913 0.00079620548506845852 0 0.054877076234361638 0.00051755127300952654 0 0.054743004938295765 0.00055597668698401017 0 0.054809725205420913 0.00079620548506845852 0 0.054903224990722088 0.00022162294882596611 0 0.054877076234361638 0.00051755127300952654 0 0.054743004938295765 0.00055597668698401017 0 0.054743004938295765 0.00055597668698401017 0 0.054606599365684752 0.00086500128331501761 0 0.054809725205420913 0.00079620548506845852 0 0.054606599365684752 0.00086500128331501761 0 0.054809725205420913 0.00079620548506845852 0 0.054609271388775284 0.0011886921970047234 0 0.054809725205420913 0.00079620548506845852 0 0.054807351726677639 0.0010856180393406206 0 0.054609271388775284 0.0011886921970047234 0 0.054807351726677639 0.0010856180393406206 0 0.054811060966047619 0.0013082298663504655 0 0.054609271388775284 0.0011886921970047234 0 0.054732362852605194 0.0012004700494015373 0 0.054807351726677639 0.0010856180393406206 0 0.054811060966047619 0.0013082298663504655 0 0.054732362852605194 0.0012004700494015373 0 0.054811060966047619 0.0013082298663504655 0 0.05466134364588103 0.001042839834672155 0 0.054811060966047619 0.0013082298663504655 0 0.054601498105241772 0.0017242151852647372 0 0.055050108764913147 0.0021667728244327733 0 0.054811060966047619 0.0013082298663504655 0 0.054601498105241772 0.0017242151852647372 0 0.054609271388775284 0.0011886921970047234 0 0.054601498105241772 0.0017242151852647372 0 0.054609271388775284 0.0011886921970047234 0 0.054320312507234222 0.0016857199402066242 0 0.054601498105241772 0.0017242151852647372 0 0.054320312507234222 0.0016857199402066242 0 0.054365714376921774 0.0020557344465796834 0 0.054357833126858941 0.0010684923787913367 0 0.054609271388775284 0.0011886921970047234 0 0.054319540144431279 0.0013652608821330512 0 0.054357833126858941 0.0010684923787913367 0 0.054606599365684752 0.00086500128331501761 0 0.054609271388775284 0.0011886921970047234 0 0.054357833126858941 0.0010684923787913367 0 0.054319540144431279 0.0013652608821330512 0 0.054059863738805093 0.0013845976244251852 0 0.054357833126858941 0.0010684923787913367 0 0.054207510441076384 0.0010217687719059909 0 0.054059863738805093 0.0013845976244251852 0 0.054207510441076384 0.0010217687719059909 0 0.054059863738805093 0.0013845976244251852 0 0.05403794124920025 0.0012622718918195394 0 0.054059863738805093 0.0013845976244251852 0 0.053984388586450639 0.0016960844191573035 0 0.05375399740361602 0.0016964834482284413 0 0.053984388586450639 0.0016960844191573035 0 0.053443690718546932 0.0022698639133896959 0 0.05375399740361602 0.0016964834482284413 0 0.054319540144431279 0.0013652608821330512 0 0.054059863738805093 0.0013845976244251852 0 0.053984388586450639 0.0016960844191573035 0 0.053984388586450639 0.0016960844191573035 0 0.054059584607208507 0.0020665715807232378 0 0.053443690718546932 0.0022698639133896959 0 0.054609271388775284 0.0011886921970047234 0 0.054319540144431279 0.0013652608821330512 0 0.054320312507234222 0.0016857199402066242 0 0.054319540144431279 0.0013652608821330512 0 0.053984388586450639 0.0016960844191573035 0 0.054320312507234222 0.0016857199402066242 0 0.053984388586450639 0.0016960844191573035 0 0.054320312507234222 0.0016857199402066242 0 0.054059584607208507 0.0020665715807232378 0 0.054320312507234222 0.0016857199402066242 0 0.054059584607208507 0.0020665715807232378 0 0.054365714376921774 0.0020557344465796834 0 0.054059584607208507 0.0020665715807232378 0 0.053443690718546932 0.0022698639133896959 0 0.054151628293492918 0.0023762700537343687 0 0.054059584607208507 0.0020665715807232378 0 0.054151628293492918 0.0023762700537343687 0 0.054365714376921774 0.0020557344465796834 0 0.054151628293492918 0.0023762700537343687 0 0.054471572756411582 0.0023394254575242312 0 0.054365714376921774 0.0020557344465796834 0 0.053443690718546932 0.0022698639133896959 0 0.052983908409928844 0.0023554823655337893 0 0.053568500683775437 0.0020204643714653412 0 0.053443690718546932 0.0022698639133896959 0 0.051170855168848048 0.0032773547856430551 0 0.051532024168670927 0.0030469273802039925 0 0.053119412879532507 0.0023174866640029985 0 0.052736560446570761 0.0026989144491207226 0 0.053443690718546932 0.0022698639133896959 0 0.052983908409928844 0.0023554823655337893 0 0.051532024168670927 0.0030469273802039925 0 0.042753905215586294 0.0022130732790670506 0 0.04384711843482815 0.0025844269207356825 0 0.044036962116781535 0.00374224696933951 0 0.044968889948850205 0.0026328704013173629 0 0.050265089878128451 0.0026943630424136745 0 0.051364818915994565 0.0033444693251467304 0 0.051019583882335677 0.0034336790033317886 0 0.051207689207708643 0.0033470069631410895 0 0.050265089878128451 0.0026943630424136745 0 0.05219954890743092 0.0029232478198517003 0 0.051364818915994565 0.0033444693251467304 0 0.051532024168670927 0.0030469273802039925 0 0.051207689207708643 0.0033470069631410895 0 0.04384711843482815 0.0025844269207356825 0 0.044036962116781535 0.00374224696933951 0 0.044877983531653419 0.0027472346900496362 0 0.051592363435209537 0.0039442614925691557 0 0.052736560446570761 0.0026989144491207226 0 0.050525638233177302 0.0040112640864804136 0 0.051170855168848048 0.0032773547856430551 0 0.05064501315791714 0.003822289258072856 0 0.050852654166772149 0.0032847930200993959 0 0.051364818915994565 0.0033444693251467304 0 0.051019583882335677 0.0034336790033317886 0 0.051170855168848048 0.0032773547856430551 0 0.051202936085068096 0.0033019106756600703 0 0.05064501315791714 0.003822289258072856 0 0.051170855168848048 0.0032773547856430551 0 0.051532024168670927 0.0030469273802039925 0 0.051202936085068096 0.0033019106756600703 0 0.051532024168670927 0.0030469273802039925 0 0.051202936085068096 0.0033019106756600703 0 0.051207689207708643 0.0033470069631410895 0 0.051202936085068096 0.0033019106756600703 0 0.051207689207708643 0.0033470069631410895 0 0.05064501315791714 0.003822289258072856 0 0.051019583882335677 0.0034336790033317886 0 0.051207689207708643 0.0033470069631410895 0 0.05064501315791714 0.003822289258072856 0 0.050652296508743755 0.003582255578222083 0 0.051019583882335677 0.0034336790033317886 0 0.05064501315791714 0.003822289258072856 0 0.054529714188989074 0.0026382701241753803 0 0.054151628293492918 0.0023762700537343687 0 0.054471572756411582 0.0023394254575242312 0 0.051592363435209537 0.0039442614925691557 0 0.050132768415925441 0.0038273800704785987 0 0.054529714188989074 0.0026382701241753803 0 0.054471572756411582 0.0023394254575242312 0 0.054756118408098658 0.0023937945470888797 0 0.054471572756411582 0.0023394254575242312 0 0.054756118408098658 0.0023937945470888797 0 0.054617994485791382 0.0021525996070007585 0 0.054529714188989074 0.0026382701241753803 0 0.05514944542440909 0.0027604695499508698 0 0.054756118408098658 0.0023937945470888797 0 0.05514944542440909 0.0027604695499508698 0 0.054756118408098658 0.0023937945470888797 0 0.055050108764913147 0.0021667728244327733 0 0.054601498105241772 0.0017242151852647372 0 0.055050108764913147 0.0021667728244327733 0 0.054617994485791382 0.0021525996070007585 0 0.054756118408098658 0.0023937945470888797 0 0.055050108764913147 0.0021667728244327733 0 0.054617994485791382 0.0021525996070007585 0 0.054676135818351145 0.0013506556214366837 0 0.055437448644158817 0.0014577932759768863 0 0.054601498105241772 0.0017242151852647372 0 0.054365714376921774 0.0020557344465796834 0 0.054617994485791382 0.0021525996070007585 0 0.054471572756411582 0.0023394254575242312 0 0.054365714376921774 0.0020557344465796834 0 0.054617994485791382 0.0021525996070007585 0 0.053368709557736031 0.0022707203275487853 0 0.053712277045295409 0.0018874731842101848 0 0.053494335349662407 0.0017090607619297327 0 0.053368709557736031 0.0022707203275487853 0 0.0538023832143485 0.0021155925728867011 0 0.053712277045295409 0.0018874731842101848 0 0.053368709557736031 0.0022707203275487853 0 0.053494335349662407 0.0017090607619297327 0 0.053058870146518063 0.001609088852507096 0 0.048963457073904475 0.0034160130671926428 0 0.052177953704011772 0.0024391684411218624 0 0.050327816498132144 0.0013138505730245166 0 0.051199601718043622 0.0028006903739546144 0 0.052035504274310383 0.0025201286697724037 0 0.04705035690812686 0.0017683389103288268 0 0.048963457073904475 0.0034160130671926428 0 0.046335268662873803 0.0036951173983117446 0 0.051199601718043622 0.0028006903739546144 0 0.049792149059021289 0.0029314530380005468 0 0.045833072998725854 0.0022062713264301525 0 0.04705035690812686 0.0017683389103288268 0 0.046335268662873803 0.0036951173983117446 0 0.045833072998725854 0.0022062713264301525 0 0.046335268662873803 0.0036951173983117446 0 0.044877983531653419 0.0027472346900496362 0 0.050265089878128451 0.0026943630424136745 0 0.049792149059021289 0.0029314530380005468 0 0.044036962116781535 0.00374224696933951 0 0.046335268662873803 0.0036951173983117446 0 0.044877983531653419 0.0027472346900496362 0 0.054094589925455433 0.0020843238887409419 0 0.0538023832143485 0.0021155925728867011 0 0.053979377271167937 0.0018720237010121615 0 0.050265089878128451 0.0026943630424136745 0 0.054164233623684679 0.0021286811069626435 0 0.0538023832143485 0.0021155925728867011 0 0.053979377271167937 0.0018720237010121615 0 0.053712277045295409 0.0018874731842101848 0 0.053979377271167937 0.0018720237010121615 0 0.053712277045295409 0.0018874731842101848 0 0.053801090357352754 0.001550082537146331 0 0.054164233623684679 0.0021286811069626435 0 0.05366841156308181 0.0015356735463233539 0 0.053568500683775437 0.0020204643714653412 0 0.053801090357352754 0.001550082537146331 0 0.05375399740361602 0.0016964834482284413 0 0.053443690718546932 0.0022698639133896959 0 0.053568500683775437 0.0020204643714653412 0 0.05375399740361602 0.0016964834482284413 0 0.053801090357352754 0.001550082537146331 0 0.05375399740361602 0.0016964834482284413 0 0.05403794124920025 0.0012622718918195394 0 0.054059863738805093 0.0013845976244251852 0 0.05375399740361602 0.0016964834482284413 0 0.05403794124920025 0.0012622718918195394 0 0.053801090357352754 0.001550082537146331 0 0.05403794124920025 0.0012622718918195394 0 0.054002983596660559 0.0010658111238391267 0 0.053801090357352754 0.001550082537146331 0 0.053501015133413869 0.001348438388716068 0 0.054002983596660559 0.0010658111238391267 0 0.053801090357352754 0.001550082537146331 0 0.053501015133413869 0.001348438388716068 0 0.053494335349662407 0.0017090607619297327 0 0.053712277045295409 0.0018874731842101848 0 0.053801090357352754 0.001550082537146331 0 0.053494335349662407 0.0017090607619297327 0 0.053501015133413869 0.001348438388716068 0 0.053494335349662407 0.0017090607619297327 0 0.053058870146518063 0.001609088852507096 0 0.053501015133413869 0.001348438388716068 0 0.053058870146518063 0.001609088852507096 0 0.053256980949895102 0.0012236341670669817 0 0.053501015133413869 0.001348438388716068 0 0.053479330384887863 0.00077574908978031247 0 0.054002983596660559 0.0010658111238391267 0 0.053501015133413869 0.001348438388716068 0 0.053479330384887863 0.00077574908978031247 0 0.053256980949895102 0.0012236341670669817 0 0.053479330384887863 0.00077574908978031247 0 0.054002983596660559 0.0010658111238391267 0 0.054498519443927036 0.00030329113535655379 0 0.054231713401164498 0.00050207943039974796 0 0.054494187902813837 0.00031949536418221535 0 0.05403794124920025 0.0012622718918195394 0 0.054002983596660559 0.0010658111238391267 0 0.054675633678036316 0.00066368928192282305 0 0.054116047624131532 0.0011867529842936981 0 0.054391126824341302 0.00068959575433727958 0 0.054207510441076384 0.0010217687719059909 0 0.05403794124920025 0.0012622718918195394 0 0.054125120123398936 0.00072143637394472902 0 0.054002983596660559 0.0010658111238391267 0 0.054498519443927036 0.00030329113535655379 0 0.054675633678036316 0.00066368928192282305 0 0.054391126824341302 0.00068959575433727958 0 0.054704359881242406 0.0002589179491288242 0 0.054498519443927036 0.00030329113535655379 0 0.054675633678036316 0.00066368928192282305 0 0.054926444170703595 0.00018045226371934343 0 0.054498519443927036 0.00030329113535655379 0 0.054926444170703595 0.00018045226371934343 0 0.054816668547854393 0.0001189499482795482 0 0.054498519443927036 0.00030329113535655379 0 0.054816668547854393 0.0001189499482795482 0 0.054863913074687083 0.00018547260046344988 0 0.054999605306343728 1.5523424527266932e-07 0 0.054816668547854393 0.0001189499482795482 0 0.054863913074687083 0.00018547260046344988 0 0.055000117061185565 -3.4967743553776046e-08 0 0.054999605306343728 1.5523424527266932e-07 0 0.054816668547854393 0.0001189499482795482 0 0.054999862737221031 1.1024035923591886e-07 0 0.054704359881242406 0.0002589179491288242 0 0.055000117061185565 -3.4967743553776046e-08 0 0.054926444170703595 0.00018045226371934343 0 0.054816668547854393 0.0001189499482795482 0 0.054951881889848744 0.00020226926196261115 0 0.054863913074687083 0.00018547260046344988 0 0.054969271825809428 0.00016400892316096596 0 0.054951881889848744 0.00020226926196261115 0 0.054498519443927036 0.00030329113535655379 0 0.054863913074687083 0.00018547260046344988 0 0.054999605306343728 1.5523424527266932e-07 0 0.054863913074687083 0.00018547260046344988 0 0.054999916052897953 1.8664233116029172e-07 0 0.054863913074687083 0.00018547260046344988 0 0.054999916052897953 1.8664233116029172e-07 0 0.054969271825809428 0.00016400892316096596 0 0.054999900868989433 1.5142518804479865e-08 0 0.054969271825809428 0.00016400892316096596 0 0.054753658875010998 0.0001884848404192674 0 0.054999916052897953 1.8664233116029172e-07 0 0.054999900868989433 1.5142518804479865e-08 0 0.054969271825809428 0.00016400892316096596 0 0.054969271825809428 0.00016400892316096596 0 0.054753658875010998 0.0001884848404192674 0 0.054886565608419396 0.00051168236396706868 0 0.054999900868989433 1.5142518804479865e-08 0 0.054753658875010998 0.0001884848404192674 0 0.054999609097143916 6.4663021610778066e-08 0 0.054753658875010998 0.0001884848404192674 0 0.054999609097143916 6.4663021610778066e-08 0 0.054571589357262598 0.00023923812439865575 0 0.054999609097143916 6.4663021610778066e-08 0 0.054571589357262598 0.00023923812439865575 0 0.054999478298570263 1.6309531756329171e-07 0 0.054753658875010998 0.0001884848404192674 0 0.054571589357262598 0.00023923812439865575 0 0.054000755349581132 0.00089451239995197104 0 0.054571589357262598 0.00023923812439865575 0 0.054000755349581132 0.00089451239995197104 0 0.054229506547415832 0.0004544937156873754 0 0.054000755349581132 0.00089451239995197104 0 0.054229506547415832 0.0004544937156873754 0 0.05347957142444526 0.0012090231704983516 0 0.054000755349581132 0.00089451239995197104 0 0.053417057410899339 0.0011179615880824822 0 0.05327922697612663 0.0011410110300259758 0 0.053993060506574438 0.00089423158685779369 0 0.054072802220536786 0.00080531473460249419 0 0.053479330384887863 0.00077574908978031247 0 0.05327922697612663 0.0011410110300259758 0 0.053256980949895102 0.0012236341670669817 0 0.053417057410899339 0.0011179615880824822 0 0.05327922697612663 0.0011410110300259758 0 0.053256980949895102 0.0012236341670669817 0 0.054231713401164498 0.00050207943039974796 0 0.054072802220536786 0.00080531473460249419 0 0.054951881889848744 0.00020226926196261115 0 0.054969271825809428 0.00016400892316096596 0 0.054886565608419396 0.00051168236396706868 0 0.054753658875010998 0.0001884848404192674 0 0.054000755349581132 0.00089451239995197104 0 0.054886565608419396 0.00051168236396706868 0 0.054592546782083182 0.00018625855456225998 0 0.054800493502171123 0.00010282665564611396 0 0.054533822176910079 0.00019392757957854582 0 0.054592546782083182 0.00018625855456225998 0 0.054800493502171123 0.00010282665564611396 0 0.054999437642305644 8.2453236758784978e-08 0 0.054567456346129861 2.8225180295484737e-05 0 0.054999836933225327 -3.1045555177391092e-09 0 0.054800493502171123 0.00010282665564611396 0 0.054648971061241475 0.00020031628952610957 0 0.054999686887969017 1.2276093028619486e-07 0 0.054800493502171123 0.00010282665564611396 0 0.054999437642305644 8.2453236758784978e-08 0 0.054999686887969017 1.2276093028619486e-07 0 0.054800493502171123 0.00010282665564611396 0 0.054648971061241475 0.00020031628952610957 0 0.054533822176910079 0.00019392757957854582 0 0.054648971061241475 0.00020031628952610957 0 0.054688307344548027 0.00017926117668970988 0 0.054229506547415832 0.0004544937156873754 0 0.054648971061241475 0.00020031628952610957 0 0.054999686887969017 1.2276093028619486e-07 0 0.054688307344548027 0.00017926117668970988 0 0.054999686887969017 1.2276093028619486e-07 0 0.054999478298570263 1.6309531756329171e-07 0 0.054688307344548027 0.00017926117668970988 0 0.054571589357262598 0.00023923812439865575 0 0.054999478298570263 1.6309531756329171e-07 0 0.054688307344548027 0.00017926117668970988 0 0.054571589357262598 0.00023923812439865575 0 0.054688307344548027 0.00017926117668970988 0 0.054229506547415832 0.0004544937156873754 0 0.054229506547415832 0.0004544937156873754 0 0.054308344655751156 0.00027951308328351534 0 0.054228286129344931 0.00023447366077955959 0 0.054123181600463748 0.00051580847560178547 0 0.054060872187106583 0.00074254886603585793 0 0.054229506547415832 0.0004544937156873754 0 0.054308344655751156 0.00027951308328351534 0 0.054433282433750313 0.00025346471809706321 0 0.054308344655751156 0.00027951308328351534 0 0.054433282433750313 0.00025346471809706321 0 0.054342907636764845 0.00024304462182104503 0 0.054648971061241475 0.00020031628952610957 0 0.054229506547415832 0.0004544937156873754 0 0.054433282433750313 0.00025346471809706321 0 0.054648971061241475 0.00020031628952610957 0 0.054433282433750313 0.00025346471809706321 0 0.054533822176910079 0.00019392757957854582 0 0.054433282433750313 0.00025346471809706321 0 0.054533822176910079 0.00019392757957854582 0 0.054388735211560783 0.00020065164222122969 0 0.054433282433750313 0.00025346471809706321 0 0.054341196630561493 0.00022764106186003928 0 0.054342907636764845 0.00024304462182104503 0 0.054433282433750313 0.00025346471809706321 0 0.054388735211560783 0.00020065164222122969 0 0.054341196630561493 0.00022764106186003928 0 0.054388735211560783 0.00020065164222122969 0 0.05421383903198216 0.00021267709693117368 0 0.054341196630561493 0.00022764106186003928 0 0.054386307817804951 0.0001583245921447641 0 0.054294721307516981 8.0682858096704367e-05 0 0.053990951131907938 -0.00015995471682958101 0 0.054386307817804951 0.0001583245921447641 0 0.054168720061034521 0.00017299928000975593 0 0.05421383903198216 0.00021267709693117368 0 0.054319360820756127 0.00013417700389337721 0 0.054083283456539559 -1.0419701474598077e-05 0 0.054388735211560783 0.00020065164222122969 0 0.054386307817804951 0.0001583245921447641 0 0.05421383903198216 0.00021267709693117368 0 0.054592546782083182 0.00018625855456225998 0 0.054386307817804951 0.0001583245921447641 0 0.054294721307516981 8.0682858096704367e-05 0 0.054524667664202185 -0.00011207597945495055 0 0.054119577175746995 -0.0002687477176522864 0 0.054294896976764803 -0.00020512587703403994 0 0.054533822176910079 0.00019392757957854582 0 0.054388735211560783 0.00020065164222122969 0 0.054386307817804951 0.0001583245921447641 0 0.054592546782083182 0.00018625855456225998 0 0.054533822176910079 0.00019392757957854582 0 0.054386307817804951 0.0001583245921447641 0 0.054567456346129861 2.8225180295484737e-05 0 0.054192511027711943 -9.8875439336529211e-05 0 0.054083283456539559 -1.0419701474598077e-05 0 0.053777809851221395 -0.00039296246480148193 0 0.053805730560016619 -0.0003668618246912103 0 0.053990951131907938 -0.00015995471682958101 0 0.0536344740571306 -0.0005133662175836344 0 0.053925882616340196 -4.6094458157550075e-05 0 0.054168720061034521 0.00017299928000975593 0 0.053901193617831147 -0.00029046469424666871 0 0.053746039187788391 -0.00026791120273512319 0 0.053925882616340196 -4.6094458157550075e-05 0 0.053632957287441219 -0.00012573485982907874 0 0.053746039187788391 -0.00026791120273512319 0 0.053925882616340196 -4.6094458157550075e-05 0 0.053901193617831147 -0.00029046469424666871 0 0.053925882616340196 -4.6094458157550075e-05 0 0.05421383903198216 0.00021267709693117368 0 0.053632957287441219 -0.00012573485982907874 0 0.053925882616340196 -4.6094458157550075e-05 0 0.054168720061034521 0.00017299928000975593 0 0.05421383903198216 0.00021267709693117368 0 0.054294721307516981 8.0682858096704367e-05 0 0.053805730560016619 -0.0003668618246912103 0 0.053990951131907938 -0.00015995471682958101 0 0.054192511027711943 -9.8875439336529211e-05 0 0.053875420214946006 -0.00033730190920493712 0 0.054161218618686925 0.00018506346467928158 0 0.053983670087701614 3.730295037660632e-05 0 0.05421383903198216 0.00021267709693117368 0 0.054341196630561493 0.00022764106186003928 0 0.05433178974059006 0.00024570203966091159 0 0.054341196630561493 0.00022764106186003928 0 0.05433178974059006 0.00024570203966091159 0 0.054342907636764845 0.00024304462182104503 0 0.05433178974059006 0.00024570203966091159 0 0.054277175494399726 0.00021102902588718381 0 0.054299017405482826 0.00017915108009836642 0 0.05433178974059006 0.00024570203966091159 0 0.054277175494399726 0.00021102902588718381 0 0.054342907636764845 0.00024304462182104503 0 0.054308344655751156 0.00027951308328351534 0 0.054277175494399726 0.00021102902588718381 0 0.054342907636764845 0.00024304462182104503 0 0.054308344655751156 0.00027951308328351534 0 0.054277175494399726 0.00021102902588718381 0 0.054228286129344931 0.00023447366077955959 0 0.054277175494399726 0.00021102902588718381 0 0.054228286129344931 0.00023447366077955959 0 0.054203647796806365 0.00018970412942954779 0 0.054277175494399726 0.00021102902588718381 0 0.054236216998244546 0.00016361951893454 0 0.054203647796806365 0.00018970412942954779 0 0.052345164214058805 0.00052976768017770647 0 0.052456555969525906 0.0010291941854655312 0 0.05052873553781214 0.00085888522857717638 0 0.049982195793784032 0.00034249362167231327 0 0.050352882606170324 7.6592729930226452e-05 0 0.05052873553781214 0.00085888522857717638 0 0.050352882606170324 7.6592729930226452e-05 0 0.051201509950144233 0.00031609522055609982 0 0.053960049150932742 -0.00013823303258214873 0 0.052664621165846991 9.3051997697774115e-05 0 0.054236216998244546 0.00016361951893454 0 0.054299017405482826 0.00017915108009836642 0 0.054262697950282122 0.00013580138869794409 0 0.052345164214058805 0.00052976768017770647 0 0.052664621165846991 9.3051997697774115e-05 0 0.054277175494399726 0.00021102902588718381 0 0.054236216998244546 0.00016361951893454 0 0.054299017405482826 0.00017915108009836642 0 0.053746039187788391 -0.00026791120273512319 0 0.053632957287441219 -0.00012573485982907874 0 0.053425185539087261 -0.00046155135989813531 0 0.053983670087701614 3.730295037660632e-05 0 0.053960049150932742 -0.00013823303258214873 0 0.053746039187788391 -0.00026791120273512319 0 0.053425185539087261 -0.00046155135989813531 0 0.053628936788705242 -0.00047369907279114898 0 0.053425185539087261 -0.00046155135989813531 0 0.053466869725019066 -0.00059508094403935971 0 0.053628936788705242 -0.00047369907279114898 0 0.053425185539087261 -0.00046155135989813531 0 0.053466869725019066 -0.00059508094403935971 0 0.053372947395652098 -0.00060919350022292586 0 0.053466869725019066 -0.00059508094403935971 0 0.053628936788705242 -0.00047369907279114898 0 0.053451701843939825 -0.00065842789418925568 0 0.053628936788705242 -0.00047369907279114898 0 0.053451701843939825 -0.00065842789418925568 0 0.053627023753836954 -0.00058227973706696714 0 0.053628936788705242 -0.00047369907279114898 0 0.053901193617831147 -0.00029046469424666871 0 0.053627023753836954 -0.00058227973706696714 0 0.053777809851221395 -0.00039296246480148193 0 0.053529581672929268 -0.00060867150216820662 0 0.053746039187788391 -0.00026791120273512319 0 0.053628936788705242 -0.00047369907279114898 0 0.053901193617831147 -0.00029046469424666871 0 0.053058870146518063 0.001609088852507096 0 0.053177803956297752 0.0013794098994325057 0 0.052856199863008935 0.0017659014513882532 0 0.053177803956297752 0.0013794098994325057 0 0.053417648420612515 0.0012726710769906345 0 0.052856199863008935 0.0017659014513882532 0 0.053058870146518063 0.001609088852507096 0 0.053256980949895102 0.0012236341670669817 0 0.053177803956297752 0.0013794098994325057 0 0.053417057410899339 0.0011179615880824822 0 0.053256980949895102 0.0012236341670669817 0 0.053177803956297752 0.0013794098994325057 0 0.053417057410899339 0.0011179615880824822 0 0.053177803956297752 0.0013794098994325057 0 0.053417648420612515 0.0012726710769906345 0 0.054000755349581132 0.00089451239995197104 0 0.05347957142444526 0.0012090231704983516 0 0.053417648420612515 0.0012726710769906345 0 0.054000755349581132 0.00089451239995197104 0 0.053417057410899339 0.0011179615880824822 0 0.053417648420612515 0.0012726710769906345 0 0.05347957142444526 0.0012090231704983516 0 0.053417648420612515 0.0012726710769906345 0 0.053298895970093685 0.001403752717397696 0 0.053298895970093685 0.001403752717397696 0 0.053114389572885452 0.001610003177802645 0 0.053089207549222805 0.0016203689391763737 0 0.054060872187106583 0.00074254886603585793 0 0.052456555969525906 0.0010291941854655312 0 0.05347957142444526 0.0012090231704983516 0 0.053298895970093685 0.001403752717397696 0 0.053089207549222805 0.0016203689391763737 0 0.053417648420612515 0.0012726710769906345 0 0.053114389572885452 0.001610003177802645 0 0.052856199863008935 0.0017659014513882532 0 0.053417648420612515 0.0012726710769906345 0 0.053298895970093685 0.001403752717397696 0 0.053114389572885452 0.001610003177802645 0 0.053114389572885452 0.001610003177802645 0 0.052926173229095534 0.0018650384699138332 0 0.052856199863008935 0.0017659014513882532 0 0.052926173229095534 0.0018650384699138332 0 0.0526471456065635 0.002012891120164948 0 0.052856199863008935 0.0017659014513882532 0 0.053114389572885452 0.001610003177802645 0 0.052926173229095534 0.0018650384699138332 0 0.052985691426965083 0.0017844871443218123 0 0.053001660179312036 0.0014814181802075821 0 0.052456555969525906 0.0010291941854655312 0 0.052456555969525906 0.0010291941854655312 0 0.051407972521818078 0.0013076160238166207 0 0.052926173229095534 0.0018650384699138332 0 0.052985691426965083 0.0017844871443218123 0 0.053054167784274138 0.0017741295557334184 0 0.05052873553781214 0.00085888522857717638 0 0.049849098012090101 0.0014152138202356017 0 0.049665601943829601 0.00073023205753332591 0 0.05052873553781214 0.00085888522857717638 0 0.049665601943829601 0.00073023205753332591 0 0.049982195793784032 0.00034249362167231327 0 0.053054167784274138 0.0017741295557334184 0 0.052928868915778547 0.0017005707447389591 0 0.053187684433660821 0.0014076274098863387 0 0.051407972521818078 0.0013076160238166207 0 0.050604719250008208 0.00052825350063417866 0 0.049665601943829601 0.00073023205753332591 0 0.049982195793784032 0.00034249362167231327 0 0.049579793811500621 0.00012350694089466723 0 0.052926173229095534 0.0018650384699138332 0 0.05261291102699079 0.0018094764965598793 0 0.0526471456065635 0.002012891120164948 0 0.052926173229095534 0.0018650384699138332 0 0.052928868915778547 0.0017005707447389591 0 0.05261291102699079 0.0018094764965598793 0 0.052926173229095534 0.0018650384699138332 0 0.053054167784274138 0.0017741295557334184 0 0.052928868915778547 0.0017005707447389591 0 0.052928868915778547 0.0017005707447389591 0 0.05261291102699079 0.0018094764965598793 0 0.052827396217748276 0.0015299305083027301 0 0.05261291102699079 0.0018094764965598793 0 0.052177953704011772 0.0024391684411218624 0 0.051897388801006625 0.0012971299452256306 0 0.05261291102699079 0.0018094764965598793 0 0.0526471456065635 0.002012891120164948 0 0.052177953704011772 0.0024391684411218624 0 0.0526471456065635 0.002012891120164948 0 0.052856199863008935 0.0017659014513882532 0 0.052177953704011772 0.0024391684411218624 0 0.053368709557736031 0.0022707203275487853 0 0.053058870146518063 0.001609088852507096 0 0.052177953704011772 0.0024391684411218624 0 0.053058870146518063 0.001609088852507096 0 0.052856199863008935 0.0017659014513882532 0 0.052177953704011772 0.0024391684411218624 0 0.052177953704011772 0.0024391684411218624 0 0.050327816498132144 0.0013138505730245166 0 0.051897388801006625 0.0012971299452256306 0 0.050327816498132144 0.0013138505730245166 0 0.051897388801006625 0.0012971299452256306 0 0.050923063942258547 0.00027266898182185819 0 0.051897388801006625 0.0012971299452256306 0 0.052399310366829328 0.0003179505373270733 0 0.052595273429021004 0.001178004131000628 0 0.05261291102699079 0.0018094764965598793 0 0.051897388801006625 0.0012971299452256306 0 0.052595273429021004 0.001178004131000628 0 0.051897388801006625 0.0012971299452256306 0 0.052399310366829328 0.0003179505373270733 0 0.050923063942258547 0.00027266898182185819 0 0.048994854448915937 -0.00032462525035599829 0 0.050327816498132144 0.0013138505730245166 0 0.050923063942258547 0.00027266898182185819 0 0.048994854448915937 -0.00032462525035599829 0 0.050923063942258547 0.00027266898182185819 0 0.050594536426615488 -0.001159907382391287 0 0.052399310366829328 0.0003179505373270733 0 0.050923063942258547 0.00027266898182185819 0 0.050594536426615488 -0.001159907382391287 0 0.050675499998223877 -0.00033709354984986898 0 0.049401226491781386 -0.0015301843426458695 0 0.048706587080970469 -0.0011124647671772231 0 0.048274570772954703 -0.0019563973815757878 0 0.048803084139661543 -0.0019826914089265679 0 0.048274570772954703 -0.0019563973815757878 0 0.048803084139661543 -0.0019826914089265679 0 0.048597115575098992 -0.0026173134330876036 0 0.048803084139661543 -0.0019826914089265679 0 0.048975727356836161 -0.00248903226299168 0 0.048597115575098992 -0.0026173134330876036 0 0.048160405681771455 -0.0023699522513366249 0 0.048274570772954703 -0.0019563973815757878 0 0.048300856703315027 -0.0025979112259404166 0 0.048305803472045529 -0.0023151761184376667 0 0.049401226491781386 -0.0015301843426458695 0 0.048274570772954703 -0.0019563973815757878 0 0.048300856703315027 -0.0025979112259404166 0 0.048597115575098992 -0.0026173134330876036 0 0.049886639506777068 -0.0019388106341460742 0 0.05011762215983194 -0.0025751582349390944 0 0.049405768837775352 -0.0026569412476348661 0 0.049302484035977388 -0.0019453299112536637 0 0.049886639506777068 -0.0019388106341460742 0 0.049405768837775352 -0.0026569412476348661 0 0.048975727356836161 -0.00248903226299168 0 0.049302484035977388 -0.0019453299112536637 0 0.049405768837775352 -0.0026569412476348661 0 0.048803084139661543 -0.0019826914089265679 0 0.048975727356836161 -0.00248903226299168 0 0.049302484035977388 -0.0019453299112536637 0 0.048706587080970469 -0.0011124647671772231 0 0.048803084139661543 -0.0019826914089265679 0 0.049137805073954051 -0.0013648491395317189 0 0.048803084139661543 -0.0019826914089265679 0 0.049302484035977388 -0.0019453299112536637 0 0.049137805073954051 -0.0013648491395317189 0 0.049302484035977388 -0.0019453299112536637 0 0.049886639506777068 -0.0019388106341460742 0 0.049715176115279203 -0.0011490938645558678 0 0.049302484035977388 -0.0019453299112536637 0 0.049137805073954051 -0.0013648491395317189 0 0.049715176115279203 -0.0011490938645558678 0 0.049886639506777068 -0.0019388106341460742 0 0.049715176115279203 -0.0011490938645558678 0 0.050322273293458175 -0.0012706132537852082 0 0.049137805073954051 -0.0013648491395317189 0 0.049715176115279203 -0.0011490938645558678 0 0.049328386994211208 -0.00066543676027009345 0 0.049715176115279203 -0.0011490938645558678 0 0.049328386994211208 -0.00066543676027009345 0 0.049943835405519416 -0.00041877835573311611 0 0.049715176115279203 -0.0011490938645558678 0 0.049943835405519416 -0.00041877835573311611 0 0.050340037346370638 -0.00067019554975316362 0 0.050675499998223877 -0.00033709354984986898 0 0.050604719250008208 0.00052825350063417866 0 0.048706587080970469 -0.0011124647671772231 0 0.049328386994211208 -0.00066543676027009345 0 0.049419126915613544 -0.00014443540398435931 0 0.048706587080970469 -0.0011124647671772231 0 0.049137805073954051 -0.0013648491395317189 0 0.049328386994211208 -0.00066543676027009345 0 0.052399310366829328 0.0003179505373270733 0 0.052595273429021004 0.001178004131000628 0 0.053187684433660821 0.0014076274098863387 0 0.052595273429021004 0.001178004131000628 0 0.052827396217748276 0.0015299305083027301 0 0.053187684433660821 0.0014076274098863387 0 0.052928868915778547 0.0017005707447389591 0 0.052827396217748276 0.0015299305083027301 0 0.053187684433660821 0.0014076274098863387 0 0.05261291102699079 0.0018094764965598793 0 0.052595273429021004 0.001178004131000628 0 0.052827396217748276 0.0015299305083027301 0 0.049943835405519416 -0.00041877835573311611 0 0.049749009977721206 -0.00012719385963825283 0 0.050352882606170324 7.6592729930226452e-05 0 0.049328386994211208 -0.00066543676027009345 0 0.049749009977721206 -0.00012719385963825283 0 0.049442281107179332 -2.1929250477251874e-06 0 0.049594740836176758 -0.00074121803798161479 0 0.050604719250008208 0.00052825350063417866 0 0.049328386994211208 -0.00066543676027009345 0 0.049943835405519416 -0.00041877835573311611 0 0.049749009977721206 -0.00012719385963825283 0 0.049749009977721206 -0.00012719385963825283 0 0.049579793811500621 0.00012350694089466723 0 0.049442281107179332 -2.1929250477251874e-06 0 0.049665601943829601 0.00073023205753332591 0 0.049579793811500621 0.00012350694089466723 0 0.049457212341313873 1.1505369099869838e-05 0 0.050303392389273498 0.00030065450947386975 0 0.050604719250008208 0.00052825350063417866 0 0.049982195793784032 0.00034249362167231327 0 0.049749009977721206 -0.00012719385963825283 0 0.050352882606170324 7.6592729930226452e-05 0 0.049982195793784032 0.00034249362167231327 0 0.049749009977721206 -0.00012719385963825283 0 0.049579793811500621 0.00012350694089466723 0 0.050352882606170324 7.6592729930226452e-05 0 0.051201509950144233 0.00031609522055609982 0 0.050886505010821335 -0.00033453270203516808 0 0.049943835405519416 -0.00041877835573311611 0 0.050352882606170324 7.6592729930226452e-05 0 0.050340037346370638 -0.00067019554975316362 0 0.050352882606170324 7.6592729930226452e-05 0 0.050886505010821335 -0.00033453270203516808 0 0.050340037346370638 -0.00067019554975316362 0 0.052664621165846991 9.3051997697774115e-05 0 0.052924359419105386 -0.00031734467816992831 0 0.051396655495691751 0.0008221363747049048 0 0.051694637545248001 -0.00024950940970574966 0 0.052486431176810726 -4.2915867359342408e-05 0 0.052664621165846991 9.3051997697774115e-05 0 0.050924951992165124 -0.00027489433413959872 0 0.051396655495691751 0.0008221363747049048 0 0.050886505010821335 -0.00033453270203516808 0 0.051694637545248001 -0.00024950940970574966 0 0.050886505010821335 -0.00033453270203516808 0 0.051694637545248001 -0.00024950940970574966 0 0.051566661696798764 -0.00097646327732291778 0 0.051694637545248001 -0.00024950940970574966 0 0.051566661696798764 -0.00097646327732291778 0 0.052410123669825337 -0.0005421999372217267 0 0.050886505010821335 -0.00033453270203516808 0 0.051566661696798764 -0.00097646327732291778 0 0.050826414837128853 -0.00097084019704902916 0 0.050826414837128853 -0.00097084019704902916 0 0.050340037346370638 -0.00067019554975316362 0 0.050322273293458175 -0.0012706132537852082 0 0.049715176115279203 -0.0011490938645558678 0 0.050340037346370638 -0.00067019554975316362 0 0.050322273293458175 -0.0012706132537852082 0 0.050886505010821335 -0.00033453270203516808 0 0.050826414837128853 -0.00097084019704902916 0 0.050340037346370638 -0.00067019554975316362 0 0.053451701843939825 -0.00065842789418925568 0 0.053450271113390353 -0.00064278409033583059 0 0.05328668077536157 -0.00058505390403084626 0 0.053451701843939825 -0.00065842789418925568 0 0.053301040070819726 -0.00069035763727319055 0 0.053627023753836954 -0.00058227973706696714 0 0.053451701843939825 -0.00065842789418925568 0 0.05328668077536157 -0.00058505390403084626 0 0.053301040070819726 -0.00069035763727319055 0 0.053466869725019066 -0.00059508094403935971 0 0.053451701843939825 -0.00065842789418925568 0 0.053450271113390353 -0.00064278409033583059 0 0.053466869725019066 -0.00059508094403935971 0 0.053372947395652098 -0.00060919350022292586 0 0.053450271113390353 -0.00064278409033583059 0 0.051694637545248001 -0.00024950940970574966 0 0.052486431176810726 -4.2915867359342408e-05 0 0.052410123669825337 -0.0005421999372217267 0 0.051566661696798764 -0.00097646327732291778 0 0.052410123669825337 -0.0005421999372217267 0 0.051822498764844301 -0.0014997413712820346 0 0.052924359419105386 -0.00031734467816992831 0 0.053281831720282884 -0.00058421207048817017 0 0.052486431176810726 -4.2915867359342408e-05 0 0.052410123669825337 -0.0005421999372217267 0 0.052909056111893615 -0.00062020186209530662 0 0.052486431176810726 -4.2915867359342408e-05 0 0.052909056111893615 -0.00062020186209530662 0 0.05328668077536157 -0.00058505390403084626 0 0.052909056111893615 -0.00062020186209530662 0 0.05328668077536157 -0.00058505390403084626 0 0.053190566257366373 -0.00066418974344430485 0 0.052909056111893615 -0.00062020186209530662 0 0.053190566257366373 -0.00066418974344430485 0 0.053315301614175345 -0.00067475260170407278 0 0.05328668077536157 -0.00058505390403084626 0 0.053249734118380992 -0.00064151031969811496 0 0.053190566257366373 -0.00066418974344430485 0 0.05328668077536157 -0.00058505390403084626 0 0.053249734118380992 -0.00064151031969811496 0 0.053207180890190851 -0.00067009117913360882 0 0.053249734118380992 -0.00064151031969811496 0 0.053315301614175345 -0.00067475260170407278 0 0.053368805161130323 -0.00048869241625432332 0 0.053249734118380992 -0.00064151031969811496 0 0.053190566257366373 -0.00066418974344430485 0 0.053315301614175345 -0.00067475260170407278 0 0.052410123669825337 -0.0005421999372217267 0 0.052612468419598962 -0.0019673790139882047 0 0.051822498764844301 -0.0014997413712820346 0 0.052410123669825337 -0.0005421999372217267 0 0.052909056111893615 -0.00062020186209530662 0 0.053315301614175345 -0.00067475260170407278 0 0.052425755078934946 -0.0004612429324222367 0 0.053065598288691278 -0.0014080914574124016 0 0.052612468419598962 -0.0019673790139882047 0 0.051822498764844301 -0.0014997413712820346 0 0.051646660451158788 -0.0022628387567184224 0 0.052612468419598962 -0.0019673790139882047 0 0.052297044418281396 -0.002699174607502311 0 0.053031492700541569 -0.0033252714470572609 0 0.052297044418281396 -0.002699174607502311 0 0.051646660451158788 -0.0022628387567184224 0 0.051700586469991462 -0.0032835615168156267 0 0.052612468419598962 -0.0019673790139882047 0 0.052297044418281396 -0.002699174607502311 0 0.051646660451158788 -0.0022628387567184224 0 0.053249734118380992 -0.00064151031969811496 0 0.053368805161130323 -0.00048869241625432332 0 0.053136764516933895 -0.00042936830467599712 0 0.053315301614175345 -0.00067475260170407278 0 0.053368805161130323 -0.00048869241625432332 0 0.053447232610988028 -0.00030711465459278339 0 0.053368805161130323 -0.00048869241625432332 0 0.053331388734791416 -0.00016846192227692734 0 0.053136764516933895 -0.00042936830467599712 0 0.053065598288691278 -0.0014080914574124016 0 0.052133382281018721 -0.0013683146910693032 0 0.053330974507083552 -2.3983416639764997e-05 0 0.052133382281018721 -0.0013683146910693032 0 0.053368805161130323 -0.00048869241625432332 0 0.053331388734791416 -0.00016846192227692734 0 0.053624738660783988 8.4501229147731168e-05 0 0.049886639506777068 -0.0019388106341460742 0 0.050322273293458175 -0.0012706132537852082 0 0.050899259286109375 -0.001639775102308034 0 0.050826414837128853 -0.00097084019704902916 0 0.050322273293458175 -0.0012706132537852082 0 0.050899259286109375 -0.001639775102308034 0 0.051566661696798764 -0.00097646327732291778 0 0.050826414837128853 -0.00097084019704902916 0 0.050899259286109375 -0.001639775102308034 0 0.051566661696798764 -0.00097646327732291778 0 0.051822498764844301 -0.0014997413712820346 0 0.050899259286109375 -0.001639775102308034 0 0.051822498764844301 -0.0014997413712820346 0 0.050899259286109375 -0.001639775102308034 0 0.051646660451158788 -0.0022628387567184224 0 0.049977884478926871 -0.0025342747543330006 0 0.05124536688734796 -0.0033144794825864929 0 0.051646660451158788 -0.0022628387567184224 0 0.05011762215983194 -0.0025751582349390944 0 0.051700586469991462 -0.0032835615168156267 0 0.050899259286109375 -0.001639775102308034 0 0.051646660451158788 -0.0022628387567184224 0 0.05011762215983194 -0.0025751582349390944 0 0.049886639506777068 -0.0019388106341460742 0 0.050899259286109375 -0.001639775102308034 0 0.05011762215983194 -0.0025751582349390944 0 0.05011762215983194 -0.0025751582349390944 0 0.049902091980460146 -0.0029307250838915048 0 0.049573886586122454 -0.0030039505420079745 0 0.05011762215983194 -0.0025751582349390944 0 0.050031387068016402 -0.0028335236761841921 0 0.049902091980460146 -0.0029307250838915048 0 0.050031387068016402 -0.0028335236761841921 0 0.049902091980460146 -0.0029307250838915048 0 0.049975621765664426 -0.0030063356806067482 0 0.049902091980460146 -0.0029307250838915048 0 0.049975621765664426 -0.0030063356806067482 0 0.049881579555260423 -0.0032083729252814466 0 0.049902091980460146 -0.0029307250838915048 0 0.049881579555260423 -0.0032083729252814466 0 0.049593491136543037 -0.0032862402451466315 0 0.049902091980460146 -0.0029307250838915048 0 0.049593491136543037 -0.0032862402451466315 0 0.049573886586122454 -0.0030039505420079745 0 0.053551363207303471 0.00041613027158914274 0 0.053435337536649821 0.00012771549382434102 0 0.053236963645670501 0.0001506966502015721 0 0.0483503212401259 0.0010067634112048479 0 0.052133382281018721 -0.0013683146910693032 0 0.053551363207303471 0.00041613027158914274 0 0.053435337536649821 0.00012771549382434102 0 0.053624738660783988 8.4501229147731168e-05 0 0.053331388734791416 -0.00016846192227692734 0 0.053435337536649821 0.00012771549382434102 0 0.053236963645670501 0.0001506966502015721 0 0.053331388734791416 -0.00016846192227692734 0 0.053435337536649821 0.00012771549382434102 0 0.053624738660783988 8.4501229147731168e-05 0 0.050313089375817174 -0.00017501187515271032 0 0.050741836639222361 -0.0013839765202019094 0 0.050806175258529734 -0.00038208573328565724 0 0.052133382281018721 -0.0013683146910693032 0 0.050118608602926794 -0.0014453710928283672 0 0.0483503212401259 0.0010067634112048479 0 0.050118608602926794 -0.0014453710928283672 0 0.051700586469991462 -0.0032835615168156267 0 0.053031492700541569 -0.0033252714470572609 0 0.052989207614152559 -0.0037707419097071922 0 0.05124536688734796 -0.0033144794825864929 0 0.050118608602926794 -0.0014453710928283672 0 0.050031387068016402 -0.0028335236761841921 0 0.050259468774949627 -0.0029470907010320049 0 0.050096729831498876 -0.0030905069201239686 0 0.052297044418281396 -0.002699174607502311 0 0.051700586469991462 -0.0032835615168156267 0 0.053031492700541569 -0.0033252714470572609 0 0.050031387068016402 -0.0028335236761841921 0 0.049975621765664426 -0.0030063356806067482 0 0.050096729831498876 -0.0030905069201239686 0 0.049975621765664426 -0.0030063356806067482 0 0.049881579555260423 -0.0032083729252814466 0 0.050096729831498876 -0.0030905069201239686 0 0.049881579555260423 -0.0032083729252814466 0 0.050096729831498876 -0.0030905069201239686 0 0.050038987581771277 -0.0032815440529314426 0 0.044634986880419343 0.0014276589983478528 0 0.044611914737452629 0.00159466218203143 0 0.044557297345157697 0.001651802067347838 0 0.044287987689035108 0.003743430099436272 0 0.04479903451280387 0.0032946932861114189 0 0.044557297345157697 0.001651802067347838 0 0.0483503212401259 0.0010067634112048479 0 0.043525021440436268 0.0025457938467561272 0 0.044634986880419343 0.0014276589983478528 0 0.044675340325146154 0.0014097021914026915 0 0.044611914737452629 0.00159466218203143 0 0.050118608602926794 -0.0014453710928283672 0 0.047207934670969343 -0.0007640140683238374 0 0.050259468774949627 -0.0029470907010320049 0 0.050096729831498876 -0.0030905069201239686 0 0.05022331195794133 -0.0032716886377994838 0 0.044611914737452629 0.00159466218203143 0 0.044541392865954058 0.0015608080909609073 0 0.044557297345157697 0.001651802067347838 0 0.05022331195794133 -0.0032716886377994838 0 0.050038987581771277 -0.0032815440529314426 0 0.049983371016020142 -0.0034936403118862821 0 0.050096729831498876 -0.0030905069201239686 0 0.05022331195794133 -0.0032716886377994838 0 0.050038987581771277 -0.0032815440529314426 0 0.050038987581771277 -0.0032815440529314426 0 0.049983371016020142 -0.0034936403118862821 0 0.049839181515064924 -0.0034683660733696125 0 0.05022331195794133 -0.0032716886377994838 0 0.049983371016020142 -0.0034936403118862821 0 0.050113886179892743 -0.0036937857747130266 0 0.049983371016020142 -0.0034936403118862821 0 0.049901286080615365 -0.0037367564356718536 0 0.049736456177669461 -0.0036808657291011434 0 0.049983371016020142 -0.0034936403118862821 0 0.049901286080615365 -0.0037367564356718536 0 0.050113886179892743 -0.0036937857747130266 0 0.049901286080615365 -0.0037367564356718536 0 0.050113886179892743 -0.0036937857747130266 0 0.049995992314022637 -0.0038757430895491884 0 0.047207934670969343 -0.0007640140683238374 0 0.047406678715198686 -0.000942609926887499 0 0.044611914737452629 0.00159466218203143 0 0.04453597159385448 0.00154331872200841 0 0.044541392865954058 0.0015608080909609073 0 0.04453597159385448 0.00154331872200841 0 0.044510621567311455 0.0015562977983205027 0 0.044541392865954058 0.0015608080909609073 0 0.049593491136543037 -0.0032862402451466315 0 0.049686381546574662 -0.0034529527246405403 0 0.049383041716410107 -0.0036031271386666951 0 0.049593491136543037 -0.0032862402451466315 0 0.049383041716410107 -0.0036031271386666951 0 0.049232933773553603 -0.0033911973192960903 0 0.049881579555260423 -0.0032083729252814466 0 0.049593491136543037 -0.0032862402451466315 0 0.049686381546574662 -0.0034529527246405403 0 0.049881579555260423 -0.0032083729252814466 0 0.050038987581771277 -0.0032815440529314426 0 0.049839181515064924 -0.0034683660733696125 0 0.049881579555260423 -0.0032083729252814466 0 0.049839181515064924 -0.0034683660733696125 0 0.049686381546574662 -0.0034529527246405403 0 0.049686381546574662 -0.0034529527246405403 0 0.049736456177669461 -0.0036808657291011434 0 0.04945205982849625 -0.0038398624837672961 0 0.049983371016020142 -0.0034936403118862821 0 0.049839181515064924 -0.0034683660733696125 0 0.049736456177669461 -0.0036808657291011434 0 0.049839181515064924 -0.0034683660733696125 0 0.049686381546574662 -0.0034529527246405403 0 0.049736456177669461 -0.0036808657291011434 0 0.049901286080615365 -0.0037367564356718536 0 0.049736456177669461 -0.0036808657291011434 0 0.049676664991333185 -0.0038995313138803995 0 0.049736456177669461 -0.0036808657291011434 0 0.04945205982849625 -0.0038398624837672961 0 0.049676664991333185 -0.0038995313138803995 0 0.049686381546574662 -0.0034529527246405403 0 0.049383041716410107 -0.0036031271386666951 0 0.04945205982849625 -0.0038398624837672961 0 0.049383041716410107 -0.0036031271386666951 0 0.049217388907945483 -0.0038839960827011491 0 0.04945205982849625 -0.0038398624837672961 0 0.049383041716410107 -0.0036031271386666951 0 0.049079077838601132 -0.0037512628607149975 0 0.049217388907945483 -0.0038839960827011491 0 0.049383041716410107 -0.0036031271386666951 0 0.049079077838601132 -0.0037512628607149975 0 0.049232933773553603 -0.0033911973192960903 0 0.049079077838601132 -0.0037512628607149975 0 0.049232933773553603 -0.0033911973192960903 0 0.048898920950824341 -0.0036153039546623082 0 0.049232933773553603 -0.0033911973192960903 0 0.048836334442643445 -0.0033497344157176778 0 0.049210858849758725 -0.0031179380507638656 0 0.049232933773553603 -0.0033911973192960903 0 0.048836334442643445 -0.0033497344157176778 0 0.048898920950824341 -0.0036153039546623082 0 0.048836334442643445 -0.0033497344157176778 0 0.048898920950824341 -0.0036153039546623082 0 0.048627802088109039 -0.0036824703180657965 0 0.048898920950824341 -0.0036153039546623082 0 0.048759109075880054 -0.0039134418400502621 0 0.048627802088109039 -0.0036824703180657965 0 0.049079077838601132 -0.0037512628607149975 0 0.048898920950824341 -0.0036153039546623082 0 0.048759109075880054 -0.0039134418400502621 0 0.048419495283466556 -0.0036699235162630669 0 0.048627802088109039 -0.0036824703180657965 0 0.048387972277848419 -0.0040746171227704301 0 0.048759109075880054 -0.0039134418400502621 0 0.048627802088109039 -0.0036824703180657965 0 0.048387972277848419 -0.0040746171227704301 0 0.048023656300361095 -0.003932378786428257 0 0.048376342655614135 -0.0040964652612976386 0 0.047824881855214357 -0.0041264309497900959 0 0.048387972277848419 -0.0040746171227704301 0 0.047968366134625157 -0.0042077791110042154 0 0.048419495283466556 -0.0036699235162630669 0 0.048194313444864953 -0.0036862101623913041 0 0.048387972277848419 -0.0040746171227704301 0 0.047538754525559022 -0.0042934084095519048 0 0.047968366134625157 -0.0042077791110042154 0 0.047909949004092241 -0.0042979856341055708 0 0.047538754525559022 -0.0042934084095519048 0 0.047824881855214357 -0.0041264309497900959 0 0.047968366134625157 -0.0042077791110042154 0 0.048194313444864953 -0.0036862101623913041 0 0.04836090523137921 -0.0034308188179100431 0 0.048128675553515535 -0.0033751168614882831 0 0.048419495283466556 -0.0036699235162630669 0 0.048194313444864953 -0.0036862101623913041 0 0.04836090523137921 -0.0034308188179100431 0 0.048836334442643445 -0.0033497344157176778 0 0.048627802088109039 -0.0036824703180657965 0 0.048534571140636119 -0.0034913416395307983 0 0.048419495283466556 -0.0036699235162630669 0 0.048627802088109039 -0.0036824703180657965 0 0.048534571140636119 -0.0034913416395307983 0 0.048419495283466556 -0.0036699235162630669 0 0.04836090523137921 -0.0034308188179100431 0 0.048534571140636119 -0.0034913416395307983 0 0.04836090523137921 -0.0034308188179100431 0 0.048534571140636119 -0.0034913416395307983 0 0.048612859045105788 -0.0031638468802191863 0 0.048836334442643445 -0.0033497344157176778 0 0.048534571140636119 -0.0034913416395307983 0 0.048612859045105788 -0.0031638468802191863 0 0.048612859045105788 -0.0031638468802191863 0 0.048597115575098992 -0.0026173134330876036 0 0.048919847627138746 -0.0029332509539653647 0 0.048836334442643445 -0.0033497344157176778 0 0.048612859045105788 -0.0031638468802191863 0 0.048919847627138746 -0.0029332509539653647 0 0.048612859045105788 -0.0031638468802191863 0 0.048344749568065531 -0.0030739722990969684 0 0.048597115575098992 -0.0026173134330876036 0 0.048024209957127521 -0.0029900116297116252 0 0.048128675553515535 -0.0033751168614882831 0 0.048344749568065531 -0.0030739722990969684 0 0.04836090523137921 -0.0034308188179100431 0 0.048128675553515535 -0.0033751168614882831 0 0.048344749568065531 -0.0030739722990969684 0 0.04836090523137921 -0.0034308188179100431 0 0.048612859045105788 -0.0031638468802191863 0 0.048344749568065531 -0.0030739722990969684 0 0.048024209957127521 -0.0029900116297116252 0 0.048344749568065531 -0.0030739722990969684 0 0.048300856703315027 -0.0025979112259404166 0 0.048344749568065531 -0.0030739722990969684 0 0.048300856703315027 -0.0025979112259404166 0 0.048597115575098992 -0.0026173134330876036 0 0.048975727356836161 -0.00248903226299168 0 0.048597115575098992 -0.0026173134330876036 0 0.048919847627138746 -0.0029332509539653647 0 0.049405768837775352 -0.0026569412476348661 0 0.049210858849758725 -0.0031179380507638656 0 0.048919847627138746 -0.0029332509539653647 0 0.048975727356836161 -0.00248903226299168 0 0.049405768837775352 -0.0026569412476348661 0 0.048919847627138746 -0.0029332509539653647 0 0.05011762215983194 -0.0025751582349390944 0 0.049405768837775352 -0.0026569412476348661 0 0.049573886586122454 -0.0030039505420079745 0 0.049405768837775352 -0.0026569412476348661 0 0.049210858849758725 -0.0031179380507638656 0 0.049573886586122454 -0.0030039505420079745 0 0.049593491136543037 -0.0032862402451466315 0 0.049232933773553603 -0.0033911973192960903 0 0.049573886586122454 -0.0030039505420079745 0 0.049232933773553603 -0.0033911973192960903 0 0.049210858849758725 -0.0031179380507638656 0 0.049573886586122454 -0.0030039505420079745 0 0.048836334442643445 -0.0033497344157176778 0 0.049210858849758725 -0.0031179380507638656 0 0.048919847627138746 -0.0029332509539653647 0 0.049358370945100427 0.0015787557493611992 0 0.049921448629905912 0.0012197614180929049 0 0.049734983931614178 0.0019002183177335317 0 0.049293016608952571 0.0010757838056155639 0 0.049921448629905912 0.0012197614180929049 0 0.049616657409301219 0.00053018676484249108 0 0.049293016608952571 0.0010757838056155639 0 0.048742885448251387 0.00062508531997198602 0 0.048767044202539217 0.001458948537685514 0 0.049293016608952571 0.0010757838056155639 0 0.049358370945100427 0.0015787557493611992 0 0.048767044202539217 0.001458948537685514 0 0.049293016608952571 0.0010757838056155639 0 0.049358370945100427 0.0015787557493611992 0 0.049921448629905912 0.0012197614180929049 0 0.049921448629905912 0.0012197614180929049 0 0.050334026138000067 0.0017448841844769727 0 0.050604143935275084 0.001068757614391593 0 0.049921448629905912 0.0012197614180929049 0 0.050398547867930542 0.0005067076743757188 0 0.050604143935275084 0.001068757614391593 0 0.049921448629905912 0.0012197614180929049 0 0.050398547867930542 0.0005067076743757188 0 0.049616657409301219 0.00053018676484249108 0 0.050398547867930542 0.0005067076743757188 0 0.050604143935275084 0.001068757614391593 0 0.05103245039875224 0.00044141784886738181 0 0.050398547867930542 0.0005067076743757188 0 0.050139728622635771 -0.00014785830537287773 0 0.050965782924427543 -0.00013490235560057116 0 0.050398547867930542 0.0005067076743757188 0 0.05103245039875224 0.00044141784886738181 0 0.050965782924427543 -0.00013490235560057116 0 0.050398547867930542 0.0005067076743757188 0 0.049616657409301219 0.00053018676484249108 0 0.050139728622635771 -0.00014785830537287773 0 0.049616657409301219 0.00053018676484249108 0 0.04928852515383924 -6.3882587369578806e-05 0 0.050139728622635771 -0.00014785830537287773 0 0.049293016608952571 0.0010757838056155639 0 0.049616657409301219 0.00053018676484249108 0 0.048742885448251387 0.00062508531997198602 0 0.049616657409301219 0.00053018676484249108 0 0.048742885448251387 0.00062508531997198602 0 0.04928852515383924 -6.3882587369578806e-05 0 0.048742885448251387 0.00062508531997198602 0 0.04928852515383924 -6.3882587369578806e-05 0 0.048472578340266859 -0.00043483083026132875 0 0.048742885448251387 0.00062508531997198602 0 0.047713699255692042 0.0002512100200758909 0 0.048472578340266859 -0.00043483083026132875 0 0.048742885448251387 0.00062508531997198602 0 0.047713699255692042 0.0002512100200758909 0 0.047907490475658968 0.0011946822873924322 0 0.047713699255692042 0.0002512100200758909 0 0.047127507448596201 -0.00081110738366727551 0 0.045942768870389818 0.00072896011279654973 0 0.047713699255692042 0.0002512100200758909 0 0.047907490475658968 0.0011946822873924322 0 0.045942768870389818 0.00072896011279654973 0 0.048030080508034631 0.0029431789030154123 0 0.045720139163967236 0.0005023413894281577 0 0.047907490475658968 0.0011946822873924322 0 0.04761813248420798 0.0019702358298513663 0 0.045942768870389818 0.00072896011279654973 0 0.047907490475658968 0.0011946822873924322 0 0.048386858013403505 0.0019473707277692773 0 0.04761813248420798 0.0019702358298513663 0 0.047907490475658968 0.0011946822873924322 0 0.048767044202539217 0.001458948537685514 0 0.048386858013403505 0.0019473707277692773 0 0.048742885448251387 0.00062508531997198602 0 0.047907490475658968 0.0011946822873924322 0 0.048767044202539217 0.001458948537685514 0 0.048030080508034631 0.0029431789030154123 0 0.043873645753987785 0.0023522297478018872 0 0.048386858013403505 0.0019473707277692773 0 0.04761813248420798 0.0019702358298513663 0 0.048621746245437678 0.0027055356279274928 0 0.048386858013403505 0.0019473707277692773 0 0.048621746245437678 0.0027055356279274928 0 0.048995717736050763 0.0021323642127160157 0 0.048767044202539217 0.001458948537685514 0 0.048386858013403505 0.0019473707277692773 0 0.048995717736050763 0.0021323642127160157 0 0.046941560419252799 0.0030070405783653919 0 0.046355634046623628 0.0044071398294678911 0 0.045526941488789642 0.0025618976666593038 0 0.046941560419252799 0.0030070405783653919 0 0.046355634046623628 0.0044071398294678911 0 0.04802192137772384 0.0049779600579175076 0 0.034940628553587393 0.0030209376176040447 0 0.035296816922136563 0.00082485771331788059 0 0.033667979385999157 0.0011253386289607923 0 0.034940628553587393 0.0030209376176040447 0 0.032160404665328816 0.0017391885020547244 0 0.033667979385999157 0.0011253386289607923 0 0.039971290786362176 0.0036204021266972109 0 0.043873645753987785 0.0023522297478018872 0 0.048621746245437678 0.0027055356279274928 0 0.049150463040429776 0.0024456453129243329 0 0.048995717736050763 0.0021323642127160157 0 0.048621746245437678 0.0027055356279274928 0 0.049150463040429776 0.0024456453129243329 0 0.049295491637189263 0.0026869321009651138 0 0.043873645753987785 0.0023522297478018872 0 0.049497977165617227 0.0026281431617925922 0 0.049150463040429776 0.0024456453129243329 0 0.049600808939008451 0.0023159922333759256 0 0.049295491637189263 0.0026869321009651138 0 0.049150463040429776 0.0024456453129243329 0 0.048995717736050763 0.0021323642127160157 0 0.049600808939008451 0.0023159922333759256 0 0.049358370945100427 0.0015787557493611992 0 0.048995717736050763 0.0021323642127160157 0 0.049734983931614178 0.0019002183177335317 0 0.049358370945100427 0.0015787557493611992 0 0.048767044202539217 0.001458948537685514 0 0.048995717736050763 0.0021323642127160157 0 0.048995717736050763 0.0021323642127160157 0 0.049734983931614178 0.0019002183177335317 0 0.049600808939008451 0.0023159922333759256 0 0.050334026138000067 0.0017448841844769727 0 0.049734983931614178 0.0019002183177335317 0 0.05011790483902951 0.0021736313422550291 0 0.049921448629905912 0.0012197614180929049 0 0.050334026138000067 0.0017448841844769727 0 0.049734983931614178 0.0019002183177335317 0 0.05011790483902951 0.0021736313422550291 0 0.050187330156016209 0.002336260249953731 0 0.049647589308963749 0.0025914935820342574 0 0.05011790483902951 0.0021736313422550291 0 0.049600808939008451 0.0023159922333759256 0 0.049647589308963749 0.0025914935820342574 0 0.049600808939008451 0.0023159922333759256 0 0.049647589308963749 0.0025914935820342574 0 0.049295491637189263 0.0026869321009651138 0 0.049734983931614178 0.0019002183177335317 0 0.05011790483902951 0.0021736313422550291 0 0.049600808939008451 0.0023159922333759256 0 0.05011790483902951 0.0021736313422550291 0 0.050427659414768226 0.0019951698958978344 0 0.050187330156016209 0.002336260249953731 0 0.050427659414768226 0.0019951698958978344 0 0.050447957593092251 0.0020755093201375342 0 0.050187330156016209 0.002336260249953731 0 0.05011790483902951 0.0021736313422550291 0 0.050427659414768226 0.0019951698958978344 0 0.050833020312642828 0.0019854480599615634 0 0.050427659414768226 0.0019951698958978344 0 0.050447957593092251 0.0020755093201375342 0 0.049744515291084888 0.0017619764097989673 0 0.043923897759694581 -0.00015023992754730208 0 0.050220270046760128 0.0017809427668718854 0 0.050787799042104682 0.0019602836784015092 0 0.050503041137737223 0.0022500890564682834 0 0.050427659414768226 0.0019951698958978344 0 0.049744515291084888 0.0017619764097989673 0 0.050833020312642828 0.0019854480599615634 0 0.049744515291084888 0.0017619764097989673 0 0.050833020312642828 0.0019854480599615634 0 0.048096993329975163 0.0031352008349249355 0 0.050334026138000067 0.0017448841844769727 0 0.05011790483902951 0.0021736313422550291 0 0.050833020312642828 0.0019854480599615634 0 0.050334026138000067 0.0017448841844769727 0 0.050833020312642828 0.0019854480599615634 0 0.050918724384324855 0.0013676223407658051 0 0.044541392865954058 0.0015608080909609073 0 0.044504172880712303 0.0015447002527176859 0 0.04459635226308465 0.001511225988852412 0 0.044510621567311455 0.0015562977983205027 0 0.044541392865954058 0.0015608080909609073 0 0.044504172880712303 0.0015447002527176859 0 0.044504172880712303 0.0015447002527176859 0 0.04459635226308465 0.001511225988852412 0 0.044466008797509608 0.0015017574419837181 0 0.043888266445838001 0.0014260304851222688 0 0.044466008797509608 0.0015017574419837181 0 0.044785371382539477 0.0014655203710735054 0 0.043923897759694581 -0.00015023992754730208 0 0.046753265591354939 0.0016599460901067433 0 0.050093128776066871 -0.00026404595049636317 0 0.049744515291084888 0.0017619764097989673 0 0.047818239254636352 0.0017186161789307496 0 0.04459635226308465 0.001511225988852412 0 0.044466008797509608 0.0015017574419837181 0 0.044785371382539477 0.0014655203710735054 0 0.043888266445838001 0.0014260304851222688 0 0.044466008797509608 0.0015017574419837181 0 0.044287240415263621 0.0016546896683797801 0 0.044504172880712303 0.0015447002527176859 0 0.044466008797509608 0.0015017574419837181 0 0.044287240415263621 0.0016546896683797801 0 0.049744515291084888 0.0017619764097989673 0 0.047818239254636352 0.0017186161789307496 0 0.048096993329975163 0.0031352008349249355 0 0.04479903451280387 0.0032946932861114189 0 0.044785371382539477 0.0014655203710735054 0 0.044557297345157697 0.001651802067347838 0 0.04459635226308465 0.001511225988852412 0 0.044785371382539477 0.0014655203710735054 0 0.044557297345157697 0.001651802067347838 0 0.044541392865954058 0.0015608080909609073 0 0.04459635226308465 0.001511225988852412 0 0.044557297345157697 0.001651802067347838 0 0.04479903451280387 0.0032946932861114189 0 0.047818239254636352 0.0017186161789307496 0 0.048096993329975163 0.0031352008349249355 0 0.044287987689035108 0.003743430099436272 0 0.04479903451280387 0.0032946932861114189 0 0.048096993329975163 0.0031352008349249355 0 0.0483503212401259 0.0010067634112048479 0 0.050503041137737223 0.0022500890564682834 0 0.053551363207303471 0.00041613027158914274 0 0.052753712960275541 0.0011397430400072472 0 0.053048922271758642 0.00041913340645329255 0 0.044597660029041489 0.0033245256204798451 0 0.046753265591354939 0.0016599460901067433 0 0.052753712960275541 0.0011397430400072472 0 0.052311494911019656 0.00074422704904234774 0 0.051718276163023651 0.001107912667645791 0 0.052753712960275541 0.0011397430400072472 0 0.052676962564580772 0.00044093165408735051 0 0.053048922271758642 0.00041913340645329255 0 0.052753712960275541 0.0011397430400072472 0 0.052311494911019656 0.00074422704904234774 0 0.052676962564580772 0.00044093165408735051 0 0.052311494911019656 0.00074422704904234774 0 0.052365633126535138 0.00037405734752522562 0 0.052676962564580772 0.00044093165408735051 0 0.052365633126535138 0.00037405734752522562 0 0.052609358397898542 3.0651364208208976e-05 0 0.052676962564580772 0.00044093165408735051 0 0.052365633126535138 0.00037405734752522562 0 0.052609358397898542 3.0651364208208976e-05 0 0.052155024892343534 0.00010485861035168307 0 0.052609358397898542 3.0651364208208976e-05 0 0.052676962564580772 0.00044093165408735051 0 0.052932687369450691 7.4862950426445298e-05 0 0.052676962564580772 0.00044093165408735051 0 0.053048922271758642 0.00041913340645329255 0 0.052932687369450691 7.4862950426445298e-05 0 0.053551363207303471 0.00041613027158914274 0 0.053048922271758642 0.00041913340645329255 0 0.053236963645670501 0.0001506966502015721 0 0.053048922271758642 0.00041913340645329255 0 0.052932687369450691 7.4862950426445298e-05 0 0.053236963645670501 0.0001506966502015721 0 0.052932687369450691 7.4862950426445298e-05 0 0.053236963645670501 0.0001506966502015721 0 0.053131752738888628 -0.00015524061675188617 0 0.053331388734791416 -0.00016846192227692734 0 0.053236963645670501 0.0001506966502015721 0 0.053131752738888628 -0.00015524061675188617 0 0.051248892428495452 0.00088013437660073072 0 0.050918724384324855 0.0013676223407658051 0 0.051718276163023651 0.001107912667645791 0 0.051248892428495452 0.00088013437660073072 0 0.050604143935275084 0.001068757614391593 0 0.05103245039875224 0.00044141784886738181 0 0.051248892428495452 0.00088013437660073072 0 0.050604143935275084 0.001068757614391593 0 0.050918724384324855 0.0013676223407658051 0 0.050334026138000067 0.0017448841844769727 0 0.050604143935275084 0.001068757614391593 0 0.050918724384324855 0.0013676223407658051 0 0.050833020312642828 0.0019854480599615634 0 0.052753712960275541 0.0011397430400072472 0 0.051718276163023651 0.001107912667645791 0 0.050833020312642828 0.0019854480599615634 0 0.050918724384324855 0.0013676223407658051 0 0.051718276163023651 0.001107912667645791 0 0.052311494911019656 0.00074422704904234774 0 0.051718276163023651 0.001107912667645791 0 0.051907917500181304 0.00058315238395788087 0 0.051248892428495452 0.00088013437660073072 0 0.051718276163023651 0.001107912667645791 0 0.051907917500181304 0.00058315238395788087 0 0.051248892428495452 0.00088013437660073072 0 0.051907917500181304 0.00058315238395788087 0 0.051619718740986337 0.00028463081720687624 0 0.051907917500181304 0.00058315238395788087 0 0.052155024892343534 0.00010485861035168307 0 0.051619718740986337 0.00028463081720687624 0 0.052311494911019656 0.00074422704904234774 0 0.052365633126535138 0.00037405734752522562 0 0.051907917500181304 0.00058315238395788087 0 0.052365633126535138 0.00037405734752522562 0 0.051907917500181304 0.00058315238395788087 0 0.052155024892343534 0.00010485861035168307 0 0.052155024892343534 0.00010485861035168307 0 0.051619718740986337 0.00028463081720687624 0 0.051895678645355173 -0.00031813789474130743 0 0.051619718740986337 0.00028463081720687624 0 0.05103245039875224 0.00044141784886738181 0 0.051417197391201687 -1.001474518273639e-06 0 0.051248892428495452 0.00088013437660073072 0 0.051619718740986337 0.00028463081720687624 0 0.05103245039875224 0.00044141784886738181 0 0.05103245039875224 0.00044141784886738181 0 0.051417197391201687 -1.001474518273639e-06 0 0.050965782924427543 -0.00013490235560057116 0 0.051417197391201687 -1.001474518273639e-06 0 0.051629712791303899 -0.00060077536535002303 0 0.050965782924427543 -0.00013490235560057116 0 0.051629712791303899 -0.00060077536535002303 0 0.051895678645355173 -0.00031813789474130743 0 0.052361632610289588 -0.00087459663458461104 0 0.051619718740986337 0.00028463081720687624 0 0.051417197391201687 -1.001474518273639e-06 0 0.051895678645355173 -0.00031813789474130743 0 0.051417197391201687 -1.001474518273639e-06 0 0.051629712791303899 -0.00060077536535002303 0 0.051895678645355173 -0.00031813789474130743 0 0.052155024892343534 0.00010485861035168307 0 0.051895678645355173 -0.00031813789474130743 0 0.052475493737925219 -0.00028603510903952759 0 0.052609358397898542 3.0651364208208976e-05 0 0.052155024892343534 0.00010485861035168307 0 0.052475493737925219 -0.00028603510903952759 0 0.052475493737925219 -0.00028603510903952759 0 0.052318515227156297 -0.00052341616202252058 0 0.052651270862879754 -0.00062448804541357522 0 0.051895678645355173 -0.00031813789474130743 0 0.052475493737925219 -0.00028603510903952759 0 0.052318515227156297 -0.00052341616202252058 0 0.051895678645355173 -0.00031813789474130743 0 0.052318515227156297 -0.00052341616202252058 0 0.052361632610289588 -0.00087459663458461104 0 0.052318515227156297 -0.00052341616202252058 0 0.052361632610289588 -0.00087459663458461104 0 0.052651270862879754 -0.00062448804541357522 0 0.052361632610289588 -0.00087459663458461104 0 0.052651270862879754 -0.00062448804541357522 0 0.052830775653421348 -0.00080080945569153245 0 0.051629712791303899 -0.00060077536535002303 0 0.052116476220592997 -0.0011035893369900666 0 0.050698520509486297 -0.00078690316942514561 0 0.051629712791303899 -0.00060077536535002303 0 0.052361632610289588 -0.00087459663458461104 0 0.052116476220592997 -0.0011035893369900666 0 0.053136764516933895 -0.00042936830467599712 0 0.052862514814686692 -0.00033229063146408713 0 0.05301256491366458 -0.00066046305618558301 0 0.053331388734791416 -0.00016846192227692734 0 0.053136764516933895 -0.00042936830467599712 0 0.053131752738888628 -0.00015524061675188617 0 0.053136764516933895 -0.00042936830467599712 0 0.053131752738888628 -0.00015524061675188617 0 0.052862514814686692 -0.00033229063146408713 0 0.052932687369450691 7.4862950426445298e-05 0 0.053131752738888628 -0.00015524061675188617 0 0.052862514814686692 -0.00033229063146408713 0 0.052609358397898542 3.0651364208208976e-05 0 0.052932687369450691 7.4862950426445298e-05 0 0.052862514814686692 -0.00033229063146408713 0 0.052609358397898542 3.0651364208208976e-05 0 0.052475493737925219 -0.00028603510903952759 0 0.052862514814686692 -0.00033229063146408713 0 0.052475493737925219 -0.00028603510903952759 0 0.052651270862879754 -0.00062448804541357522 0 0.052862514814686692 -0.00033229063146408713 0 0.052651270862879754 -0.00062448804541357522 0 0.052862514814686692 -0.00033229063146408713 0 0.05301256491366458 -0.00066046305618558301 0 0.052651270862879754 -0.00062448804541357522 0 0.05301256491366458 -0.00066046305618558301 0 0.052830775653421348 -0.00080080945569153245 0 0.053136764516933895 -0.00042936830467599712 0 0.05301256491366458 -0.00066046305618558301 0 0.053157412675168061 -0.00061902214464783895 0 0.05301256491366458 -0.00066046305618558301 0 0.053157412675168061 -0.00061902214464783895 0 0.053207180890190851 -0.00067009117913360882 0 0.053249734118380992 -0.00064151031969811496 0 0.053157412675168061 -0.00061902214464783895 0 0.053207180890190851 -0.00067009117913360882 0 0.053249734118380992 -0.00064151031969811496 0 0.053136764516933895 -0.00042936830467599712 0 0.053157412675168061 -0.00061902214464783895 0 0.05301256491366458 -0.00066046305618558301 0 0.053207180890190851 -0.00067009117913360882 0 0.053110618371480317 -0.00076545377222443233 0 0.053207180890190851 -0.00067009117913360882 0 0.053110618371480317 -0.00076545377222443233 0 0.053301040070819726 -0.00069035763727319055 0 0.05328668077536157 -0.00058505390403084626 0 0.053207180890190851 -0.00067009117913360882 0 0.053301040070819726 -0.00069035763727319055 0 0.05301256491366458 -0.00066046305618558301 0 0.053110618371480317 -0.00076545377222443233 0 0.052830775653421348 -0.00080080945569153245 0 0.053110618371480317 -0.00076545377222443233 0 0.05314206780697641 -0.00078737779704220396 0 0.053364372505456975 -0.00070033783302165251 0 0.053110618371480317 -0.00076545377222443233 0 0.053301040070819726 -0.00069035763727319055 0 0.053364372505456975 -0.00070033783302165251 0 0.053301040070819726 -0.00069035763727319055 0 0.053442517802932653 -0.00065685940622233776 0 0.053364372505456975 -0.00070033783302165251 0 0.053351517531161914 -0.00067202820407266097 0 0.053529581672929268 -0.00060867150216820662 0 0.052116476220592997 -0.0011035893369900666 0 0.052710635225822623 -0.00071417099224198148 0 0.052878601392230648 -0.00063132593568308664 0 0.052361632610289588 -0.00087459663458461104 0 0.052116476220592997 -0.0011035893369900666 0 0.052710635225822623 -0.00071417099224198148 0 0.052456864457070033 -0.00084075107585476674 0 0.05290952910700375 -0.00074571585183398994 0 0.052361632610289588 -0.00087459663458461104 0 0.052830775653421348 -0.00080080945569153245 0 0.05314206780697641 -0.00078737779704220396 0 0.053110618371480317 -0.00076545377222443233 0 0.052830775653421348 -0.00080080945569153245 0 0.05314206780697641 -0.00078737779704220396 0 0.052710635225822623 -0.00071417099224198148 0 0.052878601392230648 -0.00063132593568308664 0 0.053120808880760408 -0.00055970213290396868 0 0.052878601392230648 -0.00063132593568308664 0 0.053258399355330666 -0.00050880999757003237 0 0.053120808880760408 -0.00055970213290396868 0 0.052878601392230648 -0.00063132593568308664 0 0.053181956492203433 -0.0005481944576580664 0 0.053258399355330666 -0.00050880999757003237 0 0.053181956492203433 -0.0005481944576580664 0 0.053198486271406942 -0.00048335003704607461 0 0.053258399355330666 -0.00050880999757003237 0 0.053181956492203433 -0.0005481944576580664 0 0.053135339997745078 -0.00078201331283174165 0 0.053117178779995569 -0.00039046488984576357 0 0.052878601392230648 -0.00063132593568308664 0 0.053181956492203433 -0.0005481944576580664 0 0.053135339997745078 -0.00078201331283174165 0 0.052116476220592997 -0.0011035893369900666 0 0.052878601392230648 -0.00063132593568308664 0 0.053135339997745078 -0.00078201331283174165 0 0.052076032949732509 -0.0011647224344706649 0 0.051354155431239223 -0.0015015945269122146 0 0.052116476220592997 -0.0011035893369900666 0 0.049618190212108323 -0.0023246791017738685 0 0.050698520509486297 -0.00078690316942514561 0 0.049618190212108323 -0.0023246791017738685 0 0.049424475927298969 -0.00091031958531427961 0 0.04840414983229769 -0.0017863336363906398 0 0.049618190212108323 -0.0023246791017738685 0 0.049424475927298969 -0.00091031958531427961 0 0.050698520509486297 -0.00078690316942514561 0 0.049424475927298969 -0.00091031958531427961 0 0.04928852515383924 -6.3882587369578806e-05 0 0.048472578340266859 -0.00043483083026132875 0 0.049424475927298969 -0.00091031958531427961 0 0.04928852515383924 -6.3882587369578806e-05 0 0.050139728622635771 -0.00014785830537287773 0 0.049424475927298969 -0.00091031958531427961 0 0.050139728622635771 -0.00014785830537287773 0 0.050698520509486297 -0.00078690316942514561 0 0.050139728622635771 -0.00014785830537287773 0 0.050965782924427543 -0.00013490235560057116 0 0.050698520509486297 -0.00078690316942514561 0 0.051629712791303899 -0.00060077536535002303 0 0.050965782924427543 -0.00013490235560057116 0 0.050698520509486297 -0.00078690316942514561 0 0.047713699255692042 0.0002512100200758909 0 0.047127507448596201 -0.00081110738366727551 0 0.048472578340266859 -0.00043483083026132875 0 0.047127507448596201 -0.00081110738366727551 0 0.048472578340266859 -0.00043483083026132875 0 0.04840414983229769 -0.0017863336363906398 0 0.049424475927298969 -0.00091031958531427961 0 0.048472578340266859 -0.00043483083026132875 0 0.04840414983229769 -0.0017863336363906398 0 0.047127507448596201 -0.00081110738366727551 0 0.04840414983229769 -0.0017863336363906398 0 0.047528465788877025 -0.0025126863606567506 0 0.050444515056453851 -0.0014024520200100518 0 0.050838803281648998 -0.0008516573624459937 0 0.04840414983229769 -0.0017863336363906398 0 0.047528465788877025 -0.0025126863606567506 0 0.047685905410523956 -0.0024509375263862365 0 0.047528465788877025 -0.0025126863606567506 0 0.047685905410523956 -0.0024509375263862365 0 0.048962024509966874 -0.0013171240406312467 0 0.049618190212108323 -0.0023246791017738685 0 0.04840414983229769 -0.0017863336363906398 0 0.047685905410523956 -0.0024509375263862365 0 0.051354155431239223 -0.0015015945269122146 0 0.050444515056453851 -0.0014024520200100518 0 0.053117178779995569 -0.00039046488984576357 0 0.053198486271406942 -0.00048335003704607461 0 0.052978573673278968 -0.00044996431591055723 0 0.053181956492203433 -0.0005481944576580664 0 0.053117178779995569 -0.00039046488984576357 0 0.053198486271406942 -0.00048335003704607461 0 0.053117178779995569 -0.00039046488984576357 0 0.052978573673278968 -0.00044996431591055723 0 0.052629378022901387 -0.00027338330728321941 0 0.052978573673278968 -0.00044996431591055723 0 0.053056698018249353 -0.00053767139696573457 0 0.052741316436544824 -0.00056017241114428025 0 0.053056698018249353 -0.00053767139696573457 0 0.052848566665045983 -0.00062581500464033244 0 0.052741316436544824 -0.00056017241114428025 0 0.053056698018249353 -0.00053767139696573457 0 0.052848566665045983 -0.00062581500464033244 0 0.053159059527974444 -0.00065557112842028621 0 0.052848566665045983 -0.00062581500464033244 0 0.053159059527974444 -0.00065557112842028621 0 0.052766613646637935 -0.0007666241525714515 0 0.053056698018249353 -0.00053767139696573457 0 0.053159059527974444 -0.00065557112842028621 0 0.053392400852593648 -0.00053339778883996342 0 0.053159059527974444 -0.00065557112842028621 0 0.053392400852593648 -0.00053339778883996342 0 0.053801704337418557 -0.00067688168896573901 0 0.053198486271406942 -0.00048335003704607461 0 0.052978573673278968 -0.00044996431591055723 0 0.053056698018249353 -0.00053767139696573457 0 0.053198486271406942 -0.00048335003704607461 0 0.053056698018249353 -0.00053767139696573457 0 0.053392400852593648 -0.00053339778883996342 0 0.053198486271406942 -0.00048335003704607461 0 0.053258399355330666 -0.00050880999757003237 0 0.053392400852593648 -0.00053339778883996342 0 0.053258399355330666 -0.00050880999757003237 0 0.05357995615258896 -0.00052633152212673703 0 0.053120808880760408 -0.00055970213290396868 0 0.053258399355330666 -0.00050880999757003237 0 0.05357995615258896 -0.00052633152212673703 0 0.053392400852593648 -0.00053339778883996342 0 0.05357995615258896 -0.00052633152212673703 0 0.053392400852593648 -0.00053339778883996342 0 0.053801704337418557 -0.00067688168896573901 0 0.05357995615258896 -0.00052633152212673703 0 0.053801704337418557 -0.00067688168896573901 0 0.053939701832312961 -0.00044933268150395438 0 0.053801704337418557 -0.00067688168896573901 0 0.053939701832312961 -0.00044933268150395438 0 0.054268082565499483 -0.00033695834176306749 0 0.053801704337418557 -0.00067688168896573901 0 0.05445030207972687 -0.0004343372338743284 0 0.054268082565499483 -0.00033695834176306749 0 0.053801704337418557 -0.00067688168896573901 0 0.05445030207972687 -0.0004343372338743284 0 0.054649476372732271 -0.00067587328248375569 0 0.05445030207972687 -0.0004343372338743284 0 0.054737637266038287 -0.00039296163339539098 0 0.054649476372732271 -0.00067587328248375569 0 0.054737637266038287 -0.00039296163339539098 0 0.054649476372732271 -0.00067587328248375569 0 0.05513759159866103 -0.00054153484525169316 0 0.053798997176637949 -0.00085200934727864739 0 0.054110298192534385 -0.00045909396180107448 0 0.053074351062470181 -0.00099082964965684452 0 0.052766613646637935 -0.0007666241525714515 0 0.05260674523104495 -0.00097848108396332871 0 0.053159059527974444 -0.00065557112842028621 0 0.053074351062470181 -0.00099082964965684452 0 0.052766613646637935 -0.0007666241525714515 0 0.053159059527974444 -0.00065557112842028621 0 0.053801704337418557 -0.00067688168896573901 0 0.053074351062470181 -0.00099082964965684452 0 0.05383893271639472 -0.00069741187675554956 0 0.053798997176637949 -0.00085200934727864739 0 0.0536344740571306 -0.0005133662175836344 0 0.053572106131169084 -0.00057771135829067335 0 0.053442517802932653 -0.00065685940622233776 0 0.0536344740571306 -0.0005133662175836344 0 0.053572106131169084 -0.00057771135829067335 0 0.053731452200194159 -0.00046113872462479738 0 0.053572106131169084 -0.00057771135829067335 0 0.053755362329986872 -0.00046181559502225539 0 0.053731452200194159 -0.00046113872462479738 0 0.053572106131169084 -0.00057771135829067335 0 0.053442517802932653 -0.00065685940622233776 0 0.053364372505456975 -0.00070033783302165251 0 0.053572106131169084 -0.00057771135829067335 0 0.053364372505456975 -0.00070033783302165251 0 0.053561440565214113 -0.00061129448323648638 0 0.053572106131169084 -0.00057771135829067335 0 0.053561440565214113 -0.00061129448323648638 0 0.053755362329986872 -0.00046181559502225539 0 0.053435533389811357 -0.00057844238690071608 0 0.053752703568003511 -0.00045483257546497159 0 0.05290952910700375 -0.00074571585183398994 0 0.053435533389811357 -0.00057844238690071608 0 0.05314206780697641 -0.00078737779704220396 0 0.053364372505456975 -0.00070033783302165251 0 0.053561440565214113 -0.00061129448323648638 0 0.052710635225822623 -0.00071417099224198148 0 0.053309919986368734 -0.00051994496359825321 0 0.053120808880760408 -0.00055970213290396868 0 0.05357995615258896 -0.00052633152212673703 0 0.053309919986368734 -0.00051994496359825321 0 0.053120808880760408 -0.00055970213290396868 0 0.05357995615258896 -0.00052633152212673703 0 0.053309919986368734 -0.00051994496359825321 0 0.053813996824032331 -0.00043651525808561338 0 0.05357995615258896 -0.00052633152212673703 0 0.053939701832312961 -0.00044933268150395438 0 0.053813996824032331 -0.00043651525808561338 0 0.053939701832312961 -0.00044933268150395438 0 0.053813996824032331 -0.00043651525808561338 0 0.054128542187714498 -0.00029281025428719027 0 0.053813996824032331 -0.00043651525808561338 0 0.054174905300595294 -0.00026235481278492532 0 0.054128542187714498 -0.00029281025428719027 0 0.053561440565214113 -0.00061129448323648638 0 0.053813996824032331 -0.00043651525808561338 0 0.053755362329986872 -0.00046181559502225539 0 0.053813996824032331 -0.00043651525808561338 0 0.053755362329986872 -0.00046181559502225539 0 0.053979015676515918 -0.00034572667483314496 0 0.053755362329986872 -0.00046181559502225539 0 0.053979015676515918 -0.00034572667483314496 0 0.053850197801833442 -0.00038995961593957766 0 0.053813996824032331 -0.00043651525808561338 0 0.053979015676515918 -0.00034572667483314496 0 0.054174905300595294 -0.00026235481278492532 0 0.054119577175746995 -0.0002687477176522864 0 0.053805730560016619 -0.0003668618246912103 0 0.053975019589907844 -0.00033180963330788505 0 0.053979015676515918 -0.00034572667483314496 0 0.053975019589907844 -0.00033180963330788505 0 0.053850197801833442 -0.00038995961593957766 0 0.053979015676515918 -0.00034572667483314496 0 0.053975019589907844 -0.00033180963330788505 0 0.05414979546328258 -0.00026917707150932722 0 0.053805730560016619 -0.0003668618246912103 0 0.053975019589907844 -0.00033180963330788505 0 0.053850197801833442 -0.00038995961593957766 0 0.053805730560016619 -0.0003668618246912103 0 0.053850197801833442 -0.00038995961593957766 0 0.053731452200194159 -0.00046113872462479738 0 0.053755362329986872 -0.00046181559502225539 0 0.053850197801833442 -0.00038995961593957766 0 0.053731452200194159 -0.00046113872462479738 0 0.053805730560016619 -0.0003668618246912103 0 0.0536344740571306 -0.0005133662175836344 0 0.053731452200194159 -0.00046113872462479738 0 0.054388339738760234 -0.00017441185229013823 0 0.054294896976764803 -0.00020512587703403994 0 0.05414979546328258 -0.00026917707150932722 0 0.054524667664202185 -0.00011207597945495055 0 0.054388339738760234 -0.00017441185229013823 0 0.054294896976764803 -0.00020512587703403994 0 0.054119577175746995 -0.0002687477176522864 0 0.054294896976764803 -0.00020512587703403994 0 0.05414979546328258 -0.00026917707150932722 0 0.054119577175746995 -0.0002687477176522864 0 0.053975019589907844 -0.00033180963330788505 0 0.05414979546328258 -0.00026917707150932722 0 0.053979015676515918 -0.00034572667483314496 0 0.05414979546328258 -0.00026917707150932722 0 0.054174905300595294 -0.00026235481278492532 0 0.054388339738760234 -0.00017441185229013823 0 0.05414979546328258 -0.00026917707150932722 0 0.054174905300595294 -0.00026235481278492532 0 0.054388339738760234 -0.00017441185229013823 0 0.054174905300595294 -0.00026235481278492532 0 0.054366142694855873 -0.00016745334822141329 0 0.054388339738760234 -0.00017441185229013823 0 0.054366142694855873 -0.00016745334822141329 0 0.0546919917604166 -7.1449713533221833e-05 0 0.054366142694855873 -0.00016745334822141329 0 0.054350474068911636 -0.00014893233330723864 0 0.054587354068584816 -5.4732641665879858e-05 0 0.054366142694855873 -0.00016745334822141329 0 0.054128542187714498 -0.00029281025428719027 0 0.054350474068911636 -0.00014893233330723864 0 0.054174905300595294 -0.00026235481278492532 0 0.054366142694855873 -0.00016745334822141329 0 0.054128542187714498 -0.00029281025428719027 0 0.053939701832312961 -0.00044933268150395438 0 0.054128542187714498 -0.00029281025428719027 0 0.054285348528343984 -0.00020801697623994497 0 0.054350474068911636 -0.00014893233330723864 0 0.054285348528343984 -0.00020801697623994497 0 0.054420140184772675 -8.2419311429999869e-05 0 0.054128542187714498 -0.00029281025428719027 0 0.054350474068911636 -0.00014893233330723864 0 0.054285348528343984 -0.00020801697623994497 0 0.054587354068584816 -5.4732641665879858e-05 0 0.054420140184772675 -8.2419311429999869e-05 0 0.054426963694165179 -5.6257235560279453e-05 0 0.054350474068911636 -0.00014893233330723864 0 0.054587354068584816 -5.4732641665879858e-05 0 0.054420140184772675 -8.2419311429999869e-05 0 0.054587354068584816 -5.4732641665879858e-05 0 0.054998766940485729 -4.3346145874099889e-07 0 0.054426963694165179 -5.6257235560279453e-05 0 0.054999871217845268 -6.8343029442796167e-09 0 0.054719859610268012 -1.5134940765504875e-05 0 0.054999961493151367 -1.0318934639232034e-08 0 0.054997054275433853 2.7926588508047537e-06 0 0.055000079679405893 1.9602427354714052e-08 0 0.054587354068584816 -5.4732641665879858e-05 0 0.054998766940485729 -4.3346145874099889e-07 0 0.0546919917604166 -7.1449713533221833e-05 0 0.054366142694855873 -0.00016745334822141329 0 0.054587354068584816 -5.4732641665879858e-05 0 0.0546919917604166 -7.1449713533221833e-05 0 0.054388339738760234 -0.00017441185229013823 0 0.0546919917604166 -7.1449713533221833e-05 0 0.054719707025054007 -6.4907612715345265e-05 0 0.0546919917604166 -7.1449713533221833e-05 0 0.054999892769363186 6.3814509187668128e-08 0 0.054719707025054007 -6.4907612715345265e-05 0 0.054998766940485729 -4.3346145874099889e-07 0 0.0546919917604166 -7.1449713533221833e-05 0 0.054999892769363186 6.3814509187668128e-08 0 0.054524667664202185 -0.00011207597945495055 0 0.054999445677788639 -7.8962524514234322e-08 0 0.054719707025054007 -6.4907612715345265e-05 0 0.054999445677788639 -7.8962524514234322e-08 0 0.054999892769363186 6.3814509187668128e-08 0 0.054719707025054007 -6.4907612715345265e-05 0 0.054524667664202185 -0.00011207597945495055 0 0.054388339738760234 -0.00017441185229013823 0 0.054719707025054007 -6.4907612715345265e-05 0 0.054706065218066827 -0.00013704006577277969 0 0.054500007226891516 -0.00017250658925663896 0 0.054759108110171956 -3.7339359554855049e-06 0 0.054706065218066827 -0.00013704006577277969 0 0.054577382782414433 -0.00026039354989434722 0 0.054500007226891516 -0.00017250658925663896 0 0.054706065218066827 -0.00013704006577277969 0 0.054805335692699103 -0.0002034225154160389 0 0.05484317449878081 -6.2687121193882774e-05 0 0.054805335692699103 -0.0002034225154160389 0 0.05484317449878081 -6.2687121193882774e-05 0 0.054936243398824587 -0.00015001590243599727 0 0.054706065218066827 -0.00013704006577277969 0 0.054805335692699103 -0.0002034225154160389 0 0.054577382782414433 -0.00026039354989434722 0 0.054737637266038287 -0.00039296163339539098 0 0.054805335692699103 -0.0002034225154160389 0 0.054934875249937343 -0.00027814571139980212 0 0.054737637266038287 -0.00039296163339539098 0 0.054805335692699103 -0.0002034225154160389 0 0.054577382782414433 -0.00026039354989434722 0 0.054577382782414433 -0.00026039354989434722 0 0.054268082565499483 -0.00033695834176306749 0 0.054500007226891516 -0.00017250658925663896 0 0.05445030207972687 -0.0004343372338743284 0 0.054737637266038287 -0.00039296163339539098 0 0.054577382782414433 -0.00026039354989434722 0 0.05445030207972687 -0.0004343372338743284 0 0.054577382782414433 -0.00026039354989434722 0 0.054268082565499483 -0.00033695834176306749 0 0.054268082565499483 -0.00033695834176306749 0 0.054285348528343984 -0.00020801697623994497 0 0.054500007226891516 -0.00017250658925663896 0 0.053939701832312961 -0.00044933268150395438 0 0.054268082565499483 -0.00033695834176306749 0 0.054285348528343984 -0.00020801697623994497 0 0.054285348528343984 -0.00020801697623994497 0 0.05446112123706047 -9.875027618508339e-05 0 0.054420140184772675 -8.2419311429999869e-05 0 0.054285348528343984 -0.00020801697623994497 0 0.054500007226891516 -0.00017250658925663896 0 0.05446112123706047 -9.875027618508339e-05 0 0.054500007226891516 -0.00017250658925663896 0 0.05446112123706047 -9.875027618508339e-05 0 0.054759108110171956 -3.7339359554855049e-06 0 0.054719859610268012 -1.5134940765504875e-05 0 0.054768018442321736 -1.7518669384777101e-05 0 0.05446112123706047 -9.875027618508339e-05 0 0.054426963694165179 -5.6257235560279453e-05 0 0.054759108110171956 -3.7339359554855049e-06 0 0.05446112123706047 -9.875027618508339e-05 0 0.054420140184772675 -8.2419311429999869e-05 0 0.054426963694165179 -5.6257235560279453e-05 0 0.054997054275433853 2.7926588508047537e-06 0 0.055000079679405893 1.9602427354714052e-08 0 0.054999677498662927 -4.9275121756914258e-08 0 0.054997054275433853 2.7926588508047537e-06 0 0.054999677498662927 -4.9275121756914258e-08 0 0.054759108110171956 -3.7339359554855049e-06 0 0.054999677498662927 -4.9275121756914258e-08 0 0.054898830893521398 4.9701551056557614e-06 0 0.054759108110171956 -3.7339359554855049e-06 0 0.054999677498662927 -4.9275121756914258e-08 0 0.054898830893521398 4.9701551056557614e-06 0 0.054999856485233312 4.8587181704309297e-08 0 0.054898830893521398 4.9701551056557614e-06 0 0.054759108110171956 -3.7339359554855049e-06 0 0.05484317449878081 -6.2687121193882774e-05 0 0.054706065218066827 -0.00013704006577277969 0 0.054759108110171956 -3.7339359554855049e-06 0 0.05484317449878081 -6.2687121193882774e-05 0 0.054898830893521398 4.9701551056557614e-06 0 0.05484317449878081 -6.2687121193882774e-05 0 0.054921667239053409 -1.5302188001982028e-05 0 0.05484317449878081 -6.2687121193882774e-05 0 0.054921667239053409 -1.5302188001982028e-05 0 0.054927813995446516 -4.880292677016953e-05 0 0.054921667239053409 -1.5302188001982028e-05 0 0.054999856485233312 4.8587181704309297e-08 0 0.054989181738188259 -5.4715225241074216e-06 0 0.054898830893521398 4.9701551056557614e-06 0 0.054921667239053409 -1.5302188001982028e-05 0 0.054999856485233312 4.8587181704309297e-08 0 0.054999856485233312 4.8587181704309297e-08 0 0.054989181738188259 -5.4715225241074216e-06 0 0.055000048692426091 -2.6939904445300256e-08 0 0.054970769636180292 1.1252575585262847e-07 0 0.05500949417715293 3.6386488768503593e-06 0 0.054929720190055577 -1.241879974742362e-05 0 0.054970769636180292 1.1252575585262847e-07 0 0.054948302705676424 5.1382373450459232e-06 0 0.055029506840396689 3.6376769825214987e-05 0 0.055006781873558841 -6.1784315595744474e-05 0 0.055000020517299346 7.7322225045081467e-09 0 0.055000000029016206 4.6569628383718912e-12 0 0.055000000063375035 1.4085231035233527e-11 0 0.054989181738188259 -5.4715225241074216e-06 0 0.055003684499441291 -4.9396557569809467e-06 0 0.055000048692426091 -2.6939904445300256e-08 0 0.05500949417715293 3.6386488768503593e-06 0 0.055000006775004023 3.263561554623346e-09 0 0.05500949417715293 3.6386488768503593e-06 0 0.055052805607410091 -1.7243806839297177e-05 0 0.055029506840396689 3.6376769825214987e-05 0 0.055006781873558841 -6.1784315595744474e-05 0 0.05511962443142876 -6.3516319519439816e-05 0 0.05484317449878081 -6.2687121193882774e-05 0 0.054927813995446516 -4.880292677016953e-05 0 0.054936243398824587 -0.00015001590243599727 0 0.054921667239053409 -1.5302188001982028e-05 0 0.054948302705676424 5.1382373450459232e-06 0 0.054927813995446516 -4.880292677016953e-05 0 0.054948302705676424 5.1382373450459232e-06 0 0.055006781873558841 -6.1784315595744474e-05 0 0.054927813995446516 -4.880292677016953e-05 0 0.055006781873558841 -6.1784315595744474e-05 0 0.054927813995446516 -4.880292677016953e-05 0 0.054936243398824587 -0.00015001590243599727 0 0.055006781873558841 -6.1784315595744474e-05 0 0.055075250552040961 -0.00020906236940279111 0 0.05511962443142876 -6.3516319519439816e-05 0 0.055006781873558841 -6.1784315595744474e-05 0 0.054936243398824587 -0.00015001590243599727 0 0.055075250552040961 -0.00020906236940279111 0 0.054936243398824587 -0.00015001590243599727 0 0.055075250552040961 -0.00020906236940279111 0 0.054934875249937343 -0.00027814571139980212 0 0.055075250552040961 -0.00020906236940279111 0 0.05502899865081283 -0.00032072575620531126 0 0.054934875249937343 -0.00027814571139980212 0 0.055075250552040961 -0.00020906236940279111 0 0.05502899865081283 -0.00032072575620531126 0 0.055156051974741008 -0.000255266876379723 0 0.05502899865081283 -0.00032072575620531126 0 0.054934875249937343 -0.00027814571139980212 0 0.054944117818060786 -0.00042331007918105547 0 0.054805335692699103 -0.0002034225154160389 0 0.054936243398824587 -0.00015001590243599727 0 0.054934875249937343 -0.00027814571139980212 0 0.055156051974741008 -0.000255266876379723 0 0.055213939931309644 -0.00018539451322047355 0 0.055298533938164668 -0.00029860420267852539 0 0.055142148166174049 -0.00010178736335457781 0 0.054759218205648406 -5.4367209824282362e-05 0 0.054977907428051261 3.7597675821186834e-05 0 0.054904409360292193 2.6221957202957588e-05 0 0.054924998867901968 0.00010512553695919155 0 0.055156051974741008 -0.000255266876379723 0 0.055298533938164668 -0.00029860420267852539 0 0.055132659994158138 -0.00034711550248000937 0 0.055075250552040961 -0.00020906236940279111 0 0.055156051974741008 -0.000255266876379723 0 0.055213939931309644 -0.00018539451322047355 0 0.05502899865081283 -0.00032072575620531126 0 0.055156051974741008 -0.000255266876379723 0 0.055132659994158138 -0.00034711550248000937 0 0.055142148166174049 -0.00010178736335457781 0 0.055052805607410091 -1.7243806839297177e-05 0 0.055075250552040961 -0.00020906236940279111 0 0.055213939931309644 -0.00018539451322047355 0 0.05511962443142876 -6.3516319519439816e-05 0 0.054977907428051261 3.7597675821186834e-05 0 0.054970469314112945 6.4132205626569017e-06 0 0.054904409360292193 2.6221957202957588e-05 0 0.054977907428051261 3.7597675821186834e-05 0 0.054970469314112945 6.4132205626569017e-06 0 0.05500085850411196 1.2740485601733771e-05 0 0.055000020517299346 7.7322225045081467e-09 0 0.055000000063375035 1.4085231035233527e-11 0 0.054999999976548281 -1.2322729549166659e-11 0 0.055008650965845014 4.3119737673614677e-06 0 0.05500085850411196 1.2740485601733771e-05 0 0.055000036387996248 1.7078813643816614e-08 0 0.05500949417715293 3.6386488768503593e-06 0 0.054999992412737925 -1.8469420934447707e-09 0 0.054970469314112945 6.4132205626569017e-06 0 0.05500085850411196 1.2740485601733771e-05 0 0.055000036387996248 1.7078813643816614e-08 0 0.054970469314112945 6.4132205626569017e-06 0 0.055000036387996248 1.7078813643816614e-08 0 0.054999797265402259 -5.918513039606379e-08 0 0.054970469314112945 6.4132205626569017e-06 0 0.054999797265402259 -5.918513039606379e-08 0 0.054916119221620402 2.855561913852779e-05 0 0.054970469314112945 6.4132205626569017e-06 0 0.054916119221620402 2.855561913852779e-05 0 0.054904409360292193 2.6221957202957588e-05 0 0.054999797265402259 -5.918513039606379e-08 0 0.054916119221620402 2.855561913852779e-05 0 0.055000222810436789 2.415021852923778e-07 0 0.054916119221620402 2.855561913852779e-05 0 0.055000222810436789 2.415021852923778e-07 0 0.054945653420611335 4.678270314502151e-05 0 0.054916119221620402 2.855561913852779e-05 0 0.054945653420611335 4.678270314502151e-05 0 0.054879780516969956 4.1555180068435902e-05 0 0.054945653420611335 4.678270314502151e-05 0 0.054828835943862994 0.00022952740337604878 0 0.054838717660605989 0.0001579959853498417 0 0.054926139403328474 5.1689513038984186e-05 0 0.054854365260049706 0.00012747392673185111 0 0.054916119221620402 2.855561913852779e-05 0 0.054879780516969956 4.1555180068435902e-05 0 0.054767765444689163 4.7642617967458715e-05 0 0.054879780516969956 4.1555180068435902e-05 0 0.054767765444689163 4.7642617967458715e-05 0 0.054808357867088875 -2.3483832237089873e-05 0 0.054828835943862994 0.00022952740337604878 0 0.054683912658404374 0.00034113275765559415 0 0.054721225025153399 0.00027585329384627875 0 0.054854365260049706 0.00012747392673185111 0 0.054747839670794426 0.00015597432442940985 0 0.054916119221620402 2.855561913852779e-05 0 0.054904409360292193 2.6221957202957588e-05 0 0.054767765444689163 4.7642617967458715e-05 0 0.054904409360292193 2.6221957202957588e-05 0 0.054767765444689163 4.7642617967458715e-05 0 0.054924998867901968 0.00010512553695919155 0 0.054751942043819835 7.2223493983966555e-05 0 0.054759218205648406 -5.4367209824282362e-05 0 0.054447685915171871 3.0454788490341761e-05 0 0.054445429989086164 -9.9033411619743361e-05 0 0.054574790282642595 -0.00013947001669317049 0 0.054767765444689163 4.7642617967458715e-05 0 0.054507789435161109 1.6201779810773121e-05 0 0.054574790282642595 -0.00013947001669317049 0 0.054759218205648406 -5.4367209824282362e-05 0 0.054483913863704582 -7.6372127576698575e-05 0 0.054767765444689163 4.7642617967458715e-05 0 0.054574790282642595 -0.00013947001669317049 0 0.054693077447000346 -8.4152975261711697e-05 0 0.054574790282642595 -0.00013947001669317049 0 0.054575822131244685 -0.0002012919558139185 0 0.054693077447000346 -8.4152975261711697e-05 0 0.054574790282642595 -0.00013947001669317049 0 0.054575822131244685 -0.0002012919558139185 0 0.054541312931334789 -0.00023261645774541237 0 0.053952128471351488 -0.00023130866964984757 0 0.053530202043420412 -0.00027034270515166771 0 0.054445429989086164 -9.9033411619743361e-05 0 0.054574790282642595 -0.00013947001669317049 0 0.054384615979738773 -0.0002001608996495769 0 0.054574790282642595 -0.00013947001669317049 0 0.054541312931334789 -0.00023261645774541237 0 0.054384615979738773 -0.0002001608996495769 0 0.054747839670794426 0.00015597432442940985 0 0.054543368483978158 4.6915158563876229e-05 0 0.054683912658404374 0.00034113275765559415 0 0.054613094630796694 0.00033837476939855107 0 0.054550633034209775 0.000361586803650211 0 0.054767765444689163 4.7642617967458715e-05 0 0.054808357867088875 -2.3483832237089873e-05 0 0.054693077447000346 -8.4152975261711697e-05 0 0.054808357867088875 -2.3483832237089873e-05 0 0.054693077447000346 -8.4152975261711697e-05 0 0.054694475052715741 -0.00016182992052289844 0 0.054575822131244685 -0.0002012919558139185 0 0.054693077447000346 -8.4152975261711697e-05 0 0.054694475052715741 -0.00016182992052289844 0 0.054683912658404374 0.00034113275765559415 0 0.054490999464025948 0.00029734667321916264 0 0.054613094630796694 0.00033837476939855107 0 0.054490999464025948 0.00029734667321916264 0 0.054613094630796694 0.00033837476939855107 0 0.054656634161578246 0.00027548104023172789 0 0.054110011316193855 -0.00029395877367032901 0 0.054179839866333408 0.00014770806902770922 0 0.054490999464025948 0.00029734667321916264 0 0.054504689656091655 -0.00010319401947225496 0 0.054656634161578246 0.00027548104023172789 0 0.052936585557077233 -0.00056722172413083063 0 0.053855202987545973 0.00015137505496937137 0 0.053561270156557393 -0.00048922427125602948 0 0.054490999464025948 0.00029734667321916264 0 0.054328144302116611 -8.9567036672464265e-05 0 0.054504689656091655 -0.00010319401947225496 0 0.054694475052715741 -0.00016182992052289844 0 0.05445619236656745 -0.00041679517671532187 0 0.054444101196984646 -0.00075271672025409742 0 0.054543368483978158 4.6915158563876229e-05 0 0.054824286866043591 -0.00040914358346456599 0 0.054575822131244685 -0.0002012919558139185 0 0.054694475052715741 -0.00016182992052289844 0 0.05445619236656745 -0.00041679517671532187 0 0.054328144302116611 -8.9567036672464265e-05 0 0.054504689656091655 -0.00010319401947225496 0 0.054155441627040779 -0.00066650981270273792 0 0.05445619236656745 -0.00041679517671532187 0 0.054444101196984646 -0.00075271672025409742 0 0.053855600430396368 -0.00071252766579733341 0 0.054017382394136899 -0.0010870075053794781 0 0.054444101196984646 -0.00075271672025409742 0 0.053855600430396368 -0.00071252766579733341 0 0.052936585557077233 -0.00056722172413083063 0 0.053129849875243607 -0.0010085106368197909 0 0.052617578160245183 -0.0011598615783921815 0 0.053561270156557393 -0.00048922427125602948 0 0.053658546322442588 -0.00092650770423310675 0 0.053129849875243607 -0.0010085106368197909 0 0.052936585557077233 -0.00056722172413083063 0 0.053561270156557393 -0.00048922427125602948 0 0.053129849875243607 -0.0010085106368197909 0 0.05276510440001228 -0.00049434058285259791 0 0.053339511600526628 -0.00016479134544331107 0 0.052559508017519393 -0.0003113145147240528 0 0.05276510440001228 -0.00049434058285259791 0 0.053339511600526628 -0.00016479134544331107 0 0.053226962725408944 -0.00066517055227044116 0 0.05445619236656745 -0.00041679517671532187 0 0.053339511600526628 -0.00016479134544331107 0 0.053855600430396368 -0.00071252766579733341 0 0.053339511600526628 -0.00016479134544331107 0 0.053855600430396368 -0.00071252766579733341 0 0.053226962725408944 -0.00066517055227044116 0 0.054442895179747958 -0.00039939462315505259 0 0.053952128471351488 -0.00023130866964984757 0 0.054575822131244685 -0.0002012919558139185 0 0.05445619236656745 -0.00041679517671532187 0 0.054541312931334789 -0.00023261645774541237 0 0.053855600430396368 -0.00071252766579733341 0 0.05356306898477415 -0.0011177842290694309 0 0.053226962725408944 -0.00066517055227044116 0 0.054017382394136899 -0.0010870075053794781 0 0.053855600430396368 -0.00071252766579733341 0 0.05356306898477415 -0.0011177842290694309 0 0.05276510440001228 -0.00049434058285259791 0 0.053226962725408944 -0.00066517055227044116 0 0.052629780527673586 -0.00074994992732211794 0 0.05356306898477415 -0.0011177842290694309 0 0.053226962725408944 -0.00066517055227044116 0 0.053078608769932589 -0.0011259170292821693 0 0.053226962725408944 -0.00066517055227044116 0 0.052629780527673586 -0.00074994992732211794 0 0.053078608769932589 -0.0011259170292821693 0 0.05276510440001228 -0.00049434058285259791 0 0.052629780527673586 -0.00074994992732211794 0 0.052350209890909424 -0.00057375704197509066 0 0.05276510440001228 -0.00049434058285259791 0 0.052350209890909424 -0.00057375704197509066 0 0.052559508017519393 -0.0003113145147240528 0 0.052350209890909424 -0.00057375704197509066 0 0.052334518284127871 -0.00062397440298094734 0 0.052559508017519393 -0.0003113145147240528 0 0.052350209890909424 -0.00057375704197509066 0 0.052334518284127871 -0.00062397440298094734 0 0.052256606060901774 -0.00064895792899773901 0 0.052629780527673586 -0.00074994992732211794 0 0.052350209890909424 -0.00057375704197509066 0 0.051874736150888105 -0.00070552491497990122 0 0.052350209890909424 -0.00057375704197509066 0 0.052256606060901774 -0.00064895792899773901 0 0.051874736150888105 -0.00070552491497990122 0 0.052389372709239844 -0.00059918367663496766 0 0.052256606060901774 -0.00064895792899773901 0 0.052522672374346699 -0.00066354451114417111 0 0.052389372709239844 -0.00059918367663496766 0 0.052256606060901774 -0.00064895792899773901 0 0.051874736150888105 -0.00070552491497990122 0 0.052389372709239844 -0.00059918367663496766 0 0.052741316436544824 -0.00056017241114428025 0 0.052522672374346699 -0.00066354451114417111 0 0.052389372709239844 -0.00059918367663496766 0 0.052741316436544824 -0.00056017241114428025 0 0.052629378022901387 -0.00027338330728321941 0 0.052848566665045983 -0.00062581500464033244 0 0.052741316436544824 -0.00056017241114428025 0 0.052522672374346699 -0.00066354451114417111 0 0.052848566665045983 -0.00062581500464033244 0 0.052522672374346699 -0.00066354451114417111 0 0.052766613646637935 -0.0007666241525714515 0 0.052334518284127871 -0.00062397440298094734 0 0.052256606060901774 -0.00064895792899773901 0 0.052522672374346699 -0.00066354451114417111 0 0.052334518284127871 -0.00062397440298094734 0 0.052522672374346699 -0.00066354451114417111 0 0.052501320813459616 -0.0007377513279098395 0 0.052334518284127871 -0.00062397440298094734 0 0.052501320813459616 -0.0007377513279098395 0 0.052363674334915407 -0.00065828032496266183 0 0.052501320813459616 -0.0007377513279098395 0 0.05260674523104495 -0.00097848108396332871 0 0.052363674334915407 -0.00065828032496266183 0 0.052522672374346699 -0.00066354451114417111 0 0.052501320813459616 -0.0007377513279098395 0 0.052766613646637935 -0.0007666241525714515 0 0.052501320813459616 -0.0007377513279098395 0 0.052766613646637935 -0.0007666241525714515 0 0.05260674523104495 -0.00097848108396332871 0 0.055102063722457094 -0.00046974518638339828 0 0.054110298192534385 -0.00045909396180107448 0 0.054737637266038287 -0.00039296163339539098 0 0.054934875249937343 -0.00027814571139980212 0 0.054944117818060786 -0.00042331007918105547 0 0.054110298192534385 -0.00045909396180107448 0 0.05313976465592897 -0.00037683797114592348 0 0.054110298192534385 -0.00045909396180107448 0 0.054776786809383742 -0.0001599084172805157 0 0.05502899865081283 -0.00032072575620531126 0 0.054944117818060786 -0.00042331007918105547 0 0.055132659994158138 -0.00034711550248000937 0 0.053992388356153533 -7.9487531077149332e-05 0 0.054221599735703674 -2.0436341839727744e-05 0 0.054186729223446993 -0.00014165846776588911 0 0.054221599735703674 -2.0436341839727744e-05 0 0.054339943391854419 -8.6223291519981336e-05 0 0.054186729223446993 -0.00014165846776588911 0 0.054759218205648406 -5.4367209824282362e-05 0 0.054776786809383742 -0.0001599084172805157 0 0.054447685915171871 3.0454788490341761e-05 0 0.054221599735703674 -2.0436341839727744e-05 0 0.054339943391854419 -8.6223291519981336e-05 0 0.054447685915171871 3.0454788490341761e-05 0 0.054445429989086164 -9.9033411619743361e-05 0 0.054339943391854419 -8.6223291519981336e-05 0 0.054339943391854419 -8.6223291519981336e-05 0 0.054384615979738773 -0.0002001608996495769 0 0.054186729223446993 -0.00014165846776588911 0 0.054445429989086164 -9.9033411619743361e-05 0 0.054339943391854419 -8.6223291519981336e-05 0 0.054384615979738773 -0.0002001608996495769 0 0.053530202043420412 -0.00027034270515166771 0 0.05313976465592897 -0.00037683797114592348 0 0.052334518284127871 -0.00062397440298094734 0 0.052559508017519393 -0.0003113145147240528 0 0.052363674334915407 -0.00065828032496266183 0 0.050143572918617471 -4.3011459923468327e-05 0 0.05499529551485717 -3.9938597415815131e-07 0 0.048053579490240167 -5.6297912071626124e-07 0 0.05499529551485717 -3.9938597415815131e-07 0 0.053837782870512642 -0.00013863904061847573 0 0.054998103025055832 -4.5462056143175392e-07 0 0.05499529551485717 -3.9938597415815131e-07 0 0.053837782870512642 -0.00013863904061847573 0 0.052158094194524642 3.9433672204559661e-05 0 0.050143572918617471 -4.3011459923468327e-05 0 0.05499529551485717 -3.9938597415815131e-07 0 0.052158094194524642 3.9433672204559661e-05 0 0.053837782870512642 -0.00013863904061847573 0 0.053767886921315976 0.00054501276822810862 0 0.052158094194524642 3.9433672204559661e-05 0 0.053767886921315976 0.00054501276822810862 0 0.052158094194524642 3.9433672204559661e-05 0 0.052914084257615152 0.001326272403427634 0 0.050143572918617471 -4.3011459923468327e-05 0 0.052158094194524642 3.9433672204559661e-05 0 0.049248169803066628 -0.00025264870113094547 0 0.051862661689218895 -5.2056850254604297e-05 0 0.051151661769643364 0.0004096624414898625 0 0.053767886921315976 0.00054501276822810862 0 0.052914084257615152 0.001326272403427634 0 0.053721544252867758 0.0013924913055533442 0 0.053767886921315976 0.00054501276822810862 0 0.054504312111840224 0.0012270109617159935 0 0.053721544252867758 0.0013924913055533442 0 0.054656895783750568 0.0003498745281950719 0 0.05461574162927571 0.00026711527257245783 0 0.054661850086701207 0.00033334787014264338 0 0.054551517291232185 0.00081482732084452517 0 0.054602440314359742 0.00027027134230977643 0 0.053837782870512642 -0.00013863904061847573 0 0.053767886921315976 0.00054501276822810862 0 0.05461574162927571 0.00026711527257245783 0 0.053767886921315976 0.00054501276822810862 0 0.054504312111840224 0.0012270109617159935 0 0.05461574162927571 0.00026711527257245783 0 0.053837782870512642 -0.00013863904061847573 0 0.05461574162927571 0.00026711527257245783 0 0.054998103025055832 -4.5462056143175392e-07 0 0.05461574162927571 0.00026711527257245783 0 0.054998103025055832 -4.5462056143175392e-07 0 0.054836587355873143 0.00011644770291387353 0 0.054998103025055832 -4.5462056143175392e-07 0 0.054836587355873143 0.00011644770291387353 0 0.054904299809445486 6.8806816924055304e-05 0 0.05461574162927571 0.00026711527257245783 0 0.054836587355873143 0.00011644770291387353 0 0.054795847803307991 0.00018756838737953531 0 0.055000222810436789 2.415021852923778e-07 0 0.054998103025055832 -4.5462056143175392e-07 0 0.054904299809445486 6.8806816924055304e-05 0 0.054836587355873143 0.00011644770291387353 0 0.054904299809445486 6.8806816924055304e-05 0 0.054795847803307991 0.00018756838737953531 0 0.055000222810436789 2.415021852923778e-07 0 0.054945653420611335 4.678270314502151e-05 0 0.054904299809445486 6.8806816924055304e-05 0 0.054904299809445486 6.8806816924055304e-05 0 0.054838717660605989 0.0001579959853498417 0 0.054795847803307991 0.00018756838737953531 0 0.054945653420611335 4.678270314502151e-05 0 0.054904299809445486 6.8806816924055304e-05 0 0.054838717660605989 0.0001579959853498417 0 0.054838717660605989 0.0001579959853498417 0 0.054795847803307991 0.00018756838737953531 0 0.054721225025153399 0.00027585329384627875 0 0.054828835943862994 0.00022952740337604878 0 0.054838717660605989 0.0001579959853498417 0 0.054721225025153399 0.00027585329384627875 0 0.054795847803307991 0.00018756838737953531 0 0.054661850086701207 0.00033334787014264338 0 0.054721225025153399 0.00027585329384627875 0 0.05461574162927571 0.00026711527257245783 0 0.054795847803307991 0.00018756838737953531 0 0.054661850086701207 0.00033334787014264338 0 0.054661850086701207 0.00033334787014264338 0 0.054721225025153399 0.00027585329384627875 0 0.054550633034209775 0.000361586803650211 0 0.054683912658404374 0.00034113275765559415 0 0.054721225025153399 0.00027585329384627875 0 0.054550633034209775 0.000361586803650211 0 0.054661850086701207 0.00033334787014264338 0 0.054550633034209775 0.000361586803650211 0 0.054562086655536614 0.00030068082614192424 0 0.054656895783750568 0.0003498745281950719 0 0.054661850086701207 0.00033334787014264338 0 0.054562086655536614 0.00030068082614192424 0 0.054562086655536614 0.00030068082614192424 0 0.054392825503560727 -7.4588693557140392e-06 0 0.054725325785920577 0.00024083651360125484 0 0.054518941713648413 0.0003559818307945162 0 0.054179839866333408 0.00014770806902770922 0 0.054550633034209775 0.000361586803650211 0 0.054562086655536614 0.00030068082614192424 0 0.053855202987545973 0.00015137505496937137 0 0.054613094630796694 0.00033837476939855107 0 0.054550633034209775 0.000361586803650211 0 0.054656634161578246 0.00027548104023172789 0 0.054562086655536614 0.00030068082614192424 0 0.053855202987545973 0.00015137505496937137 0 0.054392825503560727 -7.4588693557140392e-06 0 0.053855202987545973 0.00015137505496937137 0 0.053959783633227551 -0.00024171922448424648 0 0.054392825503560727 -7.4588693557140392e-06 0 0.053855202987545973 0.00015137505496937137 0 0.053959783633227551 -0.00024171922448424648 0 0.053561270156557393 -0.00048922427125602948 0 0.053959783633227551 -0.00024171922448424648 0 0.054242956088831389 -0.00036654972235888541 0 0.054392825503560727 -7.4588693557140392e-06 0 0.053959783633227551 -0.00024171922448424648 0 0.053856900233880664 -0.00060967605512888309 0 0.053561270156557393 -0.00048922427125602948 0 0.053856900233880664 -0.00060967605512888309 0 0.054177834600586221 -0.00067768273585794357 0 0.054242956088831389 -0.00036654972235888541 0 0.053959783633227551 -0.00024171922448424648 0 0.053856900233880664 -0.00060967605512888309 0 0.054242956088831389 -0.00036654972235888541 0 0.054177834600586221 -0.00067768273585794357 0 0.053658546322442588 -0.00092650770423310675 0 0.054152614001684897 -0.0011912560263898609 0 0.053856900233880664 -0.00060967605512888309 0 0.054177834600586221 -0.00067768273585794357 0 0.053658546322442588 -0.00092650770423310675 0 0.053856900233880664 -0.00060967605512888309 0 0.053561270156557393 -0.00048922427125602948 0 0.053658546322442588 -0.00092650770423310675 0 0.05145484216053331 0.0026200266740808919 0 0.04838256526228514 0.0010403519513804739 0 0.044903597003597334 0.0050338484928299215 0 0.044211128393645167 0.0035931911205859209 0 0.043268951796984194 0.0035393463115833434 0 0.054177834600586221 -0.00067768273585794357 0 0.054242956088831389 -0.00036654972235888541 0 0.054760830790986093 -0.00030940469720680135 0 0.054177834600586221 -0.00067768273585794357 0 0.054760830790986093 -0.00030940469720680135 0 0.054152614001684897 -0.0011912560263898609 0 0.054242956088831389 -0.00036654972235888541 0 0.054392825503560727 -7.4588693557140392e-06 0 0.054760830790986093 -0.00030940469720680135 0 0.054319347480832419 0.0026803728910605308 0 0.053991769774518777 0.0023262349296066616 0 0.054342636431751419 0.001973224611480012 0 0.054392825503560727 -7.4588693557140392e-06 0 0.054760830790986093 -0.00030940469720680135 0 0.054725325785920577 0.00024083651360125484 0 0.05145484216053331 0.0026200266740808919 0 0.054843042583932161 0.00082198924410863822 0 0.053991465779903831 0.0024998330083644453 0 0.053814167723222589 0.0025152118625652127 0 0.053991769774518777 0.0023262349296066616 0 0.05145484216053331 0.0026200266740808919 0 0.054403384526775449 0.0028190270463143035 0 0.05145484216053331 0.0026200266740808919 0 0.046924611946999206 0.0020348886251998211 0 0.053991465779903831 0.0024998330083644453 0 0.053848574600427711 0.0026221594001365352 0 0.053951773519275791 0.0027224756415947676 0 0.053991465779903831 0.0024998330083644453 0 0.053848574600427711 0.0026221594001365352 0 0.053814167723222589 0.0025152118625652127 0 0.044903597003597334 0.0050338484928299215 0 0.044640428509453031 0.003571392681341724 0 0.044211128393645167 0.0035931911205859209 0 0.053848574600427711 0.0026221594001365352 0 0.053814167723222589 0.0025152118625652127 0 0.053630806415138683 0.0027580067584126052 0 0.053814167723222589 0.0025152118625652127 0 0.053551650494539547 0.0024813097449559937 0 0.053630806415138683 0.0027580067584126052 0 0.053814167723222589 0.0025152118625652127 0 0.053690945449194755 0.0022566186289083934 0 0.053551650494539547 0.0024813097449559937 0 0.053814167723222589 0.0025152118625652127 0 0.053991769774518777 0.0023262349296066616 0 0.053690945449194755 0.0022566186289083934 0 0.053991769774518777 0.0023262349296066616 0 0.053855973482671821 0.0019104961076088778 0 0.054342636431751419 0.001973224611480012 0 0.053991769774518777 0.0023262349296066616 0 0.053690945449194755 0.0022566186289083934 0 0.053855973482671821 0.0019104961076088778 0 0.054504312111840224 0.0012270109617159935 0 0.053855973482671821 0.0019104961076088778 0 0.054342636431751419 0.001973224611480012 0 0.054551517291232185 0.00081482732084452517 0 0.054843042583932161 0.00082198924410863822 0 0.054656895783750568 0.0003498745281950719 0 0.054562086655536614 0.00030068082614192424 0 0.054725325785920577 0.00024083651360125484 0 0.054504312111840224 0.0012270109617159935 0 0.053855973482671821 0.0019104961076088778 0 0.053721544252867758 0.0013924913055533442 0 0.052914084257615152 0.001326272403427634 0 0.053721544252867758 0.0013924913055533442 0 0.053309194088563057 0.0020218561012823248 0 0.053855973482671821 0.0019104961076088778 0 0.053721544252867758 0.0013924913055533442 0 0.053309194088563057 0.0020218561012823248 0 0.051151661769643364 0.0004096624414898625 0 0.050705204203286974 0.00071441158943197922 0 0.049248169803066628 -0.00025264870113094547 0 0.048158080599434647 -0.00042874879540643322 0 0.047924991243420208 -0.00039104678979719312 0 0.048158080599434647 -0.00042874879540643322 0 0.046627205492419367 7.7872858072250463e-05 0 0.047924991243420208 -0.00039104678979719312 0 0.053690945449194755 0.0022566186289083934 0 0.053855973482671821 0.0019104961076088778 0 0.053309194088563057 0.0020218561012823248 0 0.050705204203286974 0.00071441158943197922 0 0.05133978496320224 0.0016698233194145154 0 0.053690945449194755 0.0022566186289083934 0 0.053309194088563057 0.0020218561012823248 0 0.053551650494539547 0.0024813097449559937 0 0.048263796598915991 0.00038235639867450404 0 0.046701119417570394 0.0020077493895502415 0 0.048693598909616116 0.0019671075009223961 0 0.05133978496320224 0.0016698233194145154 0 0.047302252400206364 0.0018046480127324783 0 0.048263796598915991 0.00038235639867450404 0 0.046627205492419367 7.7872858072250463e-05 0 0.046701119417570394 0.0020077493895502415 0 0.048158080599434647 -0.00042874879540643322 0 0.048263796598915991 0.00038235639867450404 0 0.046627205492419367 7.7872858072250463e-05 0 0.046627205492419367 7.7872858072250463e-05 0 0.042771045149388481 -4.0466666189979648e-07 0 0.047924991243420208 -0.00039104678979719312 0 0.046627205492419367 7.7872858072250463e-05 0 0.044547881794014435 0.00083840656888968285 0 0.046701119417570394 0.0020077493895502415 0 0.046627205492419367 7.7872858072250463e-05 0 0.044547881794014435 0.00083840656888968285 0 0.042771045149388481 -4.0466666189979648e-07 0 0.042771045149388481 -4.0466666189979648e-07 0 0.041861810269631726 0.00031076463093563571 0 0.040432531840608792 3.2437746778828715e-06 0 0.044547881794014435 0.00083840656888968285 0 0.042771045149388481 -4.0466666189979648e-07 0 0.041861810269631726 0.00031076463093563571 0 0.042771045149388481 -4.0466666189979648e-07 0 0.047924991243420208 -0.00039104678979719312 0 0.048053579490240167 -5.6297912071626124e-07 0 0.050143572918617471 -4.3011459923468327e-05 0 0.049248169803066628 -0.00025264870113094547 0 0.047924991243420208 -0.00039104678979719312 0 0.050143572918617471 -4.3011459923468327e-05 0 0.047924991243420208 -0.00039104678979719312 0 0.048053579490240167 -5.6297912071626124e-07 0 0.035705025635931295 3.1857252732323284e-07 0 0.034918669695108623 0.00020738365592080601 0 0.035702226336926775 2.1338275164046718e-06 0 0.033447977229317007 0.00031799970258382859 0 0.033605027403571047 -0.00015297957977736864 0 0.034918669695108623 0.00020738365592080601 0 0.03757618489228743 0.00058864581011024131 0 0.0420725909057688 0.0011466378587073262 0 0.041973506718944037 0.0008876485778976348 0 0.042208987765373983 0.0010575173687621213 0 0.036988219450647182 0.00056979300475118347 0 0.037569443892685031 0.00074835665940749599 0 0.037481839989206407 -0.00028655405201382305 0 0.033447977229317007 0.00031799970258382859 0 0.032816927874805953 6.3218768554078198e-05 0 0.033005253013534616 -0.00022216527483366087 0 0.03757618489228743 0.00058864581011024131 0 0.039993099474282701 0.00033023621531728866 0 0.035712152120726558 1.8375823767896735e-08 0 0.036988219450647182 0.00056979300475118347 0 0.037481839989206407 -0.00028655405201382305 0 0.039993099474282701 0.00033023621531728866 0 0.041594145365684655 0.00048133346528043237 0 0.037481839989206407 -0.00028655405201382305 0 0.04042258933980513 1.6104909266960257e-09 0 0.039833595979831611 0.00015331531249173432 0 0.035712152120726558 1.8375823767896735e-08 0 0.037481839989206407 -0.00028655405201382305 0 0.04042258933980513 1.6104909266960257e-09 0 0.044547881794014435 0.00083840656888968285 0 0.041861810269631726 0.00031076463093563571 0 0.042768277110681471 0.0020272080739900792 0 0.041861810269631726 0.00031076463093563571 0 0.040432531840608792 3.2437746778828715e-06 0 0.040998823964682012 0.00015021383971108428 0 0.041712886409145861 0.00049540358845541596 0 0.041594145365684655 0.00048133346528043237 0 0.040693164578740372 0.00035884279039498178 0 0.041594145365684655 0.00048133346528043237 0 0.041594145365684655 0.00048133346528043237 0 0.044216199704342492 0.0013454229036294469 0 0.04185346576538506 0.00060404155386346544 0 0.04214771817605268 0.00079401770019114405 0 0.042188432608149307 0.00059883408260917386 0 0.044547881794014435 0.00083840656888968285 0 0.042768277110681471 0.0020272080739900792 0 0.046701119417570394 0.0020077493895502415 0 0.041973506718944037 0.0008876485778976348 0 0.04185346576538506 0.00060404155386346544 0 0.04214771817605268 0.00079401770019114405 0 0.04214771817605268 0.00079401770019114405 0 0.04236258379098469 0.00078192041492797975 0 0.04225998999079171 0.00092160471843329877 0 0.041973506718944037 0.0008876485778976348 0 0.04214771817605268 0.00079401770019114405 0 0.04225998999079171 0.00092160471843329877 0 0.04214771817605268 0.00079401770019114405 0 0.042188432608149307 0.00059883408260917386 0 0.04236258379098469 0.00078192041492797975 0 0.044216199704342492 0.0013454229036294469 0 0.047302252400206364 0.0018046480127324783 0 0.042188432608149307 0.00059883408260917386 0 0.04236258379098469 0.00078192041492797975 0 0.042540190596590255 0.00060026372087320094 0 0.04236258379098469 0.00078192041492797975 0 0.042569165256592892 0.00080027064364647581 0 0.042540190596590255 0.00060026372087320094 0 0.04236258379098469 0.00078192041492797975 0 0.042461967860213973 0.00092347636106206458 0 0.04225998999079171 0.00092160471843329877 0 0.04236258379098469 0.00078192041492797975 0 0.042461967860213973 0.00092347636106206458 0 0.042569165256592892 0.00080027064364647581 0 0.04225998999079171 0.00092160471843329877 0 0.042208987765373983 0.0010575173687621213 0 0.042404825286312058 0.0010805821049063534 0 0.042461967860213973 0.00092347636106206458 0 0.04225998999079171 0.00092160471843329877 0 0.042404825286312058 0.0010805821049063534 0 0.041973506718944037 0.0008876485778976348 0 0.04225998999079171 0.00092160471843329877 0 0.042208987765373983 0.0010575173687621213 0 0.03757618489228743 0.00058864581011024131 0 0.04006792657249128 0.00092506276793961721 0 0.0420725909057688 0.0011466378587073262 0 0.042208987765373983 0.0010575173687621213 0 0.042292129706874973 0.0012055383896816159 0 0.042208987765373983 0.0010575173687621213 0 0.042404825286312058 0.0010805821049063534 0 0.042292129706874973 0.0012055383896816159 0 0.042404825286312058 0.0010805821049063534 0 0.04254073869804996 0.0011292274391982895 0 0.042481084897287177 0.0012525212229215752 0 0.04254073869804996 0.0011292274391982895 0 0.042646480974373381 0.0010780316602858483 0 0.042538770337166049 0.0010224703369097925 0 0.042404825286312058 0.0010805821049063534 0 0.04254073869804996 0.0011292274391982895 0 0.042538770337166049 0.0010224703369097925 0 0.04254073869804996 0.0011292274391982895 0 0.042646480974373381 0.0010780316602858483 0 0.04262643322205184 0.0012124565512488365 0 0.042646480974373381 0.0010780316602858483 0 0.042759190350591378 0.0011741285914531878 0 0.04262643322205184 0.0012124565512488365 0 0.042646480974373381 0.0010780316602858483 0 0.042639860175143922 0.00091629852201532611 0 0.042538770337166049 0.0010224703369097925 0 0.042646480974373381 0.0010780316602858483 0 0.042639860175143922 0.00091629852201532611 0 0.042766406608913426 0.0010030697684943102 0 0.042639860175143922 0.00091629852201532611 0 0.042772676492086825 0.00083938645889669974 0 0.042766406608913426 0.0010030697684943102 0 0.042461967860213973 0.00092347636106206458 0 0.042404825286312058 0.0010805821049063534 0 0.042538770337166049 0.0010224703369097925 0 0.042461967860213973 0.00092347636106206458 0 0.042639860175143922 0.00091629852201532611 0 0.042538770337166049 0.0010224703369097925 0 0.042639860175143922 0.00091629852201532611 0 0.042569165256592892 0.00080027064364647581 0 0.042672418965213808 0.00078197448701963703 0 0.042461967860213973 0.00092347636106206458 0 0.042639860175143922 0.00091629852201532611 0 0.042569165256592892 0.00080027064364647581 0 0.04237337699987518 4.1797285026440883e-06 0 0.047302252400206364 0.0018046480127324783 0 0.042569165256592892 0.00080027064364647581 0 0.042589750979049296 0.00071014415947888345 0 0.042672418965213808 0.00078197448701963703 0 0.047302252400206364 0.0018046480127324783 0 0.046924611946999206 0.0020348886251998211 0 0.042589750979049296 0.00071014415947888345 0 0.042778470844940061 0.00070459227200200152 0 0.042672418965213808 0.00078197448701963703 0 0.042778470844940061 0.00070459227200200152 0 0.042672418965213808 0.00078197448701963703 0 0.042772676492086825 0.00083938645889669974 0 0.053848574600427711 0.0026221594001365352 0 0.053630806415138683 0.0027580067584126052 0 0.053951773519275791 0.0027224756415947676 0 0.042639860175143922 0.00091629852201532611 0 0.042672418965213808 0.00078197448701963703 0 0.042772676492086825 0.00083938645889669974 0 0.044338546909022759 0.0022001734047598803 0 0.043176184439658115 0.002369361011062754 0 0.042819773120937474 0.0012140952797720218 0 0.044338546909022759 0.0022001734047598803 0 0.043922151822913522 0.003055265640445681 0 0.043176184439658115 0.002369361011062754 0 0.046924611946999206 0.0020348886251998211 0 0.043389274867576766 0.0014705219637865519 0 0.04459654871873199 0.0035787011144504653 0 0.044338546909022759 0.0022001734047598803 0 0.043922151822913522 0.003055265640445681 0 0.043922151822913522 0.003055265640445681 0 0.043268951796984194 0.0035393463115833434 0 0.043176184439658115 0.002369361011062754 0 0.043922151822913522 0.003055265640445681 0 0.044211128393645167 0.0035931911205859209 0 0.043268951796984194 0.0035393463115833434 0 0.04459654871873199 0.0035787011144504653 0 0.043922151822913522 0.003055265640445681 0 0.044211128393645167 0.0035931911205859209 0 0.046924611946999206 0.0020348886251998211 0 0.045122950053926331 0.0024818370991985979 0 0.053658546322442588 -0.00092650770423310675 0 0.054152614001684897 -0.0011912560263898609 0 0.053196852729174564 -0.0014877242976250797 0 0.054152614001684897 -0.0011912560263898609 0 0.053196852729174564 -0.0014877242976250797 0 0.05298981526880036 -0.002578158353176156 0 0.04838256526228514 0.0010403519513804739 0 0.047362654410706716 -0.00021050367299206899 0 0.043268951796984194 0.0035393463115833434 0 0.043176184439658115 0.002369361011062754 0 0.041675038784927704 0.0020774677829028935 0 0.043176184439658115 0.002369361011062754 0 0.042819773120937474 0.0012140952797720218 0 0.041675038784927704 0.0020774677829028935 0 0.042819773120937474 0.0012140952797720218 0 0.044100517983866057 0.00081680278216648462 0 0.043245372178010263 0.00031765439221049998 0 0.043389274867576766 0.0014705219637865519 0 0.043602238354364165 0.00097371520169575471 0 0.044338546909022759 0.0022001734047598803 0 0.042819773120937474 0.0012140952797720218 0 0.044100517983866057 0.00081680278216648462 0 0.043602238354364165 0.00097371520169575471 0 0.040115840056726214 0.00033368593296686616 0 0.044100517983866057 0.00081680278216648462 0 0.043245372178010263 0.00031765439221049998 0 0.043883003198345184 -0.00058142820326143757 0 0.042646480974373381 0.0010780316602858483 0 0.042766406608913426 0.0010030697684943102 0 0.042759190350591378 0.0011741285914531878 0 0.040942251987325255 0.00013172647313113882 0 0.040115840056726214 0.00033368593296686616 0 0.042819773120937474 0.0012140952797720218 0 0.042174912281974383 -0.00017868314308143847 0 0.043245372178010263 0.00031765439221049998 0 0.042174912281974383 -0.00017868314308143847 0 0.043245372178010263 0.00031765439221049998 0 0.043883003198345184 -0.00058142820326143757 0 0.039266084187669519 0.0005216634711418302 0 0.03891423562032615 0.00117358874088251 0 0.038317759203228226 0.0007404239936395292 0 0.039266084187669519 0.0005216634711418302 0 0.03891423562032615 0.00117358874088251 0 0.039575505262448699 0.0013729470945096592 0 0.03891423562032615 0.00117358874088251 0 0.038317759203228226 0.0007404239936395292 0 0.038393497089766838 0.0014061810568115143 0 0.040115840056726214 0.00033368593296686616 0 0.037102351760681739 0.00092318459683712721 0 0.035655228293033026 4.9362331869814581e-05 0 0.035574717648706067 0.00014913616140202452 0 0.035844596367490836 0.00039952340941065034 0 0.037102351760681739 0.00092318459683712721 0 0.036363109806341089 0.0014103892313527739 0 0.038393497089766838 0.0014061810568115143 0 0.038931437737151145 0.0017804943662346666 0 0.038462110870319387 0.0020385990953997908 0 0.035844596367490836 0.00039952340941065034 0 0.035690684391510297 0.00080468578605806963 0 0.035985560669716705 0.0012172936641210515 0 0.035844596367490836 0.00039952340941065034 0 0.035690684391510297 0.00080468578605806963 0 0.035384470776430428 0.0005620605460837395 0 0.035574717648706067 0.00014913616140202452 0 0.035844596367490836 0.00039952340941065034 0 0.035384470776430428 0.0005620605460837395 0 0.03891423562032615 0.00117358874088251 0 0.038931437737151145 0.0017804943662346666 0 0.039575505262448699 0.0013729470945096592 0 0.038931437737151145 0.0017804943662346666 0 0.039125661343788622 0.0020981780570826065 0 0.039575505262448699 0.0013729470945096592 0 0.03891423562032615 0.00117358874088251 0 0.038393497089766838 0.0014061810568115143 0 0.038931437737151145 0.0017804943662346666 0 0.039125661343788622 0.0020981780570826065 0 0.038698366158372917 0.0022340492080896849 0 0.038654645262629746 0.0028607420562736198 0 0.038931437737151145 0.0017804943662346666 0 0.039125661343788622 0.0020981780570826065 0 0.038698366158372917 0.0022340492080896849 0 0.038931437737151145 0.0017804943662346666 0 0.038698366158372917 0.0022340492080896849 0 0.038366660176647041 0.0020448226544991571 0 0.03910477444658858 0.0014525151076629922 0 0.036363109806341089 0.0014103892313527739 0 0.039384423255493878 0.0016425017935514162 0 0.039018435445926529 0.0022013710790830467 0 0.039694630216589179 0.0019238474548859705 0 0.039834342266440094 0.0018134170927142017 0 0.032305815276946072 0.00098927614382501752 0 0.038698366158372917 0.0022340492080896849 0 0.038654645262629746 0.0028607420562736198 0 0.038404622561311892 0.0023802383553581923 0 0.038654645262629746 0.0028607420562736198 0 0.038572375876297471 0.0028435112164826954 0 0.038404622561311892 0.0023802383553581923 0 0.028103441592036919 0.00028343424610739786 0 0.028723473943503181 0.0007139204221416213 0 0.028539988592159636 -0.00061822907085819169 0 0.026060934831848355 -0.00016704379474520825 0 0.026076000476640656 -0.00020422117456596201 0 0.025841664553565961 -0.00034356657775885796 0 0.028246873675357959 0.00062182559269407525 0 0.028103441592036919 0.00028343424610739786 0 0.028723473943503181 0.0007139204221416213 0 0.031463712175403134 0.0010536616593796436 0 0.029549257119679442 6.1831260749752761e-05 0 0.032305815276946072 0.00098927614382501752 0 0.031463712175403134 0.0010536616593796436 0 0.029971636827014154 0.0013349466601302372 0 0.030393193244249075 0.0014173593548311952 0 0.0301793005746974 0.00091103034072435038 0 0.032305815276946072 0.00098927614382501752 0 0.029549257119679442 6.1831260749752761e-05 0 0.031469123387989968 0.0009901943368572383 0 0.031427051907523582 0.00058235282331011741 0 0.030460804158687255 0.00079486890936091362 0 0.024470515910851996 -0.0012397499151345359 0 0.024699462364544785 -0.0011999033557921386 0 0.024558479984302582 -0.0013102235424565442 0 0.024470515910851996 -0.0012397499151345359 0 0.024489135887399118 -0.0013240390866527899 0 0.024558479984302582 -0.0013102235424565442 0 0.028553211103446913 -0.00010743989409087162 0 0.02636816297865173 -0.00087201881539759906 0 0.031463712175403134 0.0010536616593796436 0 0.028553211103446913 -0.00010743989409087162 0 0.028553211103446913 -0.00010743989409087162 0 0.034090311961841258 0.0017067444257924112 0 0.031463712175403134 0.0010536616593796436 0 0.034090311961841258 0.0017067444257924112 0 0.031068998611028287 -0.00043731358432748006 0 0.031834597399789472 -0.00028936978432541173 0 0.032163572351717386 0.002139230767527144 0 0.031427051907523582 0.00058235282331011741 0 0.031322497112945928 0.00031841775097047015 0 0.030460804158687255 0.00079486890936091362 0 0.03507751182185162 0.0012871004711754977 0 0.035163182964780354 0.0018862498283546815 0 0.035302404276484671 0.0018056538307989732 0 0.034090311961841258 0.0017067444257924112 0 0.036363109806341089 0.0014103892313527739 0 0.038698366158372917 0.0022340492080896849 0 0.038404622561311892 0.0023802383553581923 0 0.038366660176647041 0.0020448226544991571 0 0.034090311961841258 0.0017067444257924112 0 0.034959166637459398 0.0012797083214031377 0 0.035690684391510297 0.00080468578605806963 0 0.035985560669716705 0.0012172936641210515 0 0.035891576029332177 0.0012709069052167284 0 0.036363109806341089 0.0014103892313527739 0 0.034959166637459398 0.0012797083214031377 0 0.035486367999423021 0.0010785074663061619 0 0.034959166637459398 0.0012797083214031377 0 0.035690684391510297 0.00080468578605806963 0 0.035891451731286744 0.0012858277624254965 0 0.035262531220317271 0.0012325301004123981 0 0.035891451731286744 0.0012858277624254965 0 0.035262531220317271 0.0012325301004123981 0 0.034761875213753096 0.0019355851760893476 0 0.035690684391510297 0.00080468578605806963 0 0.035262531220317271 0.0012325301004123981 0 0.035227670820412046 0.00090394118737992897 0 0.034959166637459398 0.0012797083214031377 0 0.02948758511495746 0.00015526567522635459 0 0.035262531220317271 0.0012325301004123981 0 0.034750955509376603 0.0012237503259583935 0 0.035227670820412046 0.00090394118737992897 0 0.035262531220317271 0.0012325301004123981 0 0.034750955509376603 0.0012237503259583935 0 0.034761875213753096 0.0019355851760893476 0 0.024699462364544785 -0.0011999033557921386 0 0.024658319140172611 -0.0013693043354486786 0 0.024558479984302582 -0.0013102235424565442 0 0.028553211103446913 -0.00010743989409087162 0 0.02948758511495746 0.00015526567522635459 0 0.02948758511495746 0.00015526567522635459 0 0.024451167186473218 -0.00082805704970107311 0 0.024699462364544785 -0.0011999033557921386 0 0.02484757042597964 -0.0013052382411395328 0 0.024658319140172611 -0.0013693043354486786 0 0.02948758511495746 0.00015526567522635459 0 0.031491120352905369 0.0010797323472151179 0 0.029473611153094336 -0.00028840038834639179 0 0.028010787341902887 -0.00057071367537267405 0 0.027484815591738033 0.00084050440104407246 0 0.034761875213753096 0.0019355851760893476 0 0.03398878983886696 0.0017917425582441499 0 0.03421614635363518 0.0013486359227859537 0 0.031491120352905369 0.0010797323472151179 0 0.033273034665333698 0.0010075935499746843 0 0.033991623205911606 0.0017981228668340009 0 0.03421614635363518 0.0013486359227859537 0 0.033807784959864674 0.001365483245081966 0 0.034750955509376603 0.0012237503259583935 0 0.034761875213753096 0.0019355851760893476 0 0.03421614635363518 0.0013486359227859537 0 0.034750955509376603 0.0012237503259583935 0 0.03421614635363518 0.0013486359227859537 0 0.034586182879348344 0.000945263992327438 0 0.03421614635363518 0.0013486359227859537 0 0.034267838093841825 0.00079776676932056547 0 0.034586182879348344 0.000945263992327438 0 0.03421614635363518 0.0013486359227859537 0 0.033934101614950002 0.0010276487824215524 0 0.033807784959864674 0.001365483245081966 0 0.03421614635363518 0.0013486359227859537 0 0.034267838093841825 0.00079776676932056547 0 0.033934101614950002 0.0010276487824215524 0 0.034267838093841825 0.00079776676932056547 0 0.033829782912674029 0.00065412782111891788 0 0.033934101614950002 0.0010276487824215524 0 0.034267838093841825 0.00079776676932056547 0 0.034220561162800242 0.00053297652230647953 0 0.033829782912674029 0.00065412782111891788 0 0.034267838093841825 0.00079776676932056547 0 0.034220561162800242 0.00053297652230647953 0 0.034547903306802213 0.00052521570646094377 0 0.034220561162800242 0.00053297652230647953 0 0.034157649359229894 0.00021180252004888021 0 0.033829782912674029 0.00065412782111891788 0 0.034220561162800242 0.00053297652230647953 0 0.034157649359229894 0.00021180252004888021 0 0.034547903306802213 0.00052521570646094377 0 0.034157649359229894 0.00021180252004888021 0 0.034547903306802213 0.00052521570646094377 0 0.034915547872138707 0.00044581743656973288 0 0.034547903306802213 0.00052521570646094377 0 0.034586182879348344 0.000945263992327438 0 0.034873306173783723 0.00075557927906171442 0 0.034267838093841825 0.00079776676932056547 0 0.034547903306802213 0.00052521570646094377 0 0.034586182879348344 0.000945263992327438 0 0.034750955509376603 0.0012237503259583935 0 0.034586182879348344 0.000945263992327438 0 0.034873306173783723 0.00075557927906171442 0 0.034750955509376603 0.0012237503259583935 0 0.034873306173783723 0.00075557927906171442 0 0.035227670820412046 0.00090394118737992897 0 0.034873306173783723 0.00075557927906171442 0 0.035227670820412046 0.00090394118737992897 0 0.035384470776430428 0.0005620605460837395 0 0.035690684391510297 0.00080468578605806963 0 0.035227670820412046 0.00090394118737992897 0 0.035384470776430428 0.0005620605460837395 0 0.035574717648706067 0.00014913616140202452 0 0.035384470776430428 0.0005620605460837395 0 0.034915547872138707 0.00044581743656973288 0 0.034873306173783723 0.00075557927906171442 0 0.035384470776430428 0.0005620605460837395 0 0.034915547872138707 0.00044581743656973288 0 0.034547903306802213 0.00052521570646094377 0 0.034873306173783723 0.00075557927906171442 0 0.034915547872138707 0.00044581743656973288 0 0.035424592603832829 0.00014907647486724394 0 0.035456037322513657 0.00010303279325196134 0 0.035574717648706067 0.00014913616140202452 0 0.034157649359229894 0.00021180252004888021 0 0.034915547872138707 0.00044581743656973288 0 0.035574717648706067 0.00014913616140202452 0 0.036182083002737328 2.2275047274600022e-05 0 0.035914884343510547 0.00012389224686577065 0 0.035574717648706067 0.00014913616140202452 0 0.035914884343510547 0.00012389224686577065 0 0.035726123759186282 0.00023208655177062425 0 0.035655228293033026 4.9362331869814581e-05 0 0.035574717648706067 0.00014913616140202452 0 0.035726123759186282 0.00023208655177062425 0 0.040115840056726214 0.00033368593296686616 0 0.039219844178146238 0.00067576507759802072 0 0.04254073869804996 0.0011292274391982895 0 0.04262643322205184 0.0012124565512488365 0 0.042481084897287177 0.0012525212229215752 0 0.039219844178146238 0.00067576507759802072 0 0.038078449961815815 0.00044685548308678262 0 0.036182083002737328 2.2275047274600022e-05 0 0.036100294337298167 0.00018219608153695005 0 0.036488328396316994 0.00010774731048363342 0 0.036048293528564958 -1.6729784545347432e-06 0 0.038078449961815815 0.00044685548308678262 0 0.035914884343510547 0.00012389224686577065 0 0.035726123759186282 0.00023208655177062425 0 0.036140052764856948 0.00020774490703326929 0 0.036182083002737328 2.2275047274600022e-05 0 0.035914884343510547 0.00012389224686577065 0 0.036100294337298167 0.00018219608153695005 0 0.036184615614904103 0.0001831609446539576 0 0.036610905392428734 0.00033936778844847733 0 0.036488328396316994 0.00010774731048363342 0 0.042404825286312058 0.0010805821049063534 0 0.042481084897287177 0.0012525212229215752 0 0.042292129706874973 0.0012055383896816159 0 0.036610905392428734 0.00033936778844847733 0 0.036488328396316994 0.00010774731048363342 0 0.036851865877734591 -6.0229609368925256e-05 0 0.038078449961815815 0.00044685548308678262 0 0.04006792657249128 0.00092506276793961721 0 0.038078449961815815 0.00044685548308678262 0 0.035906381324173862 0.0002818198715846251 0 0.037104958598806172 0.00049455823796473633 0 0.036610905392428734 0.00033936778844847733 0 0.036851865877734591 -6.0229609368925256e-05 0 0.03757618489228743 0.00058864581011024131 0 0.033625062906150485 0.00021834108044139645 0 0.036182083002737328 2.2275047274600022e-05 0 0.036488328396316994 0.00010774731048363342 0 0.036851865877734591 -6.0229609368925256e-05 0 0.034157649359229894 0.00021180252004888021 0 0.032799798735944956 0.00041659683397577779 0 0.033829782912674029 0.00065412782111891788 0 0.035456037322513657 0.00010303279325196134 0 0.033625062906150485 0.00021834108044139645 0 0.032799798735944956 0.00041659683397577779 0 0.033545659014927141 0.00096629597365466887 0 0.033829782912674029 0.00065412782111891788 0 0.033545659014927141 0.00096629597365466887 0 0.033829782912674029 0.00065412782111891788 0 0.033934101614950002 0.0010276487824215524 0 0.032799798735944956 0.00041659683397577779 0 0.033545659014927141 0.00096629597365466887 0 0.033337322954973554 0.0016726453562350102 0 0.033545659014927141 0.00096629597365466887 0 0.033934101614950002 0.0010276487824215524 0 0.033807784959864674 0.001365483245081966 0 0.033545659014927141 0.00096629597365466887 0 0.033337322954973554 0.0016726453562350102 0 0.033807784959864674 0.001365483245081966 0 0.031491120352905369 0.0010797323472151179 0 0.030257834623834381 0.0012256616237261407 0 0.033991623205911606 0.0017981228668340009 0 0.033337322954973554 0.0016726453562350102 0 0.033807784959864674 0.001365483245081966 0 0.027262802760615233 0.0011849615565382064 0 0.026762361981535678 8.9059876161756864e-05 0 0.027637450921310491 0.00036143216376941087 0 0.030257834623834381 0.0012256616237261407 0 0.025771454416801932 -1.7263534291865478e-05 0 0.028797558617607067 0.00095954175620545324 0 0.029299408493920476 0.0010584973824634301 0 0.029017886625342569 0.00044881576973161946 0 0.026762361981535678 8.9059876161756864e-05 0 0.027637450921310491 0.00036143216376941087 0 0.026861528593888937 -0.00012863755663524261 0 0.028010787341902887 -0.00057071367537267405 0 0.027410822098788173 0.00066873737319900867 0 0.027484815591738033 0.00084050440104407246 0 0.031491120352905369 0.0010797323472151179 0 0.025771454416801932 -1.7263534291865478e-05 0 0.025771454416801932 -1.7263534291865478e-05 0 0.024451167186473218 -0.00082805704970107311 0 0.027262802760615233 0.0011849615565382064 0 0.027637450921310491 0.00036143216376941087 0 0.02921230998830034 0.0015550727752301594 0 0.027637450921310491 0.00036143216376941087 0 0.028959790213582325 0.00034068208864908192 0 0.02758765428420169 -0.00054932825419585303 0 0.031514969310093635 0.00065035765918128297 0 0.031610587441889888 0.00066406007472664854 0 0.031588886437935636 0.00069591327628723272 0 0.030257834623834381 0.0012256616237261407 0 0.030647827993777538 0.00070304262964901909 0 0.031568236654429156 0.00072516259864553159 0 0.031514969310093635 0.00065035765918128297 0 0.031588886437935636 0.00069591327628723272 0 0.033625062906150485 0.00021834108044139645 0 0.030257834623834381 0.0012256616237261407 0 0.030647827993777538 0.00070304262964901909 0 0.031989689012010665 0.00041391295400065821 0 0.026867611872931806 8.5760255920005127e-06 0 0.027708295508909592 5.7799725294175413e-05 0 0.026707999263019946 -6.5525543433622247e-05 0 0.029882742347693277 9.416800109032347e-06 0 0.029862438114157491 8.3779405149890483e-06 0 0.029874170208847469 8.5442079900259165e-06 0 0.030647827993777538 0.00070304262964901909 0 0.028015141889129281 0.00027440994270903722 0 0.027637450921310491 0.00036143216376941087 0 0.02921230998830034 0.0015550727752301594 0 0.028959790213582325 0.00034068208864908192 0 0.028015141889129281 0.00027440994270903722 0 0.028799672401064 -3.4200314444132419e-05 0 0.027708295508909592 5.7799725294175413e-05 0 0.029860597386503027 2.0788874248536866e-06 0 0.026785594129959588 -2.0495185543648664e-06 0 0.029882742347693277 9.416800109032347e-06 0 0.02987100654823658 -1.5486786234588324e-07 0 0.030448350611282069 1.6256401530007262e-07 0 0.028799672401064 -3.4200314444132419e-05 0 0.029863290286228049 1.563573266649422e-08 0 0.029882742347693277 9.416800109032347e-06 0 0.029874170208847469 8.5442079900259165e-06 0 0.02987100654823658 -1.5486786234588324e-07 0 0.030647827993777538 0.00070304262964901909 0 0.030456648452460877 2.8690586304179032e-07 0 0.033038612548836617 0.001016312760157278 0 0.030459249155499277 2.2149122438168707e-06 0 0.032600856057327522 -0.00031621355499096635 0 0.030459249155499277 2.2149122438168707e-06 0 0.033079856118230694 -2.1585233562549546e-06 0 0.032876955046721515 -0.00027627987598565152 0 0.030459249155499277 2.2149122438168707e-06 0 0.032600856057327522 -0.00031621355499096635 0 0.032876955046721515 -0.00027627987598565152 0 0.032600856057327522 -0.00031621355499096635 0 0.032850956683203945 -0.00029608161305768612 0 0.032876955046721515 -0.00027627987598565152 0 0.033038612548836617 0.001016312760157278 0 0.032600856057327522 -0.00031621355499096635 0 0.032855957989727111 -0.00035330864409993971 0 0.031610587441889888 0.00066406007472664854 0 0.031588886437935636 0.00069591327628723272 0 0.031626647272878651 0.00071481971268696684 0 0.033625062906150485 0.00021834108044139645 0 0.031989689012010665 0.00041391295400065821 0 0.032690537008469064 -0.00036812161447543148 0 0.032777060120503868 -0.00028554284957080792 0 0.032850956683203945 -0.00029608161305768612 0 0.031568236654429156 0.00072516259864553159 0 0.031588886437935636 0.00069591327628723272 0 0.031626647272878651 0.00071481971268696684 0 0.032600856057327522 -0.00031621355499096635 0 0.032777060120503868 -0.00028554284957080792 0 0.032850956683203945 -0.00029608161305768612 0 0.032254345819184661 0.00030862655976446855 0 0.031989689012010665 0.00041391295400065821 0 0.032816927874805953 6.3218768554078198e-05 0 0.032690537008469064 -0.00036812161447543148 0 0.033005253013534616 -0.00022216527483366087 0 0.032850956683203945 -0.00029608161305768612 0 0.033005253013534616 -0.00022216527483366087 0 0.032876955046721515 -0.00027627987598565152 0 0.032690537008469064 -0.00036812161447543148 0 0.032850956683203945 -0.00029608161305768612 0 0.033005253013534616 -0.00022216527483366087 0 0.035702226336926775 2.1338275164046718e-06 0 0.033605027403571047 -0.00015297957977736864 0 0.033079856118230694 -2.1585233562549546e-06 0 0.033447977229317007 0.00031799970258382859 0 0.033005253013534616 -0.00022216527483366087 0 0.033605027403571047 -0.00015297957977736864 0 0.033605027403571047 -0.00015297957977736864 0 0.033079856118230694 -2.1585233562549546e-06 0 0.032876955046721515 -0.00027627987598565152 0 0.033005253013534616 -0.00022216527483366087 0 0.033605027403571047 -0.00015297957977736864 0 0.032876955046721515 -0.00027627987598565152 0 0.04278673643168783 -0.0016380593869962335 0 0.044564635488856051 -0.0029711447174840225 0 0.042327986873775376 -0.0029533932226628689 0 0.04278673643168783 -0.0016380593869962335 0 0.041560649955747674 -0.0015267391800594641 0 0.042327986873775376 -0.0029533932226628689 0 0.04278673643168783 -0.0016380593869962335 0 0.041560649955747674 -0.0015267391800594641 0 0.041955649621959981 -0.00073360957220958882 0 0.041560649955747674 -0.0015267391800594641 0 0.042327986873775376 -0.0029533932226628689 0 0.04122259065969143 -0.0022211045706801791 0 0.041560649955747674 -0.0015267391800594641 0 0.041332031444987261 -0.00063321162295451865 0 0.04092027359109493 -0.00099474865974347399 0 0.041560649955747674 -0.0015267391800594641 0 0.041955649621959981 -0.00073360957220958882 0 0.041332031444987261 -0.00063321162295451865 0 0.041332031444987261 -0.00063321162295451865 0 0.041046597702031971 -8.8123063908464061e-05 0 0.041494265930310699 3.4543833248764622e-05 0 0.041955649621959981 -0.00073360957220958882 0 0.041332031444987261 -0.00063321162295451865 0 0.041494265930310699 3.4543833248764622e-05 0 0.041955649621959981 -0.00073360957220958882 0 0.042796122927018496 -0.00053924123042192729 0 0.04201364158713309 0.00023346179435818841 0 0.041955649621959981 -0.00073360957220958882 0 0.04201364158713309 0.00023346179435818841 0 0.041494265930310699 3.4543833248764622e-05 0 0.042796122927018496 -0.00053924123042192729 0 0.043987696488314319 -0.0010713404662415953 0 0.043307337731057674 0.0004604500699123867 0 0.04278673643168783 -0.0016380593869962335 0 0.041955649621959981 -0.00073360957220958882 0 0.042796122927018496 -0.00053924123042192729 0 0.04278673643168783 -0.0016380593869962335 0 0.042796122927018496 -0.00053924123042192729 0 0.043987696488314319 -0.0010713404662415953 0 0.043987696488314319 -0.0010713404662415953 0 0.045227108860324848 -0.00046442513647540815 0 0.043307337731057674 0.0004604500699123867 0 0.043987696488314319 -0.0010713404662415953 0 0.045227108860324848 -0.00046442513647540815 0 0.045672425179453843 -0.0015659104424994559 0 0.047127507448596201 -0.00081110738366727551 0 0.045227108860324848 -0.00046442513647540815 0 0.045942768870389818 0.00072896011279654973 0 0.047127507448596201 -0.00081110738366727551 0 0.045227108860324848 -0.00046442513647540815 0 0.045672425179453843 -0.0015659104424994559 0 0.047528465788877025 -0.0025126863606567506 0 0.045672425179453843 -0.0015659104424994559 0 0.044564635488856051 -0.0029711447174840225 0 0.047127507448596201 -0.00081110738366727551 0 0.047528465788877025 -0.0025126863606567506 0 0.045672425179453843 -0.0015659104424994559 0 0.04278673643168783 -0.0016380593869962335 0 0.043987696488314319 -0.0010713404662415953 0 0.044564635488856051 -0.0029711447174840225 0 0.043987696488314319 -0.0010713404662415953 0 0.045672425179453843 -0.0015659104424994559 0 0.044564635488856051 -0.0029711447174840225 0 0.04756850138321439 -0.0025701202759885375 0 0.047283926084631056 -0.0027860353312158573 0 0.047528465788877025 -0.0025126863606567506 0 0.05003864467492887 -0.0027086108597204612 0 0.048962024509966874 -0.0013171240406312467 0 0.052978573673278968 -0.00044996431591055723 0 0.052741316436544824 -0.00056017241114428025 0 0.052629378022901387 -0.00027338330728321941 0 0.05003864467492887 -0.0027086108597204612 0 0.048962024509966874 -0.0013171240406312467 0 0.051874736150888105 -0.00070552491497990122 0 0.050838803281648998 -0.0008516573624459937 0 0.05178824881630565 -0.00067158617751486311 0 0.052389372709239844 -0.00059918367663496766 0 0.052629378022901387 -0.00027338330728321941 0 0.051874736150888105 -0.00070552491497990122 0 0.047283926084631056 -0.0027860353312158573 0 0.047481737398476616 -0.0025194350513913786 0 0.05003864467492887 -0.0027086108597204612 0 0.051874736150888105 -0.00070552491497990122 0 0.052296176112164999 -0.0021519639187920505 0 0.052296176112164999 -0.0021519639187920505 0 0.052726784762537018 -0.0013361845052688845 0 0.053246903982259564 -0.0018060010737400844 0 0.047481737398476616 -0.0025194350513913786 0 0.046141548258351449 -0.0026096281669413597 0 0.042327986873775376 -0.0029533932226628689 0 0.040583710003822861 -0.002911357224362753 0 0.04122259065969143 -0.0022211045706801791 0 0.051874736150888105 -0.00070552491497990122 0 0.052296176112164999 -0.0021519639187920505 0 0.052726784762537018 -0.0013361845052688845 0 0.052629780527673586 -0.00074994992732211794 0 0.052726784762537018 -0.0013361845052688845 0 0.053078608769932589 -0.0011259170292821693 0 0.052629780527673586 -0.00074994992732211794 0 0.051874736150888105 -0.00070552491497990122 0 0.052726784762537018 -0.0013361845052688845 0 0.05356306898477415 -0.0011177842290694309 0 0.053078608769932589 -0.0011259170292821693 0 0.053246903982259564 -0.0018060010737400844 0 0.052726784762537018 -0.0013361845052688845 0 0.053078608769932589 -0.0011259170292821693 0 0.053246903982259564 -0.0018060010737400844 0 0.05356306898477415 -0.0011177842290694309 0 0.053790684280461749 -0.0014327254840166938 0 0.053246903982259564 -0.0018060010737400844 0 0.053790684280461749 -0.0014327254840166938 0 0.053246903982259564 -0.0018060010737400844 0 0.054176786161014456 -0.0017023386929342036 0 0.054017382394136899 -0.0010870075053794781 0 0.05356306898477415 -0.0011177842290694309 0 0.053790684280461749 -0.0014327254840166938 0 0.039913053952670939 -0.0024333193211822936 0 0.039265428796852922 -0.0029274954618679718 0 0.039719465438062096 -0.0014862420905489067 0 0.046141548258351449 -0.0026096281669413597 0 0.050189768354802065 -0.00095265921558276682 0 0.039913053952670939 -0.0024333193211822936 0 0.040583710003822861 -0.002911357224362753 0 0.039249729187381246 -0.0030578393399311051 0 0.039913053952670939 -0.0024333193211822936 0 0.040583710003822861 -0.002911357224362753 0 0.040530525354978995 -0.0021983548285610085 0 0.040583710003822861 -0.002911357224362753 0 0.04122259065969143 -0.0022211045706801791 0 0.040530525354978995 -0.0021983548285610085 0 0.053658546322442588 -0.00092650770423310675 0 0.053196852729174564 -0.0014877242976250797 0 0.053129849875243607 -0.0010085106368197909 0 0.053196852729174564 -0.0014877242976250797 0 0.053129849875243607 -0.0010085106368197909 0 0.052865765167109655 -0.0013163676248282819 0 0.053129849875243607 -0.0010085106368197909 0 0.052865765167109655 -0.0013163676248282819 0 0.052617578160245183 -0.0011598615783921815 0 0.052865765167109655 -0.0013163676248282819 0 0.052617578160245183 -0.0011598615783921815 0 0.052489528669497326 -0.0015192176054613085 0 0.052865765167109655 -0.0013163676248282819 0 0.052489528669497326 -0.0015192176054613085 0 0.052763489559034565 -0.0015569067634865707 0 0.052489528669497326 -0.0015192176054613085 0 0.052763489559034565 -0.0015569067634865707 0 0.0525325967926304 -0.0016891648559309398 0 0.053196852729174564 -0.0014877242976250797 0 0.052763489559034565 -0.0015569067634865707 0 0.052658901124264482 -0.0019592461318975202 0 0.053196852729174564 -0.0014877242976250797 0 0.052865765167109655 -0.0013163676248282819 0 0.052763489559034565 -0.0015569067634865707 0 0.0525325967926304 -0.0016891648559309398 0 0.052217520301918327 -0.0017319918842550568 0 0.052658901124264482 -0.0019592461318975202 0 0.052763489559034565 -0.0015569067634865707 0 0.0525325967926304 -0.0016891648559309398 0 0.052658901124264482 -0.0019592461318975202 0 0.054017382394136899 -0.0010870075053794781 0 0.054444101196984646 -0.00075271672025409742 0 0.054176786161014456 -0.0017023386929342036 0 0.054110011316193855 -0.00029395877367032901 0 0.050189768354802065 -0.00095265921558276682 0 0.054824286866043591 -0.00040914358346456599 0 0.050189768354802065 -0.00095265921558276682 0 0.054017382394136899 -0.0010870075053794781 0 0.053790684280461749 -0.0014327254840166938 0 0.054176786161014456 -0.0017023386929342036 0 0.052936585557077233 -0.00056722172413083063 0 0.052617578160245183 -0.0011598615783921815 0 0.051855769836537981 -0.0017661552750158304 0 0.052617578160245183 -0.0011598615783921815 0 0.052489528669497326 -0.0015192176054613085 0 0.051855769836537981 -0.0017661552750158304 0 0.052489528669497326 -0.0015192176054613085 0 0.052217520301918327 -0.0017319918842550568 0 0.051855769836537981 -0.0017661552750158304 0 0.052489528669497326 -0.0015192176054613085 0 0.0525325967926304 -0.0016891648559309398 0 0.052217520301918327 -0.0017319918842550568 0 0.051474445428976036 -0.0010599944640681429 0 0.050189768354802065 -0.00095265921558276682 0 0.048695367039876286 -0.0024605898732770149 0 0.044585821364567124 -0.0030254005919006875 0 0.051575333671370363 -0.0019286476553293098 0 0.051478667213995147 -0.0023371331931986493 0 0.05027022899189882 -0.0040357282428746845 0 0.039913053952670939 -0.0024333193211822936 0 0.039249729187381246 -0.0030578393399311051 0 0.039265428796852922 -0.0029274954618679718 0 0.050189768354802065 -0.00095265921558276682 0 0.048695367039876286 -0.0024605898732770149 0 0.048695367039876286 -0.0024605898732770149 0 0.049323753115308122 -0.0021598354156344532 0 0.051599296037903003 -0.0019724156553955676 0 0.051478667213995147 -0.0023371331931986493 0 0.051807565191752655 -0.0022222366976360247 0 0.051478667213995147 -0.0023371331931986493 0 0.051843055943964107 -0.0029299101143831904 0 0.051174479531416489 -0.0034277285191653766 0 0.051829376408070255 -0.0024391366197472454 0 0.051843055943964107 -0.0029299101143831904 0 0.052183155384802365 -0.0022732941327607355 0 0.051478667213995147 -0.0023371331931986493 0 0.051829376408070255 -0.0024391366197472454 0 0.051843055943964107 -0.0029299101143831904 0 0.051829376408070255 -0.0024391366197472454 0 0.052183155384802365 -0.0022732941327607355 0 0.051807565191752655 -0.0022222366976360247 0 0.051478667213995147 -0.0023371331931986493 0 0.051829376408070255 -0.0024391366197472454 0 0.051807565191752655 -0.0022222366976360247 0 0.052183155384802365 -0.0022732941327607355 0 0.051807565191752655 -0.0022222366976360247 0 0.051937819525285311 -0.0019964654259072047 0 0.052217520301918327 -0.0017319918842550568 0 0.051641481564177423 -0.0017499699175176982 0 0.051937819525285311 -0.0019964654259072047 0 0.051599296037903003 -0.0019724156553955676 0 0.051807565191752655 -0.0022222366976360247 0 0.051937819525285311 -0.0019964654259072047 0 0.051641481564177423 -0.0017499699175176982 0 0.051599296037903003 -0.0019724156553955676 0 0.051937819525285311 -0.0019964654259072047 0 0.052217520301918327 -0.0017319918842550568 0 0.052183155384802365 -0.0022732941327607355 0 0.051937819525285311 -0.0019964654259072047 0 0.052217520301918327 -0.0017319918842550568 0 0.052183155384802365 -0.0022732941327607355 0 0.052658901124264482 -0.0019592461318975202 0 0.053196852729174564 -0.0014877242976250797 0 0.052658901124264482 -0.0019592461318975202 0 0.05298981526880036 -0.002578158353176156 0 0.052183155384802365 -0.0022732941327607355 0 0.052658901124264482 -0.0019592461318975202 0 0.05298981526880036 -0.002578158353176156 0 0.051843055943964107 -0.0029299101143831904 0 0.052183155384802365 -0.0022732941327607355 0 0.05298981526880036 -0.002578158353176156 0 0.041675038784927704 0.0020774677829028935 0 0.04142077661471126 0.00084746521802378299 0 0.040212741111129102 0.00055441705373645829 0 0.042819773120937474 0.0012140952797720218 0 0.041675038784927704 0.0020774677829028935 0 0.04142077661471126 0.00084746521802378299 0 0.051843055943964107 -0.0029299101143831904 0 0.05298981526880036 -0.002578158353176156 0 0.051079377094614853 -0.0044250988952223317 0 0.051478667213995147 -0.0023371331931986493 0 0.051174479531416489 -0.0034277285191653766 0 0.05027022899189882 -0.0040357282428746845 0 0.047362654410706716 -0.00021050367299206899 0 0.045794845612580792 -0.0020244134803753446 0 0.051843055943964107 -0.0029299101143831904 0 0.051174479531416489 -0.0034277285191653766 0 0.051079377094614853 -0.0044250988952223317 0 0.051174479531416489 -0.0034277285191653766 0 0.051079377094614853 -0.0044250988952223317 0 0.05027022899189882 -0.0040357282428746845 0 0.04142077661471126 0.00084746521802378299 0 0.040212741111129102 0.00055441705373645829 0 0.040369050221471948 0.0003833330429571614 0 0.040212741111129102 0.00055441705373645829 0 0.040369050221471948 0.0003833330429571614 0 0.040321794185643321 0.00056542285207144584 0 0.040369050221471948 0.0003833330429571614 0 0.040321794185643321 0.00056542285207144584 0 0.040261705191522057 0.00065885428367071751 0 0.040321794185643321 0.00056542285207144584 0 0.040261705191522057 0.00065885428367071751 0 0.040342192510328834 0.00070946953002718925 0 0.040369050221471948 0.0003833330429571614 0 0.040261705191522057 0.00065885428367071751 0 0.040056854126808178 0.00063747134436171907 0 0.042819773120937474 0.0012140952797720218 0 0.042174912281974383 -0.00017868314308143847 0 0.04142077661471126 0.00084746521802378299 0 0.040942251987325255 0.00013172647313113882 0 0.040294171704208077 0.00037357403629460881 0 0.039266084187669519 0.0005216634711418302 0 0.040369050221471948 0.0003833330429571614 0 0.040056854126808178 0.00063747134436171907 0 0.042174912281974383 -0.00017868314308143847 0 0.04142077661471126 0.00084746521802378299 0 0.040369050221471948 0.0003833330429571614 0 0.041560649955747674 -0.0015267391800594641 0 0.040563729344954724 -0.0015406838167061356 0 0.04122259065969143 -0.0022211045706801791 0 0.041560649955747674 -0.0015267391800594641 0 0.040563729344954724 -0.0015406838167061356 0 0.04092027359109493 -0.00099474865974347399 0 0.040563729344954724 -0.0015406838167061356 0 0.040192520517747472 -0.0013752736237933418 0 0.040314451874654163 -0.00066950852656104322 0 0.040563729344954724 -0.0015406838167061356 0 0.040179426846790614 -0.0017809475617810318 0 0.040192520517747472 -0.0013752736237933418 0 0.040563729344954724 -0.0015406838167061356 0 0.04122259065969143 -0.0022211045706801791 0 0.040530525354978995 -0.0021983548285610085 0 0.040563729344954724 -0.0015406838167061356 0 0.040530525354978995 -0.0021983548285610085 0 0.040179426846790614 -0.0017809475617810318 0 0.039913053952670939 -0.0024333193211822936 0 0.040179426846790614 -0.0017809475617810318 0 0.039719465438062096 -0.0014862420905489067 0 0.039913053952670939 -0.0024333193211822936 0 0.040530525354978995 -0.0021983548285610085 0 0.040179426846790614 -0.0017809475617810318 0 0.040179426846790614 -0.0017809475617810318 0 0.039719465438062096 -0.0014862420905489067 0 0.040192520517747472 -0.0013752736237933418 0 0.044585821364567124 -0.0030254005919006875 0 0.043917836049346078 -0.0019310034498899707 0 0.045794845612580792 -0.0020244134803753446 0 0.043917836049346078 -0.0019310034498899707 0 0.039719465438062096 -0.0014862420905489067 0 0.040314451874654163 -0.00066950852656104322 0 0.040328119843562896 0.00046633832348404647 0 0.040212741111129102 0.00055441705373645829 0 0.040426949799460064 0.00069303096147596706 0 0.040674132419230249 0.00080112059849329258 0 0.051079377094614853 -0.0044250988952223317 0 0.05027022899189882 -0.0040357282428746845 0 0.048938056586253602 -0.0062527443181235797 0 0.039719465438062096 -0.0014862420905489067 0 0.040192520517747472 -0.0013752736237933418 0 0.040314451874654163 -0.00066950852656104322 0 0.040321794185643321 0.00056542285207144584 0 0.040426949799460064 0.00069303096147596706 0 0.040342192510328834 0.00070946953002718925 0 0.040212741111129102 0.00055441705373645829 0 0.040321794185643321 0.00056542285207144584 0 0.040426949799460064 0.00069303096147596706 0 0.040470287802543033 -0.00011506327151862732 0 0.040314451874654163 -0.00066950852656104322 0 0.040328119843562896 0.00046633832348404647 0 0.040470287802543033 -0.00011506327151862732 0 0.040314451874654163 -0.00066950852656104322 0 0.04079713085974055 -0.00042523123668892739 0 0.040470287802543033 -0.00011506327151862732 0 0.04079713085974055 -0.00042523123668892739 0 0.040747930305568031 -3.4819977450615598e-05 0 0.040314451874654163 -0.00066950852656104322 0 0.04092027359109493 -0.00099474865974347399 0 0.04079713085974055 -0.00042523123668892739 0 0.040563729344954724 -0.0015406838167061356 0 0.040314451874654163 -0.00066950852656104322 0 0.04092027359109493 -0.00099474865974347399 0 0.041332031444987261 -0.00063321162295451865 0 0.04092027359109493 -0.00099474865974347399 0 0.04079713085974055 -0.00042523123668892739 0 0.041332031444987261 -0.00063321162295451865 0 0.04079713085974055 -0.00042523123668892739 0 0.041046597702031971 -8.8123063908464061e-05 0 0.04079713085974055 -0.00042523123668892739 0 0.040747930305568031 -3.4819977450615598e-05 0 0.041046597702031971 -8.8123063908464061e-05 0 0.041046597702031971 -8.8123063908464061e-05 0 0.040823523944830631 0.000255829662647338 0 0.041115337894623433 0.0003417831191985806 0 0.040747930305568031 -3.4819977450615598e-05 0 0.041046597702031971 -8.8123063908464061e-05 0 0.040823523944830631 0.000255829662647338 0 0.040747930305568031 -3.4819977450615598e-05 0 0.040823523944830631 0.000255829662647338 0 0.040597340822037142 0.00020375348234936448 0 0.040823523944830631 0.000255829662647338 0 0.041115337894623433 0.0003417831191985806 0 0.040899511782379723 0.00064421224495428159 0 0.040823523944830631 0.000255829662647338 0 0.040899511782379723 0.00064421224495428159 0 0.040658512657726416 0.00047547702413470061 0 0.041115337894623433 0.0003417831191985806 0 0.040899511782379723 0.00064421224495428159 0 0.041244782519416351 0.00081434058279645203 0 0.040899511782379723 0.00064421224495428159 0 0.040978918688448475 0.00092954121386016025 0 0.041244782519416351 0.00081434058279645203 0 0.040899511782379723 0.00064421224495428159 0 0.04082258835130527 0.00099610203465990213 0 0.040978918688448475 0.00092954121386016025 0 0.040899511782379723 0.00064421224495428159 0 0.04082258835130527 0.00099610203465990213 0 0.04068225734384151 0.00083964836706219002 0 0.04082258835130527 0.00099610203465990213 0 0.040978918688448475 0.00092954121386016025 0 0.040949149819277955 0.0012620691914311229 0 0.040978918688448475 0.00092954121386016025 0 0.040949149819277955 0.0012620691914311229 0 0.041244782519416351 0.00081434058279645203 0 0.040653400753325269 0.00099726289712622862 0 0.040609860338397433 0.00092743334709913825 0 0.040603040696221122 0.0011400054800022907 0 0.040653400753325269 0.00099726289712622862 0 0.040603040696221122 0.0011400054800022907 0 0.040757847616463797 0.0011983584789972985 0 0.040653400753325269 0.00099726289712622862 0 0.040712664292966473 0.00096969281472375599 0 0.040757847616463797 0.0011983584789972985 0 0.04082258835130527 0.00099610203465990213 0 0.040712664292966473 0.00096969281472375599 0 0.040757847616463797 0.0011983584789972985 0 0.04082258835130527 0.00099610203465990213 0 0.040712664292966473 0.00096969281472375599 0 0.04068225734384151 0.00083964836706219002 0 0.040653400753325269 0.00099726289712622862 0 0.040712664292966473 0.00096969281472375599 0 0.040686660263221597 0.00087480373778935495 0 0.040899511782379723 0.00064421224495428159 0 0.04068225734384151 0.00083964836706219002 0 0.040658512657726416 0.00047547702413470061 0 0.040712664292966473 0.00096969281472375599 0 0.040686660263221597 0.00087480373778935495 0 0.04068225734384151 0.00083964836706219002 0 0.043079144522854766 -0.0014383313237133885 0 0.043917836049346078 -0.0019310034498899707 0 0.040686660263221597 0.00087480373778935495 0 0.04068225734384151 0.00083964836706219002 0 0.040702984305990682 0.0008810687169881874 0 0.040653400753325269 0.00099726289712622862 0 0.040686660263221597 0.00087480373778935495 0 0.040609860338397433 0.00092743334709913825 0 0.043558040559140747 -0.0011708150590486505 0 0.043917836049346078 -0.0019310034498899707 0 0.040686660263221597 0.00087480373778935495 0 0.040674132419230249 0.00080112059849329258 0 0.040609860338397433 0.00092743334709913825 0 0.040328119843562896 0.00046633832348404647 0 0.040658512657726416 0.00047547702413470061 0 0.040597340822037142 0.00020375348234936448 0 0.04068225734384151 0.00083964836706219002 0 0.040328119843562896 0.00046633832348404647 0 0.040658512657726416 0.00047547702413470061 0 0.040823523944830631 0.000255829662647338 0 0.040658512657726416 0.00047547702413470061 0 0.040597340822037142 0.00020375348234936448 0 0.040470287802543033 -0.00011506327151862732 0 0.040328119843562896 0.00046633832348404647 0 0.040597340822037142 0.00020375348234936448 0 0.040470287802543033 -0.00011506327151862732 0 0.040747930305568031 -3.4819977450615598e-05 0 0.040597340822037142 0.00020375348234936448 0 0.040426949799460064 0.00069303096147596706 0 0.040674132419230249 0.00080112059849329258 0 0.04054991760368374 0.00083718621021259632 0 0.040426949799460064 0.00069303096147596706 0 0.04046775428626026 0.00083348337332277622 0 0.04054991760368374 0.00083718621021259632 0 0.040674132419230249 0.00080112059849329258 0 0.04054991760368374 0.00083718621021259632 0 0.040609860338397433 0.00092743334709913825 0 0.040342192510328834 0.00070946953002718925 0 0.04039463529413681 0.00078666355491136767 0 0.040294071065990394 0.00085971808185001026 0 0.040426949799460064 0.00069303096147596706 0 0.040342192510328834 0.00070946953002718925 0 0.04039463529413681 0.00078666355491136767 0 0.040426949799460064 0.00069303096147596706 0 0.04046775428626026 0.00083348337332277622 0 0.04039463529413681 0.00078666355491136767 0 0.04046775428626026 0.00083348337332277622 0 0.04039463529413681 0.00078666355491136767 0 0.040405114340347111 0.00091706601772353425 0 0.04039463529413681 0.00078666355491136767 0 0.040405114340347111 0.00091706601772353425 0 0.040294071065990394 0.00085971808185001026 0 0.040405114340347111 0.00091706601772353425 0 0.040325178760356635 0.0011233980661938905 0 0.040294071065990394 0.00085971808185001026 0 0.040405114340347111 0.00091706601772353425 0 0.040500072328454192 0.0010098524748099055 0 0.040325178760356635 0.0011233980661938905 0 0.04046775428626026 0.00083348337332277622 0 0.040405114340347111 0.00091706601772353425 0 0.040500072328454192 0.0010098524748099055 0 0.04054991760368374 0.00083718621021259632 0 0.040609860338397433 0.00092743334709913825 0 0.040500072328454192 0.0010098524748099055 0 0.04046775428626026 0.00083348337332277622 0 0.04054991760368374 0.00083718621021259632 0 0.040500072328454192 0.0010098524748099055 0 0.040609860338397433 0.00092743334709913825 0 0.040500072328454192 0.0010098524748099055 0 0.040603040696221122 0.0011400054800022907 0 0.040500072328454192 0.0010098524748099055 0 0.040603040696221122 0.0011400054800022907 0 0.0404941417105769 0.001360660357416638 0 0.040603040696221122 0.0011400054800022907 0 0.0404941417105769 0.001360660357416638 0 0.040660206880202811 0.0013813067861383121 0 0.0404941417105769 0.001360660357416638 0 0.040325178760356635 0.0011233980661938905 0 0.040231146617189545 0.0014706913201928346 0 0.040500072328454192 0.0010098524748099055 0 0.0404941417105769 0.001360660357416638 0 0.040325178760356635 0.0011233980661938905 0 0.0404941417105769 0.001360660357416638 0 0.040231146617189545 0.0014706913201928346 0 0.040488188364942557 0.0016916062361744834 0 0.0404941417105769 0.001360660357416638 0 0.040666556587354907 0.0016448888371297903 0 0.040488188364942557 0.0016916062361744834 0 0.0404941417105769 0.001360660357416638 0 0.040666556587354907 0.0016448888371297903 0 0.040660206880202811 0.0013813067861383121 0 0.040808017258389687 0.0015254354979619836 0 0.041167585373656272 0.0022902284037065166 0 0.041135186669068 0.001478516970336786 0 0.040666556587354907 0.0016448888371297903 0 0.040808017258389687 0.0015254354979619836 0 0.040660206880202811 0.0013813067861383121 0 0.040949149819277955 0.0012620691914311229 0 0.041135186669068 0.001478516970336786 0 0.041244782519416351 0.00081434058279645203 0 0.040808017258389687 0.0015254354979619836 0 0.040949149819277955 0.0012620691914311229 0 0.040757847616463797 0.0011983584789972985 0 0.040808017258389687 0.0015254354979619836 0 0.040949149819277955 0.0012620691914311229 0 0.041135186669068 0.001478516970336786 0 0.04082258835130527 0.00099610203465990213 0 0.040949149819277955 0.0012620691914311229 0 0.040757847616463797 0.0011983584789972985 0 0.040603040696221122 0.0011400054800022907 0 0.040757847616463797 0.0011983584789972985 0 0.040660206880202811 0.0013813067861383121 0 0.040808017258389687 0.0015254354979619836 0 0.040757847616463797 0.0011983584789972985 0 0.040660206880202811 0.0013813067861383121 0 0.040027798971927653 0.00065675542204748872 0 0.039587936706314782 0.0012913725953874887 0 0.039266084187669519 0.0005216634711418302 0 0.040056854126808178 0.00063747134436171907 0 0.039575505262448699 0.0013729470945096592 0 0.040056854126808178 0.00063747134436171907 0 0.040071720009853616 0.00088254372196138321 0 0.039706986897900427 0.0011446269792906773 0 0.040071720009853616 0.00088254372196138321 0 0.040091600712637988 0.0011720234858516791 0 0.039706986897900427 0.0011446269792906773 0 0.040261705191522057 0.00065885428367071751 0 0.040056854126808178 0.00063747134436171907 0 0.040071720009853616 0.00088254372196138321 0 0.040261705191522057 0.00065885428367071751 0 0.040071720009853616 0.00088254372196138321 0 0.040294071065990394 0.00085971808185001026 0 0.040261705191522057 0.00065885428367071751 0 0.040342192510328834 0.00070946953002718925 0 0.040294071065990394 0.00085971808185001026 0 0.040071720009853616 0.00088254372196138321 0 0.040294071065990394 0.00085971808185001026 0 0.040091600712637988 0.0011720234858516791 0 0.040325178760356635 0.0011233980661938905 0 0.040294071065990394 0.00085971808185001026 0 0.040091600712637988 0.0011720234858516791 0 0.040325178760356635 0.0011233980661938905 0 0.040231146617189545 0.0014706913201928346 0 0.040091600712637988 0.0011720234858516791 0 0.040231146617189545 0.0014706913201928346 0 0.040091600712637988 0.0011720234858516791 0 0.039894452395936454 0.0015483818737859003 0 0.039834342266440094 0.0018134170927142017 0 0.039587936706314782 0.0012913725953874887 0 0.039384423255493878 0.0016425017935514162 0 0.039706986897900427 0.0011446269792906773 0 0.039894452395936454 0.0015483818737859003 0 0.040091600712637988 0.0011720234858516791 0 0.039706986897900427 0.0011446269792906773 0 0.039894452395936454 0.0015483818737859003 0 0.039384423255493878 0.0016425017935514162 0 0.039894452395936454 0.0015483818737859003 0 0.039694630216589179 0.0019238474548859705 0 0.040231146617189545 0.0014706913201928346 0 0.039894452395936454 0.0015483818737859003 0 0.040284880059388024 0.0019436102185560349 0 0.039894452395936454 0.0015483818737859003 0 0.040284880059388024 0.0019436102185560349 0 0.039694630216589179 0.0019238474548859705 0 0.040284880059388024 0.0019436102185560349 0 0.040689864766261699 0.0022293685180940657 0 0.039856194186505434 0.0023173600896515493 0 0.040284880059388024 0.0019436102185560349 0 0.039694630216589179 0.0019238474548859705 0 0.039856194186505434 0.0023173600896515493 0 0.032305815276946072 0.00098927614382501752 0 0.032809398202303032 0.0010147501270893378 0 0.039018435445926529 0.0022013710790830467 0 0.039694630216589179 0.0019238474548859705 0 0.039856194186505434 0.0023173600896515493 0 0.040808017258389687 0.0015254354979619836 0 0.040917866919297302 0.001989653970613306 0 0.041167585373656272 0.0022902284037065166 0 0.040666556587354907 0.0016448888371297903 0 0.040808017258389687 0.0015254354979619836 0 0.040917866919297302 0.001989653970613306 0 0.040666556587354907 0.0016448888371297903 0 0.040917866919297302 0.001989653970613306 0 0.040696926808364023 0.0019430999414890863 0 0.040284880059388024 0.0019436102185560349 0 0.040488188364942557 0.0016916062361744834 0 0.040696926808364023 0.0019430999414890863 0 0.040666556587354907 0.0016448888371297903 0 0.040488188364942557 0.0016916062361744834 0 0.040696926808364023 0.0019430999414890863 0 0.040231146617189545 0.0014706913201928346 0 0.040284880059388024 0.0019436102185560349 0 0.040488188364942557 0.0016916062361744834 0 0.040284880059388024 0.0019436102185560349 0 0.040696926808364023 0.0019430999414890863 0 0.040689864766261699 0.0022293685180940657 0 0.040696926808364023 0.0019430999414890863 0 0.040955166427034104 0.0020155283490758411 0 0.040689864766261699 0.0022293685180940657 0 0.040917866919297302 0.001989653970613306 0 0.040696926808364023 0.0019430999414890863 0 0.040955166427034104 0.0020155283490758411 0 0.040917866919297302 0.001989653970613306 0 0.040955166427034104 0.0020155283490758411 0 0.0410215385027645 0.0021035926417598753 0 0.040955166427034104 0.0020155283490758411 0 0.0410215385027645 0.0021035926417598753 0 0.041081159743286959 0.0014994365548139394 0 0.0410215385027645 0.0021035926417598753 0 0.040657355079244221 0.0017969619262424128 0 0.041081159743286959 0.0014994365548139394 0 0.039779372995811191 0.0018399176201054747 0 0.040657355079244221 0.0017969619262424128 0 0.040869990160553753 0.0024149771568625455 0 0.039779372995811191 0.0018399176201054747 0 0.040657355079244221 0.0017969619262424128 0 0.039993955033611306 0.0010907354131990969 0 0.0410215385027645 0.0021035926417598753 0 0.040657355079244221 0.0017969619262424128 0 0.040869990160553753 0.0024149771568625455 0 0.040869990160553753 0.0024149771568625455 0 0.041497517439183638 0.0028220077735039667 0 0.038409380805349211 0.0035412547275544656 0 0.040869990160553753 0.0024149771568625455 0 0.041497517439183638 0.0028220077735039667 0 0.041167585373656272 0.0022902284037065166 0 0.040917866919297302 0.001989653970613306 0 0.0410215385027645 0.0021035926417598753 0 0.041167585373656272 0.0022902284037065166 0 0.0410215385027645 0.0021035926417598753 0 0.040869990160553753 0.0024149771568625455 0 0.041167585373656272 0.0022902284037065166 0 0.041167585373656272 0.0022902284037065166 0 0.04168346880937316 0.0012414624406359277 0 0.04218852438232313 0.0017519715641222994 0 0.041167585373656272 0.0022902284037065166 0 0.041135186669068 0.001478516970336786 0 0.04168346880937316 0.0012414624406359277 0 0.041135186669068 0.001478516970336786 0 0.04168346880937316 0.0012414624406359277 0 0.041244782519416351 0.00081434058279645203 0 0.04218852438232313 0.0017519715641222994 0 0.043307337731057674 0.0004604500699123867 0 0.043854779645269792 0.0019448398104349037 0 0.041497517439183638 0.0028220077735039667 0 0.04218852438232313 0.0017519715641222994 0 0.043854779645269792 0.0019448398104349037 0 0.041497517439183638 0.0028220077735039667 0 0.041167585373656272 0.0022902284037065166 0 0.04218852438232313 0.0017519715641222994 0 0.042796122927018496 -0.00053924123042192729 0 0.043307337731057674 0.0004604500699123867 0 0.04201364158713309 0.00023346179435818841 0 0.04168346880937316 0.0012414624406359277 0 0.04218852438232313 0.0017519715641222994 0 0.043307337731057674 0.0004604500699123867 0 0.04168346880937316 0.0012414624406359277 0 0.043307337731057674 0.0004604500699123867 0 0.04201364158713309 0.00023346179435818841 0 0.04201364158713309 0.00023346179435818841 0 0.041494265930310699 3.4543833248764622e-05 0 0.041244782519416351 0.00081434058279645203 0 0.041115337894623433 0.0003417831191985806 0 0.041494265930310699 3.4543833248764622e-05 0 0.041244782519416351 0.00081434058279645203 0 0.041046597702031971 -8.8123063908464061e-05 0 0.041115337894623433 0.0003417831191985806 0 0.041494265930310699 3.4543833248764622e-05 0 0.04168346880937316 0.0012414624406359277 0 0.04201364158713309 0.00023346179435818841 0 0.041244782519416351 0.00081434058279645203 0 0.045227108860324848 -0.00046442513647540815 0 0.043307337731057674 0.0004604500699123867 0 0.045942768870389818 0.00072896011279654973 0 0.043307337731057674 0.0004604500699123867 0 0.045942768870389818 0.00072896011279654973 0 0.043854779645269792 0.0019448398104349037 0 0.045942768870389818 0.00072896011279654973 0 0.043854779645269792 0.0019448398104349037 0 0.045526941488789642 0.0025618976666593038 0 0.046941560419252799 0.0030070405783653919 0 0.045942768870389818 0.00072896011279654973 0 0.045526941488789642 0.0025618976666593038 0 0.046355634046623628 0.0044071398294678911 0 0.045526941488789642 0.0025618976666593038 0 0.044359686429898883 0.0038933507892757718 0 0.041497517439183638 0.0028220077735039667 0 0.043854779645269792 0.0019448398104349037 0 0.044359686429898883 0.0038933507892757718 0 0.041303401359307393 0.0029811265463871128 0 0.04144535999588439 0.003632571673171154 0 0.043854779645269792 0.0019448398104349037 0 0.045526941488789642 0.0025618976666593038 0 0.044359686429898883 0.0038933507892757718 0 0.038409380805349211 0.0035412547275544656 0 0.038374067077366958 0.0015243808509114844 0 0.036938589475427094 0.0019447397831715667 0 0.039779372995811191 0.0018399176201054747 0 0.040869990160553753 0.0024149771568625455 0 0.038409380805349211 0.0035412547275544656 0 0.039779372995811191 0.0018399176201054747 0 0.038409380805349211 0.0035412547275544656 0 0.038374067077366958 0.0015243808509114844 0 0.039971290786362176 0.0036204021266972109 0 0.04144535999588439 0.003632571673171154 0 0.034940628553587393 0.0030209376176040447 0 0.038409380805349211 0.0035412547275544656 0 0.036938589475427094 0.0019447397831715667 0 0.034940628553587393 0.0030209376176040447 0 0.036938589475427094 0.0019447397831715667 0 0.035296816922136563 0.00082485771331788059 0 0.038374067077366958 0.0015243808509114844 0 0.036938589475427094 0.0019447397831715667 0 0.037224823687162997 0.00088227644192037712 0 0.036938589475427094 0.0019447397831715667 0 0.035296816922136563 0.00082485771331788059 0 0.037224823687162997 0.00088227644192037712 0 0.035296816922136563 0.00082485771331788059 0 0.037224823687162997 0.00088227644192037712 0 0.036355525953606964 6.6741824951730879e-06 0 0.037224823687162997 0.00088227644192037712 0 0.036355525953606964 6.6741824951730879e-06 0 0.038134081868363326 0.00023221233798973565 0 0.036355525953606964 6.6741824951730879e-06 0 0.038134081868363326 0.00023221233798973565 0 0.037051903464771524 -0.00090612862306367408 0 0.035296816922136563 0.00082485771331788059 0 0.036355525953606964 6.6741824951730879e-06 0 0.034815070769951793 -0.0005333628416615432 0 0.039161757518988205 0.00096238206558534023 0 0.039413361364757836 0.00059233707413961715 0 0.039993955033611306 0.0010907354131990969 0 0.039779372995811191 0.0018399176201054747 0 0.038374067077366958 0.0015243808509114844 0 0.039161757518988205 0.00096238206558534023 0 0.038374067077366958 0.0015243808509114844 0 0.037224823687162997 0.00088227644192037712 0 0.038134081868363326 0.00023221233798973565 0 0.038374067077366958 0.0015243808509114844 0 0.039161757518988205 0.00096238206558534023 0 0.038134081868363326 0.00023221233798973565 0 0.038134081868363326 0.00023221233798973565 0 0.038882370633806014 0.00035463468984679866 0 0.039268380636735017 -0.00031861225904384602 0 0.038003341912300939 -0.0012357049328250447 0 0.033723052626550565 -0.00081246385413497339 0 0.039161757518988205 0.00096238206558534023 0 0.038134081868363326 0.00023221233798973565 0 0.038882370633806014 0.00035463468984679866 0 0.038882370633806014 0.00035463468984679866 0 0.039398521447545493 1.5927295623301295e-05 0 0.039268380636735017 -0.00031861225904384602 0 0.038882370633806014 0.00035463468984679866 0 0.03926025981943497 0.00028246452512137673 0 0.039398521447545493 1.5927295623301295e-05 0 0.03926025981943497 0.00028246452512137673 0 0.039413361364757836 0.00059233707413961715 0 0.039398521447545493 1.5927295623301295e-05 0 0.039161757518988205 0.00096238206558534023 0 0.038882370633806014 0.00035463468984679866 0 0.039413361364757836 0.00059233707413961715 0 0.038882370633806014 0.00035463468984679866 0 0.03926025981943497 0.00028246452512137673 0 0.039413361364757836 0.00059233707413961715 0 0.032083490646284886 -0.00048408892885914046 0 0.033864511084231164 -0.0017155256293179778 0 0.039119064383509421 -0.0016305917955836526 0 0.03825057128620709 -0.0009036925747672724 0 0.036332817228273459 -0.001851513894749581 0 0.028768794502681903 -0.0019770078588219912 0 0.028935068659603942 -0.0015421801324828096 0 0.030812942880135318 -0.0017552120301769379 0 0.032083490646284886 -0.00048408892885914046 0 0.028865339785412038 -0.00028177116350589458 0 0.033723052626550565 -0.00081246385413497339 0 0.028865339785412038 -0.00028177116350589458 0 0.031977452227584399 -0.00071495976933174223 0 0.03209469113468056 -0.00041381837783237106 0 0.031680027483887145 -0.00044749546123850416 0 0.028306721408087432 -0.00054646939723937285 0 0.028397722045548301 -0.00032451866041264806 0 0.02808879347493318 -4.3406293356392188e-05 0 0.033608075440067116 -0.0014624350364204235 0 0.033723052626550565 -0.00081246385413497339 0 0.033723052626550565 -0.00081246385413497339 0 0.032083490646284886 -0.00048408892885914046 0 0.039368278894619385 -0.00097636296187025124 0 0.039119064383509421 -0.0016305917955836526 0 0.03825057128620709 -0.0009036925747672724 0 0.038134081868363326 0.00023221233798973565 0 0.039368278894619385 -0.00097636296187025124 0 0.03825057128620709 -0.0009036925747672724 0 0.038134081868363326 0.00023221233798973565 0 0.03825057128620709 -0.0009036925747672724 0 0.037051903464771524 -0.00090612862306367408 0 0.030168977889197479 -6.6588007813752595e-05 0 0.027387361279799991 -9.3253987074882235e-05 0 0.028462190183406264 -0.001073652664162884 0 0.029271335791270881 -0.0015366504358110952 0 0.025910828804829162 -0.0002458778283683672 0 0.032083490646284886 -0.00048408892885914046 0 0.029271335791270881 -0.0015366504358110952 0 0.029818315620001125 -0.00095828314180834034 0 0.030168977889197479 -6.6588007813752595e-05 0 0.028462190183406264 -0.001073652664162884 0 0.031063485885345209 -0.0014476526708368795 0 0.031949743414291285 -0.0011332561543917032 0 0.032278645534011906 -0.0013989999763652314 0 0.034815070769951793 -0.0005333628416615432 0 0.036332817228273459 -0.001851513894749581 0 0.032917717666489009 -0.001452530820250519 0 0.028935068659603942 -0.0015421801324828096 0 0.030812942880135318 -0.0017552120301769379 0 0.032278645534011906 -0.0013989999763652314 0 0.033864511084231164 -0.0017155256293179778 0 0.032954264206409428 -0.0015852598161624585 0 0.029271335791270881 -0.0015366504358110952 0 0.032494064640730923 -0.0013990749883369461 0 0.036355525953606964 6.6741824951730879e-06 0 0.034815070769951793 -0.0005333628416615432 0 0.036332817228273459 -0.001851513894749581 0 0.03825057128620709 -0.0009036925747672724 0 0.037051903464771524 -0.00090612862306367408 0 0.036332817228273459 -0.001851513894749581 0 0.036355525953606964 6.6741824951730879e-06 0 0.037051903464771524 -0.00090612862306367408 0 0.036332817228273459 -0.001851513894749581 0 0.031063485885345209 -0.0014476526708368795 0 0.031949743414291285 -0.0011332561543917032 0 0.031623979043031561 -0.0010025530212093917 0 0.031949743414291285 -0.0011332561543917032 0 0.031623979043031561 -0.0010025530212093917 0 0.031810060018144085 -0.00088218577883793811 0 0.024760806419218434 -0.00078454641049834257 0 0.024689609127188449 -0.00091264955938337368 0 0.024773318344887597 -0.00084358467959231285 0 0.031063485885345209 -0.0014476526708368795 0 0.031623979043031561 -0.0010025530212093917 0 0.03139921463103458 -0.00067708936818899434 0 0.029271335791270881 -0.0015366504358110952 0 0.027842518334871388 -0.00070799036343737333 0 0.024689609127188449 -0.00091264955938337368 0 0.024771675593526842 -0.00089736152488974587 0 0.024773318344887597 -0.00084358467959231285 0 0.024689609127188449 -0.00091264955938337368 0 0.024771675593526842 -0.00089736152488974587 0 0.024724370582723219 -0.00099775090470469369 0 0.03139921463103458 -0.00067708936818899434 0 0.031810060018144085 -0.00088218577883793811 0 0.031428605974485907 -0.00059209744080073303 0 0.031623979043031561 -0.0010025530212093917 0 0.03139921463103458 -0.00067708936818899434 0 0.031810060018144085 -0.00088218577883793811 0 0.024771675593526842 -0.00089736152488974587 0 0.024863673353913464 -0.00083677643344119864 0 0.024813089699099504 -0.00097649638312914764 0 0.024773318344887597 -0.00084358467959231285 0 0.024863673353913464 -0.00083677643344119864 0 0.024792945003355171 -0.00078572075311195079 0 0.024771675593526842 -0.00089736152488974587 0 0.024773318344887597 -0.00084358467959231285 0 0.024863673353913464 -0.00083677643344119864 0 0.024760806419218434 -0.00078454641049834257 0 0.024773318344887597 -0.00084358467959231285 0 0.024792945003355171 -0.00078572075311195079 0 0.025118586629732518 -0.00069144404239807229 0 0.025082722945727928 -0.00045466089826862107 0 0.025210680390770752 -0.00057738726058286221 0 0.024802802550743769 -0.00078775858150195689 0 0.025910828804829162 -0.0002458778283683672 0 0.025118586629732518 -0.00069144404239807229 0 0.025082722945727928 -0.00045466089826862107 0 0.024875283194877622 -0.00045603208621532046 0 0.025837651024153946 -0.00046642113844560498 0 0.025777437506341851 -0.00036833404970211412 0 0.026186131358138406 -0.00034041898876952106 0 0.025837651024153946 -0.00046642113844560498 0 0.025777437506341851 -0.00036833404970211412 0 0.025554839407952008 -0.00045597225329836174 0 0.025877428765673414 -0.00034953463418508626 0 0.025746876349761926 -0.00041583845148794867 0 0.026552447691035354 -0.00016695591255860736 0 0.026252697056664616 -0.00079367409410476594 0 0.025554839407952008 -0.00045597225329836174 0 0.025877428765673414 -0.00034953463418508626 0 0.028865339785412038 -0.00028177116350589458 0 0.028306721408087432 -0.00054646939723937285 0 0.026552447691035354 -0.00016695591255860736 0 0.026252697056664616 -0.00079367409410476594 0 0.025367063030718073 -0.00041758902157020819 0 0.025910828804829162 -0.0002458778283683672 0 0.028306721408087432 -0.00054646939723937285 0 0.026552447691035354 -0.00016695591255860736 0 0.02808879347493318 -4.3406293356392188e-05 0 0.025837651024153946 -0.00046642113844560498 0 0.026186131358138406 -0.00034041898876952106 0 0.026291065132948214 -0.00043272085461075954 0 0.025910828804829162 -0.0002458778283683672 0 0.028865339785412038 -0.00028177116350589458 0 0.039398521447545493 1.5927295623301295e-05 0 0.039993955033611306 0.0010907354131990969 0 0.041081159743286959 0.0014994365548139394 0 0.040657355079244221 0.0017969619262424128 0 0.039993955033611306 0.0010907354131990969 0 0.041081159743286959 0.0014994365548139394 0 0.033608075440067116 -0.0014624350364204235 0 0.033689155194804088 0.00050219161244595531 0 0.039413361364757836 0.00059233707413961715 0 0.039398521447545493 1.5927295623301295e-05 0 0.039993955033611306 0.0010907354131990969 0 0.039779372995811191 0.0018399176201054747 0 0.039161757518988205 0.00096238206558534023 0 0.039993955033611306 0.0010907354131990969 0 0.040955166427034104 0.0020155283490758411 0 0.041081159743286959 0.0014994365548139394 0 0.040689864766261699 0.0022293685180940657 0 0.026252697056664616 -0.00079367409410476594 0 0.025385688096069746 -0.00056816931838346043 0 0.025554839407952008 -0.00045597225329836174 0 0.033689155194804088 0.00050219161244595531 0 0.033016999418325178 0.00078023828086631734 0 0.025385688096069746 -0.00056816931838346043 0 0.025436794389984575 -0.00046972066227553207 0 0.025554839407952008 -0.00045597225329836174 0 0.025385688096069746 -0.00056816931838346043 0 0.025418815226951153 -0.0004988885914832393 0 0.025477655680997625 -0.0004953562875151603 0 0.025385688096069746 -0.00056816931838346043 0 0.025436794389984575 -0.00046972066227553207 0 0.025418815226951153 -0.0004988885914832393 0 0.025418815226951153 -0.0004988885914832393 0 0.025433886077994915 -0.00053595698847488092 0 0.025477655680997625 -0.0004953562875151603 0 0.025418815226951153 -0.0004988885914832393 0 0.025433886077994915 -0.00053595698847488092 0 0.025382846868562736 -0.00054457484306725428 0 0.025436794389984575 -0.00046972066227553207 0 0.02542986390261354 -0.00043575539314826971 0 0.025382846868562736 -0.00054457484306725428 0 0.025436794389984575 -0.00046972066227553207 0 0.025418815226951153 -0.0004988885914832393 0 0.025382846868562736 -0.00054457484306725428 0 0.025082722945727928 -0.00045466089826862107 0 0.02542986390261354 -0.00043575539314826971 0 0.025210680390770752 -0.00057738726058286221 0 0.025367063030718073 -0.00041758902157020819 0 0.025459234701235171 -0.00042782967048184595 0 0.025777437506341851 -0.00036833404970211412 0 0.02542986390261354 -0.00043575539314826971 0 0.025554839407952008 -0.00045597225329836174 0 0.025436794389984575 -0.00046972066227553207 0 0.02542986390261354 -0.00043575539314826971 0 0.025554839407952008 -0.00045597225329836174 0 0.025646064087725951 -0.00028437067139746452 0 0.025841664553565961 -0.00034356657775885796 0 0.025643121469834936 -0.00048169102322909434 0 0.026060934831848355 -0.00016704379474520825 0 0.025646064087725951 -0.00028437067139746452 0 0.025841664553565961 -0.00034356657775885796 0 0.025646064087725951 -0.00028437067139746452 0 0.025477655680997625 -0.0004953562875151603 0 0.025643121469834936 -0.00048169102322909434 0 0.025385688096069746 -0.00056816931838346043 0 0.025646064087725951 -0.00028437067139746452 0 0.025477655680997625 -0.0004953562875151603 0 0.033016999418325178 0.00078023828086631734 0 0.032809398202303032 0.0010147501270893378 0 0.025433886077994915 -0.00053595698847488092 0 0.025477655680997625 -0.0004953562875151603 0 0.025489510356232713 -0.00054930481527856636 0 0.025433886077994915 -0.00053595698847488092 0 0.025489510356232713 -0.00054930481527856636 0 0.025450014084892971 -0.00063617089076761627 0 0.025489510356232713 -0.00054930481527856636 0 0.025582666423270155 -0.00056046800836624981 0 0.025450014084892971 -0.00063617089076761627 0 0.025477655680997625 -0.0004953562875151603 0 0.025489510356232713 -0.00054930481527856636 0 0.025643121469834936 -0.00048169102322909434 0 0.025489510356232713 -0.00054930481527856636 0 0.025643121469834936 -0.00048169102322909434 0 0.025582666423270155 -0.00056046800836624981 0 0.025582666423270155 -0.00056046800836624981 0 0.025594575415000494 -0.00064197876505685085 0 0.025799859124690294 -0.00056272671663757246 0 0.025643121469834936 -0.00048169102322909434 0 0.025582666423270155 -0.00056046800836624981 0 0.025799859124690294 -0.00056272671663757246 0 0.025841664553565961 -0.00034356657775885796 0 0.025643121469834936 -0.00048169102322909434 0 0.025799859124690294 -0.00056272671663757246 0 0.025594575415000494 -0.00064197876505685085 0 0.025562783935995839 -0.00078161593290768268 0 0.025799859124690294 -0.00056272671663757246 0 0.02442201447175164 -0.0016163085232091946 0 0.024428764350319543 -0.0014296803940096084 0 0.024442889162920273 -0.0015700780311310259 0 0.025594575415000494 -0.00064197876505685085 0 0.025450014084892971 -0.00063617089076761627 0 0.025562783935995839 -0.00078161593290768268 0 0.0251075789538974 -0.0011058838879800142 0 0.02445697627027691 -0.0012673333201166574 0 0.025450014084892971 -0.00063617089076761627 0 0.025325551121851496 -0.00082204307199925004 0 0.025305272294448164 -0.0007087769635410494 0 0.025582666423270155 -0.00056046800836624981 0 0.025594575415000494 -0.00064197876505685085 0 0.025450014084892971 -0.00063617089076761627 0 0.025450014084892971 -0.00063617089076761627 0 0.025325551121851496 -0.00082204307199925004 0 0.025562783935995839 -0.00078161593290768268 0 0.025325551121851496 -0.00082204307199925004 0 0.025562783935995839 -0.00078161593290768268 0 0.025230907875561509 -0.0010472836091236883 0 0.02442201447175164 -0.0016163085232091946 0 0.024431268831317503 -0.0015692509091796924 0 0.024380679245606506 -0.0016153621685153666 0 0.025118586629732518 -0.00069144404239807229 0 0.025251670809828274 -0.00065383247276710489 0 0.025210680390770752 -0.00057738726058286221 0 0.02542986390261354 -0.00043575539314826971 0 0.025251670809828274 -0.00065383247276710489 0 0.025210680390770752 -0.00057738726058286221 0 0.02542986390261354 -0.00043575539314826971 0 0.025251670809828274 -0.00065383247276710489 0 0.025382846868562736 -0.00054457484306725428 0 0.025433886077994915 -0.00053595698847488092 0 0.025450014084892971 -0.00063617089076761627 0 0.025382846868562736 -0.00054457484306725428 0 0.025450014084892971 -0.00063617089076761627 0 0.025382846868562736 -0.00054457484306725428 0 0.025305272294448164 -0.0007087769635410494 0 0.025251670809828274 -0.00065383247276710489 0 0.025382846868562736 -0.00054457484306725428 0 0.025305272294448164 -0.0007087769635410494 0 0.025325551121851496 -0.00082204307199925004 0 0.025305272294448164 -0.0007087769635410494 0 0.025072944510322156 -0.00091433797538277236 0 0.025251670809828274 -0.00065383247276710489 0 0.025305272294448164 -0.0007087769635410494 0 0.025072944510322156 -0.00091433797538277236 0 0.025118586629732518 -0.00069144404239807229 0 0.025251670809828274 -0.00065383247276710489 0 0.025072944510322156 -0.00091433797538277236 0 0.024802802550743769 -0.00078775858150195689 0 0.025151863919232985 -0.00092258364902302785 0 0.024863673353913464 -0.00083677643344119864 0 0.025072944510322156 -0.00091433797538277236 0 0.024813089699099504 -0.00097649638312914764 0 0.025072944510322156 -0.00091433797538277236 0 0.024823828053338381 -0.0011414025267677641 0 0.024813089699099504 -0.00097649638312914764 0 0.025072944510322156 -0.00091433797538277236 0 0.024823828053338381 -0.0011414025267677641 0 0.025230907875561509 -0.0010472836091236883 0 0.024823828053338381 -0.0011414025267677641 0 0.025230907875561509 -0.0010472836091236883 0 0.024782224104624991 -0.0012434281314254966 0 0.025325551121851496 -0.00082204307199925004 0 0.025072944510322156 -0.00091433797538277236 0 0.025230907875561509 -0.0010472836091236883 0 0.02442201447175164 -0.0016163085232091946 0 0.024431268831317503 -0.0015692509091796924 0 0.024568144679012419 -0.0015255856008777637 0 0.0251075789538974 -0.0011058838879800142 0 0.024878498252046844 -0.0012889961384747095 0 0.024431268831317503 -0.0015692509091796924 0 0.024568144679012419 -0.0015255856008777637 0 0.024360478526863398 -0.0014798276482946152 0 0.024568144679012419 -0.0015255856008777637 0 0.024483577815247026 -0.0013637702523287276 0 0.024782224104624991 -0.0012434281314254966 0 0.024878498252046844 -0.0012889961384747095 0 0.024816172104971983 -0.0012240523121919064 0 0.024568144679012419 -0.0015255856008777637 0 0.024483577815247026 -0.0013637702523287276 0 0.024360478526863398 -0.0014798276482946152 0 0.024483577815247026 -0.0013637702523287276 0 0.02444540019357851 -0.0012142504241755357 0 0.024227189654159598 -0.0012560157295832895 0 0.024483577815247026 -0.0013637702523287276 0 0.02444540019357851 -0.0012142504241755357 0 0.024782224104624991 -0.0012434281314254966 0 0.02444540019357851 -0.0012142504241755357 0 0.024782224104624991 -0.0012434281314254966 0 0.024496212758328331 -0.0011323398405565827 0 0.024823828053338381 -0.0011414025267677641 0 0.024782224104624991 -0.0012434281314254966 0 0.024713660971014559 -0.0011796560489218686 0 0.024782224104624991 -0.0012434281314254966 0 0.024618964810357778 -0.0011532271661172202 0 0.024496212758328331 -0.0011323398405565827 0 0.024782224104624991 -0.0012434281314254966 0 0.024713660971014559 -0.0011796560489218686 0 0.024618964810357778 -0.0011532271661172202 0 0.024713660971014559 -0.0011796560489218686 0 0.024723232780831356 -0.0011460846577011662 0 0.024670440353489718 -0.0011663808151252562 0 0.024823828053338381 -0.0011414025267677641 0 0.024713660971014559 -0.0011796560489218686 0 0.024723232780831356 -0.0011460846577011662 0 0.024823828053338381 -0.0011414025267677641 0 0.024723232780831356 -0.0011460846577011662 0 0.024751068449898165 -0.0010801795168044006 0 0.024723232780831356 -0.0011460846577011662 0 0.024686627542195264 -0.0011203934192453714 0 0.024751068449898165 -0.0010801795168044006 0 0.024723232780831356 -0.0011460846577011662 0 0.024686627542195264 -0.0011203934192453714 0 0.024670440353489718 -0.0011663808151252562 0 0.024686627542195264 -0.0011203934192453714 0 0.024652384313992505 -0.0010452387154831822 0 0.024641023343762596 -0.0011325569122675083 0 0.024686627542195264 -0.0011203934192453714 0 0.024653794009761101 -0.001166485398323014 0 0.024641023343762596 -0.0011325569122675083 0 0.024686627542195264 -0.0011203934192453714 0 0.024653794009761101 -0.001166485398323014 0 0.024670440353489718 -0.0011663808151252562 0 0.024686627542195264 -0.0011203934192453714 0 0.024652384313992505 -0.0010452387154831822 0 0.024724370582723219 -0.00099775090470469369 0 0.03139921463103458 -0.00067708936818899434 0 0.031106945246401823 -0.00028685434101805989 0 0.031428605974485907 -0.00059209744080073303 0 0.024689609127188449 -0.00091264955938337368 0 0.024652384313992505 -0.0010452387154831822 0 0.024724370582723219 -0.00099775090470469369 0 0.027842518334871388 -0.00070799036343737333 0 0.027859305236490724 -0.00077857806942153844 0 0.024724370582723219 -0.00099775090470469369 0 0.024813089699099504 -0.00097649638312914764 0 0.024751068449898165 -0.0010801795168044006 0 0.024771675593526842 -0.00089736152488974587 0 0.024724370582723219 -0.00099775090470469369 0 0.024813089699099504 -0.00097649638312914764 0 0.024823828053338381 -0.0011414025267677641 0 0.024813089699099504 -0.00097649638312914764 0 0.024751068449898165 -0.0010801795168044006 0 0.024686627542195264 -0.0011203934192453714 0 0.024724370582723219 -0.00099775090470469369 0 0.024751068449898165 -0.0010801795168044006 0 0.021208619159642901 -1.9838077180231124e-06 0 0.020692016891033116 -0.00017398992808568983 0 0.023703403310552949 3.5108870708572927e-06 0 0.021208619159642901 -1.9838077180231124e-06 0 0.020692016891033116 -0.00017398992808568983 0 0.019547389377797948 -0.00044700976097150012 0 0.019445191708059008 -0.0003369941495077982 0 0.020692016891033116 -0.00017398992808568983 0 0.019547389377797948 -0.00044700976097150012 0 0.019293434674773211 -0.00031987275534608794 0 0.018769288613553776 -0.00096232386404314222 0 0.019445191708059008 -0.0003369941495077982 0 0.018373572299875202 -0.0012271088844616538 0 0.018100645707363489 -0.0015704928425174394 0 0.019445191708059008 -0.0003369941495077982 0 0.020692016891033116 -0.00017398992808568983 0 0.020109515762076889 0.00023452764784394784 0 0.020692016891033116 -0.00017398992808568983 0 0.020109515762076889 0.00023452764784394784 0 0.020950150074681043 0.00046596359656617717 0 0.019445191708059008 -0.0003369941495077982 0 0.020109515762076889 0.00023452764784394784 0 0.019192494076104998 0.00039078900168985507 0 0.020109515762076889 0.00023452764784394784 0 0.02015167334793766 0.0011056490279782935 0 0.019192494076104998 0.00039078900168985507 0 0.020109515762076889 0.00023452764784394784 0 0.02015167334793766 0.0011056490279782935 0 0.020950150074681043 0.00046596359656617717 0 0.02015167334793766 0.0011056490279782935 0 0.020950150074681043 0.00046596359656617717 0 0.021263763952437072 0.0018961521171046746 0 0.020950150074681043 0.00046596359656617717 0 0.023703403310552949 3.5108870708572927e-06 0 0.021263763952437072 0.0018961521171046746 0 0.020692016891033116 -0.00017398992808568983 0 0.020950150074681043 0.00046596359656617717 0 0.023703403310552949 3.5108870708572927e-06 0 0.023711538558712476 2.0478212648970762e-06 0 0.025956455734938502 2.1244848482070359e-05 0 0.026785594129959588 -2.0495185543648664e-06 0 0.023707973498998027 3.674073975385164e-07 0 0.023501985004089728 0.0008794832655731593 0 0.025956455734938502 2.1244848482070359e-05 0 0.026785594129959588 -2.0495185543648664e-06 0 0.026707999263019946 -6.5525543433622247e-05 0 0.027708295508909592 5.7799725294175413e-05 0 0.026785594129959588 -2.0495185543648664e-06 0 0.026707999263019946 -6.5525543433622247e-05 0 0.026867611872931806 8.5760255920005127e-06 0 0.026707999263019946 -6.5525543433622247e-05 0 0.026574313056693992 -3.5991795127782214e-05 0 0.028015141889129281 0.00027440994270903722 0 0.023217447480975581 0.00029239406581222299 0 0.025956455734938502 2.1244848482070359e-05 0 0.026707999263019946 -6.5525543433622247e-05 0 0.026574313056693992 -3.5991795127782214e-05 0 0.02015167334793766 0.0011056490279782935 0 0.019630189144021828 0.0027119573682543355 0 0.019192494076104998 0.00039078900168985507 0 0.023501985004089728 0.0008794832655731593 0 0.023217447480975581 0.00029239406581222299 0 0.02015167334793766 0.0011056490279782935 0 0.021263763952437072 0.0018961521171046746 0 0.019630189144021828 0.0027119573682543355 0 0.023217447480975581 0.00029239406581222299 0 0.020078840026996714 0.00029848667337159198 0 0.021847619902415953 -0.00020957341336189553 0 0.02184750628893737 -0.00036366392270516983 0 0.021965020993677836 -0.0004307852188527778 0 0.021682788963357291 -0.00036002554208301995 0 0.021847619902415953 -0.00020957341336189553 0 0.021715401208699581 -6.7344026083629096e-05 0 0.021682788963357291 -0.00036002554208301995 0 0.021847619902415953 -0.00020957341336189553 0 0.02184750628893737 -0.00036366392270516983 0 0.025718339442581832 0.00077161019827288047 0 0.025489730810170273 -0.00029544766005388379 0 0.024740007276533919 0.00013649949603487417 0 0.023217447480975581 0.00029239406581222299 0 0.024557911295209994 -3.0700536239714478e-05 0 0.028015141889129281 0.00027440994270903722 0 0.024557911295209994 -3.0700536239714478e-05 0 0.021682788963357291 -0.00036002554208301995 0 0.02184750628893737 -0.00036366392270516983 0 0.021890967082824633 -0.00048164709124380334 0 0.02184750628893737 -0.00036366392270516983 0 0.021890967082824633 -0.00048164709124380334 0 0.021965020993677836 -0.0004307852188527778 0 0.018653952440397054 -0.00098861840166104527 0 0.018715241309348953 -0.0011359455134860059 0 0.01850550681250349 -0.0012370709080350316 0 0.018620976543086937 -0.00097101994123624958 0 0.018653952440397054 -0.00098861840166104527 0 0.01850550681250349 -0.0012370709080350316 0 0.025447268587343658 -0.0010081653899033918 0 0.025688391821042739 -0.00045602516808674183 0 0.025001278831854892 -6.1276045892716115e-05 0 0.025771454416801932 -1.7263534291865478e-05 0 0.024269868679001747 -0.00031506922039423424 0 0.024451167186473218 -0.00082805704970107311 0 0.024269868679001747 -0.00031506922039423424 0 0.027637450921310491 0.00036143216376941087 0 0.02758765428420169 -0.00054932825419585303 0 0.026861528593888937 -0.00012863755663524261 0 0.024269868679001747 -0.00031506922039423424 0 0.020834967054459103 -0.00079547037658834227 0 0.024557911295209994 -3.0700536239714478e-05 0 0.024269868679001747 -0.00031506922039423424 0 0.022869543450001251 -0.00018282498581667899 0 0.023365082230434851 -0.00046993848965675859 0 0.023140925494524199 -2.0760058420899578e-06 0 0.024557911295209994 -3.0700536239714478e-05 0 0.020834967054459103 -0.00079547037658834227 0 0.020834967054459103 -0.00079547037658834227 0 0.018203508169797218 -0.0016501159589730565 0 0.01843639714465057 -0.0012568334364336084 0 0.018469331159267612 -0.0012733657021928111 0 0.01846019508350694 -0.0012554437498816498 0 0.01850550681250349 -0.0012370709080350316 0 0.01846019508350694 -0.0012554437498816498 0 0.018464910929419896 -0.00125869798642462 0 0.018469331159267612 -0.0012733657021928111 0 0.01850550681250349 -0.0012370709080350316 0 0.01846019508350694 -0.0012554437498816498 0 0.020124334039681686 -0.00073287864811319859 0 0.020834967054459103 -0.00079547037658834227 0 0.01843639714465057 -0.0012568334364336084 0 0.01846019508350694 -0.0012554437498816498 0 0.018436376599022249 -0.0012660487725200558 0 0.018464910929419896 -0.00125869798642462 0 0.018436376599022249 -0.0012660487725200558 0 0.018443947702937176 -0.0012695854046986109 0 0.01846019508350694 -0.0012554437498816498 0 0.018464910929419896 -0.00125869798642462 0 0.018436376599022249 -0.0012660487725200558 0 0.018436376599022249 -0.0012660487725200558 0 0.018412114321186453 -0.001261379978741738 0 0.018397570513056394 -0.0012712851690773546 0 0.01843639714465057 -0.0012568334364336084 0 0.018436376599022249 -0.0012660487725200558 0 0.018412114321186453 -0.001261379978741738 0 0.021847619902415953 -0.00020957341336189553 0 0.021715401208699581 -6.7344026083629096e-05 0 0.021723249253586725 8.2097504485497942e-06 0 0.020124334039681686 -0.00073287864811319859 0 0.019845318165815327 -0.00054474667166537027 0 0.01843639714465057 -0.0012568334364336084 0 0.018412114321186453 -0.001261379978741738 0 0.018398490684390097 -0.0012572018095386105 0 0.019445191708059008 -0.0003369941495077982 0 0.019192494076104998 0.00039078900168985507 0 0.019095618748303862 -6.5825917867975541e-05 0 0.020078840026996714 0.00029848667337159198 0 0.019845318165815327 -0.00054474667166537027 0 0.019845318165815327 -0.00054474667166537027 0 0.018449223954782046 -0.001324297032713768 0 0.019445191708059008 -0.0003369941495077982 0 0.019095618748303862 -6.5825917867975541e-05 0 0.018373572299875202 -0.0012271088844616538 0 0.018412114321186453 -0.001261379978741738 0 0.018398490684390097 -0.0012572018095386105 0 0.018386074605381407 -0.0012545996244330254 0 0.018398490684390097 -0.0012572018095386105 0 0.018386074605381407 -0.0012545996244330254 0 0.018373572299875202 -0.0012271088844616538 0 0.018386074605381407 -0.0012545996244330254 0 0.018323637674707769 -0.0012965376746949977 0 0.018373572299875202 -0.0012271088844616538 0 0.018397570513056394 -0.0012712851690773546 0 0.018386074605381407 -0.0012545996244330254 0 0.018323637674707769 -0.0012965376746949977 0 0.018397570513056394 -0.0012712851690773546 0 0.018396787849411948 -0.0012842359724262176 0 0.018323637674707769 -0.0012965376746949977 0 0.018412114321186453 -0.001261379978741738 0 0.018397570513056394 -0.0012712851690773546 0 0.018386074605381407 -0.0012545996244330254 0 0.018397570513056394 -0.0012712851690773546 0 0.018396787849411948 -0.0012842359724262176 0 0.018419268620068787 -0.0012762462239950081 0 0.018396787849411948 -0.0012842359724262176 0 0.018419268620068787 -0.0012762462239950081 0 0.018415155071921117 -0.001275226538904098 0 0.024616573645663529 -0.0016777172299796827 0 0.024452927469492184 -0.0017346166362005332 0 0.024501659042325357 -0.0018230053096905596 0 0.021839367769983103 -0.0013999239247899735 0 0.018814760964884079 -0.0011020355055427668 0 0.024878339231612513 -0.0022075431712238586 0 0.018814760964884079 -0.0011020355055427668 0 0.024562043275156615 -0.0016060432361476654 0 0.024616573645663529 -0.0016777172299796827 0 0.024452927469492184 -0.0017346166362005332 0 0.018436376599022249 -0.0012660487725200558 0 0.018397570513056394 -0.0012712851690773546 0 0.018419268620068787 -0.0012762462239950081 0 0.024562043275156615 -0.0016060432361476654 0 0.024616573645663529 -0.0016777172299796827 0 0.024740680623098966 -0.0014974786461345133 0 0.021839367769983103 -0.0013999239247899735 0 0.021243521740430552 -0.0015743537744746228 0 0.018436376599022249 -0.0012660487725200558 0 0.018419268620068787 -0.0012762462239950081 0 0.018443947702937176 -0.0012695854046986109 0 0.01850550681250349 -0.0012370709080350316 0 0.018464910929419896 -0.00125869798642462 0 0.018443947702937176 -0.0012695854046986109 0 0.018620976543086937 -0.00097101994123624958 0 0.01850550681250349 -0.0012370709080350316 0 0.018443947702937176 -0.0012695854046986109 0 0.024451167186473218 -0.00082805704970107311 0 0.021243521740430552 -0.0015743537744746228 0 0.02484757042597964 -0.0013052382411395328 0 0.024740680623098966 -0.0014974786461345133 0 0.024658319140172611 -0.0013693043354486786 0 0.024658319140172611 -0.0013693043354486786 0 0.024537693554616904 -0.001408962609170701 0 0.024558479984302582 -0.0013102235424565442 0 0.024658319140172611 -0.0013693043354486786 0 0.024562136671889116 -0.0015009747870309766 0 0.024537693554616904 -0.001408962609170701 0 0.024740680623098966 -0.0014974786461345133 0 0.024658319140172611 -0.0013693043354486786 0 0.024562136671889116 -0.0015009747870309766 0 0.024562043275156615 -0.0016060432361476654 0 0.024740680623098966 -0.0014974786461345133 0 0.024562136671889116 -0.0015009747870309766 0 0.024562043275156615 -0.0016060432361476654 0 0.024562136671889116 -0.0015009747870309766 0 0.024454640053672341 -0.0015978220854068834 0 0.024457258768469589 -0.0014977125590801058 0 0.024447431492973331 -0.001368181290306917 0 0.024364601355354863 -0.0016048012800462348 0 0.024562136671889116 -0.0015009747870309766 0 0.024457258768469589 -0.0014977125590801058 0 0.024454640053672341 -0.0015978220854068834 0 0.024457258768469589 -0.0014977125590801058 0 0.024364601355354863 -0.0016048012800462348 0 0.024454640053672341 -0.0015978220854068834 0 0.024562136671889116 -0.0015009747870309766 0 0.024457258768469589 -0.0014977125590801058 0 0.024537693554616904 -0.001408962609170701 0 0.024457258768469589 -0.0014977125590801058 0 0.024537693554616904 -0.001408962609170701 0 0.024484912793559049 -0.0014122229595758852 0 0.024447431492973331 -0.001368181290306917 0 0.024428531801941742 -0.0013182373990156891 0 0.024364601355354863 -0.0016048012800462348 0 0.024537693554616904 -0.001408962609170701 0 0.024497631315478052 -0.0013716031924513124 0 0.024484912793559049 -0.0014122229595758852 0 0.024457258768469589 -0.0014977125590801058 0 0.024484912793559049 -0.0014122229595758852 0 0.024447431492973331 -0.001368181290306917 0 0.024497631315478052 -0.0013716031924513124 0 0.024484912793559049 -0.0014122229595758852 0 0.024447431492973331 -0.001368181290306917 0 0.024497631315478052 -0.0013716031924513124 0 0.024447431492973331 -0.001368181290306917 0 0.024489135887399118 -0.0013240390866527899 0 0.024470515910851996 -0.0012397499151345359 0 0.024442208221141445 -0.0013267290994822449 0 0.024489135887399118 -0.0013240390866527899 0 0.024447431492973331 -0.001368181290306917 0 0.024442208221141445 -0.0013267290994822449 0 0.024489135887399118 -0.0013240390866527899 0 0.025849850379357438 -0.00083194673178207707 0 0.02636816297865173 -0.00087201881539759906 0 0.024497631315478052 -0.0013716031924513124 0 0.024489135887399118 -0.0013240390866527899 0 0.024558479984302582 -0.0013102235424565442 0 0.024537693554616904 -0.001408962609170701 0 0.024497631315478052 -0.0013716031924513124 0 0.024558479984302582 -0.0013102235424565442 0 0.029549257119679442 6.1831260749752761e-05 0 0.02445697627027691 -0.0012673333201166574 0 0.026076000476640656 -0.00020422117456596201 0 0.025841664553565961 -0.00034356657775885796 0 0.025799859124690294 -0.00056272671663757246 0 0.02465506157386944 -0.0010134734547632472 0 0.024692894470152469 -0.0011216937475640137 0 0.024428764350319543 -0.0014296803940096084 0 0.029549257119679442 6.1831260749752761e-05 0 0.02636816297865173 -0.00087201881539759906 0 0.02636816297865173 -0.00087201881539759906 0 0.024215235629579342 -0.0016493274653016771 0 0.024692894470152469 -0.0011216937475640137 0 0.024428764350319543 -0.0014296803940096084 0 0.024545144083428356 -0.0015064289980409272 0 0.024364601355354863 -0.0016048012800462348 0 0.02436964966613055 -0.0016207711860033284 0 0.024380679245606506 -0.0016153621685153666 0 0.024428764350319543 -0.0014296803940096084 0 0.024545144083428356 -0.0015064289980409272 0 0.024442889162920273 -0.0015700780311310259 0 0.024215235629579342 -0.0016493274653016771 0 0.024455839961152411 -0.0015573557373870274 0 0.024545144083428356 -0.0015064289980409272 0 0.024442889162920273 -0.0015700780311310259 0 0.024380679245606506 -0.0016153621685153666 0 0.02436964966613055 -0.0016207711860033284 0 0.024454640053672341 -0.0015978220854068834 0 0.024452927469492184 -0.0017346166362005332 0 0.024364601355354863 -0.0016048012800462348 0 0.02436964966613055 -0.0016207711860033284 0 0.024454640053672341 -0.0015978220854068834 0 0.024562043275156615 -0.0016060432361476654 0 0.024454640053672341 -0.0015978220854068834 0 0.024452927469492184 -0.0017346166362005332 0 0.02418976942988128 -0.0014402735413211745 0 0.024878339231612513 -0.0022075431712238586 0 0.024269637991494487 -0.0016355471543060525 0 0.024380679245606506 -0.0016153621685153666 0 0.024264323250032509 -0.0015447896923366851 0 0.02436964966613055 -0.0016207711860033284 0 0.024269637991494487 -0.0016355471543060525 0 0.024380679245606506 -0.0016153621685153666 0 0.02442201447175164 -0.0016163085232091946 0 0.024442889162920273 -0.0015700780311310259 0 0.024380679245606506 -0.0016153621685153666 0 0.024431268831317503 -0.0015692509091796924 0 0.024380679245606506 -0.0016153621685153666 0 0.024360478526863398 -0.0014798276482946152 0 0.024380679245606506 -0.0016153621685153666 0 0.024264323250032509 -0.0015447896923366851 0 0.024360478526863398 -0.0014798276482946152 0 0.024269637991494487 -0.0016355471543060525 0 0.024264323250032509 -0.0015447896923366851 0 0.024131954206802999 -0.00156217421807013 0 0.024264323250032509 -0.0015447896923366851 0 0.024172059351927525 -0.0014203460044427245 0 0.024131954206802999 -0.00156217421807013 0 0.024264323250032509 -0.0015447896923366851 0 0.024172059351927525 -0.0014203460044427245 0 0.024360478526863398 -0.0014798276482946152 0 0.024483577815247026 -0.0013637702523287276 0 0.024360478526863398 -0.0014798276482946152 0 0.024227189654159598 -0.0012560157295832895 0 0.017208676760851381 -0.0010594842095621557 0 0.017293576629905022 -0.0010121236750588868 0 0.02444540019357851 -0.0012142504241755357 0 0.024227189654159598 -0.0012560157295832895 0 0.024304371243929319 -0.001127864584206073 0 0.010126297308893509 -0.00086295623096943478 0 0.010649955148826513 -0.00070412387406052271 0 0.010098975916116153 -0.0010607359246278373 0 0.01717178718429942 -0.0007859810901259739 0 0.017208676760851381 -0.0010594842095621557 0 0.024172059351927525 -0.0014203460044427245 0 0.024360478526863398 -0.0014798276482946152 0 0.024227189654159598 -0.0012560157295832895 0 0.010476862569407084 -0.0002236696345042173 0 0.010126297308893509 -0.00086295623096943478 0 0.010649955148826513 -0.00070412387406052271 0 0.010476862569407084 -0.0002236696345042173 0 0.010649955148826513 -0.00070412387406052271 0 0.01117194766794965 -0.00014491916471320361 0 0.010649955148826513 -0.00070412387406052271 0 0.010832696736707477 -0.0011843117685594456 0 0.010098975916116153 -0.0010607359246278373 0 0.010649955148826513 -0.00070412387406052271 0 0.011150460326081758 -0.0007964035499570815 0 0.010832696736707477 -0.0011843117685594456 0 0.011150460326081758 -0.0007964035499570815 0 0.011467083931943237 -0.0011960789119365408 0 0.010832696736707477 -0.0011843117685594456 0 0.011150460326081758 -0.0007964035499570815 0 0.01117194766794965 -0.00014491916471320361 0 0.011619444014898565 -0.0006491765224611477 0 0.010649955148826513 -0.00070412387406052271 0 0.011150460326081758 -0.0007964035499570815 0 0.01117194766794965 -0.00014491916471320361 0 0.010476862569407084 -0.0002236696345042173 0 0.01117194766794965 -0.00014491916471320361 0 0.010809872831776019 0.0003199138382102613 0 0.01717178718429942 -0.0007859810901259739 0 0.018814760964884079 -0.0011020355055427668 0 0.014003807594889216 -0.00031826150079016251 0 0.018814760964884079 -0.0011020355055427668 0 0.018396787849411948 -0.0012842359724262176 0 0.018420612093078586 -0.001238572417905312 0 0.018323637674707769 -0.0012965376746949977 0 0.018396787849411948 -0.0012842359724262176 0 0.018420612093078586 -0.001238572417905312 0 0.018415155071921117 -0.001275226538904098 0 0.018323637674707769 -0.0012965376746949977 0 0.018373572299875202 -0.0012271088844616538 0 0.018118142024092707 -0.0013661046357207171 0 0.018373572299875202 -0.0012271088844616538 0 0.018118142024092707 -0.0013661046357207171 0 0.018100645707363489 -0.0015704928425174394 0 0.018420612093078586 -0.001238572417905312 0 0.018323637674707769 -0.0012965376746949977 0 0.018118142024092707 -0.0013661046357207171 0 0.018420612093078586 -0.001238572417905312 0 0.018118142024092707 -0.0013661046357207171 0 0.018332344179670185 -0.00089518292995496905 0 0.014003807594889216 -0.00031826150079016251 0 0.015512154933046324 -0.00097002292557572768 0 0.011619444014898565 -0.0006491765224611477 0 0.012094238987700616 -0.0011795733883904567 0 0.011467083931943237 -0.0011960789119365408 0 0.011150460326081758 -0.0007964035499570815 0 0.011619444014898565 -0.0006491765224611477 0 0.011467083931943237 -0.0011960789119365408 0 0.015512154933046324 -0.00097002292557572768 0 0.012371405306656015 -0.00043117303533961771 0 0.018332344179670185 -0.00089518292995496905 0 0.017623384281315938 -0.00089159398097907411 0 0.017735565022858717 0.00027092025647002411 0 0.018118142024092707 -0.0013661046357207171 0 0.017623384281315938 -0.00089159398097907411 0 0.017601368505390735 -0.0013511407768905116 0 0.018118142024092707 -0.0013661046357207171 0 0.018332344179670185 -0.00089518292995496905 0 0.017623384281315938 -0.00089159398097907411 0 0.017623384281315938 -0.00089159398097907411 0 0.017045048566506397 -0.00097395183351053059 0 0.017601368505390735 -0.0013511407768905116 0 0.017045048566506397 -0.00097395183351053059 0 0.016661233492987086 -0.0013630181376032334 0 0.017601368505390735 -0.0013511407768905116 0 0.017045048566506397 -0.00097395183351053059 0 0.01619252443296677 -0.00051625945089677373 0 0.016661233492987086 -0.0013630181376032334 0 0.017623384281315938 -0.00089159398097907411 0 0.017045048566506397 -0.00097395183351053059 0 0.016977869998615371 -0.0003366155342145738 0 0.017623384281315938 -0.00089159398097907411 0 0.016977869998615371 -0.0003366155342145738 0 0.017735565022858717 0.00027092025647002411 0 0.016977869998615371 -0.0003366155342145738 0 0.016456609117196153 0.00057623575066640775 0 0.017735565022858717 0.00027092025647002411 0 0.017045048566506397 -0.00097395183351053059 0 0.016977869998615371 -0.0003366155342145738 0 0.01619252443296677 -0.00051625945089677373 0 0.016977869998615371 -0.0003366155342145738 0 0.01619252443296677 -0.00051625945089677373 0 0.016456609117196153 0.00057623575066640775 0 0.014616333425918636 2.4509713774060783e-05 0 0.016902241524554006 -0.00073753845656636668 0 0.014133642412266481 1.4510392665825631e-06 0 0.016211264908006593 -3.5154943184900801e-07 0 0.013715496785297272 1.6788972793207736e-06 0 0.014133642412266481 1.4510392665825631e-06 0 0.01619252443296677 -0.00051625945089677373 0 0.016661233492987086 -0.0013630181376032334 0 0.014133642412266481 1.4510392665825631e-06 0 0.01619252443296677 -0.00051625945089677373 0 0.016456609117196153 0.00057623575066640775 0 0.016211264908006593 -3.5154943184900801e-07 0 0.017364725678433397 2.0976168542343202e-05 0 0.018710298319877607 -2.4235073874951624e-07 0 0.014133642412266481 1.4510392665825631e-06 0 0.016211264908006593 -3.5154943184900801e-07 0 0.017364725678433397 2.0976168542343202e-05 0 0.017364725678433397 2.0976168542343202e-05 0 0.018710298319877607 -2.4235073874951624e-07 0 0.019547389377797948 -0.00044700976097150012 0 0.016902241524554006 -0.00073753845656636668 0 0.018769288613553776 -0.00096232386404314222 0 0.016661233492987086 -0.0013630181376032334 0 0.017601368505390735 -0.0013511407768905116 0 0.018100645707363489 -0.0015704928425174394 0 0.018118142024092707 -0.0013661046357207171 0 0.017601368505390735 -0.0013511407768905116 0 0.018100645707363489 -0.0015704928425174394 0 0.021208619159642901 -1.9838077180231124e-06 0 0.018710298319877607 -2.4235073874951624e-07 0 0.019547389377797948 -0.00044700976097150012 0 0.0076630530258124463 -0.00022986422178399344 0 0.0092883250689697518 2.0776081854152569e-07 0 0.0068292482992385571 -1.6804271151913552e-06 0 0.0076630530258124463 -0.00022986422178399344 0 0.0079112812312947065 -0.00018547556216784349 0 0.0076840336712213422 -2.1472122727328578e-05 0 0.0076630530258124463 -0.00022986422178399344 0 0.0079112812312947065 -0.00018547556216784349 0 0.0092883250689697518 2.0776081854152569e-07 0 0.0079112812312947065 -0.00018547556216784349 0 0.0092883250689697518 2.0776081854152569e-07 0 0.0082025715689189524 -5.108376903633447e-05 0 0.011502661451255525 -9.8731744102981525e-07 0 0.012387140415654434 -0.00015074222547204884 0 0.01213937820183973 -9.3611592457451827e-05 0 0.0092944592225497925 -6.9534553552026452e-07 0 0.0098117109952832564 -5.2968995294934304e-05 0 0.0092962582156292696 9.9975083194806808e-07 0 0.011502661451255525 -9.8731744102981525e-07 0 0.01213937820183973 -9.3611592457451827e-05 0 0.013712003262133938 2.1016252642057891e-07 0 0.014700249123858814 0.00029607895396689812 0 0.012387140415654434 -0.00015074222547204884 0 0.01213142621605319 0.00017864277610820869 0 0.01213937820183973 -9.3611592457451827e-05 0 0.014133642412266481 1.4510392665825631e-06 0 0.013715496785297272 1.6788972793207736e-06 0 0.016456609117196153 0.00057623575066640775 0 0.011502661451255525 -9.8731744102981525e-07 0 0.012387140415654434 -0.00015074222547204884 0 0.013709385777736029 9.7485728892558386e-07 0 0.012387140415654434 -0.00015074222547204884 0 0.013709385777736029 9.7485728892558386e-07 0 0.01213142621605319 0.00017864277610820869 0 0.014700249123858814 0.00029607895396689812 0 0.012371405306656015 -0.00043117303533961771 0 0.0098117109952832564 -5.2968995294934304e-05 0 0.012371405306656015 -0.00043117303533961771 0 0.01213142621605319 0.00017864277610820869 0 0.01213937820183973 -9.3611592457451827e-05 0 0.011904705815260944 0.00016790536647407115 0 0.0079112812312947065 -0.00018547556216784349 0 0.0082025715689189524 -5.108376903633447e-05 0 0.0082856977390272576 -0.00038753796067581074 0 0.012371405306656015 -0.00043117303533961771 0 0.0096057499948581024 -0.0010867350452619276 0 0.0082856977390272576 -0.00038753796067581074 0 0.0082491795245624288 -0.00066765083634024011 0 0.008623660391852625 -0.00089309350737496482 0 0.0082025715689189524 -5.108376903633447e-05 0 0.0082856977390272576 -0.00038753796067581074 0 0.0082491795245624288 -0.00066765083634024011 0 0.0082856977390272576 -0.00038753796067581074 0 0.008623660391852625 -0.00089309350737496482 0 0.0088490538277362172 -0.00048260080708891585 0 0.0082856977390272576 -0.00038753796067581074 0 0.0083886893827888834 -0.00017712919407170331 0 0.0088490538277362172 -0.00048260080708891585 0 0.0079112812312947065 -0.00018547556216784349 0 0.0083886893827888834 -0.00017712919407170331 0 0.0081149102742906314 -3.3015673207074317e-05 0 0.0079112812312947065 -0.00018547556216784349 0 0.0082856977390272576 -0.00038753796067581074 0 0.0083886893827888834 -0.00017712919407170331 0 0.0079112812312947065 -0.00018547556216784349 0 0.0081149102742906314 -3.3015673207074317e-05 0 0.0076840336712213422 -2.1472122727328578e-05 0 0.0081149102742906314 -3.3015673207074317e-05 0 0.0085868103432002151 0.00011543850747412875 0 0.0081879105871920758 0.00031235911130191317 0 0.0083886893827888834 -0.00017712919407170331 0 0.0085868103432002151 0.00011543850747412875 0 0.0088441037308572678 -0.00014049790637634443 0 0.0083886893827888834 -0.00017712919407170331 0 0.0081149102742906314 -3.3015673207074317e-05 0 0.0085868103432002151 0.00011543850747412875 0 0.0085868103432002151 0.00011543850747412875 0 0.0090956817922581978 8.8827604078613406e-05 0 0.0088441037308572678 -0.00014049790637634443 0 0.0085868103432002151 0.00011543850747412875 0 0.0090956817922581978 8.8827604078613406e-05 0 0.0089449500894386164 0.00034517719766709846 0 0.0090956817922581978 8.8827604078613406e-05 0 0.0093892911236514043 0.00040836092890933782 0 0.0089449500894386164 0.00034517719766709846 0 0.0090956817922581978 8.8827604078613406e-05 0 0.0095169584668975422 7.9976019851476143e-05 0 0.0093892911236514043 0.00040836092890933782 0 0.0090956817922581978 8.8827604078613406e-05 0 0.0095169584668975422 7.9976019851476143e-05 0 0.0093438590561587716 -0.00025263774818136793 0 0.0083886893827888834 -0.00017712919407170331 0 0.0088441037308572678 -0.00014049790637634443 0 0.0088490538277362172 -0.00048260080708891585 0 0.0093438590561587716 -0.00025263774818136793 0 0.0088441037308572678 -0.00014049790637634443 0 0.0088490538277362172 -0.00048260080708891585 0 0.0090956817922581978 8.8827604078613406e-05 0 0.0093438590561587716 -0.00025263774818136793 0 0.0088441037308572678 -0.00014049790637634443 0 0.0088490538277362172 -0.00048260080708891585 0 0.0092206422771471345 -0.0010675893734376123 0 0.0093643024422120982 -0.00056672406342045552 0 0.008623660391852625 -0.00089309350737496482 0 0.0088490538277362172 -0.00048260080708891585 0 0.0092206422771471345 -0.0010675893734376123 0 0.0096057499948581024 -0.0010867350452619276 0 0.01013849671584947 -0.0011031309269134506 0 0.0096659683005203903 -0.00081183536982697873 0 0.0092206422771471345 -0.0010675893734376123 0 0.0093643024422120982 -0.00056672406342045552 0 0.01013849671584947 -0.0011031309269134506 0 0.010061355357405826 -0.0010792578774478062 0 0.0096659683005203903 -0.00081183536982697873 0 0.0092206422771471345 -0.0010675893734376123 0 0.010098975916116153 -0.0010607359246278373 0 0.0093438590561587716 -0.00025263774818136793 0 0.0088490538277362172 -0.00048260080708891585 0 0.0093643024422120982 -0.00056672406342045552 0 0.0096659683005203903 -0.00081183536982697873 0 0.0093643024422120982 -0.00056672406342045552 0 0.0098898202531310219 -0.00061485589072866062 0 0.0093438590561587716 -0.00025263774818136793 0 0.0093643024422120982 -0.00056672406342045552 0 0.0098898202531310219 -0.00061485589072866062 0 0.0096659683005203903 -0.00081183536982697873 0 0.0098898202531310219 -0.00061485589072866062 0 0.010098975916116153 -0.0010607359246278373 0 0.010126297308893509 -0.00086295623096943478 0 0.010098975916116153 -0.0010607359246278373 0 0.010265288582113369 -0.00094942707042914285 0 0.0098898202531310219 -0.00061485589072866062 0 0.010098975916116153 -0.0010607359246278373 0 0.010265288582113369 -0.00094942707042914285 0 0.017293576629905022 -0.0010121236750588868 0 0.017328781710517386 -0.00075363698077786866 0 0.0098898202531310219 -0.00061485589072866062 0 0.010265288582113369 -0.00094942707042914285 0 0.010535594021382903 -0.00036012280549649952 0 0.0098898202531310219 -0.00061485589072866062 0 0.0099192456583941779 -0.00014627967895085303 0 0.010535594021382903 -0.00036012280549649952 0 0.0099192456583941779 -0.00014627967895085303 0 0.010278793680688823 9.252628121300571e-05 0 0.010535594021382903 -0.00036012280549649952 0 0.010278793680688823 9.252628121300571e-05 0 0.010535594021382903 -0.00036012280549649952 0 0.010542729895177112 0.00019162269967881951 0 0.0093438590561587716 -0.00025263774818136793 0 0.0098898202531310219 -0.00061485589072866062 0 0.0099192456583941779 -0.00014627967895085303 0 0.0095169584668975422 7.9976019851476143e-05 0 0.0093438590561587716 -0.00025263774818136793 0 0.0099192456583941779 -0.00014627967895085303 0 0.0095169584668975422 7.9976019851476143e-05 0 0.0098472786018339673 0.00027354743389044236 0 0.0093892911236514043 0.00040836092890933782 0 0.0095169584668975422 7.9976019851476143e-05 0 0.0099192456583941779 -0.00014627967895085303 0 0.0098472786018339673 0.00027354743389044236 0 0.0099192456583941779 -0.00014627967895085303 0 0.0098472786018339673 0.00027354743389044236 0 0.010278793680688823 9.252628121300571e-05 0 0.0098472786018339673 0.00027354743389044236 0 0.010278793680688823 9.252628121300571e-05 0 0.010123594731207693 0.00057689974662315845 0 0.010278793680688823 9.252628121300571e-05 0 0.010123594731207693 0.00057689974662315845 0 0.010533099778865419 0.00047650081069978815 0 0.010123594731207693 0.00057689974662315845 0 0.0095879828099737236 0.00089658818390051713 0 0.010353413099470772 0.00090798986291347927 0 0.010123594731207693 0.00057689974662315845 0 0.010353413099470772 0.00090798986291347927 0 0.010533099778865419 0.00047650081069978815 0 0.010123594731207693 0.00057689974662315845 0 0.0097390565869603634 0.00053851160481295274 0 0.0095879828099737236 0.00089658818390051713 0 0.0098472786018339673 0.00027354743389044236 0 0.010123594731207693 0.00057689974662315845 0 0.0097390565869603634 0.00053851160481295274 0 0.0098472786018339673 0.00027354743389044236 0 0.0097390565869603634 0.00053851160481295274 0 0.0093892911236514043 0.00040836092890933782 0 0.0097390565869603634 0.00053851160481295274 0 0.0095879828099737236 0.00089658818390051713 0 0.0093892911236514043 0.00040836092890933782 0 0.0048623005586712854 0.0013573682058783153 0 0.0053392820377311471 0.0013261369204940958 0 0.0050077287448311711 0.0015633153662586499 0 0.0048623005586712854 0.0013573682058783153 0 0.0050077287448311711 0.0015633153662586499 0 0.0048381822293231611 0.0015339581563035744 0 0.0053392820377311471 0.0013261369204940958 0 0.0052091759992192168 0.0016600899041388664 0 0.0050077287448311711 0.0015633153662586499 0 0.0073454505298638471 0.0013435540635331109 0 0.0048080200207405574 0.0021798788406182301 0 0.0071851568649374253 0.0011046771266707029 0 0.0073454505298638471 0.0013435540635331109 0 0.0046680658268793722 0.0018174248224961818 0 0.0046677514637632478 0.0019803697520775721 0 0.0044227303151719152 0.0025451383197955466 0 0.0046677514637632478 0.0019803697520775721 0 0.0044227303151719152 0.0025451383197955466 0 0.0047363798507913391 0.0023497620400627739 0 0.0052091759992192168 0.0016600899041388664 0 0.0050795233982224705 0.0019799787216688977 0 0.0050375411806768524 0.0017484488261942631 0 0.0044227303151719152 0.0025451383197955466 0 0.0046263421781077901 0.0029622288892105723 0 0.0047307038573230226 0.0027623768202319843 0 0.0044227303151719152 0.0025451383197955466 0 0.0048219130635808113 0.0025612674654560278 0 0.0047363798507913391 0.0023497620400627739 0 0.0052091759992192168 0.0016600899041388664 0 0.0050375411806768524 0.0017484488261942631 0 0.0050077287448311711 0.0015633153662586499 0 0.0042900980309115789 0.003091966736709903 0 0.0046263421781077901 0.0029622288892105723 0 0.004727292776260379 0.0031514366102963032 0 0.0018726010422508879 0.0027776701161394391 0 0.0020736754312691173 0.004170634251641746 0 0.00024261710112641091 0.0037946348379983594 0 0.0011360118862648895 0.0042524225280860303 0 -0.00050141498896427109 0.0040386773843651639 0 0.0044227303151719152 0.0025451383197955466 0 0.0042503096017187068 0.0030528695956146506 0 0.0046263421781077901 0.0029622288892105723 0 0.0048080200207405574 0.0021798788406182301 0 0.0021976109904010012 0.0022548877669519769 0 0.0042503096017187068 0.0030528695956146506 0 0.0042900980309115789 0.003091966736709903 0 0.0046263421781077901 0.0029622288892105723 0 0.0021976109904010012 0.0022548877669519769 0 0.0018726010422508879 0.0027776701161394391 0 0.0044124023415768694 0.0014368884885115976 0 0.0045263424059817474 0.0015008057714411556 0 0.0045558393784030241 0.0014562690897525277 0 -0.00060112469893755201 0.001842185022097643 0 -0.0010960727296019206 0.0021721116101677618 0 -0.00016573159364978844 0.0022438679982897786 0 0.0021976109904010012 0.0022548877669519769 0 0.0021215584673503923 0.0018058785752767383 0 0.0021976109904010012 0.0022548877669519769 0 0.0050118478164696634 0.0017176908910648131 0 0.0050795233982224705 0.0019799787216688977 0 0.0048526595882095579 0.00173326061422002 0 0.0050375411806768524 0.0017484488261942631 0 0.0048526595882095579 0.00173326061422002 0 0.0050375411806768524 0.0017484488261942631 0 0.0050077287448311711 0.0015633153662586499 0 0.0048526595882095579 0.00173326061422002 0 0.0050077287448311711 0.0015633153662586499 0 0.0048381822293231611 0.0015339581563035744 0 0.0048526595882095579 0.00173326061422002 0 0.0046396670888342846 0.0014860514521389189 0 0.0048381822293231611 0.0015339581563035744 0 0.0050118478164696634 0.0017176908910648131 0 0.0045343191310443154 0.0014335793480624241 0 0.0045263424059817474 0.0015008057714411556 0 0.0045878343357505201 0.0014865608614364268 0 0.0046396670888342846 0.0014860514521389189 0 0.0045263424059817474 0.0015008057714411556 0 0.0045558393784030241 0.0014562690897525277 0 0.0045878343357505201 0.0014865608614364268 0 0.0021215584673503923 0.0018058785752767383 0 0.0025245743070186773 0.0019811766696436199 0 0.00016152208527375034 0.0016591043104805529 0 -0.00016573159364978844 0.0022438679982897786 0 0.0007878268116180186 0.0023474119670740994 0 0.0045558393784030241 0.0014562690897525277 0 0.0045878343357505201 0.0014865608614364268 0 0.0045703020845623363 0.0014936192392215328 0 0.0045878343357505201 0.0014865608614364268 0 0.0045809093900939053 0.0014770373730316646 0 0.0045703020845623363 0.0014936192392215328 0 0.0045878343357505201 0.0014865608614364268 0 0.0045809093900939053 0.0014770373730316646 0 0.0046396670888342846 0.0014860514521389189 0 0.0073836866853861363 0.0011132974638390009 0 0.0090924906453631014 0.00034594675252840116 0 0.0045809093900939053 0.0014770373730316646 0 0.0045646228321943099 0.0014214658433150647 0 0.0046396670888342846 0.0014860514521389189 0 0.0071851568649374253 0.0011046771266707029 0 0.0073836866853861363 0.0011132974638390009 0 0.0048623005586712854 0.0013573682058783153 0 0.0046396670888342846 0.0014860514521389189 0 0.0048381822293231611 0.0015339581563035744 0 0.0095879828099737236 0.00089658818390051713 0 0.0087638023854340209 0.00088010700638271021 0 0.0090562222723829869 0.00062149818124139543 0 0.0048623005586712854 0.0013573682058783153 0 0.0045646228321943099 0.0014214658433150647 0 0.0046396670888342846 0.0014860514521389189 0 0.0093892911236514043 0.00040836092890933782 0 0.0089449500894386164 0.00034517719766709846 0 0.0090562222723829869 0.00062149818124139543 0 0.0095879828099737236 0.00089658818390051713 0 0.0093892911236514043 0.00040836092890933782 0 0.0090562222723829869 0.00062149818124139543 0 0.0089449500894386164 0.00034517719766709846 0 0.0086984223266414716 0.00048557234294226533 0 0.0090562222723829869 0.00062149818124139543 0 0.0085868103432002151 0.00011543850747412875 0 0.0089449500894386164 0.00034517719766709846 0 0.0086984223266414716 0.00048557234294226533 0 0.0088182964490135587 0.00076707227554230668 0 0.0086984223266414716 0.00048557234294226533 0 0.0090562222723829869 0.00062149818124139543 0 0.0086984223266414716 0.00048557234294226533 0 0.0081879105871920758 0.00031235911130191317 0 0.0085472767040986053 0.00075719695620873407 0 0.0085868103432002151 0.00011543850747412875 0 0.0086984223266414716 0.00048557234294226533 0 0.0081879105871920758 0.00031235911130191317 0 0.0076866578812905964 0.00039920934327467803 0 0.0081879105871920758 0.00031235911130191317 0 0.0076840336712213422 -2.1472122727328578e-05 0 0.0081149102742906314 -3.3015673207074317e-05 0 0.0081879105871920758 0.00031235911130191317 0 0.0076840336712213422 -2.1472122727328578e-05 0 0.0076866578812905964 0.00039920934327467803 0 0.0081879105871920758 0.00031235911130191317 0 0.0080656629244332725 0.00074800416554328148 0 0.0080656629244332725 0.00074800416554328148 0 0.0074869938547601437 0.0010208380452038977 0 0.0084350442558106722 0.0013997057137513204 0 0.0076866578812905964 0.00039920934327467803 0 0.0080656629244332725 0.00074800416554328148 0 0.0074869938547601437 0.0010208380452038977 0 0.0080656629244332725 0.00074800416554328148 0 0.0085472767040986053 0.00075719695620873407 0 0.0084350442558106722 0.0013997057137513204 0 0.0045809093900939053 0.0014770373730316646 0 0.0045646228321943099 0.0014214658433150647 0 0.004562900082507146 0.0014742184371148324 0 0.0073836866853861363 0.0011132974638390009 0 0.006660118211262501 0.0014221059217318149 0 0.0089982365579489767 0.00073223061729409664 0 0.0085472767040986053 0.00075719695620873407 0 0.0084350442558106722 0.0013997057137513204 0 0.0081879105871920758 0.00031235911130191317 0 0.0080656629244332725 0.00074800416554328148 0 0.0085472767040986053 0.00075719695620873407 0 0.0088182964490135587 0.00076707227554230668 0 0.0086984223266414716 0.00048557234294226533 0 0.0085472767040986053 0.00075719695620873407 0 0.0073836866853861363 0.0011132974638390009 0 0.0088966135366252176 0.00083739288621224243 0 0.004562900082507146 0.0014742184371148324 0 0.0045703020845623363 0.0014936192392215328 0 0.0045327446878008319 0.0014936345393759605 0 0.0045809093900939053 0.0014770373730316646 0 0.004562900082507146 0.0014742184371148324 0 0.0045703020845623363 0.0014936192392215328 0 0.0012525823091577798 0.0016264190129403678 0 0.0007878268116180186 0.0023474119670740994 0 0.0017338179421515097 0.0024499758017090469 0 0.0025245743070186773 0.0019811766696436199 0 0.003984171003996494 0.00133142275965199 0 0.0012525823091577798 0.0016264190129403678 0 0.0017338179421515097 0.0024499758017090469 0 0.0019132459427090064 0.0022781495264072513 0 0.003984171003996494 0.00133142275965199 0 0.0006798024052731337 0.0010584776084635867 0 0.006660118211262501 0.0014221059217318149 0 0.003984171003996494 0.00133142275965199 0 0.0084350442558106722 0.0013997057137513204 0 0.0076233470899529157 0.0023179096526358559 0 0.0074051965090783248 0.0017247425637479782 0 0.0074869938547601437 0.0010208380452038977 0 0.0084350442558106722 0.0013997057137513204 0 0.0074051965090783248 0.0017247425637479782 0 0.0074869938547601437 0.0010208380452038977 0 0.0074051965090783248 0.0017247425637479782 0 0.0060949525080578213 0.0015908294099631522 0 0.0074051965090783248 0.0017247425637479782 0 0.0069841882220858624 0.0023034829791010788 0 0.0060949525080578213 0.0015908294099631522 0 0.0026346266273977775 0.0011413963064685255 0 0.0046742739268203918 0.00084703273965465117 0 0.0076233470899529157 0.0023179096526358559 0 0.0074051965090783248 0.0017247425637479782 0 0.0069841882220858624 0.0023034829791010788 0 0.0024515572169705657 0.0012246012745501164 0 0.0023072940872409281 0.0013552726976702647 0 0.0021441398272141515 0.0011885225967243676 0 -0.00095573755771277561 -0.00025336424447902205 0 -0.0013120211115700228 0.00075368191883745184 0 -2.7641741996913892e-06 -1.0241593961596159e-05 0 0.003984171003996494 0.00133142275965199 0 0.0026346266273977775 0.0011413963064685255 0 -0.00095573755771277561 -0.00025336424447902205 0 -0.0016360312918880814 0.0004157771980100659 0 -0.0013120211115700228 0.00075368191883745184 0 0.0006798024052731337 0.0010584776084635867 0 0.0026346266273977775 0.0011413963064685255 0 -0.0011822700981123288 2.6111879568280702e-05 0 0.0006798024052731337 0.0010584776084635867 0 0.0026346266273977775 0.0011413963064685255 0 0.0018646559987894539 -2.2349011668566856e-07 0 -0.0013120211115700228 0.00075368191883745184 0 -2.7641741996913892e-06 -1.0241593961596159e-05 0 0.0018641947369677694 2.3218043861786257e-06 0 -0.00012875735692015024 -1.0944042672189603e-06 0 -0.00095573755771277561 -0.00025336424447902205 0 -2.7641741996913892e-06 -1.0241593961596159e-05 0 -0.00012875735692015024 -1.0944042672189603e-06 0 -2.7641741996913892e-06 -1.0241593961596159e-05 0 0.0018641947369677694 2.3218043861786257e-06 0 0.0033062630230676236 0.00048237793745572967 0 0.0018720189576118373 4.2169801657495302e-08 0 0.0026840938894157917 -0.00017036850340441717 0 0.0018720189576118373 4.2169801657495302e-08 0 0.0026840938894157917 -0.00017036850340441717 0 0.004359886726626223 -2.0799967032237949e-08 0 0.0046742739268203918 0.00084703273965465117 0 0.0043638494281953225 -1.1961112320304271e-07 0 0.0060949525080578213 0.0015908294099631522 0 0.0043690115615111222 3.1676128236964563e-06 0 0.0067677780134427108 0.00014665830056443928 0 0.0074869938547601437 0.0010208380452038977 0 0.0060949525080578213 0.0015908294099631522 0 0.0067677780134427108 0.00014665830056443928 0 0.0076866578812905964 0.00039920934327467803 0 0.0074869938547601437 0.0010208380452038977 0 0.0067677780134427108 0.00014665830056443928 0 0.0076630530258124463 -0.00022986422178399344 0 0.0067677780134427108 0.00014665830056443928 0 0.0076840336712213422 -2.1472122727328578e-05 0 0.0076866578812905964 0.00039920934327467803 0 0.0067677780134427108 0.00014665830056443928 0 0.0076840336712213422 -2.1472122727328578e-05 0 0.0043690115615111222 3.1676128236964563e-06 0 0.0067677780134427108 0.00014665830056443928 0 0.0068292482992385571 -1.6804271151913552e-06 0 0.0076630530258124463 -0.00022986422178399344 0 0.0067677780134427108 0.00014665830056443928 0 0.0068292482992385571 -1.6804271151913552e-06 0 0.024551049433770539 -0.001082275067417908 0 0.024574289005504069 -0.0010736492775946934 0 0.024614248723655727 -0.0011398883205363433 0 0.024551049433770539 -0.001082275067417908 0 0.024614248723655727 -0.0011398883205363433 0 0.024570731256407321 -0.0011181392865944953 0 0.024551049433770539 -0.001082275067417908 0 0.02448469157819733 -0.0010461202452055193 0 0.024493880293552473 -0.00099398558690407153 0 0.024551049433770539 -0.001082275067417908 0 0.024574289005504069 -0.0010736492775946934 0 0.024493880293552473 -0.00099398558690407153 0 0.013335415110315793 -0.0058397427154193446 0 0.016005019634568223 -0.0053608773748588696 0 0.014362948263059056 -0.004489880687733711 0 0.019100138966166375 -0.003513667342615438 0 0.020342659737995303 -0.0045260165408239593 0 0.013335415110315793 -0.0058397427154193446 0 0.016005019634568223 -0.0053608773748588696 0 0.016084188409252957 -0.0079791151368499725 0 0.016005019634568223 -0.0053608773748588696 0 0.016084188409252957 -0.0079791151368499725 0 0.019895249215927231 -0.0071196771759172552 0 0.016005019634568223 -0.0053608773748588696 0 0.018079356175656151 -0.0036005350035262849 0 0.019895249215927231 -0.0071196771759172552 0 0.016084188409252957 -0.0079791151368499725 0 0.019895249215927231 -0.0071196771759172552 0 0.01879592822494501 -0.010018336248320847 0 0.020342659737995303 -0.0045260165408239593 0 0.021491936861038966 -0.0057544265892059392 0 0.024574289005504069 -0.0010736492775946934 0 0.024623550700025733 -0.0011442730333755546 0 0.024614248723655727 -0.0011398883205363433 0 0.024623550700025733 -0.0011442730333755546 0 0.024642439430218651 -0.0011654230252216712 0 0.024614248723655727 -0.0011398883205363433 0 0.024642439430218651 -0.0011654230252216712 0 0.024653794009761101 -0.001166485398323014 0 0.024636756437848593 -0.0011913943049944274 0 0.024623550700025733 -0.0011442730333755546 0 0.024642439430218651 -0.0011654230252216712 0 0.024636756437848593 -0.0011913943049944274 0 0.024642439430218651 -0.0011654230252216712 0 0.024653794009761101 -0.001166485398323014 0 0.024670440353489718 -0.0011663808151252562 0 0.024642439430218651 -0.0011654230252216712 0 0.024670440353489718 -0.0011663808151252562 0 0.024614248723655727 -0.0011398883205363433 0 0.024670440353489718 -0.0011663808151252562 0 0.024614248723655727 -0.0011398883205363433 0 0.02464003598549646 -0.0011541634225907117 0 0.024614248723655727 -0.0011398883205363433 0 0.02464003598549646 -0.0011541634225907117 0 0.024570731256407321 -0.0011181392865944953 0 0.024713660971014559 -0.0011796560489218686 0 0.024670440353489718 -0.0011663808151252562 0 0.02464003598549646 -0.0011541634225907117 0 0.024713660971014559 -0.0011796560489218686 0 0.02464003598549646 -0.0011541634225907117 0 0.024618964810357778 -0.0011532271661172202 0 0.024618964810357778 -0.0011532271661172202 0 0.024570731256407321 -0.0011181392865944953 0 0.024446541616584549 -0.0010750714910877505 0 0.02464003598549646 -0.0011541634225907117 0 0.024618964810357778 -0.0011532271661172202 0 0.024570731256407321 -0.0011181392865944953 0 0.02444540019357851 -0.0012142504241755357 0 0.024304371243929319 -0.001127864584206073 0 0.024496212758328331 -0.0011323398405565827 0 0.024496212758328331 -0.0011323398405565827 0 0.024333530011314278 -0.0010632535791762255 0 0.024446541616584549 -0.0010750714910877505 0 0.024618964810357778 -0.0011532271661172202 0 0.024496212758328331 -0.0011323398405565827 0 0.024446541616584549 -0.0010750714910877505 0 0.024304371243929319 -0.001127864584206073 0 0.024496212758328331 -0.0011323398405565827 0 0.024333530011314278 -0.0010632535791762255 0 0.024333530011314278 -0.0010632535791762255 0 0.024446541616584549 -0.0010750714910877505 0 0.024305034821680328 -0.001013910323613477 0 0.017328781710517386 -0.00075363698077786866 0 0.018402466462266263 -0.00033871149268180101 0 0.024446541616584549 -0.0010750714910877505 0 0.024305034821680328 -0.001013910323613477 0 0.024366163619429591 -0.00099985942234178402 0 0.010535594021382903 -0.00036012280549649952 0 0.010840812814311217 0.00024356320300731769 0 0.010542729895177112 0.00019162269967881951 0 0.010278793680688823 9.252628121300571e-05 0 0.010542729895177112 0.00019162269967881951 0 0.010533099778865419 0.00047650081069978815 0 0.010840812814311217 0.00024356320300731769 0 0.010542729895177112 0.00019162269967881951 0 0.010533099778865419 0.00047650081069978815 0 0.024551049433770539 -0.001082275067417908 0 0.024570731256407321 -0.0011181392865944953 0 0.02448469157819733 -0.0010461202452055193 0 0.024570731256407321 -0.0011181392865944953 0 0.024446541616584549 -0.0010750714910877505 0 0.02448469157819733 -0.0010461202452055193 0 0.024446541616584549 -0.0010750714910877505 0 0.02448469157819733 -0.0010461202452055193 0 0.024366163619429591 -0.00099985942234178402 0 0.02448469157819733 -0.0010461202452055193 0 0.024409551811392656 -0.00095334853704575056 0 0.024493880293552473 -0.00099398558690407153 0 0.020928011855874562 -0.00095269722358489416 0 0.016622365019582402 -0.0023020418736429812 0 0.02448469157819733 -0.0010461202452055193 0 0.024409551811392656 -0.00095334853704575056 0 0.024366163619429591 -0.00099985942234178402 0 0.020928011855874562 -0.00095269722358489416 0 0.015485283997741 0.00019739611774489596 0 0.024409551811392656 -0.00095334853704575056 0 0.024366163619429591 -0.00099985942234178402 0 0.024270292318653106 -0.00092677652490909127 0 0.014578824236988225 -0.00083131932444689 0 0.013404390435880828 0.00052678696268190252 0 0.015172057380092181 0.00057331608594350322 0 0.014578824236988225 -0.00083131932444689 0 0.013404390435880828 0.00052678696268190252 0 0.012011271637925074 -0.00039060108062473147 0 0.013404390435880828 0.00052678696268190252 0 0.011754930138370704 -0.00034804531751754736 0 0.012930251665507955 0.0024462114038543538 0 0.014578824236988225 -0.00083131932444689 0 0.015172057380092181 0.00057331608594350322 0 0.017387818032346031 -0.0013214998706755617 0 0.0073454505298638471 0.0013435540635331109 0 0.010629543698710718 0.00012869477100150206 0 0.010327436894336404 0.001054004692645458 0 0.010533099778865419 0.00047650081069978815 0 0.011201950574654677 0.001033443660360474 0 0.010840812814311217 0.00024356320300731769 0 0.010533099778865419 0.00047650081069978815 0 0.011201950574654677 0.001033443660360474 0 0.024366163619429591 -0.00099985942234178402 0 0.024270292318653106 -0.00092677652490909127 0 0.024254509901523322 -0.00092669250050303258 0 0.024305034821680328 -0.001013910323613477 0 0.024366163619429591 -0.00099985942234178402 0 0.024254509901523322 -0.00092669250050303258 0 0.018402466462266263 -0.00033871149268180101 0 0.011095983374879305 0.0011581804509509066 0 0.0053328033989191604 0.001935969171485148 0 0.0051088276394258107 0.0022410394927022599 0 0.0052519873635493656 0.0024135824172270117 0 0.011095983374879305 0.0011581804509509066 0 0.0080448697316841782 0.0023279261373379979 0 0.013404390435880828 0.00052678696268190252 0 0.012011271637925074 -0.00039060108062473147 0 0.011754930138370704 -0.00034804531751754736 0 0.015485283997741 0.00019739611774489596 0 0.011095983374879305 0.0011581804509509066 0 0.0053328033989191604 0.001935969171485148 0 0.0051088276394258107 0.0022410394927022599 0 0.0049866971748918371 0.0021055257235405613 0 0.0026163325869398959 0.0022925877284054263 0 0.011095983374879305 0.0011581804509509066 0 0.0046677514637632478 0.0019803697520775721 0 0.0053328033989191604 0.001935969171485148 0 0.0049866971748918371 0.0021055257235405613 0 0.0046680658268793722 0.0018174248224961818 0 0.0046677514637632478 0.0019803697520775721 0 0.0065851945873944629 0.0017187935881525043 0 0.0073454505298638471 0.0013435540635331109 0 0.011095983374879305 0.0011581804509509066 0 0.0051088276394258107 0.0022410394927022599 0 0.0049866971748918371 0.0021055257235405613 0 0.0049220366407897731 0.002319261102623709 0 0.0049866971748918371 0.0021055257235405613 0 0.0048280460328685619 0.0021798092792057679 0 0.0049220366407897731 0.002319261102623709 0 0.0046677514637632478 0.0019803697520775721 0 0.0048280460328685619 0.0021798092792057679 0 0.0047363798507913391 0.0023497620400627739 0 0.0046677514637632478 0.0019803697520775721 0 0.0049866971748918371 0.0021055257235405613 0 0.0048280460328685619 0.0021798092792057679 0 0.0048280460328685619 0.0021798092792057679 0 0.0047363798507913391 0.0023497620400627739 0 0.0049220366407897731 0.002319261102623709 0 0.0044227303151719152 0.0025451383197955466 0 0.0048219130635808113 0.0025612674654560278 0 0.0047307038573230226 0.0027623768202319843 0 0.0048219130635808113 0.0025612674654560278 0 0.0049344737914739914 0.0027867710473144392 0 0.0047307038573230226 0.0027623768202319843 0 0.0048219130635808113 0.0025612674654560278 0 0.0047363798507913391 0.0023497620400627739 0 0.0049220366407897731 0.002319261102623709 0 0.0048219130635808113 0.0025612674654560278 0 0.0049220366407897731 0.002319261102623709 0 0.005042722965990969 0.0024721914319009533 0 0.0051088276394258107 0.0022410394927022599 0 0.0049220366407897731 0.002319261102623709 0 0.005042722965990969 0.0024721914319009533 0 0.005042722965990969 0.0024721914319009533 0 0.0051547878944150196 0.0026610997207600663 0 0.0049344737914739914 0.0027867710473144392 0 0.0048219130635808113 0.0025612674654560278 0 0.005042722965990969 0.0024721914319009533 0 0.0049344737914739914 0.0027867710473144392 0 0.0053328033989191604 0.001935969171485148 0 0.0052519873635493656 0.0024135824172270117 0 0.0056031785390028375 0.0026484125590378882 0 0.005042722965990969 0.0024721914319009533 0 0.0051547878944150196 0.0026610997207600663 0 0.0052519873635493656 0.0024135824172270117 0 0.0051088276394258107 0.0022410394927022599 0 0.005042722965990969 0.0024721914319009533 0 0.0052519873635493656 0.0024135824172270117 0 0.0051547878944150196 0.0026610997207600663 0 0.0051758090069494419 0.0029489917450414766 0 0.0056031785390028375 0.0026484125590378882 0 0.0051547878944150196 0.0026610997207600663 0 0.0052519873635493656 0.0024135824172270117 0 0.0056031785390028375 0.0026484125590378882 0 0.0051283919231167683 0.0030163568592908433 0 0.0051413570379264901 0.0030379922722323632 0 0.0051758090069494419 0.0029489917450414766 0 0.0047761255533866013 0.0034626596720958814 0 0.0080448697316841782 0.0023279261373379979 0 0.0051413570379264901 0.0030379922722323632 0 0.0051758090069494419 0.0029489917450414766 0 0.0049812064758188107 0.0029817593692084061 0 0.0051547878944150196 0.0026610997207600663 0 0.0051758090069494419 0.0029489917450414766 0 0.0049344737914739914 0.0027867710473144392 0 0.0051413570379264901 0.0030379922722323632 0 0.0049812064758188107 0.0029817593692084061 0 0.0047684233953767183 0.0031153436647269809 0 0.0049344737914739914 0.0027867710473144392 0 0.0049812064758188107 0.0029817593692084061 0 0.0048125315053326352 0.0029258590263444577 0 0.0051758090069494419 0.0029489917450414766 0 0.0049344737914739914 0.0027867710473144392 0 0.0049812064758188107 0.0029817593692084061 0 0.0049812064758188107 0.0029817593692084061 0 0.0047684233953767183 0.0031153436647269809 0 0.0048125315053326352 0.0029258590263444577 0 0.0046263421781077901 0.0029622288892105723 0 0.0047684233953767183 0.0031153436647269809 0 0.0048125315053326352 0.0029258590263444577 0 0.0033606156546267417 0.0037770321521478968 0 0.0020736754312691173 0.004170634251641746 0 0.0049344737914739914 0.0027867710473144392 0 0.0048125315053326352 0.0029258590263444577 0 0.0047307038573230226 0.0027623768202319843 0 0.0046263421781077901 0.0029622288892105723 0 0.0048125315053326352 0.0029258590263444577 0 0.0047307038573230226 0.0027623768202319843 0 0.007524345838012805 -0.0011884624493347375 0 0.0078595472290472809 0.0015985126221783714 0 0.0045271915442596867 0.0013174563448759193 0 0.007524345838012805 -0.0011884624493347375 0 0.0078595472290472809 0.0015985126221783714 0 0.009779177759066714 0.00061105070572253512 0 0.013404390435880828 0.00052678696268190252 0 0.015172057380092181 0.00057331608594350322 0 0.012930251665507955 0.0024462114038543538 0 0.011047680930250403 -0.0003133404370870688 0 0.0080448697316841782 0.0023279261373379979 0 -0.0023762516849954326 0.0046243118176336152 0 0.0080448697316841782 0.0023279261373379979 0 0.0051283919231167683 0.0030163568592908433 0 0.0051758090069494419 0.0029489917450414766 0 0.0051739943641323297 0.0029577862800864467 0 0.0060075265999169243 0.0048500813322304281 0 0.0045271915442596867 0.0013174563448759193 0 0.0076570069306503346 0.0035731922969184484 0 0.0078595472290472809 0.0015985126221783714 0 0.0045271915442596867 0.0013174563448759193 0 0.0076570069306503346 0.0035731922969184484 0 0.0078595472290472809 0.0015985126221783714 0 0.0076570069306503346 0.0035731922969184484 0 0.0093674015189490218 0.0028526919734161793 0 0.0093674015189490218 0.0028526919734161793 0 0.011764269979459499 0.0029733859800345134 0 0.009779177759066714 0.00061105070572253512 0 0.0097395535080253802 0.0053313413415747805 0 0.0093674015189490218 0.0028526919734161793 0 0.011764269979459499 0.0029733859800345134 0 0.0097395535080253802 0.0053313413415747805 0 0.0076570069306503346 0.0035731922969184484 0 0.0093674015189490218 0.0028526919734161793 0 0.013512826014469334 0.0058255643524891291 0 0.011764269979459499 0.0029733859800345134 0 0.014462296973101366 0.0033892507670131564 0 0.011764269979459499 0.0029733859800345134 0 0.013822799770881024 0.0010799765000989606 0 0.014462296973101366 0.0033892507670131564 0 0.011764269979459499 0.0029733859800345134 0 0.012041874765830265 0.00014602928022732956 0 0.013822799770881024 0.0010799765000989606 0 0.011764269979459499 0.0029733859800345134 0 0.012041874765830265 0.00014602928022732956 0 0.009779177759066714 0.00061105070572253512 0 0.012041874765830265 0.00014602928022732956 0 0.014261206551949217 -0.00085793076519837766 0 0.013822799770881024 0.0010799765000989606 0 0.0078595472290472809 0.0015985126221783714 0 0.0093674015189490218 0.0028526919734161793 0 0.009779177759066714 0.00061105070572253512 0 0.012041874765830265 0.00014602928022732956 0 0.009779177759066714 0.00061105070572253512 0 0.010784880445594267 -0.0014792497596957848 0 0.007524345838012805 -0.0011884624493347375 0 0.010784880445594267 -0.0014792497596957848 0 0.01061253046029797 -0.0036941896140971842 0 0.007524345838012805 -0.0011884624493347375 0 0.009779177759066714 0.00061105070572253512 0 0.010784880445594267 -0.0014792497596957848 0 0.011047680930250403 -0.0003133404370870688 0 0.016622365019582402 -0.0023020418736429812 0 0.010784880445594267 -0.0014792497596957848 0 0.011896105211605229 -0.0028088619753046172 0 0.01061253046029797 -0.0036941896140971842 0 0.012041874765830265 0.00014602928022732956 0 0.010784880445594267 -0.0014792497596957848 0 0.012725198177751113 -0.0017715810572960546 0 0.012041874765830265 0.00014602928022732956 0 0.012725198177751113 -0.0017715810572960546 0 0.014261206551949217 -0.00085793076519837766 0 0.012725198177751113 -0.0017715810572960546 0 0.011896105211605229 -0.0028088619753046172 0 0.013199604558477808 -0.0033321777235914085 0 0.010784880445594267 -0.0014792497596957848 0 0.012725198177751113 -0.0017715810572960546 0 0.011896105211605229 -0.0028088619753046172 0 0.013335415110315793 -0.0058397427154193446 0 0.013199604558477808 -0.0033321777235914085 0 0.014362948263059056 -0.004489880687733711 0 0.013335415110315793 -0.0058397427154193446 0 0.011647630485040392 -0.0038386292357569566 0 0.013199604558477808 -0.0033321777235914085 0 0.011896105211605229 -0.0028088619753046172 0 0.011647630485040392 -0.0038386292357569566 0 0.013199604558477808 -0.0033321777235914085 0 0.019100138966166375 -0.003513667342615438 0 0.016622365019582402 -0.0023020418736429812 0 0.011896105211605229 -0.0028088619753046172 0 0.011647630485040392 -0.0038386292357569566 0 0.01061253046029797 -0.0036941896140971842 0 0.013335415110315793 -0.0058397427154193446 0 0.011647630485040392 -0.0038386292357569566 0 0.010664271611011652 -0.0036815748986073109 0 0.01245844051867497 -0.002432019285722507 0 0.016622365019582402 -0.0023020418736429812 0 0.016005019634568223 -0.0053608773748588696 0 0.018079356175656151 -0.0036005350035262849 0 0.015025798809191535 -0.0028164512908024656 0 0.016005019634568223 -0.0053608773748588696 0 0.014362948263059056 -0.004489880687733711 0 0.015025798809191535 -0.0028164512908024656 0 0.013199604558477808 -0.0033321777235914085 0 0.014362948263059056 -0.004489880687733711 0 0.015025798809191535 -0.0028164512908024656 0 0.015025798809191535 -0.0028164512908024656 0 0.014261206551949217 -0.00085793076519837766 0 0.016269367421822053 -7.6973179293205889e-05 0 0.012725198177751113 -0.0017715810572960546 0 0.015025798809191535 -0.0028164512908024656 0 0.014261206551949217 -0.00085793076519837766 0 0.012725198177751113 -0.0017715810572960546 0 0.013199604558477808 -0.0033321777235914085 0 0.015025798809191535 -0.0028164512908024656 0 0.018079356175656151 -0.0036005350035262849 0 0.015025798809191535 -0.0028164512908024656 0 0.016269367421822053 -7.6973179293205889e-05 0 0.018482971020889642 -0.0042209797166392875 0 0.01640084762104517 -0.00063946055371380257 0 0.018915831818837089 -0.0020486045993593294 0 0.018285937409211885 -0.0039526391623292516 0 0.016317323558880794 -0.00029052756370298572 0 0.01640084762104517 -0.00063946055371380257 0 0.017040177812773151 0.0020147441584085 0 0.019898646221025936 4.8304667464066171e-07 0 0.01640084762104517 -0.00063946055371380257 0 0.019898646221025936 4.8304667464066171e-07 0 0.018915831818837089 -0.0020486045993593294 0 0.014261206551949217 -0.00085793076519837766 0 0.016269367421822053 -7.6973179293205889e-05 0 0.013822799770881024 0.0010799765000989606 0 0.016317323558880794 -0.00029052756370298572 0 0.014586742148726836 0.0031705459916638364 0 0.016269367421822053 -7.6973179293205889e-05 0 0.013822799770881024 0.0010799765000989606 0 0.014462296973101366 0.0033892507670131564 0 0.01640084762104517 -0.00063946055371380257 0 0.014462296973101366 0.0033892507670131564 0 0.017040177812773151 0.0020147441584085 0 0.016320263619429707 0.0042095599494981258 0 0.014462296973101366 0.0033892507670131564 0 0.017040177812773151 0.0020147441584085 0 0.016320263619429707 0.0042095599494981258 0 0.017040177812773151 0.0020147441584085 0 0.018732451563437225 0.0032313082255369268 0 0.020884773718956102 0.00031381305539138465 0 0.020181915913617822 -0.00085170044450652734 0 0.017040177812773151 0.0020147441584085 0 0.018732451563437225 0.0032313082255369268 0 0.019898646221025936 4.8304667464066171e-07 0 0.020534154683189372 -0.0010791984793372315 0 0.021319262824981127 -0.0012973937354731958 0 0.020706694893584923 -0.0019803041717524287 0 0.021047940791749074 -0.00074261822714341498 0 0.020534154683189372 -0.0010791984793372315 0 0.021319262824981127 -0.0012973937354731958 0 0.021199865128746814 -0.00030348495242329309 0 0.021319262824981127 -0.0012973937354731958 0 0.02246924781626539 -0.0012721962027286459 0 0.021047940791749074 -0.00074261822714341498 0 0.021199865128746814 -0.00030348495242329309 0 0.021319262824981127 -0.0012973937354731958 0 0.021319262824981127 -0.0012973937354731958 0 0.021583904098048234 -0.0022625354790801128 0 0.020706694893584923 -0.0019803041717524287 0 0.021319262824981127 -0.0012973937354731958 0 0.021583904098048234 -0.0022625354790801128 0 0.022523109404526519 -0.0021057936277701882 0 0.021583904098048234 -0.0022625354790801128 0 0.022523109404526519 -0.0021057936277701882 0 0.022516857410716577 -0.0030056644065176927 0 0.02362646420698428 -0.00070924636486048012 0 0.02246924781626539 -0.0012721962027286459 0 0.023948169408930554 -0.0019828400402824831 0 0.02362646420698428 -0.00070924636486048012 0 0.023948169408930554 -0.0019828400402824831 0 0.024389293597521976 -0.0016660104881498256 0 0.021199865128746814 -0.00030348495242329309 0 0.02362646420698428 -0.00070924636486048012 0 0.02246924781626539 -0.0012721962027286459 0 0.021319262824981127 -0.0012973937354731958 0 0.02246924781626539 -0.0012721962027286459 0 0.022523109404526519 -0.0021057936277701882 0 0.02246924781626539 -0.0012721962027286459 0 0.022523109404526519 -0.0021057936277701882 0 0.023948169408930554 -0.0019828400402824831 0 0.022523109404526519 -0.0021057936277701882 0 0.023948169408930554 -0.0019828400402824831 0 0.023632764630223142 -0.0031797148228026968 0 0.023948169408930554 -0.0019828400402824831 0 0.023632764630223142 -0.0031797148228026968 0 0.024595462979513771 -0.0029555357038808269 0 0.023632764630223142 -0.0031797148228026968 0 0.0243603794669702 -0.0044251194998345782 0 0.024595462979513771 -0.0029555357038808269 0 0.022523109404526519 -0.0021057936277701882 0 0.023632764630223142 -0.0031797148228026968 0 0.022516857410716577 -0.0030056644065176927 0 0.023632764630223142 -0.0031797148228026968 0 0.022516857410716577 -0.0030056644065176927 0 0.023907593758130893 -0.0049646117226130179 0 0.023632764630223142 -0.0031797148228026968 0 0.0243603794669702 -0.0044251194998345782 0 0.023907593758130893 -0.0049646117226130179 0 0.021583904098048234 -0.0022625354790801128 0 0.020706694893584923 -0.0019803041717524287 0 0.020877429707810469 -0.003207934969464294 0 0.020181915913617822 -0.00085170044450652734 0 0.020884973062772205 -0.0030924074846617501 0 0.018482971020889642 -0.0042209797166392875 0 0.020877429707810469 -0.003207934969464294 0 0.018915831818837089 -0.0020486045993593294 0 0.019898646221025936 4.8304667464066171e-07 0 0.020877429707810469 -0.003207934969464294 0 0.018915831818837089 -0.0020486045993593294 0 0.021583904098048234 -0.0022625354790801128 0 0.022516857410716577 -0.0030056644065176927 0 0.020877429707810469 -0.003207934969464294 0 0.020877429707810469 -0.003207934969464294 0 0.021059638767457221 -0.0051737126935489496 0 0.023907593758130893 -0.0049646117226130179 0 0.022516857410716577 -0.0030056644065176927 0 0.020877429707810469 -0.003207934969464294 0 0.023907593758130893 -0.0049646117226130179 0 0.018482971020889642 -0.0042209797166392875 0 0.020877429707810469 -0.003207934969464294 0 0.021059638767457221 -0.0051737126935489496 0 0.018482971020889642 -0.0042209797166392875 0 0.021059638767457221 -0.0051737126935489496 0 0.019895249215927231 -0.0071196771759172552 0 0.018285937409211885 -0.0039526391623292516 0 0.019796824343529407 -0.0069525874016760436 0 0.019895249215927231 -0.0071196771759172552 0 0.022635022966115085 -0.0085874573626849564 0 0.01879592822494501 -0.010018336248320847 0 0.019895249215927231 -0.0071196771759172552 0 0.022635022966115085 -0.0085874573626849564 0 0.022040005996550312 -0.0063622138565696306 0 0.021059638767457221 -0.0051737126935489496 0 0.022040005996550312 -0.0063622138565696306 0 0.023907593758130893 -0.0049646117226130179 0 0.022635022966115085 -0.0085874573626849564 0 0.022040005996550312 -0.0063622138565696306 0 0.023907593758130893 -0.0049646117226130179 0 0.021059638767457221 -0.0051737126935489496 0 0.019895249215927231 -0.0071196771759172552 0 0.022040005996550312 -0.0063622138565696306 0 0.024310557454486487 -0.0072630286879845603 0 0.024217183726045331 -0.0047358087731174271 0 0.0243603794669702 -0.0044251194998345782 0 0.023907593758130893 -0.0049646117226130179 0 0.024768121133926412 -0.0049408316292888837 0 0.026384782811613484 -0.0048018867263944975 0 0.023907593758130893 -0.0049646117226130179 0 0.024768121133926412 -0.0049408316292888837 0 0.0243603794669702 -0.0044251194998345782 0 0.024768121133926412 -0.0049408316292888837 0 0.024753541627102988 -0.0047753784699871371 0 0.024768121133926412 -0.0049408316292888837 0 0.024753541627102988 -0.0047753784699871371 0 0.02498725838444445 -0.0047387999813456481 0 0.024753541627102988 -0.0047753784699871371 0 0.02498725838444445 -0.0047387999813456481 0 0.024788863273769359 -0.004678323206619755 0 0.024768121133926412 -0.0049408316292888837 0 0.02498725838444445 -0.0047387999813456481 0 0.025555330311015454 -0.0045461381934587533 0 0.02498725838444445 -0.0047387999813456481 0 0.025555330311015454 -0.0045461381934587533 0 0.025172672615308228 -0.0042785511159458859 0 0.02498725838444445 -0.0047387999813456481 0 0.025172672615308228 -0.0042785511159458859 0 0.024788863273769359 -0.004678323206619755 0 0.025172672615308228 -0.0042785511159458859 0 0.024668320522203541 -0.0043314288644402486 0 0.024788863273769359 -0.004678323206619755 0 0.026384782811613484 -0.0048018867263944975 0 0.024768121133926412 -0.0049408316292888837 0 0.025555330311015454 -0.0045461381934587533 0 0.026384782811613484 -0.0048018867263944975 0 0.026285267831797791 -0.0037663750486411286 0 0.027320475439864416 -0.0035590539874544424 0 0.026384782811613484 -0.0048018867263944975 0 0.025555330311015454 -0.0045461381934587533 0 0.026285267831797791 -0.0037663750486411286 0 0.025555330311015454 -0.0045461381934587533 0 0.026285267831797791 -0.0037663750486411286 0 0.025172672615308228 -0.0042785511159458859 0 0.025172672615308228 -0.0042785511159458859 0 0.024812274234105359 -0.0038136135449958726 0 0.024668320522203541 -0.0043314288644402486 0 0.026285267831797791 -0.0037663750486411286 0 0.025172672615308228 -0.0042785511159458859 0 0.025577767352264347 -0.0034010725558608402 0 0.025172672615308228 -0.0042785511159458859 0 0.025577767352264347 -0.0034010725558608402 0 0.024812274234105359 -0.0038136135449958726 0 0.025577767352264347 -0.0034010725558608402 0 0.024926742525117073 -0.0024267096530941994 0 0.024812274234105359 -0.0038136135449958726 0 0.026285267831797791 -0.0037663750486411286 0 0.025577767352264347 -0.0034010725558608402 0 0.026120509449685948 -0.0024896179419799445 0 0.025577767352264347 -0.0034010725558608402 0 0.026120509449685948 -0.0024896179419799445 0 0.024926742525117073 -0.0024267096530941994 0 0.026285267831797791 -0.0037663750486411286 0 0.026120509449685948 -0.0024896179419799445 0 0.027272373277453413 -0.0025778481960340213 0 0.026285267831797791 -0.0037663750486411286 0 0.027272373277453413 -0.0025778481960340213 0 0.027320475439864416 -0.0035590539874544424 0 0.027272373277453413 -0.0025778481960340213 0 0.028182737763931452 -0.0029454754052599839 0 0.028137779620073924 -0.002094117048306629 0 0.028182737763931452 -0.0029454754052599839 0 0.028137779620073924 -0.002094117048306629 0 0.029172287708097412 -0.0016033619391200345 0 0.028182737763931452 -0.0029454754052599839 0 0.029207064964687852 -0.0036495745396362541 0 0.029172287708097412 -0.0016033619391200345 0 0.027272373277453413 -0.0025778481960340213 0 0.028182737763931452 -0.0029454754052599839 0 0.027320475439864416 -0.0035590539874544424 0 0.028182737763931452 -0.0029454754052599839 0 0.028295138553857822 -0.0033676650724159046 0 0.027320475439864416 -0.0035590539874544424 0 0.02745925251672757 -0.0042262448814881434 0 0.025162836601383846 -0.0044789516367959425 0 0.024653794009761101 -0.001166485398323014 0 0.024628437754383534 -0.0011990221897174214 0 0.024641023343762596 -0.0011325569122675083 0 0.024653794009761101 -0.001166485398323014 0 0.024628437754383534 -0.0011990221897174214 0 0.024636756437848593 -0.0011913943049944274 0 0.025162836601383846 -0.0044789516367959425 0 0.021491936861038966 -0.0057544265892059392 0 0.024310557454486487 -0.0072630286879845603 0 0.025162836601383846 -0.0044789516367959425 0 0.022635022966115085 -0.0085874573626849564 0 0.021280234057553457 -0.011989170853489071 0 0.01879592822494501 -0.010018336248320847 0 0.026384782811613484 -0.0048018867263944975 0 0.028295138553857822 -0.0033676650724159046 0 0.027320475439864416 -0.0035590539874544424 0 0.027780306459293538 -0.0040710434372922032 0 0.02724315171897106 -0.0037058760467916477 0 0.025802355857205018 -0.0045056026156080819 0 0.025294263636427016 -0.0045616067164746758 0 0.025598599297974246 -0.0042055184716413251 0 0.029366822609013552 -0.0036346957027063296 0 0.030294716365321793 -0.0025067301618698192 0 0.031245270536660503 -0.0034390805840710565 0 0.025802355857205018 -0.0045056026156080819 0 0.025598599297974246 -0.0042055184716413251 0 0.025808097286967879 -0.0043138551380741113 0 0.025802355857205018 -0.0045056026156080819 0 0.025910160709015102 -0.0043895864130729977 0 0.025808097286967879 -0.0043138551380741113 0 0.027780306459293538 -0.0040710434372922032 0 0.026563547491112977 -0.0040915987430228734 0 0.025802355857205018 -0.0045056026156080819 0 0.025910160709015102 -0.0043895864130729977 0 0.026000365856542581 -0.0042978595662687118 0 0.029366822609013552 -0.0036346957027063296 0 0.02808279263073812 -0.0024492170867128622 0 0.027380138075097999 -0.0038971682935652393 0 0.025910160709015102 -0.0043895864130729977 0 0.025984335900053029 -0.0043876509343495906 0 0.026000365856542581 -0.0042978595662687118 0 0.02808279263073812 -0.0024492170867128622 0 0.029365933365661477 -0.0018322251968138968 0 0.027913479456537854 -0.00089943238451761082 0 0.029366822609013552 -0.0036346957027063296 0 0.02808279263073812 -0.0024492170867128622 0 0.029365933365661477 -0.0018322251968138968 0 0.029365933365661477 -0.0018322251968138968 0 0.030294716365321793 -0.0025067301618698192 0 0.031184679190565775 -0.0011349193649695208 0 0.029366822609013552 -0.0036346957027063296 0 0.029365933365661477 -0.0018322251968138968 0 0.030294716365321793 -0.0025067301618698192 0 0.026889281123701973 -0.0035467093303654883 0 0.026852398854711183 -0.0015378818949247268 0 0.027123925002131729 -0.0015147498158452975 0 0.02724315171897106 -0.0037058760467916477 0 0.029321828894945199 -0.001286137464867107 0 0.025105484774352389 -0.0037380960423318826 0 0.024906010148338747 -0.0016582465567336782 0 0.030294716365321793 -0.0025067301618698192 0 0.031245270536660503 -0.0034390805840710565 0 0.031184679190565775 -0.0011349193649695208 0 0.026889281123701973 -0.0035467093303654883 0 0.027431212040329282 -0.0035002883509516326 0 0.027123925002131729 -0.0015147498158452975 0 0.024926742525117073 -0.0024267096530941994 0 0.024140806908192369 -0.0029704742045393775 0 0.024812274234105359 -0.0038136135449958726 0 0.024140806908192369 -0.0029704742045393775 0 0.023552546439645699 -0.0039112400783679795 0 0.023262070457628601 -0.0017398184370493554 0 0.024926742525117073 -0.0024267096530941994 0 0.024140806908192369 -0.0029704742045393775 0 0.023262070457628601 -0.0017398184370493554 0 0.024349030482372015 -0.0038654671540096427 0 0.025105484774352389 -0.0037380960423318826 0 0.024140806908192369 -0.0029704742045393775 0 0.024812274234105359 -0.0038136135449958726 0 0.023552546439645699 -0.0039112400783679795 0 0.024812274234105359 -0.0038136135449958726 0 0.024668320522203541 -0.0043314288644402486 0 0.024274266148965384 -0.0039771394038358642 0 0.025155449455544456 -0.0045253929225693781 0 0.025003496715445057 -0.0045371634139332994 0 0.024900301995014789 -0.0040733975372474925 0 0.02724315171897106 -0.0037058760467916477 0 0.025105484774352389 -0.0037380960423318826 0 0.025294263636427016 -0.0045616067164746758 0 0.025227338674258012 -0.0040032921649197795 0 0.025598599297974246 -0.0042055184716413251 0 0.025155449455544456 -0.0045253929225693781 0 0.025132931279930361 -0.0040025385001987001 0 0.024900301995014789 -0.0040733975372474925 0 0.02724315171897106 -0.0037058760467916477 0 0.024972705436038703 -0.004168587158066164 0 0.024668320522203541 -0.0043314288644402486 0 0.024274266148965384 -0.0039771394038358642 0 0.024627919601284558 -0.0047456548157878706 0 0.025105484774352389 -0.0037380960423318826 0 0.024742703277702716 -0.0044685987246223541 0 0.024668320522203541 -0.0043314288644402486 0 0.024627919601284558 -0.0047456548157878706 0 0.024788863273769359 -0.004678323206619755 0 0.024753541627102988 -0.0047753784699871371 0 0.024627919601284558 -0.0047456548157878706 0 0.024788863273769359 -0.004678323206619755 0 0.025132931279930361 -0.0040025385001987001 0 0.024900301995014789 -0.0040733975372474925 0 0.024767620326500497 -0.0035275191086841474 0 0.0243603794669702 -0.0044251194998345782 0 0.024753541627102988 -0.0047753784699871371 0 0.024978471903310803 -0.0044895080599579315 0 0.024753541627102988 -0.0047753784699871371 0 0.024627919601284558 -0.0047456548157878706 0 0.024978471903310803 -0.0044895080599579315 0 0.024742703277702716 -0.0044685987246223541 0 0.024830517695569057 -0.0039431996799182837 0 0.025227338674258012 -0.0040032921649197795 0 0.025463235047424947 -0.0036820656954282926 0 0.025129237333290384 -0.0033639811003968135 0 0.024972705436038703 -0.004168587158066164 0 0.025177273429925526 -0.00332729072485512 0 0.025132931279930361 -0.0040025385001987001 0 0.024767620326500497 -0.0035275191086841474 0 0.025129237333290384 -0.0033639811003968135 0 0.025227338674258012 -0.0040032921649197795 0 0.025463235047424947 -0.0036820656954282926 0 0.025506292329108171 -0.0039468554272906135 0 0.025463235047424947 -0.0036820656954282926 0 0.025729816671610783 -0.003891240708887109 0 0.025726866188685367 -0.0035730725660531909 0 0.025463235047424947 -0.0036820656954282926 0 0.025729816671610783 -0.003891240708887109 0 0.025506292329108171 -0.0039468554272906135 0 0.025729816671610783 -0.003891240708887109 0 0.025506292329108171 -0.0039468554272906135 0 0.025598599297974246 -0.0042055184716413251 0 0.025227338674258012 -0.0040032921649197795 0 0.025506292329108171 -0.0039468554272906135 0 0.025598599297974246 -0.0042055184716413251 0 0.025729816671610783 -0.003891240708887109 0 0.025598599297974246 -0.0042055184716413251 0 0.025836125229716327 -0.0041512994976227978 0 0.025598599297974246 -0.0042055184716413251 0 0.025808097286967879 -0.0043138551380741113 0 0.025836125229716327 -0.0041512994976227978 0 0.025984335900053029 -0.0043876509343495906 0 0.025953487829075556 -0.004154662451085262 0 0.026103373011644788 -0.0039703520049554743 0 0.025984335900053029 -0.0043876509343495906 0 0.025891477476099177 -0.0042886001986672528 0 0.025953487829075556 -0.004154662451085262 0 0.025910160709015102 -0.0043895864130729977 0 0.025984335900053029 -0.0043876509343495906 0 0.025891477476099177 -0.0042886001986672528 0 0.025910160709015102 -0.0043895864130729977 0 0.025891477476099177 -0.0042886001986672528 0 0.025808097286967879 -0.0043138551380741113 0 0.025891477476099177 -0.0042886001986672528 0 0.025808097286967879 -0.0043138551380741113 0 0.025836125229716327 -0.0041512994976227978 0 0.025891477476099177 -0.0042886001986672528 0 0.025836125229716327 -0.0041512994976227978 0 0.025953487829075556 -0.004154662451085262 0 0.025729816671610783 -0.003891240708887109 0 0.025836125229716327 -0.0041512994976227978 0 0.025929495165917509 -0.0039852658214378917 0 0.025836125229716327 -0.0041512994976227978 0 0.025953487829075556 -0.004154662451085262 0 0.025929495165917509 -0.0039852658214378917 0 0.025953487829075556 -0.004154662451085262 0 0.026103373011644788 -0.0039703520049554743 0 0.025929495165917509 -0.0039852658214378917 0 0.026103373011644788 -0.0039703520049554743 0 0.025929495165917509 -0.0039852658214378917 0 0.025965240404345367 -0.0037315758296472337 0 0.026103373011644788 -0.0039703520049554743 0 0.025965240404345367 -0.0037315758296472337 0 0.026347961337335555 -0.0036933214199440685 0 0.025729816671610783 -0.003891240708887109 0 0.025929495165917509 -0.0039852658214378917 0 0.025965240404345367 -0.0037315758296472337 0 0.025729816671610783 -0.003891240708887109 0 0.025965240404345367 -0.0037315758296472337 0 0.025726866188685367 -0.0035730725660531909 0 0.025965240404345367 -0.0037315758296472337 0 0.02594021817214744 -0.0032761518335166339 0 0.026347961337335555 -0.0036933214199440685 0 0.024696895043740816 -0.0015725013765223966 0 0.022766334530176065 -0.0019079693574627931 0 0.023058131365755245 0.00012391376267908749 0 0.022320558444058926 4.0382558256626528e-05 0 0.022049767335018552 0.0010096021016234302 0 0.025965240404345367 -0.0037315758296472337 0 0.02594021817214744 -0.0032761518335166339 0 0.025726866188685367 -0.0035730725660531909 0 0.02594021817214744 -0.0032761518335166339 0 0.025726866188685367 -0.0035730725660531909 0 0.025524468758251671 -0.0032745240745766626 0 0.025463235047424947 -0.0036820656954282926 0 0.025726866188685367 -0.0035730725660531909 0 0.025524468758251671 -0.0032745240745766626 0 0.02594021817214744 -0.0032761518335166339 0 0.025524468758251671 -0.0032745240745766626 0 0.02556931035934517 -0.0027407919590796644 0 0.024696895043740816 -0.0015725013765223966 0 0.024750197675394988 -0.0017500839187137827 0 0.023058131365755245 0.00012391376267908749 0 0.024056127296452883 -0.00080340594809419818 0 0.023141683078255051 -0.0010170471146000763 0 0.023058131365755245 0.00012391376267908749 0 0.023141683078255051 -0.0010170471146000763 0 0.022320558444058926 4.0382558256626528e-05 0 0.023141683078255051 -0.0010170471146000763 0 0.022320558444058926 4.0382558256626528e-05 0 0.022093132203210075 -0.00074871685403193151 0 0.0243603794669702 -0.0044251194998345782 0 0.024978471903310803 -0.0044895080599579315 0 0.024595462979513771 -0.0029555357038808269 0 0.024830517695569057 -0.0039431996799182837 0 0.02464016043966535 -0.0030568416546495787 0 0.024767620326500497 -0.0035275191086841474 0 0.025129237333290384 -0.0033639811003968135 0 0.02504559060912619 -0.0029631575600704519 0 0.025463235047424947 -0.0036820656954282926 0 0.025524468758251671 -0.0032745240745766626 0 0.025129237333290384 -0.0033639811003968135 0 0.025524468758251671 -0.0032745240745766626 0 0.025129237333290384 -0.0033639811003968135 0 0.02504559060912619 -0.0029631575600704519 0 0.02556931035934517 -0.0027407919590796644 0 0.02504559060912619 -0.0029631575600704519 0 0.024778130229904199 -0.0018033118724039845 0 0.025524468758251671 -0.0032745240745766626 0 0.02556931035934517 -0.0027407919590796644 0 0.02504559060912619 -0.0029631575600704519 0 0.024767620326500497 -0.0035275191086841474 0 0.02504559060912619 -0.0029631575600704519 0 0.024595462979513771 -0.0029555357038808269 0 0.02504559060912619 -0.0029631575600704519 0 0.024595462979513771 -0.0029555357038808269 0 0.024778130229904199 -0.0018033118724039845 0 0.023948169408930554 -0.0019828400402824831 0 0.024595462979513771 -0.0029555357038808269 0 0.024778130229904199 -0.0018033118724039845 0 0.023948169408930554 -0.0019828400402824831 0 0.024778130229904199 -0.0018033118724039845 0 0.024389293597521976 -0.0016660104881498256 0 0.024750197675394988 -0.0017500839187137827 0 0.024783568222868198 -0.0017887096023566484 0 0.024056127296452883 -0.00080340594809419818 0 0.024207026860486043 -0.0015897761199614208 0 0.024778130229904199 -0.0018033118724039845 0 0.024207026860486043 -0.0015897761199614208 0 0.024734975533653489 -0.001680670462307637 0 0.023780455717125153 -0.0020443846025174814 0 0.024207026860486043 -0.0015897761199614208 0 0.024778130229904199 -0.0018033118724039845 0 0.024734975533653489 -0.001680670462307637 0 0.011171118145058324 -0.00055226158996940315 0 0.013485029183591776 0.0016618281563790967 0 0.0096838588418196661 0.0022986024302114271 0 0.018959632066909531 2.2627468829502048e-05 0 0.017163095677716241 0.0001096982169805092 0 0.020540143505609922 -2.8046761959793799e-06 0 0.018959632066909531 2.2627468829502048e-05 0 0.02362646420698428 -0.00070924636486048012 0 0.024734975533653489 -0.001680670462307637 0 0.024389293597521976 -0.0016660104881498256 0 0.024778130229904199 -0.0018033118724039845 0 0.024734975533653489 -0.001680670462307637 0 0.024389293597521976 -0.0016660104881498256 0 0.023141683078255051 -0.0010170471146000763 0 0.023780455717125153 -0.0020443846025174814 0 0.022379440461575424 -0.0018593220681237205 0 0.023141683078255051 -0.0010170471146000763 0 0.022379440461575424 -0.0018593220681237205 0 0.022093132203210075 -0.00074871685403193151 0 0.024056127296452883 -0.00080340594809419818 0 0.024207026860486043 -0.0015897761199614208 0 0.023141683078255051 -0.0010170471146000763 0 0.024207026860486043 -0.0015897761199614208 0 0.023141683078255051 -0.0010170471146000763 0 0.023780455717125153 -0.0020443846025174814 0 0.0068318433879594551 -0.00012651316458381213 0 0.0096838588418196661 0.0022986024302114271 0 0.0061214415157501952 0.0029713685133072785 0 0.017163095677716241 0.0001096982169805092 0 0.012178680190850293 0.00053265494922619594 0 0.0063033346406833205 0.00028761190731694408 0 0.012178680190850293 0.00053265494922619594 0 0.0046518431934241692 -0.00048317408052064203 0 0.0067569695528445434 -0.00043228976322862915 0 0.0060877767510594313 0.0022492653722643234 0 0.0060877767510594313 0.0022492653722643234 0 0.0033355764912860325 0.0028064641673774056 0 0.0039646270431389465 0.0010983496749339969 0 0.0046518431934241692 -0.00048317408052064203 0 0.0060877767510594313 0.0022492653722643234 0 0.0039646270431389465 0.0010983496749339969 0 0.013365700194354216 0.00055509772655961884 0 0.012560209915116947 0.00072497002161892726 0 0.013189585363798965 0.0013407206739147373 0 0.012560209915116947 0.00072497002161892726 0 0.013189585363798965 0.0013407206739147373 0 0.012789982175565782 0.0014260535179418153 0 0.012178680190850293 0.00053265494922619594 0 0.0076839515700096103 0.0022703564945988461 0 0.012178680190850293 0.00053265494922619594 0 0.018284508386409527 -0.000315429376574092 0 0.0076839515700096103 0.0022703564945988461 0 0.01261469701226409 0.002188853812943186 0 0.012037575800989842 0.0019492189910960093 0 0.011762272567946994 0.0020075870622438831 0 0.012195178494981716 0.002861010217469939 0 0.010567310755445461 0.0031227276797084302 0 0.013447961794877627 0.0041661947658878581 0 0.014515234185438869 0.0049118979928620644 0 0.014553574486916236 0.0049486713982650355 0 0.014704137583532971 0.0051464628259277083 0 0.014515234185438869 0.0049118979928620644 0 0.013734841137673082 0.0048673833089786503 0 0.014704137583532971 0.0051464628259277083 0 0.0076839515700096103 0.0022703564945988461 0 0.010567310755445461 0.0031227276797084302 0 0.0025088945708644657 -3.46847536166416e-05 0 0.0035256122031446075 0.0031915085614876264 0 0.0013778318046005515 0.00060943756325123808 0 0.0025088945708644657 -3.46847536166416e-05 0 0.0033355764912860325 0.0028064641673774056 0 0.0039646270431389465 0.0010983496749339969 0 0.0035256122031446075 0.0031915085614876264 0 0.0026628242345593705 0.0033745437470360027 0 0.0013778318046005515 0.00060943756325123808 0 0.0018743642871158095 0.00019703186476767814 0 0.0076839515700096103 0.0022703564945988461 0 0.014148984084784178 0.0051051380781034737 0 0.013598086690809934 0.0031692745969844069 0 0.013519039483950061 0.0043020541397228535 0 0.013598086690809934 0.0031692745969844069 0 0.012917275799102361 0.0039418003017204009 0 0.013519039483950061 0.0043020541397228535 0 0.010567310755445461 0.0031227276797084302 0 0.0073042676439832588 0.0018449012494611032 0 0.011009859372714887 0.0015786846135284428 0 0.013598086690809934 0.0031692745969844069 0 0.012917275799102361 0.0039418003017204009 0 0.012917275799102361 0.0039418003017204009 0 0.0092218650272737953 0.0032997179841463883 0 0.0091214091207167877 0.0071508650067054029 0 0.011009859372714887 0.0015786846135284428 0 0.012917275799102361 0.0039418003017204009 0 0.0092218650272737953 0.0032997179841463883 0 0.011679735465508233 0.0046664411463213859 0 0.013273452926480986 0.0022291771611923053 0 0.012917275799102361 0.0039418003017204009 0 0.013243832245056547 0.0045138786627519547 0 0.012528564388863699 0.0046250543677652245 0 0.012917275799102361 0.0039418003017204009 0 0.013243832245056547 0.0045138786627519547 0 0.013519039483950061 0.0043020541397228535 0 0.013243832245056547 0.0045138786627519547 0 0.013519039483950061 0.0043020541397228535 0 0.013648156540786636 0.0046908277579165991 0 0.01079446883121768 -0.0079054139569712106 0 0.013428302813483351 -0.0054525317615066139 0 0.0099794154325613671 -0.0056338968782151761 0 0.0070646790895719227 -0.0029788778087445921 0 0.013273452926480986 0.0022291771611923053 0 0.0038763879897391225 0.0026025171775911787 0 0.0092218650272737953 0.0032997179841463883 0 0.0091214091207167877 0.0071508650067054029 0 0.013428302813483351 -0.0054525317615066139 0 0.010909800004109162 -0.0034819758187828011 0 0.0099794154325613671 -0.0056338968782151761 0 0.013273452926480986 0.0022291771611923053 0 0.014787405500814633 0.00087088040203887722 0 0.016763037729670638 0.0068963505348006628 0 0.017006299418910392 0.0058955514003411523 0 0.016261936433988412 0.0055408953018607427 0 0.016763037729670638 0.0068963505348006628 0 0.017845265780970284 0.0058891801526021401 0 0.017006299418910392 0.0058955514003411523 0 0.017006299418910392 0.0058955514003411523 0 0.016261936433988412 0.0055408953018607427 0 0.016564977186748812 0.0048903469335895315 0 0.017845265780970284 0.0058891801526021401 0 0.017006299418910392 0.0058955514003411523 0 0.017402083631790258 0.0047487429804721915 0 0.012528564388863699 0.0046250543677652245 0 0.013734841137673082 0.0048673833089786503 0 0.014704137583532971 0.0051464628259277083 0 0.016763037729670638 0.0068963505348006628 0 0.016261936433988412 0.0055408953018607427 0 0.014704137583532971 0.0051464628259277083 0 0.013273452926480986 0.0022291771611923053 0 0.015393607039834714 0.0064928083661292216 0 0.013243832245056547 0.0045138786627519547 0 0.013734841137673082 0.0048673833089786503 0 0.013648156540786636 0.0046908277579165991 0 0.014148984084784178 0.0051051380781034737 0 0.013734841137673082 0.0048673833089786503 0 0.013648156540786636 0.0046908277579165991 0 0.014148984084784178 0.0051051380781034737 0 0.013519039483950061 0.0043020541397228535 0 0.013648156540786636 0.0046908277579165991 0 0.010567310755445461 0.0031227276797084302 0 0.013769270206393774 0.0037543244534370694 0 0.013243832245056547 0.0045138786627519547 0 0.012528564388863699 0.0046250543677652245 0 0.013734841137673082 0.0048673833089786503 0 0.016261936433988412 0.0055408953018607427 0 0.015728341341149473 0.0047950309202455218 0 0.014704137583532971 0.0051464628259277083 0 0.015728341341149473 0.0047950309202455218 0 0.014704137583532971 0.0051464628259277083 0 0.015183374303444033 0.0043883410910087297 0 0.016261936433988412 0.0055408953018607427 0 0.015728341341149473 0.0047950309202455218 0 0.016564977186748812 0.0048903469335895315 0 0.015728341341149473 0.0047950309202455218 0 0.016564977186748812 0.0048903469335895315 0 0.016073637619347127 0.0042156392235591098 0 0.016564977186748812 0.0048903469335895315 0 0.016073637619347127 0.0042156392235591098 0 0.016926368795703604 0.0040378292435918487 0 0.015728341341149473 0.0047950309202455218 0 0.016073637619347127 0.0042156392235591098 0 0.015183374303444033 0.0043883410910087297 0 0.017845265780970284 0.0058891801526021401 0 0.017402083631790258 0.0047487429804721915 0 0.018071760090572885 0.0050408635493052866 0 0.017006299418910392 0.0058955514003411523 0 0.016564977186748812 0.0048903469335895315 0 0.017402083631790258 0.0047487429804721915 0 0.016564977186748812 0.0048903469335895315 0 0.017402083631790258 0.0047487429804721915 0 0.016926368795703604 0.0040378292435918487 0 0.017402083631790258 0.0047487429804721915 0 0.017676320999008066 0.0035621246688065295 0 0.016926368795703604 0.0040378292435918487 0 0.0175059655158262 0.0046539225360848454 0 0.01834604454803649 0.0036082658342475415 0 0.017402083631790258 0.0047487429804721915 0 0.017676320999008066 0.0035621246688065295 0 0.018468560852656274 0.0036082202795594824 0 0.016926368795703604 0.0040378292435918487 0 0.01719312916980964 0.0033856775324850085 0 0.016492699458236441 0.0034825056958894068 0 0.017676320999008066 0.0035621246688065295 0 0.016926368795703604 0.0040378292435918487 0 0.01719312916980964 0.0033856775324850085 0 0.016974051504666497 0.0028536749131808916 0 0.01719312916980964 0.0033856775324850085 0 0.017642054772720302 0.0028928972228576431 0 0.016974051504666497 0.0028536749131808916 0 0.01719312916980964 0.0033856775324850085 0 0.016492699458236441 0.0034825056958894068 0 0.017676320999008066 0.0035621246688065295 0 0.017642054772720302 0.0028928972228576431 0 0.018403571950741687 0.0026811516896734244 0 0.017676320999008066 0.0035621246688065295 0 0.01719312916980964 0.0033856775324850085 0 0.017642054772720302 0.0028928972228576431 0 0.016073637619347127 0.0042156392235591098 0 0.015764176487844818 0.0035772749104583672 0 0.015183374303444033 0.0043883410910087297 0 0.016073637619347127 0.0042156392235591098 0 0.016926368795703604 0.0040378292435918487 0 0.016492699458236441 0.0034825056958894068 0 0.016073637619347127 0.0042156392235591098 0 0.015764176487844818 0.0035772749104583672 0 0.016492699458236441 0.0034825056958894068 0 0.015764176487844818 0.0035772749104583672 0 0.016492699458236441 0.0034825056958894068 0 0.016262256169575596 0.0028716675735469947 0 0.016974051504666497 0.0028536749131808916 0 0.016492699458236441 0.0034825056958894068 0 0.016262256169575596 0.0028716675735469947 0 0.015764176487844818 0.0035772749104583672 0 0.016262256169575596 0.0028716675735469947 0 0.015495157548815098 0.002882412477163161 0 0.015764176487844818 0.0035772749104583672 0 0.015495157548815098 0.002882412477163161 0 0.015079281912936662 0.0035766085067605235 0 0.013852434769656457 0.003235003372064451 0 0.014553574486916236 0.0049486713982650355 0 0.014701730293723037 0.0042030568877022946 0 0.015495157548815098 0.002882412477163161 0 0.015050296254882011 0.0030774891058747461 0 0.015079281912936662 0.0035766085067605235 0 0.015495157548815098 0.002882412477163161 0 0.015050296254882011 0.0030774891058747461 0 0.014776921431069203 0.0027037551503815583 0 0.015050296254882011 0.0030774891058747461 0 0.015079281912936662 0.0035766085067605235 0 0.014518392066554277 0.0032109546488569142 0 0.015079281912936662 0.0035766085067605235 0 0.015183374303444033 0.0043883410910087297 0 0.014701730293723037 0.0042030568877022946 0 0.015764176487844818 0.0035772749104583672 0 0.015079281912936662 0.0035766085067605235 0 0.015183374303444033 0.0043883410910087297 0 0.014551088091438926 0.0035735259996802901 0 0.013852434769656457 0.003235003372064451 0 0.014701730293723037 0.0042030568877022946 0 0.015079281912936662 0.0035766085067605235 0 0.014551088091438926 0.0035735259996802901 0 0.014701730293723037 0.0042030568877022946 0 0.014551088091438926 0.0035735259996802901 0 0.014518392066554277 0.0032109546488569142 0 0.013852434769656457 0.003235003372064451 0 0.015079281912936662 0.0035766085067605235 0 0.014551088091438926 0.0035735259996802901 0 0.014518392066554277 0.0032109546488569142 0 0.015050296254882011 0.0030774891058747461 0 0.014518392066554277 0.0032109546488569142 0 0.014776921431069203 0.0027037551503815583 0 0.014518392066554277 0.0032109546488569142 0 0.014257887209083131 0.0029415192973911812 0 0.014776921431069203 0.0027037551503815583 0 0.015358813076317413 0.0021319009142286584 0 0.022766334530176065 -0.0019079693574627931 0 0.015358813076317413 0.0021319009142286584 0 0.013447961794877627 0.0041661947658878581 0 0.014257887209083131 0.0029415192973911812 0 0.013852434769656457 0.003235003372064451 0 0.013527791574657973 0.002365671929013621 0 0.014518392066554277 0.0032109546488569142 0 0.014257887209083131 0.0029415192973911812 0 0.013852434769656457 0.003235003372064451 0 0.022320558444058926 4.0382558256626528e-05 0 0.02180012706298691 0.0004625296416263072 0 0.022049767335018552 0.0010096021016234302 0 0.015358813076317413 0.0021319009142286584 0 0.01261469701226409 0.002188853812943186 0 0.022320558444058926 4.0382558256626528e-05 0 0.02180012706298691 0.0004625296416263072 0 0.022093132203210075 -0.00074871685403193151 0 0.015358813076317413 0.0021319009142286584 0 0.018284508386409527 -0.000315429376574092 0 0.013034266488096092 0.002168511524491355 0 0.013189585363798965 0.0013407206739147373 0 0.012789982175565782 0.0014260535179418153 0 0.012037575800989842 0.0019492189910960093 0 0.012329051342916628 0.002826802292446954 0 0.012195178494981716 0.002861010217469939 0 0.012670390899177566 0.0036460192381885109 0 0.012329051342916628 0.002826802292446954 0 0.012195178494981716 0.002861010217469939 0 0.014553574486916236 0.0049486713982650355 0 0.014704137583532971 0.0051464628259277083 0 0.015183374303444033 0.0043883410910087297 0 0.014553574486916236 0.0049486713982650355 0 0.015183374303444033 0.0043883410910087297 0 0.014701730293723037 0.0042030568877022946 0 0.0015686875840954444 -0.0040317604949765187 0 0.0048993053663666554 -0.0015863263645935295 0 -0.00077588080813368167 -0.00055530451528699944 0 -0.0040429715379723024 -0.0033462054900207307 0 0.0015686875840954444 -0.0040317604949765187 0 -0.00077588080813368167 -0.00055530451528699944 0 -0.0027964478120107274 -0.0056103064030324683 0 -0.0084344837289894344 -0.0038213416558221126 0 0.0031558123214831977 -0.008744544397208379 0 -0.0024368818962707821 -0.0071643010950642591 0 0.0015686875840954444 -0.0040317604949765187 0 0.0031558123214831977 -0.008744544397208379 0 0.0015686875840954444 -0.0040317604949765187 0 0.0048808647371776882 -0.0055706675574682526 0 0.0015686875840954444 -0.0040317604949765187 0 0.0052461942579598046 -0.0034365489859420313 0 0.0048993053663666554 -0.0015863263645935295 0 0.0015686875840954444 -0.0040317604949765187 0 0.0048808647371776882 -0.0055706675574682526 0 0.0052461942579598046 -0.0034365489859420313 0 0.0052461942579598046 -0.0034365489859420313 0 0.0062584262605880799 -0.0021100618931720744 0 0.0048993053663666554 -0.0015863263645935295 0 0.0052461942579598046 -0.0034365489859420313 0 0.0068401152046653523 -0.0030417546195827525 0 0.0062584262605880799 -0.0021100618931720744 0 0.0068401152046653523 -0.0030417546195827525 0 0.0080496455043685862 -0.0016311716332733318 0 0.0062584262605880799 -0.0021100618931720744 0 0.0068401152046653523 -0.0030417546195827525 0 0.0084709025867314436 -0.0037334108589940841 0 0.0080496455043685862 -0.0016311716332733318 0 0.0068401152046653523 -0.0030417546195827525 0 0.0065848945539170901 -0.0044725811126433606 0 0.0084709025867314436 -0.0037334108589940841 0 0.0065848945539170901 -0.0044725811126433606 0 0.0074882275237122507 -0.006657293062167096 0 0.0084709025867314436 -0.0037334108589940841 0 0.0052461942579598046 -0.0034365489859420313 0 0.0068401152046653523 -0.0030417546195827525 0 0.0065848945539170901 -0.0044725811126433606 0 0.0048808647371776882 -0.0055706675574682526 0 0.0052461942579598046 -0.0034365489859420313 0 0.0065848945539170901 -0.0044725811126433606 0 0.0048808647371776882 -0.0055706675574682526 0 0.0065848945539170901 -0.0044725811126433606 0 0.0074882275237122507 -0.006657293062167096 0 0.0031558123214831977 -0.008744544397208379 0 0.0048808647371776882 -0.0055706675574682526 0 0.0074882275237122507 -0.006657293062167096 0 0.0074882275237122507 -0.006657293062167096 0 0.0099794154325613671 -0.0056338968782151761 0 0.0084709025867314436 -0.0037334108589940841 0 0.01079446883121768 -0.0079054139569712106 0 0.0074882275237122507 -0.006657293062167096 0 0.0099794154325613671 -0.0056338968782151761 0 0.010909800004109162 -0.0034819758187828011 0 0.0099794154325613671 -0.0056338968782151761 0 0.0084709025867314436 -0.0037334108589940841 0 0.010909800004109162 -0.0034819758187828011 0 0.0084709025867314436 -0.0037334108589940841 0 0.0083549583014894593 -0.0014485026147703483 0 0.0091084332117561985 -0.0034904453151961218 0 0.010782899526281316 -0.0002123962010622114 0 0.014787405500814633 0.00087088040203887722 0 0.010782899526281316 -0.0002123962010622114 0 0.017845265780970284 0.0058891801526021401 0 0.018071760090572885 0.0050408635493052866 0 0.018778288670423478 0.0050333432865126886 0 0.010782899526281316 -0.0002123962010622114 0 0.01439972609761974 0.0018704974462602417 0 0.018778288670423478 0.0050333432865126886 0 0.018248655841300004 0.0045043046210398105 0 0.018826334158804421 0.0038847137609641191 0 0.017402083631790258 0.0047487429804721915 0 0.018071760090572885 0.0050408635493052866 0 0.018248655841300004 0.0045043046210398105 0 0.018071760090572885 0.0050408635493052866 0 0.018778288670423478 0.0050333432865126886 0 0.018248655841300004 0.0045043046210398105 0 0.017402083631790258 0.0047487429804721915 0 0.018248655841300004 0.0045043046210398105 0 0.01815592604141476 0.0037450820569411608 0 0.01815592604141476 0.0037450820569411608 0 0.018826334158804421 0.0038847137609641191 0 0.018888296276993451 0.0027721497271699135 0 0.01439972609761974 0.0018704974462602417 0 0.019182981127346847 0.0032890414033024088 0 0.018468560852656274 0.0036082202795594824 0 0.01941245309901659 0.0024238673254732388 0 0.018403571950741687 0.0026811516896734244 0 0.017676320999008066 0.0035621246688065295 0 0.018468560852656274 0.0036082202795594824 0 0.018403571950741687 0.0026811516896734244 0 0.01834604454803649 0.0036082658342475415 0 0.019182981127346847 0.0032890414033024088 0 0.018248655841300004 0.0045043046210398105 0 0.01815592604141476 0.0037450820569411608 0 0.018826334158804421 0.0038847137609641191 0 0.0099698446429978081 -0.00015102029110031586 0 0.0093149065623305046 0.00060317333424605578 0 0.0095726839963125761 0.00081694523228272888 0 0.0099698446429978081 -0.00015102029110031586 0 0.0092057630609450169 -0.00041827840030884663 0 0.0093149065623305046 0.00060317333424605578 0 0.0093149065623305046 0.00060317333424605578 0 0.0075873871378038162 0.0005623736174782168 0 0.0067960861010604012 0.001379011689361605 0 0.0092057630609450169 -0.00041827840030884663 0 0.0093149065623305046 0.00060317333424605578 0 0.0085459847717817786 2.9849881832396013e-05 0 0.0093149065623305046 0.00060317333424605578 0 0.0085459847717817786 2.9849881832396013e-05 0 0.0075873871378038162 0.0005623736174782168 0 0.0085459847717817786 2.9849881832396013e-05 0 0.0082207743264014112 -0.000723980724240602 0 0.0075873871378038162 0.0005623736174782168 0 0.0092057630609450169 -0.00041827840030884663 0 0.0085459847717817786 2.9849881832396013e-05 0 0.0082207743264014112 -0.000723980724240602 0 0.01014175703887263 -0.0020010586419483465 0 0.0099698446429978081 -0.00015102029110031586 0 0.0092057630609450169 -0.00041827840030884663 0 0.010782899526281316 -0.0002123962010622114 0 0.0069457770260319381 -0.00048861273168629589 0 0.0080496455043685862 -0.0016311716332733318 0 0.0059633091000317199 -0.00024758085713049734 0 0.0060627970028678006 -0.00099141899966618033 0 0.01014175703887263 -0.0020010586419483465 0 0.0092057630609450169 -0.00041827840030884663 0 0.0082207743264014112 -0.000723980724240602 0 0.0080496455043685862 -0.0016311716332733318 0 0.0060627970028678006 -0.00099141899966618033 0 0.0062584262605880799 -0.0021100618931720744 0 0.0060627970028678006 -0.00099141899966618033 0 0.0062584262605880799 -0.0021100618931720744 0 0.0048993053663666554 -0.0015863263645935295 0 0.0048993053663666554 -0.0015863263645935295 0 0.0038071928994306216 0.00028514288246641489 0 0.0024854501693665578 -0.0011557833722404813 0 0.0060627970028678006 -0.00099141899966618033 0 0.0048993053663666554 -0.0015863263645935295 0 0.0038071928994306216 0.00028514288246641489 0 0.0059633091000317199 -0.00024758085713049734 0 0.0060627970028678006 -0.00099141899966618033 0 0.0055269631826811083 0.0002911798010692021 0 0.0060405356000449361 -0.00090435334482310669 0 0.0046855422602468128 0.00023617796208365909 0 0.0059633091000317199 -0.00024758085713049734 0 0.0055959829262605173 0.00091530943789002914 0 0.0055269631826811083 0.0002911798010692021 0 0.0082207743264014112 -0.000723980724240602 0 0.0075873871378038162 0.0005623736174782168 0 0.0055959829262605173 0.00091530943789002914 0 0.0069457770260319381 -0.00048861273168629589 0 0.0056686565399976362 0.00081787294173880855 0 0.0075873871378038162 0.0005623736174782168 0 0.0055959829262605173 0.00091530943789002914 0 0.0067960861010604012 0.001379011689361605 0 0.0029272600954633964 0.0015248953001491964 0 0.0046855422602468128 0.00023617796208365909 0 0.0037221007798393345 0.0015168759261214189 0 0.0055959829262605173 0.00091530943789002914 0 0.0055269631826811083 0.0002911798010692021 0 0.0021642638310456499 0.0015035285827870585 0 0.0038071928994306216 0.00028514288246641489 0 0.0025123554400769284 0.00020659235263371773 0 0.0038071928994306216 0.00028514288246641489 0 0.0025123554400769284 0.00020659235263371773 0 0.0024854501693665578 -0.0011557833722404813 0 0.0046569558794888541 -0.0015151521957113476 0 0.00090094272593429473 -0.00089171744693230311 0 0.011526180179001326 -6.6503039760491283e-05 0 0.010293712068267213 0.00068282241414601005 0 0.010622350411905337 -3.6807348904413582e-05 0 0.0041538984431612105 0.0044185682348115082 0 0.0045767012055432845 0.0027679165642559758 0 0.0063586310841707372 0.0026905387539099828 0 0.0070537224667724481 0.0026201514982776828 0 0.0085399870960670126 0.0015081558957977491 0 0.011526180179001326 -6.6503039760491283e-05 0 0.010622350411905337 -3.6807348904413582e-05 0 0.011022341218839223 -0.00045028486330984382 0 0.0033932320208875442 0.0032274783254652183 0 0.0041538984431612105 0.0044185682348115082 0 0.0045767012055432845 0.0027679165642559758 0 0.0037221007798393345 0.0015168759261214189 0 0.0033932320208875442 0.0032274783254652183 0 0.0045767012055432845 0.0027679165642559758 0 0.0037221007798393345 0.0015168759261214189 0 0.0055959829262605173 0.00091530943789002914 0 0.0053295244908234292 0.0020265272557088007 0 0.0037221007798393345 0.0015168759261214189 0 0.0045767012055432845 0.0027679165642559758 0 0.0053295244908234292 0.0020265272557088007 0 0.0045767012055432845 0.0027679165642559758 0 0.0053295244908234292 0.0020265272557088007 0 0.0063586310841707372 0.0026905387539099828 0 0.0093149065623305046 0.00060317333424605578 0 0.0063586310841707372 0.0026905387539099828 0 0.0067960861010604012 0.001379011689361605 0 0.009241111308061321 0.00071399953338157512 0 0.0085399870960670126 0.0015081558957977491 0 0.0055959829262605173 0.00091530943789002914 0 0.0053295244908234292 0.0020265272557088007 0 0.0067960861010604012 0.001379011689361605 0 0.0053295244908234292 0.0020265272557088007 0 0.0063586310841707372 0.0026905387539099828 0 0.0067960861010604012 0.001379011689361605 0 0.010293712068267213 0.00068282241414601005 0 0.0097577700187582214 0.0002331172810087968 0 0.0096955045166515607 0.00062559098793959589 0 0.010622350411905337 -3.6807348904413582e-05 0 0.0097577700187582214 0.0002331172810087968 0 0.010484159984962197 -0.00071087174712124602 0 0.018784924875063471 0.0021048784059271319 0 0.02003923367491011 0.00046851525742961156 0 0.010293712068267213 0.00068282241414601005 0 0.010622350411905337 -3.6807348904413582e-05 0 0.0097577700187582214 0.0002331172810087968 0 0.026400836653393919 0.003233078254189308 0 0.028037890816736383 0.0038346411302614563 0 0.026118833427955311 0.0061981855307313071 0 0.026400836653393919 0.003233078254189308 0 0.028037890816736383 0.0038346411302614563 0 0.027913165601793483 0.0018154511637925356 0 0.0097577700187582214 0.0002331172810087968 0 0.0096955045166515607 0.00062559098793959589 0 0.0095726839963125761 0.00081694523228272888 0 0.018784924875063471 0.0021048784059271319 0 0.019182981127346847 0.0032890414033024088 0 0.0093149065623305046 0.00060317333424605578 0 0.010293712068267213 0.00068282241414601005 0 0.0096955045166515607 0.00062559098793959589 0 0.0093149065623305046 0.00060317333424605578 0 0.0096955045166515607 0.00062559098793959589 0 0.0095726839963125761 0.00081694523228272888 0 0.023210493649251301 0.0021027444834971066 0 0.019182981127346847 0.0032890414033024088 0 0.019518639754065002 0.00068725710399241996 0 0.01941245309901659 0.0024238673254732388 0 0.018595320685246254 0.0014726173248417549 0 0.01941245309901659 0.0024238673254732388 0 0.018403571950741687 0.0026811516896734244 0 0.018595320685246254 0.0014726173248417549 0 0.018403571950741687 0.0026811516896734244 0 0.018595320685246254 0.0014726173248417549 0 0.017598403919471182 0.0020504223775870065 0 0.019518639754065002 0.00068725710399241996 0 0.018595320685246254 0.0014726173248417549 0 0.018701860771772622 -0.00012722871822353789 0 0.018595320685246254 0.0014726173248417549 0 0.018701860771772622 -0.00012722871822353789 0 0.017661243297690189 0.00083959277770656463 0 0.019518639754065002 0.00068725710399241996 0 0.018701860771772622 -0.00012722871822353789 0 0.019501305113111832 -0.00075170541112674037 0 0.019501305113111832 -0.00075170541112674037 0 0.0188364254248393 -0.00091452936903516416 0 0.019476337531125116 -0.0011735513682833269 0 0.018701860771772622 -0.00012722871822353789 0 0.019501305113111832 -0.00075170541112674037 0 0.019476337531125116 -0.0011735513682833269 0 0.018701860771772622 -0.00012722871822353789 0 0.01757705495593307 -0.00062172652973454645 0 0.019476337531125116 -0.0011735513682833269 0 0.022872962041556439 -2.6411001349288684e-05 0 0.025190781705528971 -0.0027616556840996415 0 0.026686905805233797 0.00023141642407962414 0 0.028621486641581075 -0.00069480459766410043 0 0.026958911969676161 -0.0027453196462044246 0 0.026400836653393919 0.003233078254189308 0 0.026686905805233797 0.00023141642407962414 0 0.027913165601793483 0.0018154511637925356 0 0.026686905805233797 0.00023141642407962414 0 0.028621486641581075 -0.00069480459766410043 0 0.027913165601793483 0.0018154511637925356 0 0.023210493649251301 0.0021027444834971066 0 0.022872962041556439 -2.6411001349288684e-05 0 0.028037890816736383 0.0038346411302614563 0 0.027913165601793483 0.0018154511637925356 0 0.029971211458516785 0.0014313746968158147 0 0.028621486641581075 -0.00069480459766410043 0 0.027913165601793483 0.0018154511637925356 0 0.029971211458516785 0.0014313746968158147 0 0.010622350411905337 -3.6807348904413582e-05 0 0.010484159984962197 -0.00071087174712124602 0 0.011022341218839223 -0.00045028486330984382 0 0.028621486641581075 -0.00069480459766410043 0 0.029971211458516785 0.0014313746968158147 0 0.03067202025089499 -0.0016612965799757487 0 0.028621486641581075 -0.00069480459766410043 0 0.03067202025089499 -0.0016612965799757487 0 0.029432085972451109 -0.0019584441812413671 0 0.028621486641581075 -0.00069480459766410043 0 0.029432085972451109 -0.0019584441812413671 0 0.028397383996732424 -0.0026020922751811694 0 0.029971211458516785 0.0014313746968158147 0 0.03067202025089499 -0.0016612965799757487 0 0.03187404912039811 -0.0010368381715325961 0 0.02003923367491011 0.00046851525742961156 0 0.023291849600762193 -0.0015557633870043378 0 0.030962822380448621 -2.7946884934710871e-05 0 0.023291849600762193 -0.0015557633870043378 0 0.03067202025089499 -0.0016612965799757487 0 0.031742011092120145 -0.0014125998275910079 0 0.031590599486791444 -0.0025142204901566116 0 0.015365208462047262 -0.0013664023831324729 0 0.023291849600762193 -0.0015557633870043378 0 0.012123629051316564 -0.0012735094608793808 0 0.011303880684914282 -0.0017061632020864835 0 0.011428680057880228 -0.00094592754487456501 0 0.010484159984962197 -0.00071087174712124602 0 0.011303880684914282 -0.0017061632020864835 0 0.011428680057880228 -0.00094592754487456501 0 0.010484159984962197 -0.00071087174712124602 0 0.011428680057880228 -0.00094592754487456501 0 0.011022341218839223 -0.00045028486330984382 0 0.011526180179001326 -6.6503039760491283e-05 0 0.011428680057880228 -0.00094592754487456501 0 0.011022341218839223 -0.00045028486330984382 0 0.012075828623830229 -0.00065968564984525099 0 0.011526180179001326 -6.6503039760491283e-05 0 0.011428680057880228 -0.00094592754487456501 0 0.024453147324829477 -0.0049597673916902743 0 0.025347932357597809 -0.0049939061575859141 0 0.025821355882146714 -0.0058228179606170062 0 0.015520118355764466 0.00069291798413004203 0 0.014879077708206798 0.0018975714739188668 0 0.015494206106540526 0.0015221131626421325 0 0.024453147324829477 -0.0049597673916902743 0 0.02507485683458616 -0.0046291891264768478 0 0.024903043340870401 -0.0040962221751939297 0 0.024453147324829477 -0.0049597673916902743 0 0.02507485683458616 -0.0046291891264768478 0 0.025347932357597809 -0.0049939061575859141 0 0.02507485683458616 -0.0046291891264768478 0 0.025401178739035989 -0.0046617789753700383 0 0.025347932357597809 -0.0049939061575859141 0 0.02507485683458616 -0.0046291891264768478 0 0.025401178739035989 -0.0046617789753700383 0 0.02529320924437611 -0.0043592113132522297 0 0.026847247959293125 -0.0049615323254392895 0 0.022766334530176065 -0.0019079693574627931 0 0.025401178739035989 -0.0046617789753700383 0 0.02529320924437611 -0.0043592113132522297 0 0.025551646328881003 -0.0044367778290669256 0 0.025984335900053029 -0.0043876509343495906 0 0.026013390482804929 -0.0044186355897066791 0 0.02595012945955516 -0.0041556757125852254 0 0.025642402070692894 -0.0047790072799003937 0 0.026013390482804929 -0.0044186355897066791 0 0.025821355882146714 -0.0058228179606170062 0 0.025642402070692894 -0.0047790072799003937 0 0.025347932357597809 -0.0049939061575859141 0 0.025821355882146714 -0.0058228179606170062 0 0.025401178739035989 -0.0046617789753700383 0 0.025642402070692894 -0.0047790072799003937 0 0.025551646328881003 -0.0044367778290669256 0 0.025984335900053029 -0.0043876509343495906 0 0.026103373011644788 -0.0039703520049554743 0 0.026347961337335555 -0.0036933214199440685 0 0.026640283228861 -0.0056237507552818538 0 0.022766334530176065 -0.0019079693574627931 0 0.025642402070692894 -0.0047790072799003937 0 0.025808708467428196 -0.0044580472665279817 0 0.025551646328881003 -0.0044367778290669256 0 0.025401178739035989 -0.0046617789753700383 0 0.025642402070692894 -0.0047790072799003937 0 0.025347932357597809 -0.0049939061575859141 0 0.025642402070692894 -0.0047790072799003937 0 0.026013390482804929 -0.0044186355897066791 0 0.025808708467428196 -0.0044580472665279817 0 0.013527791574657973 0.002365671929013621 0 0.014336685132407219 0.0025344370020868043 0 0.014879077708206798 0.0018975714739188668 0 0.014257887209083131 0.0029415192973911812 0 0.013527791574657973 0.002365671929013621 0 0.014336685132407219 0.0025344370020868043 0 0.015520118355764466 0.00069291798413004203 0 0.013527791574657973 0.002365671929013621 0 0.014879077708206798 0.0018975714739188668 0 0.01933405245437066 -0.0019342571368859448 0 0.022766334530176065 -0.0019079693574627931 0 0.014257887209083131 0.0029415192973911812 0 0.014336685132407219 0.0025344370020868043 0 0.014776921431069203 0.0027037551503815583 0 0.014336685132407219 0.0025344370020868043 0 0.014776921431069203 0.0027037551503815583 0 0.014745579429931049 0.0023245975529616676 0 0.014776921431069203 0.0027037551503815583 0 0.014745579429931049 0.0023245975529616676 0 0.015049395038753199 0.0022931700540508399 0 0.014745579429931049 0.0023245975529616676 0 0.014879077708206798 0.0018975714739188668 0 0.015049395038753199 0.0022931700540508399 0 0.014336685132407219 0.0025344370020868043 0 0.014745579429931049 0.0023245975529616676 0 0.014879077708206798 0.0018975714739188668 0 0.014879077708206798 0.0018975714739188668 0 0.015528645203219015 0.0020113943790555549 0 0.015049395038753199 0.0022931700540508399 0 0.014879077708206798 0.0018975714739188668 0 0.015494206106540526 0.0015221131626421325 0 0.015528645203219015 0.0020113943790555549 0 0.015495157548815098 0.002882412477163161 0 0.015528645203219015 0.0020113943790555549 0 0.015049395038753199 0.0022931700540508399 0 0.015495157548815098 0.002882412477163161 0 0.014776921431069203 0.0027037551503815583 0 0.015049395038753199 0.0022931700540508399 0 0.016262256169575596 0.0028716675735469947 0 0.015495157548815098 0.002882412477163161 0 0.016022403370288402 0.0023123601649226305 0 0.015495157548815098 0.002882412477163161 0 0.015528645203219015 0.0020113943790555549 0 0.016022403370288402 0.0023123601649226305 0 0.016262256169575596 0.0028716675735469947 0 0.016022403370288402 0.0023123601649226305 0 0.016706471169879486 0.0021835545042879871 0 0.016974051504666497 0.0028536749131808916 0 0.016262256169575596 0.0028716675735469947 0 0.016706471169879486 0.0021835545042879871 0 0.016022403370288402 0.0023123601649226305 0 0.016706471169879486 0.0021835545042879871 0 0.016114288408375262 0.0016129367422419124 0 0.016706471169879486 0.0021835545042879871 0 0.016114288408375262 0.0016129367422419124 0 0.016948876647279953 0.0014721887853261439 0 0.015528645203219015 0.0020113943790555549 0 0.016022403370288402 0.0023123601649226305 0 0.016114288408375262 0.0016129367422419124 0 0.015494206106540526 0.0015221131626421325 0 0.015528645203219015 0.0020113943790555549 0 0.016114288408375262 0.0016129367422419124 0 0.017642054772720302 0.0028928972228576431 0 0.018403571950741687 0.0026811516896734244 0 0.017598403919471182 0.0020504223775870065 0 0.016974051504666497 0.0028536749131808916 0 0.017642054772720302 0.0028928972228576431 0 0.017598403919471182 0.0020504223775870065 0 0.016974051504666497 0.0028536749131808916 0 0.016706471169879486 0.0021835545042879871 0 0.017598403919471182 0.0020504223775870065 0 0.016706471169879486 0.0021835545042879871 0 0.017598403919471182 0.0020504223775870065 0 0.016948876647279953 0.0014721887853261439 0 0.017661243297690189 0.00083959277770656463 0 0.016760287092450123 0.00077373522368020219 0 0.01757705495593307 -0.00062172652973454645 0 0.018595320685246254 0.0014726173248417549 0 0.017598403919471182 0.0020504223775870065 0 0.017661243297690189 0.00083959277770656463 0 0.017598403919471182 0.0020504223775870065 0 0.017661243297690189 0.00083959277770656463 0 0.016948876647279953 0.0014721887853261439 0 0.017661243297690189 0.00083959277770656463 0 0.016948876647279953 0.0014721887853261439 0 0.016760287092450123 0.00077373522368020219 0 0.015520118355764466 0.00069291798413004203 0 0.016114288408375262 0.0016129367422419124 0 0.016760287092450123 0.00077373522368020219 0 0.015520118355764466 0.00069291798413004203 0 0.015494206106540526 0.0015221131626421325 0 0.016114288408375262 0.0016129367422419124 0 0.016114288408375262 0.0016129367422419124 0 0.016948876647279953 0.0014721887853261439 0 0.016760287092450123 0.00077373522368020219 0 0.01933405245437066 -0.0019342571368859448 0 0.019869807053275599 -0.0019209923146668243 0 0.015520118355764466 0.00069291798413004203 0 0.016760287092450123 0.00077373522368020219 0 0.01757705495593307 -0.00062172652973454645 0 0.021935553102501941 -0.0032238995907268647 0 0.023698104875382115 -0.0025605246528819969 0 0.024903043340870401 -0.0040962221751939297 0 0.024453147324829477 -0.0049597673916902743 0 0.021935553102501941 -0.0032238995907268647 0 0.024903043340870401 -0.0040962221751939297 0 0.018701860771772622 -0.00012722871822353789 0 0.017661243297690189 0.00083959277770656463 0 0.01757705495593307 -0.00062172652973454645 0 0.019869807053275599 -0.0019209923146668243 0 0.019374125772694383 -0.0011860075837099003 0 0.021935553102501941 -0.0032238995907268647 0 0.021626302025372385 -0.00014996480344498089 0 0.019476337531125116 -0.0011735513682833269 0 0.021935553102501941 -0.0032238995907268647 0 0.023698104875382115 -0.0025605246528819969 0 0.021626302025372385 -0.00014996480344498089 0 0.023698104875382115 -0.0025605246528819969 0 0.025030874069804841 -0.0017005376419889464 0 0.021626302025372385 -0.00014996480344498089 0 0.023698104875382115 -0.0025605246528819969 0 0.025030874069804841 -0.0017005376419889464 0 0.024927618987152584 -0.0035346590722409995 0 0.025430360123058906 -0.0018647152061635887 0 0.024927618987152584 -0.0035346590722409995 0 0.025777299054917532 -0.0032884227378673532 0 0.025236857433654017 -0.00181058525096338 0 0.024999370394335418 -0.0033663725178784275 0 0.025430360123058906 -0.0018647152061635887 0 0.025777299054917532 -0.0032884227378673532 0 0.026405764619360516 -0.0026092647105001973 0 0.023698104875382115 -0.0025605246528819969 0 0.024927618987152584 -0.0035346590722409995 0 0.024903043340870401 -0.0040962221751939297 0 0.025777299054917532 -0.0032884227378673532 0 0.024903043340870401 -0.0040962221751939297 0 0.026726716636875654 -0.0034331782603389009 0 0.024927618987152584 -0.0035346590722409995 0 0.025777299054917532 -0.0032884227378673532 0 0.024903043340870401 -0.0040962221751939297 0 0.02507485683458616 -0.0046291891264768478 0 0.02529320924437611 -0.0043592113132522297 0 0.024903043340870401 -0.0040962221751939297 0 0.024903043340870401 -0.0040962221751939297 0 0.027380138075097999 -0.0038971682935652393 0 0.026726716636875654 -0.0034331782603389009 0 0.02529320924437611 -0.0043592113132522297 0 0.024903043340870401 -0.0040962221751939297 0 0.026000365856542581 -0.0042978595662687118 0 0.025067878843167649 -0.0041225951906660114 0 0.026563547491112977 -0.0040915987430228734 0 0.025808708467428196 -0.0044580472665279817 0 0.026000365856542581 -0.0042978595662687118 0 0.025551646328881003 -0.0044367778290669256 0 0.025984335900053029 -0.0043876509343495906 0 0.026013390482804929 -0.0044186355897066791 0 0.026000365856542581 -0.0042978595662687118 0 0.026013390482804929 -0.0044186355897066791 0 0.025808708467428196 -0.0044580472665279817 0 0.026000365856542581 -0.0042978595662687118 0 0.02529320924437611 -0.0043592113132522297 0 0.026000365856542581 -0.0042978595662687118 0 0.025551646328881003 -0.0044367778290669256 0 0.025777299054917532 -0.0032884227378673532 0 0.026726716636875654 -0.0034331782603389009 0 0.026405764619360516 -0.0026092647105001973 0 0.026726716636875654 -0.0034331782603389009 0 0.027263710106902303 -0.0029130574719620442 0 0.026405764619360516 -0.0026092647105001973 0 0.027380138075097999 -0.0038971682935652393 0 0.026726716636875654 -0.0034331782603389009 0 0.027263710106902303 -0.0029130574719620442 0 0.02808279263073812 -0.0024492170867128622 0 0.027380138075097999 -0.0038971682935652393 0 0.027263710106902303 -0.0029130574719620442 0 0.02808279263073812 -0.0024492170867128622 0 0.026735557294653357 -0.0014543840994231199 0 0.027913479456537854 -0.00089943238451761082 0 0.02808279263073812 -0.0024492170867128622 0 0.027263710106902303 -0.0029130574719620442 0 0.026735557294653357 -0.0014543840994231199 0 0.027263710106902303 -0.0029130574719620442 0 0.026405764619360516 -0.0026092647105001973 0 0.026735557294653357 -0.0014543840994231199 0 0.025430360123058906 -0.0018647152061635887 0 0.026405764619360516 -0.0026092647105001973 0 0.026735557294653357 -0.0014543840994231199 0 0.026735557294653357 -0.0014543840994231199 0 0.026464870395562647 -0.00030640580643802654 0 0.027913479456537854 -0.00089943238451761082 0 0.026464870395562647 -0.00030640580643802654 0 0.026772943537596919 0.00037529872500389208 0 0.027913479456537854 -0.00089943238451761082 0 0.026772943537596919 0.00037529872500389208 0 0.027455948097096526 0.0013778589671169419 0 0.027913479456537854 -0.00089943238451761082 0 0.026475959377777799 0.0019102798010312556 0 0.028247957647802777 -0.0010490047095967053 0 0.026772943537596919 0.00037529872500389208 0 0.027455948097096526 0.0013778589671169419 0 0.026266432883150309 0.0013748478450974501 0 0.033604332337365261 -0.001024728348620667 0 0.033622550686835825 -0.0024818621365457856 0 0.033756370889611968 -0.00075169892111161621 0 0.027992590233047263 -0.00041661387705386094 0 0.029451663469697929 0.00036898658031951203 0 0.026772943537596919 0.00037529872500389208 0 0.025961506890740397 -0.00035129764277755729 0 0.026266432883150309 0.0013748478450974501 0 0.033604332337365261 -0.001024728348620667 0 0.033622550686835825 -0.0024818621365457856 0 0.03275483215079629 -0.0015439938352777873 0 0.026464870395562647 -0.00030640580643802654 0 0.026772943537596919 0.00037529872500389208 0 0.025961506890740397 -0.00035129764277755729 0 0.025236857433654017 -0.00181058525096338 0 0.027992590233047263 -0.00041661387705386094 0 0.025430360123058906 -0.0018647152061635887 0 0.026735557294653357 -0.0014543840994231199 0 0.025746839139962448 -0.00035039204048640908 0 0.026735557294653357 -0.0014543840994231199 0 0.026464870395562647 -0.00030640580643802654 0 0.025746839139962448 -0.00035039204048640908 0 0.026483595861806267 -0.00045816347341241174 0 0.027992590233047263 -0.00041661387705386094 0 0.033622550686835825 -0.0024818621365457856 0 0.031036814492586981 -0.0028653202476881089 0 0.031640219688518822 -0.0018575483944980381 0 0.027992590233047263 -0.00041661387705386094 0 0.026305735023479628 -0.0015129284625311299 0 0.025030874069804841 -0.0017005376419889464 0 0.025193640014883431 0.00027299648942533204 0 0.021626302025372385 -0.00014996480344498089 0 0.031640219688518822 -0.0018575483944980381 0 0.029871160447928796 -0.0020421246154726748 0 0.0300461415280017 -0.0012089410336017677 0 0.031640219688518822 -0.0018575483944980381 0 0.030590039922836237 -0.00049844289073596208 0 0.0300461415280017 -0.0012089410336017677 0 0.031640219688518822 -0.0018575483944980381 0 0.032123012452487602 -0.00077786553828943883 0 0.030720337416566879 -0.00060178785617044563 0 0.031036814492586981 -0.0028653202476881089 0 0.031640219688518822 -0.0018575483944980381 0 0.029871160447928796 -0.0020421246154726748 0 0.031000073923669855 -0.001160815652520185 0 0.033243174586918951 -0.0013532251976432102 0 0.033622550686835825 -0.0024818621365457856 0 0.031640219688518822 -0.0018575483944980381 0 0.03275483215079629 -0.0015439938352777873 0 0.033604332337365261 -0.001024728348620667 0 0.03275483215079629 -0.0015439938352777873 0 0.032123012452487602 -0.00077786553828943883 0 0.031640219688518822 -0.0018575483944980381 0 0.03275483215079629 -0.0015439938352777873 0 0.032123012452487602 -0.00077786553828943883 0 0.033839923149902036 -0.00074788595175227074 0 0.034099089805659795 -0.00078472875101658589 0 0.033852740499401596 -0.00090916525855643383 0 0.033606349081942655 -0.00096451324518950147 0 0.032846134660481377 -0.00077873327858752261 0 0.033839923149902036 -0.00074788595175227074 0 0.033852740499401596 -0.00090916525855643383 0 0.033741738661600643 -0.00082228885407094831 0 0.034143324193881039 -0.00083422012051522648 0 0.034099089805659795 -0.00078472875101658589 0 0.033852740499401596 -0.00090916525855643383 0 0.032846134660481377 -0.00077873327858752261 0 0.033243174586918951 -0.0013532251976432102 0 0.038686961221473914 -0.003894469412987784 0 0.042638531220053962 -0.002820186531851955 0 0.030590039922836237 -0.00049844289073596208 0 0.0300461415280017 -0.0012089410336017677 0 0.029918819807591923 -0.00041200746329098689 0 0.035498275664656409 -0.00255510337199307 0 0.036026392065042351 -0.0032412097231516081 0 0.034491610212766942 -0.0030514833768737508 0 0.038686961221473914 -0.003894469412987784 0 0.03229176854599014 -0.0034050839872387731 0 0.033243174586918951 -0.0013532251976432102 0 0.03229176854599014 -0.0034050839872387731 0 0.038686961221473914 -0.003894469412987784 0 0.033243174586918951 -0.0013532251976432102 0 0.048934634876249522 -0.0052181476349803168 0 0.049083826119485301 -0.0049042002364007905 0 0.049311361630714604 -0.0050713043384060658 0 0.049083826119485301 -0.0049042002364007905 0 0.049311361630714604 -0.0050713043384060658 0 0.049486240296467636 -0.0047170542050849118 0 0.026552207831922185 0.0029017095546296353 0 0.026883171346248468 0.0022284822549949504 0 0.026266432883150309 0.0013748478450974501 0 0.049311361630714604 -0.0050713043384060658 0 0.049652362505369502 -0.0048999706914304875 0 0.049486240296467636 -0.0047170542050849118 0 0.038266557720451518 -0.00076905779604651957 0 0.029451663469697929 0.00036898658031951203 0 0.033852740499401596 -0.00090916525855643383 0 0.033768490754753883 -0.00089385316354680371 0 0.033741738661600643 -0.00082228885407094831 0 0.042638531220053962 -0.002820186531851955 0 0.038266557720451518 -0.00076905779604651957 0 0.026475959377777799 0.0019102798010312556 0 0.035057587552218654 0.0019665226316050253 0 0.026552207831922185 0.0029017095546296353 0 0.026883171346248468 0.0022284822549949504 0 0.027242361517007391 0.0032336098154668279 0 0.038266557720451518 -0.00076905779604651957 0 0.035057587552218654 0.0019665226316050253 0 0.027782592434258246 0.0015235387341838123 0 0.027545907440689733 0.0038565111079532886 0 0.028742940788931536 0.0028678234684139186 0 0.026883171346248468 0.0022284822549949504 0 0.027455948097096526 0.0013778589671169419 0 0.027242361517007391 0.0032336098154668279 0 0.026883171346248468 0.0022284822549949504 0 0.027455948097096526 0.0013778589671169419 0 0.026266432883150309 0.0013748478450974501 0 0.033768490754753883 -0.00089385316354680371 0 0.033756370889611968 -0.00075169892111161621 0 0.033741738661600643 -0.00082228885407094831 0 0.033604332337365261 -0.001024728348620667 0 0.033839923149902036 -0.00074788595175227074 0 0.033741738661600643 -0.00082228885407094831 0 0.033604332337365261 -0.001024728348620667 0 0.033756370889611968 -0.00075169892111161621 0 0.033741738661600643 -0.00082228885407094831 0 0.032209679045845749 -0.0039464676743555865 0 0.031774927229113674 -0.004199700186476584 0 0.031490385750108867 -0.0033789086941655136 0 0.032848465104518956 -0.0034024314361404866 0 0.032209679045845749 -0.0039464676743555865 0 0.031490385750108867 -0.0033789086941655136 0 0.032848465104518956 -0.0034024314361404866 0 0.031742011092120145 -0.0014125998275910079 0 0.031590599486791444 -0.0025142204901566116 0 0.032848465104518956 -0.0034024314361404866 0 0.031590599486791444 -0.0025142204901566116 0 0.031490385750108867 -0.0033789086941655136 0 0.026717017599151915 -0.0028192842918304119 0 0.023291849600762193 -0.0015557633870043378 0 0.031590599486791444 -0.0025142204901566116 0 0.031490385750108867 -0.0033789086941655136 0 0.029989684515137671 -0.0028578040471836626 0 0.031490385750108867 -0.0033789086941655136 0 0.029989684515137671 -0.0028578040471836626 0 0.029283392014066004 -0.0045649424641511461 0 0.03067202025089499 -0.0016612965799757487 0 0.031590599486791444 -0.0025142204901566116 0 0.029989684515137671 -0.0028578040471836626 0 0.03067202025089499 -0.0016612965799757487 0 0.029989684515137671 -0.0028578040471836626 0 0.029432085972451109 -0.0019584441812413671 0 0.029989684515137671 -0.0028578040471836626 0 0.029432085972451109 -0.0019584441812413671 0 0.028397383996732424 -0.0026020922751811694 0 0.029989684515137671 -0.0028578040471836626 0 0.029283392014066004 -0.0045649424641511461 0 0.028397383996732424 -0.0026020922751811694 0 0.031774927229113674 -0.004199700186476584 0 0.031297660670584114 -0.0037698309107670556 0 0.031261042046210726 -0.004220762981645752 0 0.031774927229113674 -0.004199700186476584 0 0.031490385750108867 -0.0033789086941655136 0 0.031297660670584114 -0.0037698309107670556 0 0.031417136996483033 -0.0034837925919810192 0 0.030164744968474058 -0.0041820549986230429 0 0.029382057723708957 -0.0034793682890610967 0 0.025190781705528971 -0.0027616556840996415 0 0.027241660834608182 -0.0055348810455069456 0 0.027993584534918882 -0.0038559650947217259 0 0.027060764762533759 -0.0027315102410215173 0 0.030164744968474058 -0.0041820549986230429 0 0.029382057723708957 -0.0034793682890610967 0 0.031297660670584114 -0.0037698309107670556 0 0.030771057596226937 -0.0040503128655572703 0 0.031261042046210726 -0.004220762981645752 0 0.029283392014066004 -0.0045649424641511461 0 0.027241660834608182 -0.0055348810455069456 0 0.027993584534918882 -0.0038559650947217259 0 0.027993584534918882 -0.0038559650947217259 0 0.028397383996732424 -0.0026020922751811694 0 0.027060764762533759 -0.0027315102410215173 0 0.029283392014066004 -0.0045649424641511461 0 0.027993584534918882 -0.0038559650947217259 0 0.028397383996732424 -0.0026020922751811694 0 0.028205953145320529 -0.0025657085408461022 0 0.025190781705528971 -0.0027616556840996415 0 0.028621486641581075 -0.00069480459766410043 0 0.028397383996732424 -0.0026020922751811694 0 0.026958911969676161 -0.0027453196462044246 0 0.031036814492586981 -0.0028653202476881089 0 0.028296814505248929 -0.0031554628697028396 0 0.029871160447928796 -0.0020421246154726748 0 0.026305735023479628 -0.0015129284625311299 0 0.025190781705528971 -0.0027616556840996415 0 0.021626302025372385 -0.00014996480344498089 0 0.0188364254248393 -0.00091452936903516416 0 0.019476337531125116 -0.0011735513682833269 0 0.028213057017207162 -0.0012385567282026727 0 0.029871160447928796 -0.0020421246154726748 0 0.0300461415280017 -0.0012089410336017677 0 0.028213057017207162 -0.0012385567282026727 0 0.0300461415280017 -0.0012089410336017677 0 0.029918819807591923 -0.00041200746329098689 0 0.028213057017207162 -0.0012385567282026727 0 0.028296814505248929 -0.0031554628697028396 0 0.029871160447928796 -0.0020421246154726748 0 0.029382057723708957 -0.0034793682890610967 0 0.03229176854599014 -0.0034050839872387731 0 0.031487888993147133 -0.0050308556897030333 0 0.031427090928777636 -0.0050087213356064678 0 0.031388521820944884 -0.0050289477224948215 0 0.03229176854599014 -0.0034050839872387731 0 0.030973549517110573 -0.0045083450007093332 0 0.030457716126418809 -0.0042181951452554042 0 0.031776879370454203 -0.0035761904763724236 0 0.030413294457237477 -0.0033991239422690171 0 0.031529200747495351 -0.0050046972701587216 0 0.031487888993147133 -0.0050308556897030333 0 0.031427090928777636 -0.0050087213356064678 0 0.038686961221473914 -0.003894469412987784 0 0.04035783843631497 -0.005280717567089757 0 0.031529200747495351 -0.0050046972701587216 0 0.031427090928777636 -0.0050087213356064678 0 0.031362343569547493 -0.005033843354860376 0 0.048934634876249522 -0.0052181476349803168 0 0.049083826119485301 -0.0049042002364007905 0 0.048764438977732458 -0.0049156477875537024 0 0.031427090928777636 -0.0050087213356064678 0 0.031362343569547493 -0.005033843354860376 0 0.031399717373528986 -0.0049663360610022111 0 0.031362343569547493 -0.005033843354860376 0 0.031399717373528986 -0.0049663360610022111 0 0.031539564396598357 -0.0051892893601146409 0 0.031399717373528986 -0.0049663360610022111 0 0.031593687288109025 -0.0049821253382410684 0 0.031539564396598357 -0.0051892893601146409 0 0.031399717373528986 -0.0049663360610022111 0 0.031458176966377718 -0.0048010704653628127 0 0.031593687288109025 -0.0049821253382410684 0 0.030973549517110573 -0.0045083450007093332 0 0.031502503534917507 -0.0046298286935942254 0 0.031458176966377718 -0.0048010704653628127 0 0.031347997629353308 -0.0046825917429420827 0 0.031524617488147784 -0.0046204584000143992 0 0.031399717373528986 -0.0049663360610022111 0 0.031458176966377718 -0.0048010704653628127 0 0.031347997629353308 -0.0046825917429420827 0 0.031427090928777636 -0.0050087213356064678 0 0.031399717373528986 -0.0049663360610022111 0 0.031388521820944884 -0.0050289477224948215 0 0.031328791004385105 -0.0050408875659713227 0 0.030973549517110573 -0.0045083450007093332 0 0.029382057723708957 -0.0034793682890610967 0 0.030973549517110573 -0.0045083450007093332 0 0.030787447769339199 -0.0045336502326188211 0 0.031261042046210726 -0.004220762981645752 0 0.031524617488147784 -0.0046204584000143992 0 0.030771057596226937 -0.0040503128655572703 0 0.030787447769339199 -0.0045336502326188211 0 0.031261042046210726 -0.004220762981645752 0 0.031774927229113674 -0.004199700186476584 0 0.031261042046210726 -0.004220762981645752 0 0.031524617488147784 -0.0046204584000143992 0 0.031774927229113674 -0.004199700186476584 0 0.031524617488147784 -0.0046204584000143992 0 0.032075898228299468 -0.0048220409109074524 0 0.031593687288109025 -0.0049821253382410684 0 0.031911823078702946 -0.0052392692276287452 0 0.031539564396598357 -0.0051892893601146409 0 0.031458176966377718 -0.0048010704653628127 0 0.031524617488147784 -0.0046204584000143992 0 0.031593687288109025 -0.0049821253382410684 0 0.031593687288109025 -0.0049821253382410684 0 0.032075898228299468 -0.0048220409109074524 0 0.031911823078702946 -0.0052392692276287452 0 0.031524617488147784 -0.0046204584000143992 0 0.031593687288109025 -0.0049821253382410684 0 0.032075898228299468 -0.0048220409109074524 0 0.03271175777235287 -0.0053563242638352531 0 0.032075898228299468 -0.0048220409109074524 0 0.031911823078702946 -0.0052392692276287452 0 0.032667057587522745 -0.0046150540675213509 0 0.031774927229113674 -0.004199700186476584 0 0.032075898228299468 -0.0048220409109074524 0 0.032667057587522745 -0.0046150540675213509 0 0.032209679045845749 -0.0039464676743555865 0 0.031774927229113674 -0.004199700186476584 0 0.032843740145697992 -0.0060649338362195543 0 0.032217451159151235 -0.0056827919936631296 0 0.032061109210631496 -0.0061771608829022063 0 0.03271175777235287 -0.0053563242638352531 0 0.032217451159151235 -0.0056827919936631296 0 0.031911823078702946 -0.0052392692276287452 0 0.031911823078702946 -0.0052392692276287452 0 0.031574331302647418 -0.005577743077507193 0 0.031539564396598357 -0.0051892893601146409 0 0.032217451159151235 -0.0056827919936631296 0 0.031911823078702946 -0.0052392692276287452 0 0.031574331302647418 -0.005577743077507193 0 0.032217451159151235 -0.0056827919936631296 0 0.031574331302647418 -0.005577743077507193 0 0.032061109210631496 -0.0061771608829022063 0 0.048564509784616877 -0.0046537654618360753 0 0.048686819142848982 -0.0043582024197619425 0 0.048303971085552379 -0.0044186097589582855 0 0.040077584983047074 -0.0050939798695909463 0 0.039836671013138349 -0.0051381213467315843 0 0.048564509784616877 -0.0046537654618360753 0 0.04897559484494849 -0.0044044074022862763 0 0.048686819142848982 -0.0043582024197619425 0 0.04035783843631497 -0.005280717567089757 0 0.040077584983047074 -0.0050939798695909463 0 0.031362343569547493 -0.005033843354860376 0 0.031574331302647418 -0.005577743077507193 0 0.031539564396598357 -0.0051892893601146409 0 0.048764438977732458 -0.0049156477875537024 0 0.048564509784616877 -0.0046537654618360753 0 0.048938445217399824 -0.0046745736764251681 0 0.049083826119485301 -0.0049042002364007905 0 0.048764438977732458 -0.0049156477875537024 0 0.048938445217399824 -0.0046745736764251681 0 0.048938445217399824 -0.0046745736764251681 0 0.04897559484494849 -0.0044044074022862763 0 0.049248319811682949 -0.0043992411131382921 0 0.048564509784616877 -0.0046537654618360753 0 0.048938445217399824 -0.0046745736764251681 0 0.04897559484494849 -0.0044044074022862763 0 0.04897559484494849 -0.0044044074022862763 0 0.048945058975708576 -0.0040901514856899399 0 0.048686819142848982 -0.0043582024197619425 0 0.04897559484494849 -0.0044044074022862763 0 0.048945058975708576 -0.0040901514856899399 0 0.04921946348377957 -0.0041247963053437208 0 0.049079077838601132 -0.0037512628607149975 0 0.048945058975708576 -0.0040901514856899399 0 0.049217388907945483 -0.0038839960827011491 0 0.048945058975708576 -0.0040901514856899399 0 0.049217388907945483 -0.0038839960827011491 0 0.04921946348377957 -0.0041247963053437208 0 0.049079077838601132 -0.0037512628607149975 0 0.048759109075880054 -0.0039134418400502621 0 0.048945058975708576 -0.0040901514856899399 0 0.048759109075880054 -0.0039134418400502621 0 0.048945058975708576 -0.0040901514856899399 0 0.048612469007868683 -0.0041830227224519808 0 0.048759109075880054 -0.0039134418400502621 0 0.048612469007868683 -0.0041830227224519808 0 0.048387972277848419 -0.0040746171227704301 0 0.048945058975708576 -0.0040901514856899399 0 0.048612469007868683 -0.0041830227224519808 0 0.048686819142848982 -0.0043582024197619425 0 0.048612469007868683 -0.0041830227224519808 0 0.048686819142848982 -0.0043582024197619425 0 0.048303971085552379 -0.0044186097589582855 0 0.048612469007868683 -0.0041830227224519808 0 0.048303971085552379 -0.0044186097589582855 0 0.048387972277848419 -0.0040746171227704301 0 0.039836671013138349 -0.0051381213467315843 0 0.042465115170951077 -0.0057548356369008583 0 0.048387972277848419 -0.0040746171227704301 0 0.047968366134625157 -0.0042077791110042154 0 0.047928362295635983 -0.0042340188455161727 0 0.048303971085552379 -0.0044186097589582855 0 0.048387972277848419 -0.0040746171227704301 0 0.047928362295635983 -0.0042340188455161727 0 0.044963838758842974 -0.0037363296029784259 0 0.042465115170951077 -0.0057548356369008583 0 0.032843740145697992 -0.0060649338362195543 0 0.032061109210631496 -0.0061771608829022063 0 0.032575280991219521 -0.0067222304080893054 0 0.049797321637562925 -0.0045232018411070982 0 0.049486240296467636 -0.0047170542050849118 0 0.049516141717718391 -0.0043974371921199707 0 0.049797321637562925 -0.0045232018411070982 0 0.049516141717718391 -0.0043974371921199707 0 0.04974145770190367 -0.0042841786043890133 0 0.042478458037191427 -0.0012037330241155379 0 0.042241183129849584 -0.0013215024480509473 0 0.042549920180239266 -0.00231933935925141 0 0.044382463035986683 0.0017399944793766271 0 0.044374016671402519 0.0017048744670174628 0 0.044313037875316513 0.001762791952960682 0 0.042478458037191427 -0.0012037330241155379 0 0.042241183129849584 -0.0013215024480509473 0 0.0419830528610503 -0.0003260599319294542 0 0.042462073948727343 -9.2891305026265343e-05 0 0.042478458037191427 -0.0012037330241155379 0 0.0419830528610503 -0.0003260599319294542 0 0.044382463035986683 0.0017399944793766271 0 0.044267099881908877 0.0018154327562359815 0 0.044313037875316513 0.001762791952960682 0 0.043682484118022114 0.00016791340140097301 0 0.035057587552218654 0.0019665226316050253 0 0.038266557720451518 -0.00076905779604651957 0 0.046855720755756808 -0.0034244669767079469 0 0.049652362505369502 -0.0048999706914304875 0 0.049797321637562925 -0.0045232018411070982 0 0.049486240296467636 -0.0047170542050849118 0 0.049083826119485301 -0.0049042002364007905 0 0.049486240296467636 -0.0047170542050849118 0 0.049231157598955494 -0.0046401937578840827 0 0.049083826119485301 -0.0049042002364007905 0 0.048938445217399824 -0.0046745736764251681 0 0.049231157598955494 -0.0046401937578840827 0 0.048938445217399824 -0.0046745736764251681 0 0.049231157598955494 -0.0046401937578840827 0 0.049248319811682949 -0.0043992411131382921 0 0.049231157598955494 -0.0046401937578840827 0 0.049248319811682949 -0.0043992411131382921 0 0.049516141717718391 -0.0043974371921199707 0 0.049486240296467636 -0.0047170542050849118 0 0.049231157598955494 -0.0046401937578840827 0 0.049516141717718391 -0.0043974371921199707 0 0.049248319811682949 -0.0043992411131382921 0 0.049516141717718391 -0.0043974371921199707 0 0.049443923758083437 -0.004124750577054536 0 0.049516141717718391 -0.0043974371921199707 0 0.049443923758083437 -0.004124750577054536 0 0.049689302823201595 -0.0041045408961427211 0 0.04897559484494849 -0.0044044074022862763 0 0.049248319811682949 -0.0043992411131382921 0 0.04921946348377957 -0.0041247963053437208 0 0.049248319811682949 -0.0043992411131382921 0 0.049443923758083437 -0.004124750577054536 0 0.04921946348377957 -0.0041247963053437208 0 0.049443923758083437 -0.004124750577054536 0 0.04921946348377957 -0.0041247963053437208 0 0.04945205982849625 -0.0038398624837672961 0 0.049217388907945483 -0.0038839960827011491 0 0.04921946348377957 -0.0041247963053437208 0 0.04945205982849625 -0.0038398624837672961 0 0.049443923758083437 -0.004124750577054536 0 0.04945205982849625 -0.0038398624837672961 0 0.049676664991333185 -0.0038995313138803995 0 0.049443923758083437 -0.004124750577054536 0 0.049689302823201595 -0.0041045408961427211 0 0.049676664991333185 -0.0038995313138803995 0 0.049901286080615365 -0.0037367564356718536 0 0.049676664991333185 -0.0038995313138803995 0 0.049843394957099496 -0.0039425507980962986 0 0.049689302823201595 -0.0041045408961427211 0 0.049843394957099496 -0.0039425507980962986 0 0.049962295555922596 -0.0041078620979550793 0 0.049901286080615365 -0.0037367564356718536 0 0.049995992314022637 -0.0038757430895491884 0 0.049843394957099496 -0.0039425507980962986 0 0.049995992314022637 -0.0038757430895491884 0 0.049843394957099496 -0.0039425507980962986 0 0.049962295555922596 -0.0041078620979550793 0 0.049218702729397289 -0.0045662100058575395 0 0.046427709274410742 -0.001889864070329101 0 0.049689302823201595 -0.0041045408961427211 0 0.049676664991333185 -0.0038995313138803995 0 0.049843394957099496 -0.0039425507980962986 0 0.046855720755756808 -0.0034244669767079469 0 0.046427709274410742 -0.001889864070329101 0 0.049689302823201595 -0.0041045408961427211 0 0.04974145770190367 -0.0042841786043890133 0 0.049962295555922596 -0.0041078620979550793 0 0.049516141717718391 -0.0043974371921199707 0 0.049689302823201595 -0.0041045408961427211 0 0.04974145770190367 -0.0042841786043890133 0 0.049797321637562925 -0.0045232018411070982 0 0.04974145770190367 -0.0042841786043890133 0 0.049962295555922596 -0.0041078620979550793 0 0.044382463035986683 0.0017399944793766271 0 0.044374016671402519 0.0017048744670174628 0 0.044492205615644549 0.0016228936199923409 0 0.043682484118022114 0.00016791340140097301 0 0.046427709274410742 -0.001889864070329101 0 0.044374016671402519 0.0017048744670174628 0 0.044492205615644549 0.0016228936199923409 0 0.044430181668054756 0.0016448278171172172 0 0.047406678715198686 -0.000942609926887499 0 0.046427709274410742 -0.001889864070329101 0 0.04453597159385448 0.00154331872200841 0 0.044492205615644549 0.0016228936199923409 0 0.044471429867504582 0.0015926521684675879 0 0.050113886179892743 -0.0036937857747130266 0 0.049995992314022637 -0.0038757430895491884 0 0.049957740843827994 -0.0040644963474459521 0 0.044492205615644549 0.0016228936199923409 0 0.044430181668054756 0.0016448278171172172 0 0.044471429867504582 0.0015926521684675879 0 0.04453597159385448 0.00154331872200841 0 0.044510621567311455 0.0015562977983205027 0 0.044471429867504582 0.0015926521684675879 0 0.044504172880712303 0.0015447002527176859 0 0.044471429867504582 0.0015926521684675879 0 0.044394859639915671 0.00163957340893212 0 0.044510621567311455 0.0015562977983205027 0 0.044504172880712303 0.0015447002527176859 0 0.044471429867504582 0.0015926521684675879 0 0.044504172880712303 0.0015447002527176859 0 0.044394859639915671 0.00163957340893212 0 0.044287240415263621 0.0016546896683797801 0 0.044430181668054756 0.0016448278171172172 0 0.044471429867504582 0.0015926521684675879 0 0.044394859639915671 0.00163957340893212 0 0.044394859639915671 0.00163957340893212 0 0.044287240415263621 0.0016546896683797801 0 0.04431115259358262 0.0016909908179686137 0 0.044346430087226975 0.0017686487678722322 0 0.043498840279110502 0.0017229523216106737 0 0.044287240415263621 0.0016546896683797801 0 0.043870013974789304 0.0023785841949250427 0 0.043796225979287194 0.0019641892216788223 0 0.044287240415263621 0.0016546896683797801 0 0.044233609206789398 0.001724610083335417 0 0.04431115259358262 0.0016909908179686137 0 0.044233609206789398 0.001724610083335417 0 0.04431115259358262 0.0016909908179686137 0 0.044287628295458535 0.0017405964322836811 0 0.044430181668054756 0.0016448278171172172 0 0.044394859639915671 0.00163957340893212 0 0.044363045241388531 0.0016801904711136509 0 0.044394859639915671 0.00163957340893212 0 0.044363045241388531 0.0016801904711136509 0 0.04431115259358262 0.0016909908179686137 0 0.044363045241388531 0.0016801904711136509 0 0.04431115259358262 0.0016909908179686137 0 0.044287628295458535 0.0017405964322836811 0 0.044374016671402519 0.0017048744670174628 0 0.044430181668054756 0.0016448278171172172 0 0.044363045241388531 0.0016801904711136509 0 0.044374016671402519 0.0017048744670174628 0 0.044363045241388531 0.0016801904711136509 0 0.044287628295458535 0.0017405964322836811 0 0.044374016671402519 0.0017048744670174628 0 0.044313037875316513 0.001762791952960682 0 0.044287628295458535 0.0017405964322836811 0 0.044313037875316513 0.001762791952960682 0 0.044287628295458535 0.0017405964322836811 0 0.04425064003672758 0.0017932979015682091 0 0.044233609206789398 0.001724610083335417 0 0.044287628295458535 0.0017405964322836811 0 0.044191150424388148 0.0017760450999265687 0 0.044287628295458535 0.0017405964322836811 0 0.044191150424388148 0.0017760450999265687 0 0.04425064003672758 0.0017932979015682091 0 0.043870013974789304 0.0023785841949250427 0 0.043657217807674294 0.0027964184675838225 0 0.0433500471814895 0.0029239995417697099 0 0.043498840279110502 0.0017229523216106737 0 0.038199118761333681 0.0038422130638965215 0 0.030696455146598058 0.004381203897883843 0 0.028996690445053843 0.0045827595755129 0 0.029514628460364241 0.0036628466860627088 0 0.038199118761333681 0.0038422130638965215 0 0.03664736706788007 0.003211551537492583 0 0.030575768854292626 0.0053198642300937996 0 0.030696455146598058 0.004381203897883843 0 0.028996690445053843 0.0045827595755129 0 0.038199118761333681 0.0038422130638965215 0 0.03757130221812973 0.0040385792237415744 0 0.030696455146598058 0.004381203897883843 0 0.029514628460364241 0.0036628466860627088 0 0.030259470564696904 0.0032252071271314541 0 0.035057587552218654 0.0019665226316050253 0 0.03664736706788007 0.003211551537492583 0 0.028529033051243029 0.003757089586658738 0 0.028996690445053843 0.0045827595755129 0 0.029514628460364241 0.0036628466860627088 0 0.027545907440689733 0.0038565111079532886 0 0.028529033051243029 0.003757089586658738 0 0.028996690445053843 0.0045827595755129 0 0.044267099881908877 0.0018154327562359815 0 0.044313037875316513 0.001762791952960682 0 0.04425064003672758 0.0017932979015682091 0 0.033128713966234409 -0.00096468761478817402 0 0.033021550685976016 -0.0014774676997081195 0 0.032478108205747661 -0.0011530448613515526 0 0.033128713966234409 -0.00096468761478817402 0 0.032478108205747661 -0.0011530448613515526 0 0.032498063590813822 -0.00059311006159887302 0 0.043282916229840061 0.0029103740349372552 0 0.042930199010180262 0.0037693334438930436 0 0.042674157641444499 0.0032497793031916787 0 0.0433500471814895 0.0029239995417697099 0 0.043200210699905449 0.0035293098464303837 0 0.043458811412369604 0.0031810647166905454 0 0.0433500471814895 0.0029239995417697099 0 0.043174671178596448 0.0034537992422433504 0 0.043657217807674294 0.0027964184675838225 0 0.043458811412369604 0.0031810647166905454 0 0.0433500471814895 0.0029239995417697099 0 0.043870013974789304 0.0023785841949250427 0 0.0433500471814895 0.0029239995417697099 0 0.043440671850024051 0.0025258052926346898 0 0.042674157641444499 0.0032497793031916787 0 0.043440671850024051 0.0025258052926346898 0 0.043256145023920056 0.00222486571069799 0 0.042674157641444499 0.0032497793031916787 0 0.0433500471814895 0.0029239995417697099 0 0.043440671850024051 0.0025258052926346898 0 0.03893841940707881 0.0010902913319409998 0 0.037580281089865171 4.3445914943398248e-05 0 0.03288885849486585 -0.0017858472237209687 0 0.033021550685976016 -0.0014774676997081195 0 0.033607414924213846 -0.0020155005622825061 0 0.033128713966234409 -0.00096468761478817402 0 0.033021550685976016 -0.0014774676997081195 0 0.033607414924213846 -0.0020155005622825061 0 0.03288885849486585 -0.0017858472237209687 0 0.033021550685976016 -0.0014774676997081195 0 0.032478108205747661 -0.0011530448613515526 0 0.03288885849486585 -0.0017858472237209687 0 0.03305096869805247 -0.0024653850863704595 0 0.033607414924213846 -0.0020155005622825061 0 0.043870013974789304 0.0023785841949250427 0 0.043440671850024051 0.0025258052926346898 0 0.043796225979287194 0.0019641892216788223 0 0.043440671850024051 0.0025258052926346898 0 0.043256145023920056 0.00222486571069799 0 0.043796225979287194 0.0019641892216788223 0 0.043888266445838001 0.0014260304851222688 0 0.044287240415263621 0.0016546896683797801 0 0.043796225979287194 0.0019641892216788223 0 0.043888266445838001 0.0014260304851222688 0 0.043256145023920056 0.00222486571069799 0 0.043796225979287194 0.0019641892216788223 0 0.043923897759694581 -0.00015023992754730208 0 0.037580281089865171 4.3445914943398248e-05 0 0.043923897759694581 -0.00015023992754730208 0 0.041727131953623223 0.00031437197108413235 0 0.050127980605347788 0.0029690696183195769 0 0.050187330156016209 0.002336260249953731 0 0.049647589308963749 0.0025914935820342574 0 0.050447957593092251 0.0020755093201375342 0 0.050127980605347788 0.0029690696183195769 0 0.050187330156016209 0.002336260249953731 0 0.034075858764926886 -0.00328331567444398 0 0.03305096869805247 -0.0024653850863704595 0 0.033607414924213846 -0.0020155005622825061 0 0.049335014601077136 0.0024984799430246393 0 0.049497977165617227 0.0026281431617925922 0 0.050127980605347788 0.0029690696183195769 0 0.049647589308963749 0.0025914935820342574 0 0.04928557684484345 0.0032062593135886203 0 0.049647589308963749 0.0025914935820342574 0 0.048310879578874193 0.0030171351161203679 0 0.04928557684484345 0.0032062593135886203 0 0.049647589308963749 0.0025914935820342574 0 0.048532649536806673 0.0020747055044206919 0 0.048310879578874193 0.0030171351161203679 0 0.047390511433622988 0.0016821847635176198 0 0.048532649536806673 0.0020747055044206919 0 0.048310879578874193 0.0030171351161203679 0 0.031552976013939957 -0.00037475729991289631 0 0.031845557526700548 -0.00082545061949896648 0 0.031630683451920841 -0.00106019189358521 0 0.039800155927123965 0.0014212061739232661 0 0.037820972562293595 0.00013206088769898263 0 0.048310879578874193 0.0030171351161203679 0 0.04928557684484345 0.0032062593135886203 0 0.049054768788073869 0.0041155019794070751 0 0.03288885849486585 -0.0017858472237209687 0 0.03305096869805247 -0.0024653850863704595 0 0.032225270643391965 -0.001702015326764849 0 0.050127980605347788 0.0029690696183195769 0 0.04928557684484345 0.0032062593135886203 0 0.049054768788073869 0.0041155019794070751 0 0.041727131953623223 0.00031437197108413235 0 0.037820972562293595 0.00013206088769898263 0 0.035296816922136563 0.00082485771331788059 0 0.034815070769951793 -0.0005333628416615432 0 0.033537350035508 -0.00028875563586064124 0 0.035296816922136563 0.00082485771331788059 0 0.033667979385999157 0.0011253386289607923 0 0.033537350035508 -0.00028875563586064124 0 0.033667979385999157 0.0011253386289607923 0 0.033537350035508 -0.00028875563586064124 0 0.032761177376742071 -9.8741728073924723e-07 0 0.032160404665328816 0.0017391885020547244 0 0.031552976013939957 -0.00037475729991289631 0 0.032118579946805184 -0.00016752785785305928 0 0.043873645753987785 0.0023522297478018872 0 0.039800155927123965 0.0014212061739232661 0 0.032160404665328816 0.0017391885020547244 0 0.032761177376742071 -9.8741728073924723e-07 0 0.032118579946805184 -0.00016752785785305928 0 0.032160404665328816 0.0017391885020547244 0 0.033667979385999157 0.0011253386289607923 0 0.032761177376742071 -9.8741728073924723e-07 0 0.031552976013939957 -0.00037475729991289631 0 0.031845557526700548 -0.00082545061949896648 0 0.032118579946805184 -0.00016752785785305928 0 0.031845557526700548 -0.00082545061949896648 0 0.032118579946805184 -0.00016752785785305928 0 0.032319330516462269 -0.00079678630170966253 0 0.031845557526700548 -0.00082545061949896648 0 0.032319330516462269 -0.00079678630170966253 0 0.032095250468474938 -0.0010428915291199072 0 0.032319330516462269 -0.00079678630170966253 0 0.032460969831991378 -0.0011863712916021843 0 0.032095250468474938 -0.0010428915291199072 0 0.032319330516462269 -0.00079678630170966253 0 0.032772331442842563 -0.00087026357629967652 0 0.032460969831991378 -0.0011863712916021843 0 0.032761177376742071 -9.8741728073924723e-07 0 0.032118579946805184 -0.00016752785785305928 0 0.032319330516462269 -0.00079678630170966253 0 0.032761177376742071 -9.8741728073924723e-07 0 0.032319330516462269 -0.00079678630170966253 0 0.032772331442842563 -0.00087026357629967652 0 0.030812942880135318 -0.0017552120301769379 0 0.032917717666489009 -0.001452530820250519 0 0.032278645534011906 -0.0013989999763652314 0 0.033537350035508 -0.00028875563586064124 0 0.032772331442842563 -0.00087026357629967652 0 0.032917717666489009 -0.001452530820250519 0 0.033537350035508 -0.00028875563586064124 0 0.032761177376742071 -9.8741728073924723e-07 0 0.032772331442842563 -0.00087026357629967652 0 0.032772331442842563 -0.00087026357629967652 0 0.032460969831991378 -0.0011863712916021843 0 0.032917717666489009 -0.001452530820250519 0 0.032460969831991378 -0.0011863712916021843 0 0.032917717666489009 -0.001452530820250519 0 0.032415454499069803 -0.0012101418688504656 0 0.031949743414291285 -0.0011332561543917032 0 0.032415454499069803 -0.0012101418688504656 0 0.032278645534011906 -0.0013989999763652314 0 0.032917717666489009 -0.001452530820250519 0 0.032415454499069803 -0.0012101418688504656 0 0.032278645534011906 -0.0013989999763652314 0 0.034815070769951793 -0.0005333628416615432 0 0.033537350035508 -0.00028875563586064124 0 0.032917717666489009 -0.001452530820250519 0 0.032193339071062595 -0.0010891147139492725 0 0.032026512089880443 -0.0010775321530127815 0 0.031810060018144085 -0.00088218577883793811 0 0.031949743414291285 -0.0011332561543917032 0 0.032193339071062595 -0.0010891147139492725 0 0.031810060018144085 -0.00088218577883793811 0 0.031949743414291285 -0.0011332561543917032 0 0.032415454499069803 -0.0012101418688504656 0 0.032193339071062595 -0.0010891147139492725 0 0.032460969831991378 -0.0011863712916021843 0 0.032193339071062595 -0.0010891147139492725 0 0.032026512089880443 -0.0010775321530127815 0 0.032460969831991378 -0.0011863712916021843 0 0.032415454499069803 -0.0012101418688504656 0 0.032193339071062595 -0.0010891147139492725 0 0.032460969831991378 -0.0011863712916021843 0 0.032026512089880443 -0.0010775321530127815 0 0.032095250468474938 -0.0010428915291199072 0 0.031845557526700548 -0.00082545061949896648 0 0.032095250468474938 -0.0010428915291199072 0 0.031863622861463707 -0.0010428970860769284 0 0.032026512089880443 -0.0010775321530127815 0 0.032095250468474938 -0.0010428915291199072 0 0.031863622861463707 -0.0010428970860769284 0 0.032026512089880443 -0.0010775321530127815 0 0.031863622861463707 -0.0010428970860769284 0 0.031904185412814305 -0.0010715166775081349 0 0.032026512089880443 -0.0010775321530127815 0 0.031563435398584694 -0.00076530588970461877 0 0.031904185412814305 -0.0010715166775081349 0 0.031742836261869328 -0.00096585859505713214 0 0.031350619461975725 -0.00073993057000429916 0 0.032026512089880443 -0.0010775321530127815 0 0.031563435398584694 -0.00076530588970461877 0 0.031810060018144085 -0.00088218577883793811 0 0.031563435398584694 -0.00076530588970461877 0 0.031810060018144085 -0.00088218577883793811 0 0.031428605974485907 -0.00059209744080073303 0 0.03288885849486585 -0.0017858472237209687 0 0.032225270643391965 -0.001702015326764849 0 0.032478108205747661 -0.0011530448613515526 0 0.037820972562293595 0.00013206088769898263 0 0.031628184103716366 -0.0024635686531277079 0 0.031845557526700548 -0.00082545061949896648 0 0.031630683451920841 -0.00106019189358521 0 0.031863622861463707 -0.0010428970860769284 0 0.032202706910676025 -0.0015905605314452096 0 0.031761449071567138 -0.0011541640107151929 0 0.032478108205747661 -0.0011530448613515526 0 0.031630683451920841 -0.00106019189358521 0 0.031863622861463707 -0.0010428970860769284 0 0.031904185412814305 -0.0010715166775081349 0 0.037820972562293595 0.00013206088769898263 0 0.031350619461975725 -0.00073993057000429916 0 0.031563435398584694 -0.00076530588970461877 0 0.031761449071567138 -0.0011541640107151929 0 0.031828278212789718 -0.00068437621223120038 0 0.031761449071567138 -0.0011541640107151929 0 0.032478108205747661 -0.0011530448613515526 0 0.031828278212789718 -0.00068437621223120038 0 0.032498063590813822 -0.00059311006159887302 0 0.031828278212789718 -0.00068437621223120038 0 0.031803882181871405 0.00012512467991863697 0 0.032478108205747661 -0.0011530448613515526 0 0.032498063590813822 -0.00059311006159887302 0 0.031828278212789718 -0.00068437621223120038 0 0.031828278212789718 -0.00068437621223120038 0 0.031134705051598689 -0.00034873868511099622 0 0.031803882181871405 0.00012512467991863697 0 0.032498063590813822 -0.00059311006159887302 0 0.031803882181871405 0.00012512467991863697 0 0.032766571975344813 -4.4273934201947409e-05 0 0.028720013349783045 0.00047911330547357019 0 0.03117887480981589 0.0020731877597829507 0 0.031563435398584694 -0.00076530588970461877 0 0.031428605974485907 -0.00059209744080073303 0 0.031169911107029664 -0.00042585971232946061 0 0.031106945246401823 -0.00028685434101805989 0 0.031428605974485907 -0.00059209744080073303 0 0.031169911107029664 -0.00042585971232946061 0 0.031563435398584694 -0.00076530588970461877 0 0.031169911107029664 -0.00042585971232946061 0 0.031134705051598689 -0.00034873868511099622 0 0.031563435398584694 -0.00076530588970461877 0 0.031828278212789718 -0.00068437621223120038 0 0.031134705051598689 -0.00034873868511099622 0 0.031134705051598689 -0.00034873868511099622 0 0.030101556879623226 1.4804241723418657e-06 0 0.031803882181871405 0.00012512467991863697 0 0.031134705051598689 -0.00034873868511099622 0 0.030790537128228768 -0.00017737534769540295 0 0.030101556879623226 1.4804241723418657e-06 0 0.031169911107029664 -0.00042585971232946061 0 0.031134705051598689 -0.00034873868511099622 0 0.030790537128228768 -0.00017737534769540295 0 0.031106945246401823 -0.00028685434101805989 0 0.031169911107029664 -0.00042585971232946061 0 0.030790537128228768 -0.00017737534769540295 0 0.027859305236490724 -0.00077857806942153844 0 0.028041794126593255 -0.00031930302371978688 0 0.030790537128228768 -0.00017737534769540295 0 0.030101556879623226 1.4804241723418657e-06 0 0.030806223395204769 -0.00048255644222198151 0 0.031106945246401823 -0.00028685434101805989 0 0.030790537128228768 -0.00017737534769540295 0 0.030806223395204769 -0.00048255644222198151 0 0.029207064964687852 -0.0036495745396362541 0 0.029172287708097412 -0.0016033619391200345 0 0.030806223395204769 -0.00048255644222198151 0 0.030101556879623226 1.4804241723418657e-06 0 0.029172287708097412 -0.0016033619391200345 0 0.027787715704963717 -0.0013750877220201716 0 0.030101556879623226 1.4804241723418657e-06 0 0.029172287708097412 -0.0016033619391200345 0 0.030806223395204769 -0.00048255644222198151 0 0.028137779620073924 -0.002094117048306629 0 0.029172287708097412 -0.0016033619391200345 0 0.027787715704963717 -0.0013750877220201716 0 0.025162836601383846 -0.0044789516367959425 0 0.028041794126593255 -0.00031930302371978688 0 0.026633266726564259 0.0010009888099676545 0 0.026171972088589828 -0.0010100248350628179 0 0.024703394656263759 -0.001003491041883944 0 0.026633266726564259 0.0010009888099676545 0 0.024703394656263759 -0.001003491041883944 0 0.024210749350167905 0.001834097914252099 0 0.030316969867823649 2.6746123707355863e-05 0 0.028720013349783045 0.00047911330547357019 0 0.026633266726564259 0.0010009888099676545 0 0.027787715704963717 -0.0013750877220201716 0 0.026171972088589828 -0.0010100248350628179 0 0.030101556879623226 1.4804241723418657e-06 0 0.026633266726564259 0.0010009888099676545 0 0.027787715704963717 -0.0013750877220201716 0 0.027272373277453413 -0.0025778481960340213 0 0.028137779620073924 -0.002094117048306629 0 0.027787715704963717 -0.0013750877220201716 0 0.026120509449685948 -0.0024896179419799445 0 0.027787715704963717 -0.0013750877220201716 0 0.026171972088589828 -0.0010100248350628179 0 0.026120509449685948 -0.0024896179419799445 0 0.027272373277453413 -0.0025778481960340213 0 0.027787715704963717 -0.0013750877220201716 0 0.026120509449685948 -0.0024896179419799445 0 0.024926742525117073 -0.0024267096530941994 0 0.026171972088589828 -0.0010100248350628179 0 0.024926742525117073 -0.0024267096530941994 0 0.026171972088589828 -0.0010100248350628179 0 0.024703394656263759 -0.001003491041883944 0 0.024926742525117073 -0.0024267096530941994 0 0.024703394656263759 -0.001003491041883944 0 0.023262070457628601 -0.0017398184370493554 0 0.023024356728846816 -0.00095612575852717927 0 0.03117887480981589 0.0020731877597829507 0 0.024703394656263759 -0.001003491041883944 0 0.023144904737199226 0.00018803402833675456 0 0.024444401310546371 0.00085524471847210431 0 0.028050292503276605 0.00068590873284995807 0 0.029321828894945199 -0.001286137464867107 0 0.028050292503276605 0.00068590873284995807 0 0.024906010148338747 -0.0016582465567336782 0 0.024703394656263759 -0.001003491041883944 0 0.023144904737199226 0.00018803402833675456 0 0.023262070457628601 -0.0017398184370493554 0 0.031113068455401037 0.0010677961341599967 0 0.031184679190565775 -0.0011349193649695208 0 0.030151525424358006 0.00071903317598858015 0 0.026851820635741184 0.0004800418809333064 0 0.026852398854711183 -0.0015378818949247268 0 0.027123925002131729 -0.0015147498158452975 0 0.031184679190565775 -0.0011349193649695208 0 0.029320115617493599 -2.5484306938315508e-05 0 0.030151525424358006 0.00071903317598858015 0 0.029365933365661477 -0.0018322251968138968 0 0.031184679190565775 -0.0011349193649695208 0 0.029320115617493599 -2.5484306938315508e-05 0 0.029365933365661477 -0.0018322251968138968 0 0.027913479456537854 -0.00089943238451761082 0 0.029320115617493599 -2.5484306938315508e-05 0 0.027782592434258246 0.0015235387341838123 0 0.027913479456537854 -0.00089943238451761082 0 0.029320115617493599 -2.5484306938315508e-05 0 0.027782592434258246 0.0015235387341838123 0 0.029320115617493599 -2.5484306938315508e-05 0 0.029332807051839872 0.0013646303144698041 0 0.029320115617493599 -2.5484306938315508e-05 0 0.030151525424358006 0.00071903317598858015 0 0.029332807051839872 0.0013646303144698041 0 0.031113068455401037 0.0010677961341599967 0 0.030151525424358006 0.00071903317598858015 0 0.030225664977200702 0.001778054512537954 0 0.030225664977200702 0.001778054512537954 0 0.029332807051839872 0.0013646303144698041 0 0.029521395581318825 0.0022780046424878634 0 0.030151525424358006 0.00071903317598858015 0 0.030225664977200702 0.001778054512537954 0 0.029332807051839872 0.0013646303144698041 0 0.030225664977200702 0.001778054512537954 0 0.030362044718704639 0.0026542084194587433 0 0.030900970149431231 0.0024519494767582168 0 0.030225664977200702 0.001778054512537954 0 0.029521395581318825 0.0022780046424878634 0 0.030362044718704639 0.0026542084194587433 0 0.027782592434258246 0.0015235387341838123 0 0.028844525407249973 0.0020083412478077473 0 0.028742940788931536 0.0028678234684139186 0 0.027782592434258246 0.0015235387341838123 0 0.029332807051839872 0.0013646303144698041 0 0.028844525407249973 0.0020083412478077473 0 0.029521395581318825 0.0022780046424878634 0 0.028844525407249973 0.0020083412478077473 0 0.028742940788931536 0.0028678234684139186 0 0.029332807051839872 0.0013646303144698041 0 0.029521395581318825 0.0022780046424878634 0 0.028844525407249973 0.0020083412478077473 0 0.029521395581318825 0.0022780046424878634 0 0.028742940788931536 0.0028678234684139186 0 0.029780784370226472 0.0029790020476031798 0 0.028742940788931536 0.0028678234684139186 0 0.029780784370226472 0.0029790020476031798 0 0.029514628460364241 0.0036628466860627088 0 0.028529033051243029 0.003757089586658738 0 0.028742940788931536 0.0028678234684139186 0 0.029514628460364241 0.0036628466860627088 0 0.027545907440689733 0.0038565111079532886 0 0.028529033051243029 0.003757089586658738 0 0.028742940788931536 0.0028678234684139186 0 0.030696455146598058 0.004381203897883843 0 0.030259470564696904 0.0032252071271314541 0 0.030961718057838629 0.0024411105776612767 0 0.030362044718704639 0.0026542084194587433 0 0.030259470564696904 0.0032252071271314541 0 0.030961718057838629 0.0024411105776612767 0 0.030362044718704639 0.0026542084194587433 0 0.029780784370226472 0.0029790020476031798 0 0.030259470564696904 0.0032252071271314541 0 0.030895161017398632 0.0026887898909584585 0 0.033391911634479569 0.0019420098639214467 0 0.029521395581318825 0.0022780046424878634 0 0.030362044718704639 0.0026542084194587433 0 0.029780784370226472 0.0029790020476031798 0 0.029780784370226472 0.0029790020476031798 0 0.029514628460364241 0.0036628466860627088 0 0.030259470564696904 0.0032252071271314541 0 0.042674157641444499 0.0032497793031916787 0 0.043200210699905449 0.0035293098464303837 0 0.043083814160219322 0.0041929037955827416 0 0.042930199010180262 0.0037693334438930436 0 0.034224182312756833 0.0019892160656358755 0 0.03757130221812973 0.0040385792237415744 0 0.033391911634479569 0.0019420098639214467 0 0.043174671178596448 0.0034537992422433504 0 0.043087653978545443 0.0039390333810163198 0 0.042998515446214546 0.0039662933582827282 0 0.043458811412369604 0.0031810647166905454 0 0.043174671178596448 0.0034537992422433504 0 0.043087653978545443 0.0039390333810163198 0 0.042674157641444499 0.0032497793031916787 0 0.042214355182217382 0.0044725550061597468 0 0.043083814160219322 0.0041929037955827416 0 0.033128713966234409 -0.00096468761478817402 0 0.032498063590813822 -0.00059311006159887302 0 0.032766571975344813 -4.4273934201947409e-05 0 0.03893841940707881 0.0010902913319409998 0 0.03117887480981589 0.0020731877597829507 0 0.031113068455401037 0.0010677961341599967 0 0.030225664977200702 0.001778054512537954 0 0.030900970149431231 0.0024519494767582168 0 0.028050292503276605 0.00068590873284995807 0 0.033391911634479569 0.0019420098639214467 0 0.028050292503276605 0.00068590873284995807 0 0.034224182312756833 0.0019892160656358755 0 0.031108539979348315 0.0011602105429611236 0 0.031131688039152523 0.001409582954120276 0 0.031161682098380772 0.0013968296467637405 0 0.023144904737199226 0.00018803402833675456 0 0.024444401310546371 0.00085524471847210431 0 0.023200553018025354 0.0013141559048508418 0 0.03117887480981589 0.0020731877597829507 0 0.034224182312756833 0.0019892160656358755 0 0.033391911634479569 0.0019420098639214467 0 0.034224182312756833 0.0019892160656358755 0 
</DataArray>
</PointData>
<CellData Scalars="region_id,cross_section_updated," Vectors="" Tensors="stress,">
<DataArray type="Float64" Name="region_id" format="ascii">
5 5 5 5 5 5 6 5 5 5 5 5 6 5 5 6 5 5 5 6 5 5 5 5 5 5 5 5 5 5 5 5 5 5 5 5 5 5 5 5 5 5 5 5 5 5 5 5 5 5 6 5 6 5 5 5 6 5 5 5 5 5 5 5 6 5 5 6 5 5 5 5 5 5 5 6 5 5 5 5 6 5 5 5 5 5 6 5 5 5 6 5 5 5 5 5 5 5 5 5 5 5 5 5 5 5 5 5 6 5 5 5 5 6 5 5 5 5 5 5 6 5 5 5 6 5 6 5 6 5 5 6 5 5 5 5 5 5 5 6 5 5 5 5 5 5 5 5 5 5 5 5 6 5 5 5 5 5 5 5 6 5 5 5 5 5 5 5 5 6 5 5 5 5 5 5 6 5 5 5 5 5 6 5 6 5 5 5 5 5 6 5 6 5 6 6 5 5 6 5 5 5 5 5 5 5 5 5 5 5 5 5 5 5 5 5 5 5 5 5 5 5 5 5 5 5 5 5 5 5 5 5 5 5 5 5 6 5 6 5 5 5 5 5 5 5 5 5 6 5 6 5 5 5 5 5 6 5 5 5 5 6 5 5 5 5 5 5 5 5 5 5 5 6 5 5 6 5 5 5 5 5 5 5 5 5 5 5 5 5 5 5 5 5 5 5 5 5 5 5 5 5 5 5 5 5 5 5 5 5 5 5 5 5 5 5 5 5 5 6 5 5 5 6 5 5 5 6 5 5 5 5 6 5 5 5 5 6 5 5 5 5 5 5 5 5 5 5 5 6 5 5 5 5 5 5 5 5 5 5 5 5 5 5 5 5 5 5 5 5 5 5 5 5 6 6 5 5 5 5 5 5 5 5 5 5 6 5 5 5 5 5 5 5 5 5 5 5 5 5 5 5 5 5 5 5 5 5 5 5 6 5 5 5 6 5 5 5 5 5 5 5 6 5 5 5 5 5 5 5 5 5 6 5 5 5 6 5 5 5 5 5 5 5 6 5 5 5 5 5 5 5 5 5 5 5 5 5 5 5 5 5 5 6 5 5 5 5 5 5 5 5 5 5 5 5 5 5 5 5 5 5 5 5 6 5 5 5 6 5 5 6 5 6 5 5 5 6 5 5 5 5 6 5 5 5 6 5 5 5 5 5 6 5 5 5 5 5 5 5 5 6 5 5 5 5 5 5 5 5 5 5 5 5 5 5 5 5 5 5 5 5 5 5 5 5 6 5 6 5 5 5 5 5 5 5 5 6 5 5 5 5 5 6 5 5 5 5 5 5 6 5 6 5 5 5 5 5 5 5 5 5 5 5 5 5 5 5 5 5 5 5 5 5 5 6 6 5 5 5 6 5 5 5 5 6 5 5 5 5 5 5 5 5 6 5 5 5 6 5 5 5 5 5 5 5 5 6 6 5 6 5 5 6 5 6 5 5 5 5 5 5 6 5 5 5 5 5 6 5 5 6 5 5 6 5 5 5 6 5 5 5 5 5 5 5 5 5 5 5 5 5 5 6 5 5 5 5 5 6 5 5 5 6 5 5 6 6 5 5 5 5 5 5 5 6 5 5 5 5 6 5 5 5 5 6 5 5 5 5 5 5 5 5 5 6 5 5 5 5 5 5 6 5 5 6 5 5 5 5 5 6 5 5 6 5 5 5 5 5 5 5 5 6 6 5 5 5 5 5 5 6 5 5 5 5 5 5 6 5 5 5 5 5 5 6 5 5 5 5 5 5 5 5 5 5 6 5 5 5 5 5 6 5 5 6 5 5 5 5 5 5 6 5 6 5 5 5 6 5 5 6 5 5 5 5 5 5 5 5 5 5 5 5 5 6 5 5 5 6 5 5 5 5 5 5 5 5 5 5 6 5 5 5 5 5 5 5 5 5 5 5 5 5 5 5 5 5 5 6 5 5 6 5 5 5 5 5 5 5 5 5 5 5 5 5 5 5 5 5 6 5 5 5 5 5 5 5 5 5 5 5 5 5 6 5 5 5 5 5 5 5 5 5 5 5 5 5 5 5 5 6 5 5 5 6 5 5 5 5 5 5 5 6 5 5 6 5 6 5 6 5 6 5 5 5 5 6 5 5 5 5 5 5 6 5 5 6 5 5 5 5 5 6 6 5 5 5 5 5 5 5 5 5 5 5 5 5 5 5 5 5 5 5 5 5 5 5 5 6 5 5 5 5 5 5 5 5 5 5 5 5 5 5 5 5 5 5 5 5 5 5 5 5 5 5 5 5 5 6 5 5 5 5 5 5 5 5 5 5 5 6 5 5 5 5 5 5 6 5 5 6 5 6 5 5 5 6 5 5 5 6 5 5 6 5 6 5 5 6 5 5 6 5 6 5 5 5 5 5 6 5 6 5 5 5 5 6 6 5 5 6 5 5 6 5 6 5 5 6 5 5 5 6 5 5 6 6 5 5 5 6 6 5 5 5 5 5 5 5 5 6 5 6 5 6 5 6 5 6 5 6 5 5 5 6 5 5 6 5 5 6 5 6 6 5 6 6 5 5 6 5 6 5 5 5 5 5 5 5 6 5 5 5 5 6 5 5 5 5 5 5 5 5 5 6 5 6 5 5 5 5 5 5 5 5 5 5 5 5 5 6 5 6 5 5 6 5 5 5 6 5 5 5 5 5 5 5 6 5 5 5 5 5 6 6 5 5 5 5 5 5 5 6 5 5 5 6 5 5 5 5 5 5 5 5 5 6 5 5 5 5 5 5 5 5 5 5 5 6 5 5 5 5 5 5 6 5 5 5 5 6 5 5 5 5 5 5 5 5 5 5 5 5 5 5 5 5 5 5 5 6 5 5 5 5 6 5 5 5 5 5 5 5 5 5 5 5 5 5 5 5 6 5 5 6 5 6 5 5 5 5 5 5 6 5 5 5 5 5 6 5 5 5 5 5 6 6 5 5 5 5 5 5 5 5 5 5 5 5 5 5 5 5 5 5 5 5 5 6 5 5 5 5 5 5 5 5 5 5 5 6 5 6 5 5 5 5 6 5 5 6 5 5 6 5 5 6 5 5 5 5 5 5 6 5 5 5 5 5 5 5 6 5 5 6 5 5 6 5 5 5 5 5 6 5 5 5 5 5 5 5 5 5 5 5 5 6 5 5 5 5 5 5 5 5 5 5 5 5 5 5 6 6 5 5 6 5 6 5 6 6 5 5 5 5 6 6 6 5 5 6 5 5 6 5 5 5 5 6 5 5 5 5 5 5 5 6 5 5 6 6 5 5 6 5 6 5 5 5 5 5 5 5 5 5 5 5 5 5 5 5 5 5 5 5 5 5 6 6 5 5 5 5 5 5 5 5 5 5 6 5 5 5 5 6 5 5 5 5 5 5 6 5 5 5 6 5 5 5 5 5 5 6 5 5 5 5 5 5 6 5 5 6 5 5 5 5 5 5 5 5 5 5 5 5 5 5 5 5 5 5 5 5 5 5 5 5 6 5 5 5 5 5 5 5 5 5 5 5 5 5 6 5 6 5 5 5 5 5 5 5 5 5 5 5 5 5 5 5 5 5 6 5 5 5 6 5 5 5 6 5 5 5 5 6 5 5 5 5 5 5 5 5 5 5 5 5 5 5 5 5 5 5 5 5 5 5 5 5 5 5 5 5 5 5 5 5 5 5 5 5 5 6 5 5 5 5 5 5 5 6 5 5 6 5 6 5 5 5 5 5 6 5 5 5 6 5 5 5 5 5 5 5 5 5 5 5 5 5 5 5 5 5 5 5 5 6 5 5 5 5 5 5 5 5 5 5 5 5 5 5 5 5 5 5 5 5 5 5 5 5 5 5 5 6 6 5 5 5 5 5 5 6 5 5 5 5 5 5 5 6 6 5 5 6 6 5 5 5 5 6 6 5 5 5 5 5 6 5 5 5 6 5 5 5 5 5 5 5 5 5 6 5 5 5 6 5 5 6 5 6 5 6 5 6 6 5 5 6 6 5 5 5 5 5 5 6 5 6 5 5 5 5 6 5 5 5 5 5 5 5 6 5 6 5 5 5 5 5 5 5 5 5 5 5 5 5 6 5 6 5 5 5 5 5 5 5 5 5 5 5 5 5 6 5 5 5 5 5 5 5 5 5 5 6 5 5 5 5 5 5 5 5 5 5 5 5 5 5 6 5 6 5 5 5 6 5 5 5 5 5 5 5 5 5 5 5 5 5 5 5 6 6 5 5 5 5 5 5 5 5 5 5 5 5 5 5 6 5 5 5 5 5 6 5 5 5 5 5 5 6 5 5 5 5 5 5 5 5 5 5 5 5 6 5 5 5 5 5 5 6 5 5 5 6 5 5 5 5 5 6 5 5 5 6 5 5 5 5 5 5 5 5 5 6 5 5 5 5 5 5 5 5 5 5 6 5 5 5 6 5 5 5 5 5 5 5 5 5 5 5 5 5 5 5 5 5 5 5 5 5 5 5 6 5 5 5 5 5 5 5 5 5 5 5 5 5 5 5 5 5 5 5 5 5 5 5 5 6 5 5 5 5 5 5 5 6 5 5 5 6 5 5 5 5 5 5 5 5 6 5 6 5 5 6 5 6 5 5 5 5 5 5 6 5 5 5 6 6 5 6 5 5 5 5 5 6 5 5 5 5 5 5 5 5 5 5 5 5 5 5 5 6 5 5 6 5 5 5 6 5 6 5 6 5 6 5 5 6 6 5 5 5 6 5 6 5 5 5 5 5 5 5 5 5 6 5 5 5 6 5 5 5 5 5 5 5 5 5 5 5 6 5 5 5 6 5 5 5 5 5 5 5 5 5 6 5 5 6 5 5 5 6 5 5 6 5 5 5 5 5 5 5 5 5 5 5 5 5 5 5 5 5 5 5 5 5 5 6 5 5 6 5 5 5 5 5 5 5 6 5 5 5 5 5 5 5 5 5 5 5 5 6 5 5 5 6 5 5 6 6 5 6 5 5 5 5 5 6 5 5 5 5 5 6 5 5 5 6 6 5 5 5 6 5 5 5 6 5 5 5 6 6 5 5 6 5 5 5 5 5 5 6 6 5 5 5 5 5 5 5 5 5 5 5 6 5 5 5 5 5 5 5 5 5 5 5 5 5 5 5 5 6 5 5 5 6 5 5 5 5 5 5 5 5 5 5 6 6 5 5 5 5 6 5 5 5 5 5 5 6 5 6 5 5 5 5 5 5 6 6 5 5 5 5 5 5 5 5 6 6 5 5 5 5 5 5 6 5 5 5 5 6 5 6 5 5 5 5 5 6 5 6 6 5 5 6 6 5 5 6 5 6 6 5 5 5 6 6 5 5 5 5 5 5 5 5 5 5 6 5 5 5 6 6 5 6 6 5 5 5 5 5 6 5 6 5 6 5 5 5 6 5 6 6 5 5 6 5 5 6 5 5 5 5 6 5 5 5 5 5 5 5 5 5 5 5 5 6 5 5 5 5 5 6 5 6 5 6 5 6 5 6 5 6 5 5 5 5 5 6 6 5 6 6 6 5 5 5 5 6 5 5 5 5 5 6 5 5 5 5 5 5 6 5 5 5 5 6 5 5 6 5 6 6 5 5 5 5 5 5 6 6 6 6 5 5 6 5 6 5 6 6 5 5 5 5 5 5 5 5 5 5 5 5 6 5 5 6 5 5 5 5 5 5 5 5 5 5 5 6 5 5 5 5 6 5 5 6 5 5 5 6 5 6 5 5 5 5 5 5 5 5 5 6 5 5 5 5 5 6 5 5 5 5 5 5 5 5 5 5 5 5 5 5 5 6 5 5 5 5 6 5 5 5 5 6 5 5 5 5 5 5 5 5 5 5 5 5 5 5 5 5 5 5 6 5 5 5 5 6 5 5 5 5 5 5 5 5 5 5 5 6 5 5 5 6 6 5 5 5 6 6 6 5 6 5 5 6 5 5 6 5 5 6 5 6 5 5 5 5 5 5 5 5 5 5 5 5 5 5 5 5 5 5 5 5 6 6 5 5 5 6 5 6 5 5 5 5 5 5 5 5 5 5 6 5 5 5 5 5 5 5 5 5 6 5 5 5 5 5 5 6 5 5 5 5 5 5 5 5 5 5 5 5 6 5 6 5 5 5 5 5 5 5 5 5 5 5 5 5 5 5 5 5 5 6 5 6 5 6 5 5 6 5 6 5 5 6 5 5 6 5 5 5 5 5 5 6 5 5 6 6 5 5 6 5 5 6 5 6 6 5 5 5 5 5 5 6 5 5 5 5 5 5 5 5 5 5 6 5 5 6 5 5 5 6 5 5 5 5 5 5 5 6 5 5 5 6 5 5 6 5 5 5 5 5 5 5 5 5 5 5 5 5 5 5 5 5 5 5 5 5 5 5 5 5 5 5 5 5 5 5 5 5 5 5 5 5 5 5 5 5 5 5 5 5 5 6 5 5 5 5 5 5 5 5 5 5 5 5 5 5 5 5 5 5 5 5 6 5 6 5 5 5 5 5 5 5 6 5 5 5 5 5 5 5 6 5 5 5 5 5 5 6 5 6 5 5 5 6 5 5 5 5 5 5 5 5 5 5 5 5 6 5 5 5 5 6 5 5 5 6 6 5 5 5 6 6 5 5 5 5 5 5 5 5 5 5 5 5 5 5 5 5 5 5 5 5 6 5 5 5 5 6 5 5 5 6 5 5 5 5 5 5 5 5 5 5 6 6 5 5 5 5 6 5 5 5 5 5 5 6 5 5 6 5 5 6 5 5 5 5 5 5 5 5 5 5 5 5 5 5 5 5 5 5 5 5 5 5 5 5 5 5 5 5 5 5 5 5 5 5 5 5 5 5 5 5 5 5 5 5 5 5 5 5 6 5 5 5 5 5 6 5 5 6 5 5 6 5 5 5 5 5 5 5 5 5 5 5 5 5 5 5 5 5 5 5 6 5 5 5 5 5 6 5 5 5 5 5 5 5 5 5 5 5 5 6 5 5 5 5 5 6 5 5 5 6 5 5 5 5 5 5 6 5 5 5 5 6 5 5 5 5 6 5 5 5 6 5 5 5 6 5 5 6 5 5 5 5 5 5 5 5 5 5 5 5 5 5 5 5 5 5 5 5 5 5 5 6 5 5 5 6 5 5 5 5 5 5 5 5 5 5 5 5 5 5 5 5 5 6 6 5 5 6 5 5 6 5 6 5 6 5 5 5 5 6 5 5 5 5 6 5 6 5 5 5 5 5 5 5 5 5 5 5 5 5 5 6 5 5 5 5 5 5 5 5 5 5 6 5 5 5 5 5 5 5 5 5 5 6 5 5 5 5 5 6 5 5 5 5 5 6 5 5 5 5 6 5 5 5 5 5 5 5 5 5 5 5 5 6 5 5 5 5 5 6 5 5 5 5 5 5 6 5 5 5 5 5 5 6 5 5 5 5 5 5 5 5 5 5 5 5 5 5 5 5 5 5 5 5 5 5 5 5 5 6 5 5 5 5 5 5 6 5 5 5 5 6 5 5 6 5 5 5 5 5 5 5 5 5 6 5 5 6 5 5 5 6 5 5 5 5 6 5 5 5 5 5 5 5 5 5 6 5 5 5 5 5 5 5 5 5 5 5 5 5 5 5 5 5 5 5 5 5 5 5 5 6 5 5 5 5 5 5 5 5 5 5 6 5 5 5 5 5 5 5 6 5 5 5 5 6 5 5 5 5 5 5 5 5 5 5 5 5 5 5 5 5 5 5 5 5 5 5 5 5 5 5 5 5 5 5 5 5 5 5 5 5 5 5 5 5 5 5 5 5 5 5 5 6 5 5 5 5 5 5 5 5 5 5 5 5 5 5 6 5 5 5 5 5 5 5 5 6 5 5 5 5 6 6 5 5 6 6 5 5 5 5 5 5 5 5 5 5 5 5 5 5 5 5 6 5 5 5 5 5 5 5 5 5 5 5 6 5 5 5 5 5 5 5 5 5 6 6 5 5 6 5 5 5 5 5 5 6 5 5 5 5 6 5 5 5 5 5 5 5 5 5 5 5 5 6 5 5 5 5 6 5 5 5 5 5 5 5 5 5 6 6 5 5 5 5 6 5 5 5 5 5 5 6 5 5 5 5 5 5 5 5 5 5 5 5 5 5 5 6 5 5 5 5 5 5 5 5 5 5 5 5 5 5 5 5 5 5 5 5 5 5 5 5 5 5 5 6 5 5 5 6 5 5 5 5 5 5 5 5 5 6 5 5 5 5 5 5 5 5 5 6 5 5 5 5 5 5 5 5 5 5 5 5 5 5 5 6 5 5 5 5 5 5 5 6 5 5 5 5 5 5 5 5 5 5 5 5 5 5 5 5 5 5 5 5 5 5 5 5 5 5 5 5 5 5 6 5 5 5 5 6 5 5 5 5 5 6 5 6 5 5 5 5 5 5 6 5 5 5 6 5 5 5 5 5 5 5 5 5 5 5 5 5 5 5 5 5 5 5 5 5 5 5 5 5 5 5 5 5 6 5 5 5 5 5 6 5 5 5 5 5 5 5 6 5 5 5 5 5 5 5 6 5 6 5 5 5 5 5 6 6 5 5 6 5 5 6 5 6 6 6 5 6 5 6 6 6 5 5 6 6 5 5 6 5 5 5 5 5 6 5 5 6 5 6 5 5 5 5 5 6 5 5 6 5 6 5 6 6 5 5 5 5 5 6 5 5 6 5 5 5 5 5 5 6 5 5 5 5 5 5 5 5 5 5 5 5 5 5 5 6 5 5 5 5 5 6 5 6 6 5 5 5 5 5 5 5 5 5 5 5 5 5 5 5 5 5 5 5 5 5 6 5 5 5 6 5 5 6 5 5 5 5 5 5 5 5 5 5 6 5 6 5 5 5 5 5 6 5 5 5 5 6 5 5 5 5 5 5 5 5 5 5 5 5 5 5 5 5 5 5 5 5 5 5 5 5 5 5 5 5 5 5 5 5 6 5 6 5 6 5 6 5 5 5 6 6 5 6 6 5 5 5 6 5 5 5 5 5 5 5 5 5 5 5 5 5 5 5 5 5 5 5 5 5 5 5 5 5 5 5 5 5 5 5 5 5 5 5 5 5 5 5 5 5 5 5 5 5 5 5 5 5 5 5 5 5 5 5 5 5 5 5 5 5 5 5 6 5 5 5 5 5 5 6 6 5 5 5 5 5 5 6 5 5 5 5 6 5 5 5 5 5 6 5 6 5 5 5 5 6 5 5 5 5 5 5 5 5 5 5 5 5 5 5 5 5 5 5 5 5 5 5 5 5 5 6 5 5 5 5 5 5 5 5 5 6 6 5 5 5 6 6 5 5 5 5 5 6 5 6 5 5 6 5 5 5 5 5 5 5 5 5 5 5 5 6 5 5 5 5 6 5 5 5 5 5 5 5 6 5 5 5 5 5 5 5 5 5 5 5 5 5 5 5 5 5 5 6 5 5 5 6 5 5 5 5 5 5 5 5 5 5 5 5 5 5 6 6 5 5 5 5 5 5 5 5 5 5 5 6 5 5 5 5 5 5 5 6 5 5 5 5 5 5 5 5 5 5 5 5 5 5 5 5 5 5 5 6 6 5 5 5 5 5 5 6 5 5 5 5 5 5 5 5 5 5 5 5 5 5 5 5 5 5 5 5 5 5 5 5 5 5 5 5 6 6 5 5 5 5 5 6 5 5 6 5 5 5 5 6 5 5 5 6 6 5 6 6 5 5 5 5 6 5 5 5 5 5 5 5 6 5 6 5 6 5 5 6 6 5 5 5 6 5 6 5 5 5 5 5 5 5 5 5 6 5 5 5 5 5 6 5 5 5 5 5 5 5 5 5 5 5 5 6 5 5 5 5 5 5 5 5 5 6 5 5 5 5 5 5 5 5 6 6 6 5 5 5 6 5 5 6 5 5 5 5 5 5 6 5 5 5 6 6 5 6 5 5 5 5 6 6 5 5 6 5 5 6 5 5 5 5 5 5 5 6 5 6 5 6 6 5 5 5 5 5 5 5 5 6 5 5 5 5 5 6 5 5 5 5 5 5 5 5 5 5 5 5 5 5 5 5 5 5 5 5 5 5 5 5 5 5 5 5 5 5 5 5 5 5 5 5 5 5 5 5 5 5 5 5 5 5 5 5 5 5 5 5 5 5 5 5 5 5 5 5 5 5 5 5 6 5 5 5 5 5 5 5 5 5 5 5 5 5 5 5 5 5 5 5 5 5 5 5 5 5 5 5 5 5 5 6 5 5 5 6 6 6 5 5 5 5 5 5 5 6 6 5 5 5 6 5 6 5 5 5 5 5 5 6 5 5 6 5 5 5 5 5 5 5 5 5 5 5 5 6 5 5 5 5 5 5 5 6 5 6 6 5 5 5 5 6 5 6 6 5 5 5 5 6 5 5 6 6 5 5 5 5 6 5 5 6 5 5 5 5 5 5 5 5 5 5 6 5 6 5 5 5 5 6 5 5 5 5 5 6 5 5 5 5 5 5 5 5 5 5 5 5 5 5 5 6 5 5 5 6 6 5 5 5 5 5 5 5 5 5 5 5 5 5 6 5 6 5 5 5 6 5 5 5 6 5 5 5 5 6 5 5 5 5 5 6 5 5 5 5 5 5 6 5 5 5 5 5 5 5 5 5 5 6 6 5 6 5 5 5 5 6 5 5 6 5 5 6 5 5 5 6 6 5 6 6 5 5 5 5 5 6 5 5 6 5 5 5 6 5 6 5 5 5 5 5 5 5 6 5 5 5 5 5 5 5 5 5 5 5 5 6 5 5 5 5 5 6 5 5 6 5 6 5 5 6 5 6 5 5 6 6 5 5 5 6 6 5 5 6 5 5 5 5 5 6 6 6 6 6 6 5 5 5 6 5 6 6 6 5 5 5 6 5 5 6 5 5 5 6 5 5 6 5 5 5 5 6 6 5 5 5 5 5 6 5 5 5 5 5 5 6 6 5 5 6 5 6 5 5 5 5 5 5 5 5 5 5 5 5 5 5 5 5 5 5 5 6 5 5 5 5 6 5 6 5 5 5 6 5 5 5 6 5 5 5 5 5 5 5 5 5 5 5 5 5 5 6 6 5 5 5 5 5 5 5 5 5 5 5 5 5 5 5 6 5 5 5 5 6 5 6 5 5 5 5 5 5 5 5 5 5 5 5 5 5 5 5 5 5 5 5 5 5 5 5 5 5 5 5 5 5 5 5 5 5 6 6 5 5 6 5 6 5 6 6 5 5 5 5 5 5 6 6 5 5 6 5 5 5 6 5 5 5 5 5 5 5 6 5 5 5 5 5 5 6 5 5 5 5 5 5 5 5 5 5 5 6 5 5 5 5 5 5 5 5 5 6 5 5 5 5 6 5 5 5 5 5 6 5 5 5 5 5 5 5 5 5 5 5 5 5 5 5 5 5 5 5 5 5 5 5 5 5 6 5 5 5 5 5 5 5 5 5 5 5 5 5 5 6 5 5 5 5 5 5 6 5 6 5 5 5 5 6 5 6 5 5 5 5 5 5 5 6 5 5 5 5 5 5 5 5 6 5 5 5 5 5 5 5 6 5 5 5 5 5 5 5 5 5 5 5 5 5 5 6 5 5 5 5 6 6 5 5 5 5 5 5 5 6 5 6 5 6 5 5 6 6 5 6 5 5 5 5 5 5 5 5 6 5 6 5 5 5 5 6 5 5 6 5 5 5 5 5 6 5 5 5 5 5 5 5 5 5 5 5 5 5 6 5 5 6 5 5 5 6 5 5 5 5 5 6 5 5 6 5 6 5 5 5 5 5 5 5 6 5 5 6 5 5 5 6 5 5 5 5 5 5 5 5 5 5 6 5 5 5 6 5 5 5 5 6 5 5 5 5 5 5 5 5 5 5 5 5 5 5 5 5 5 5 5 5 6 5 5 5 6 5 5 5 5 5 5 5 5 5 6 5 5 5 5 5 6 5 5 5 5 5 5 5 5 5 5 5 5 5 5 5 5 5 5 5 5 5 6 5 5 5 5 5 6 6 5 5 5 5 6 5 5 5 5 5 5 5 5 6 5 5 5 5 5 5 5 6 6 5 5 5 5 5 6 5 5 5 5 5 5 5 5 5 5 6 5 6 5 6 5 6 5 5 5 5 6 5 5 5 5 5 5 5 5 5 5 5 5 5 5 5 5 5 5 5 5 6 5 5 6 5 5 5 5 5 5 5 5 5 6 5 5 6 5 5 5 5 6 5 5 5 5 5 5 5 5 5 5 5 5 5 5 5 5 5 5 5 5 5 5 6 5 5 5 5 5 5 5 5 5 5 5 5 5 5 5 5 5 5 5 5 5 5 5 5 5 6 5 5 5 5 5 5 5 5 5 5 5 5 5 5 5 6 5 5 5 5 5 5 5 5 5 5 5 5 6 5 5 5 5 6 6 5 5 5 6 5 6 5 5 5 6 5 5 5 5 6 6 5 5 6 5 5 5 5 5 5 5 5 6 5 5 5 5 5 5 5 5 5 5 5 5 5 6 5 6 5 5 5 5 5 5 5 6 5 5 5 5 5 6 6 5 5 5 5 5 5 5 6 5 5 5 5 5 6 5 5 5 5 5 6 5 5 5 5 5 6 5 5 5 5 5 5 5 5 5 5 5 5 5 5 5 5 5 5 5 5 5 5 5 5 5 6 5 5 5 5 5 5 5 5 5 5 5 5 6 5 6 6 5 5 5 5 5 6 5 5 5 5 5 5 6 5 6 5 5 5 5 5 5 5 5 5 5 5 5 5 5 5 6 5 6 5 5 5 5 5 6 5 5 5 5 5 5 5 5 5 5 5 5 5 5 5 5 5 5 5 5 5 6 5 5 5 5 5 5 5 5 5 6 5 5 5 5 5 6 5 5 5 5 6 5 5 5 5 5 6 5 5 5 5 5 6 5 5 5 5 5 5 5 5 5 5 5 6 5 5 5 6 5 5 5 5 5 6 5 5 5 6 6 5 5 5 5 5 5 5 6 5 5 5 5 5 5 5 6 5 5 5 5 5 6 5 5 5 5 5 5 5 5 5 5 5 5 5 6 5 5 5 5 5 5 5 5 5 5 5 6 5 5 5 5 5 5 5 5 5 5 5 5 5 5 5 5 5 5 5 5 5 5 5 5 6 5 6 5 6 5 5 5 5 6 5 6 5 5 6 5 5 5 5 5 5 5 5 5 5 5 5 5 5 5 5 5 5 6 5 5 5 5 5 5 5 5 5 5 5 5 5 5 6 5 5 5 5 5 5 5 6 6 5 5 5 5 5 6 5 5 5 5 5 5 5 5 5 5 5 5 5 5 5 6 5 5 5 5 5 5 5 5 5 5 6 5 5 5 5 6 5 5 5 5 5 5 5 5 5 5 5 5 5 5 5 5 5 5 5 6 5 5 5 6 5 5 5 6 5 5 5 5 5 5 5 5 5 5 5 5 5 5 5 6 5 5 5 5 5 5 5 6 5 5 5 5 5 5 5 5 5 5 5 5 5 5 5 5 5 5 5 5 5 5 5 5 5 5 5 5 5 5 6 5 6 5 5 5 5 5 5 5 5 6 5 5 5 5 5 5 5 5 5 5 5 6 5 5 5 5 5 5 5 6 5 5 5 5 5 5 5 6 5 5 5 5 5 6 5 5 5 6 5 5 5 5 5 5 5 5 5 5 5 5 5 5 5 5 5 6 5 5 6 5 5 5 6 5 5 5 5 5 5 6 5 5 6 5 5 5 5 5 5 6 5 5 5 6 5 5 5 5 5 5 5 5 5 6 5 5 6 5 5 5 5 5 5 5 5 5 6 6 5 5 5 5 5 5 5 6 6 5 5 5 5 5 5 5 5 5 5 5 5 5 5 5 5 5 5 6 5 5 5 5 5 5 5 5 5 5 5 5 5 5 5 5 5 6 5 5 6 5 5 5 5 5 5 5 5 5 5 5 5 6 5 5 5 5 5 6 5 5 5 5 5 5 5 5 5 5 5 5 5 5 5 5 5 5 5 5 5 5 5 5 5 5 5 6 5 5 5 5 5 6 5 5 5 5 5 5 5 5 6 5 5 5 5 5 5 5 6 5 5 5 5 5 5 5 5 5 6 5 5 5 5 5 5 6 5 5 5 5 5 5 5 5 5 6 5 5 5 6 5 6 5 5 5 5 5 6 5 5 6 5 6 5 5 5 5 5 5 6 6 5 5 6 5 6 5 5 5 5 5 5 5 5 5 5 5 5 5 6 5 6 5 5 5 6 5 5 5 5 6 5 5 5 5 5 5 5 5 5 5 5 6 5 5 5 5 5 5 6 5 5 5 6 5 5 6 5 5 5 5 5 5 5 5 5 5 5 5 5 5 5 5 5 5 5 5 5 5 5 5 5 5 5 6 5 5 5 5 5 6 5 5 5 5 5 5 5 5 5 5 5 5 5 5 6 5 5 5 5 5 5 6 5 5 5 6 5 5 5 5 5 5 5 5 5 5 5 5 5 5 5 5 5 5 5 5 5 5 5 5 5 6 5 5 5 5 5 5 5 5 6 6 5 5 5 5 5 5 5 5 5 6 5 5 6 5 6 5 6 5 5 5 5 5 5 6 5 5 5 5 6 5 5 6 5 5 5 5 5 6 5 5 5 5 5 5 5 5 5 5 5 5 5 5 6 6 5 5 5 5 5 5 5 5 5 5 5 5 6 5 5 6 5 5 6 6 5 5 5 6 5 5 5 5 6 6 5 5 6 5 5 5 6 5 5 5 5 5 5 5 5 6 5 5 5 5 5 6 5 5 5 6 5 5 5 6 5 5 5 5 6 5 5 6 6 5 5 5 5 5 5 6 5 5 5 5 5 5 5 5 5 5 5 5 5 5 5 5 5 6 5 5 5 5 5 5 5 6 5 5 5 6 5 5 6 5 5 5 5 5 6 6 5 5 5 5 5 6 5 5 5 5 6 5 6 5 5 5 5 5 5 5 6 5 5 6 5 5 5 6 5 5 6 6 5 5 5 5 5 5 5 6 5 5 6 5 5 5 6 5 5 5 5 5 5 5 5 5 5 5 5 5 5 5 5 5 5 5 5 5 5 5 5 5 5 5 5 5 5 5 5 5 5 5 5 5 5 5 5 5 5 5 5 5 5 5 5 5 5 5 5 5 5 5 5 5 5 5 5 5 5 5 5 5 5 5 5 5 5 5 5 5 5 5 5 5 5 5 5 5 5 6 5 6 5 5 5 6 5 5 5 5 5 5 5 5 5 5 5 5 5 5 6 5 5 5 5 5 6 6 6 5 5 5 5 5 6 6 5 5 5 5 6 5 5 5 5 5 5 5 5 6 5 6 5 5 5 5 5 5 5 5 5 5 5 5 5 5 5 5 5 5 5 5 5 5 5 5 5 5 5 5 5 5 5 5 5 5 5 5 5 5 6 5 5 5 5 5 5 5 6 5 5 5 5 5 5 5 5 6 5 5 5 6 5 5 5 5 5 5 5 5 5 5 5 5 5 5 5 5 5 5 5 5 5 5 5 5 5 6 5 5 6 5 5 5 5 5 5 5 5 5 5 5 5 6 5 5 5 5 5 6 5 5 5 5 6 5 6 5 5 5 6 5 5 5 6 5 6 5 5 6 6 6 5 5 5 6 5 5 6 6 5 5 5 5 5 5 5 5 5 5 5 5 5 5 5 5 6 5 5 6 5 5 5 5 5 5 5 5 5 6 5 5 6 5 5 6 5 5 5 5 5 5 5 5 5 5 5 5 5 5 5 6 5 5 5 6 5 5 5 6 5 6 5 5 5 5 5 5 5 5 6 5 5 5 5 5 5 5 5 5 5 5 5 5 6 5 5 5 5 5 5 5 5 6 5 5 5 5 5 6 5 5 5 5 5 5 5 6 5 6 5 5 5 5 5 5 5 5 5 5 5 5 5 6 5 5 5 5 5 5 5 6 5 5 5 5 5 5 5 5 5 5 5 5 5 5 5 5 5 5 5 5 5 5 5 5 5 5 5 5 5 6 5 5 5 6 5 6 6 5 5 6 6 5 5 5 5 5 6 5 5 5 5 5 5 5 5 5 5 6 5 6 5 5 5 5 6 5 5 5 5 5 5 5 5 5 5 6 5 5 5 5 5 5 5 5 5 5 5 5 6 5 5 5 5 6 5 5 5 5 5 5 6 5 5 5 6 5 6 5 5 5 5 6 5 5 5 5 5 5 5 5 5 5 5 5 5 5 5 5 5 5 5 5 5 5 5 5 5 5 5 5 5 5 5 5 5 5 5 5 5 5 6 5 5 5 5 6 5 5 5 5 5 5 5 5 5 5 6 5 5 5 5 5 5 5 5 5 5 5 5 6 5 5 5 6 5 5 5 5 5 5 5 6 5 5 5 5 5 6 5 5 5 5 5 5 5 5 5 5 5 5 5 5 5 5 5 5 5 5 5 5 5 5 5 5 5 5 5 5 5 5 5 5 5 5 5 6 5 5 5 5 5 5 5 5 5 5 5 5 5 5 5 5 6 5 5 6 5 5 5 5 5 5 5 5 5 5 5 5 5 5 5 5 5 5 5 5 5 5 5 5 5 5 5 5 5 5 5 5 5 5 5 5 5 5 5 5 5 5 6 5 5 5 6 5 5 5 5 6 5 5 5 6 5 5 5 5 5 5 5 5 5 5 5 5 5 5 6 5 5 5 5 6 6 5 5 5 5 5 5 5 5 5 6 5 6 5 5 5 5 5 5 5 5 5 5 5 5 5 5 6 5 5 5 5 5 5 5 5 5 5 5 5 5 5 6 5 5 5 5 6 5 5 5 5 6 5 6 5 5 5 6 5 5 6 5 5 5 5 6 5 5 5 5 5 6 5 5 6 5 5 5 5 6 5 5 5 5 5 5 5 6 5 5 5 5 6 5 5 6 5 5 6 5 6 5 5 5 5 6 5 5 5 6 5 5 5 5 5 5 5 6 5 5 5 5 5 5 5 5 5 5 5 5 5 5 5 5 5 6 5 5 5 6 5 5 5 5 5 5 5 5 5 5 5 5 5 5 5 5 5 5 5 5 5 5 5 5 5 5 5 5 5 5 5 5 5 5 5 5 5 6 5 5 5 6 5 5 6 6 5 5 5 5 5 5 5 5 5 5 6 5 5 5 5 5 5 5 5 5 5 5 5 5 5 5 6 5 5 5 5 5 5 5 5 5 5 5 5 5 6 5 5 5 5 5 6 5 5 5 5 6 5 5 5 5 5 6 5 5 5 5 5 5 5 5 5 5 6 5 6 5 5 5 5 6 5 6 5 5 5 5 5 5 6 6 5 5 6 5 5 5 5 5 5 5 5 6 5 5 5 5 5 5 5 5 5 5 5 5 5 5 5 5 6 5 6 5 5 5 5 5 5 5 5 5 5 5 5 5 5 5 5 5 5 5 5 5 6 5 5 5 5 5 5 5 5 5 5 5 5 5 5 5 5 5 5 5 5 5 5 5 5 5 5 5 5 5 5 5 5 5 5 6 5 5 5 5 5 5 5 5 5 5 6 5 5 5 6 5 6 5 5 5 5 5 5 5 5 5 5 6 5 5 6 5 5 5 5 5 5 5 5 5 5 5 5 5 5 5 5 5 5 5 5 5 5 5 5 5 5 5 5 5 5 5 5 5 5 5 5 5 5 5 5 5 5 5 5 5 5 5 5 5 5 5 5 5 5 5 5 5 5 5 5 6 5 5 5 5 5 5 6 6 5 5 5 5 5 5 5 5 5 6 5 5 5 5 5 5 5 5 5 5 5 5 5 5 5 5 5 5 5 5 5 5 5 5 5 5 5 5 5 5 5 5 5 5 5 5 5 5 5 5 5 5 5 5 5 5 5 5 5 5 5 5 5 5 5 5 5 5 6 5 6 5 5 5 5 5 5 5 5 6 5 5 5 5 5 5 5 5 5 6 5 5 5 5 5 5 5 6 5 5 5 5 5 5 5 5 5 5 5 5 6 5 5 6 5 5 5 5 5 5 5 5 5 5 5 5 5 5 5 5 5 5 5 5 5 5 5 5 5 5 5 5 5 5 5 5 5 5 5 5 5 5 5 5 5 5 5 5 5 5 5 6 5 5 5 5 6 5 5 6 5 5 5 5 5 6 5 5 5 5 6 5 5 5 5 6 5 5 6 5 5 5 6 5 5 5 5 5 5 5 5 5 5 5 5 5 5 5 5 5 5 5 5 5 5 5 5 5 5 5 6 6 5 6 5 5 5 6 5 5 5 5 5 5 5 5 5 6 5 6 5 5 6 5 5 6 5 5 5 5 5 5 5 5 5 5 5 5 5 5 5 5 5 5 5 5 5 5 5 5 5 6 5 5 5 5 5 6 5 5 5 5 5 5 5 6 6 5 5 5 6 5 5 5 5 6 5 5 5 6 5 5 5 5 5 5 5 5 5 6 5 5 5 5 5 5 5 5 5 6 5 5 5 6 5 5 5 5 6 5 5 6 5 5 5 5 5 5 5 6 5 5 5 5 5 5 6 5 5 5 5 5 5 6 5 5 5 5 5 5 5 5 6 5 5 5 6 5 5 5 5 5 5 5 5 5 5 5 5 5 5 5 5 5 5 5 5 5 5 5 5 5 5 5 5 5 5 5 5 5 5 5 5 5 5 5 5 5 5 5 5 5 5 5 5 5 5 5 5 5 6 5 5 6 5 6 5 5 6 5 5 5 5 5 5 5 5 5 6 5 5 5 5 5 5 6 5 5 5 5 5 5 6 5 6 5 5 6 5 5 6 5 5 6 5 5 5 5 5 5 5 5 5 5 5 5 5 6 5 6 5 5 6 5 5 5 5 5 6 5 5 5 5 5 5 5 5 5 5 5 5 5 5 5 6 5 5 6 5 5 5 5 6 5 5 5 5 5 5 5 5 5 6 5 5 5 5 5 5 5 5 5 5 6 5 5 5 5 5 6 6 5 5 5 5 5 5 5 6 6 5 5 5 5 5 5 5 5 6 5 5 6 5 6 5 5 6 5 5 5 5 5 5 6 5 5 5 5 5 5 5 5 5 5 6 5 5 5 5 5 5 6 6 5 5 5 5 6 5 5 5 5 5 5 5 5 5 5 5 5 5 5 5 5 5 5 6 5 5 5 5 6 5 5 5 5 5 5 5 5 5 5 5 5 5 6 5 5 5 5 5 5 5 5 6 5 5 5 6 5 5 5 5 5 6 5 6 5 5 5 5 5 5 5 5 5 5 5 5 5 5 6 5 5 5 5 5 5 5 5 5 5 6 5 5 5 5 5 5 5 6 6 5 5 5 5 5 5 6 5 5 5 5 5 5 5 5 5 5 6 5 5 5 5 6 6 5 6 5 5 5 5 5 5 5 6 5 6 5 5 5 5 5 5 5 5 5 6 5 5 5 5 5 5 5 5 5 5 5 5 5 5 5 5 5 5 5 5 5 5 5 5 6 5 5 5 5 5 5 5 5 5 5 5 5 5 5 5 5 5 5 5 5 5 5 5 5 5 5 5 5 5 5 5 5 5 5 5 5 5 5 5 5 5 5 5 5 5 5 5 6 5 5 5 5 6 5 5 5 5 5 5 5 6 5 5 6 5 5 5 5 5 5 5 5 5 5 5 5 5 5 5 6 6 5 5 5 5 5 5 5 5 6 5 5 5 5 5 5 5 5 5 5 6 5 6 5 5 5 5 5 5 5 5 5 5 5 5 5 5 5 5 5 5 5 5 5 5 5 5 5 5 5 5 5 5 5 5 5 5 5 5 5 5 5 5 5 5 5 5 5 5 5 5 5 5 5 5 5 5 5 5 5 5 5 5 5 6 5 5 6 5 5 5 5 5 5 5 5 5 6 5 5 5 5 5 5 5 5 5 5 5 5 6 5 5 5 6 5 5 5 5 5 5 5 5 5 5 5 5 5 5 5 5 5 5 5 5 5 6 5 5 5 6 5 5 5 5 5 5 6 6 5 5 5 5 5 5 5 5 5 5 5 5 5 5 5 5 5 5 5 5 5 5 5 5 5 5 5 5 5 5 5 5 5 5 5 6 5 5 5 5 5 5 5 5 5 5 5 5 5 5 5 5 5 5 5 5 5 5 5 5 6 5 5 5 5 5 5 5 5 5 5 5 5 5 6 6 5 5 5 6 6 5 5 5 5 5 5 5 5 5 5 5 5 5 6 5 5 5 5 6 5 5 5 5 5 6 5 5 5 5 5 5 5 5 6 5 5 5 6 5 5 6 5 5 6 5 5 5 6 5 5 6 5 5 5 5 5 5 6 5 5 5 5 6 5 5 5 5 5 5 5 5 5 5 5 6 5 5 5 5 5 5 5 5 5 5 5 5 5 5 5 5 5 5 5 5 5 5 5 5 6 5 6 6 5 5 5 6 5 5 5 5 6 5 5 5 5 5 5 5 5 6 5 5 5 6 5 5 5 5 5 5 5 5 5 5 5 5 5 5 5 5 5 5 5 5 6 5 5 5 5 5 5 5 5 5 5 5 5 6 5 5 5 5 5 5 6 5 6 6 5 5 5 5 5 5 5 5 5 5 6 5 5 5 5 6 5 5 5 6 5 5 6 5 5 5 5 5 5 5 5 5 5 6 5 6 5 5 5 6 5 6 5 5 5 5 6 6 6 5 5 5 5 5 5 6 5 5 5 5 5 5 5 6 5 5 5 5 5 5 5 5 5 5 5 5 5 5 6 5 6 5 5 5 5 5 5 6 5 5 5 5 6 5 5 6 5 5 5 6 5 6 5 5 6 5 5 5 5 5 6 5 6 5 5 5 5 5 5 5 5 5 5 6 5 6 5 5 5 5 5 6 6 5 6 5 5 5 6 6 6 6 5 5 5 6 5 6 5 6 6 5 5 5 6 5 5 5 6 6 5 6 5 5 6 5 5 5 5 5 5 5 5 5 5 5 5 5 5 5 5 5 5 5 5 5 6 5 5 5 5 6 5 6 5 6 5 5 5 5 5 6 6 5 6 5 5 6 5 5 5 5 5 6 5 5 6 5 5 5 6 6 5 5 5 6 5 6 6 5 5 6 5 6 5 5 6 5 6 5 5 5 5 5 5 6 5 5 5 6 5 5 5 5 5 5 5 5 5 5 5 5 5 5 5 5 5 5 5 5 5 5 5 5 5 5 5 5 6 5 5 5 6 5 6 5 5 6 5 5 5 5 5 5 5 5 5 5 6 5 5 5 5 5 5 5 5 5 5 5 5 5 5 6 6 5 5 5 5 5 6 6 5 5 6 6 5 5 5 5 5 5 5 5 5 5 5 5 5 5 5 5 5 5 5 6 5 5 5 5 5 5 5 5 6 5 5 5 5 5 5 5 5 5 5 5 6 6 5 5 5 5 5 5 5 5 5 5 5 5 5 5 5 5 5 5 5 5 5 5 5 5 5 5 5 5 5 5 5 5 5 6 5 5 6 5 5 5 5 5 5 5 5 5 5 5 5 5 5 5 5 5 5 5 5 5 5 5 5 5 5 5 5 5 5 5 5 5 5 5 6 5 5 5 5 5 5 5 5 5 5 6 5 5 5 5 5 5 5 6 5 5 5 5 5 5 5 5 5 5 5 5 5 5 5 5 5 5 5 5 5 5 5 5 5 5 5 5 5 5 5 5 5 5 5 5 5 5 5 6 5 5 5 5 6 5 5 5 5 5 5 5 5 5 5 5 5 5 6 5 5 5 5 5 5 6 5 5 6 6 5 5 6 6 5 5 5 5 6 6 5 5 5 5 6 6 5 5 5 5 5 5 5 6 5 5 5 5 5 5 5 5 5 6 5 5 5 6 5 6 5 6 5 5 6 5 5 6 5 5 5 5 6 5 5 5 5 5 5 5 5 6 5 5 5 5 5 5 6 5 5 5 5 5 5 5 5 5 5 5 6 5 5 5 5 5 5 5 5 5 5 5 5 5 5 6 5 5 5 5 5 5 6 5 5 6 5 5 5 5 5 5 5 5 5 5 5 5 5 5 5 5 5 5 6 5 5 5 5 5 5 5 6 5 5 5 5 5 5 5 5 5 5 6 5 5 5 6 5 5 6 5 6 5 5 5 5 6 6 5 5 5 5 5 6 6 5 6 6 5 6 6 5 5 5 6 5 5 5 5 5 5 6 5 5 6 6 5 5 5 5 5 5 5 5 5 5 6 6 5 5 5 6 5 5 5 6 5 5 5 5 5 5 5 5 5 5 5 5 5 5 5 5 5 5 6 5 5 6 5 5 6 6 5 5 5 6 5 5 5 5 6 5 5 5 5 5 5 5 5 5 6 5 5 6 5 5 5 5 5 5 5 5 5 6 6 5 5 5 5 5 5 6 5 5 6 5 5 5 5 5 5 5 5 5 5 5 6 5 5 5 5 5 5 6 5 5 5 5 5 5 5 5 6 5 6 5 5 5 5 6 6 5 5 6 5 5 5 5 5 5 5 5 5 5 5 5 5 5 5 5 5 5 5 5 6 5 6 5 5 5 5 5 5 5 6 5 5 5 5 5 5 5 5 5 5 5 5 5 5 5 5 5 5 5 5 6 6 5 5 5 5 5 5 5 6 5 5 6 5 6 5 5 6 6 5 5 5 5 6 5 5 6 5 5 5 5 6 5 6 5 5 5 5 5 5 5 5 5 5 5 5 5 5 5 5 5 6 5 5 5 6 5 5 5 6 5 6 6 5 5 5 5 6 5 5 5 6 5 6 6 6 5 5 5 5 5 6 5 5 5 5 5 5 5 5 5 5 5 5 6 5 5 5 5 6 5 5 5 5 5 5 5 5 5 5 5 5 5 5 5 5 5 6 5 5 5 5 5 5 5 5 6 5 6 5 5 5 5 5 6 5 5 5 5 6 5 6 5 6 5 6 5 5 6 5 5 5 5 5 5 5 5 5 5 5 5 5 5 5 5 5 5 6 5 5 5 5 5 5 5 6 5 5 5 5 5 6 6 5 5 5 5 5 5 5 5 5 5 5 5 5 5 5 5 6 5 5 5 5 5 5 5 5 6 5 5 6 5 5 5 5 5 5 5 5 6 5 5 5 6 5 5 5 5 6 5 5 5 5 5 5 5 5 5 5 5 5 5 5 5 5 5 5 5 5 6 5 5 5 5 5 5 5 6 5 5 5 5 5 6 5 5 5 5 5 5 5 5 5 5 5 5 5 5 5 5 5 5 5 5 5 5 5 5 5 5 6 5 5 6 6 5 5 6 5 5 5 5 6 5 5 5 5 5 5 5 5 6 6 5 5 5 5 5 6 5 5 5 6 5 5 6 5 6 5 5 5 5 5 6 5 6 5 5 5 5 5 5 5 5 5 5 5 5 5 5 5 5 5 5 5 5 5 5 6 5 5 5 5 5 6 5 5 5 5 6 5 5 5 5 5 5 5 5 5 6 5 5 5 5 6 6 5 5 5 5 5 5 5 6 6 5 5 5 5 5 6 6 6 5 6 5 5 6 5 5 5 6 5 5 6 5 5 5 6 5 5 5 5 6 5 5 6 5 5 5 5 5 5 6 5 5 5 6 5 5 5 5 5 5 5 5 5 5 5 6 5 5 5 5 5 5 5 5 5 5 5 5 5 5 5 5 5 5 5 5 5 5 5 5 5 5 6 6 5 5 5 6 5 6 5 5 5 5 5 5 5 6 5 5 5 5 5 5 5 5 5 5 5 5 5 5 5 5 5 5 6 6 5 6 5 5 5 5 5 6 5 5 6 5 5 5 5 5 5 5 5 5 6 5 5 5 5 5 5 5 6 5 5 6 5 6 5 5 5 6 5 5 6 5 5 5 5 5 5 5 6 5 5 5 5 6 5 5 5 5 6 5 5 6 5 5 5 5 5 5 5 5 5 6 5 5 5 6 5 5 5 5 5 5 5 6 6 5 6 5 5 5 5 5 5 5 5 5 5 5 6 5 5 5 5 5 5 6 5 5 5 5 5 5 6 5 5 5 5 5 5 5 5 5 5 5 5 5 5 5 5 5 5 5 5 5 5 5 5 5 5 5 5 6 5 5 5 5 6 5 5 5 5 5 6 5 5 5 5 5 5 5 6 5 5 5 5 5 5 5 5 5 5 5 5 5 5 5 6 5 5 6 5 5 5 6 5 5 6 5 6 5 5 5 5 5 6 5 5 5 5 6 5 5 6 6 5 5 6 6 6 5 5 5 5 6 5 6 6 5 6 5 5 5 5 5 5 5 5 5 5 6 5 5 5 5 5 5 5 5 6 6 5 6 5 5 5 5 6 5 5 6 5 5 5 5 6 5 6 5 5 6 5 5 5 5 5 5 6 5 5 5 6 6 5 5 5 5 5 5 5 5 5 5 5 5 5 5 5 5 5 6 5 6 5 5 5 5 5 5 5 5 5 5 5 5 5 5 5 6 5 5 6 5 5 5 5 5 5 5 5 6 6 5 5 5 5 5 5 5 5 5 5 5 5 5 5 5 5 5 5 6 5 6 5 5 5 5 6 5 6 5 5 5 5 5 5 5 5 5 6 5 5 5 5 5 5 5 5 5 5 5 5 5 6 5 6 5 6 5 6 5 5 5 5 5 6 5 5 5 5 5 5 6 5 5 5 5 5 5 5 5 6 6 5 5 5 6 5 5 5 5 5 6 5 5 5 6 5 5 5 5 6 5 5 5 5 5 5 5 5 5 5 5 5 5 5 5 5 5 5 5 5 5 5 5 5 5 5 5 6 5 5 5 6 5 5 5 6 5 5 5 5 5 5 6 5 5 5 5 5 5 5 5 6 5 5 5 5 5 5 6 5 5 6 5 5 5 5 5 5 5 5 6 5 6 6 5 5 5 5 5 5 5 5 5 5 5 5 5 5 5 5 5 5 5 5 5 5 5 5 5 6 5 5 5 6 6 5 5 5 5 6 5 6 6 5 5 6 6 
</DataArray>
<DataArray type="Float64" Name="stress" NumberOfComponents="9" format="ascii">
6024.1654551250576 -2176.1299978292059 0 -2176.1299978292059 -133.63340434170374 0 0 0 0 5494.8775315135281 -802.56033468881071 0 -802.56033468881071 755.48899090690236 0 0 0 0 2366.4084875656408 -247.06797141885136 0 -247.06797141885136 -120.02251197521537 0 0 0 0 954.49267922989384 -58.132356230662602 0 -58.132356230662602 0.39460895092038301 0 0 0 0 5169.1871369131841 -1026.5730942081152 0 -1026.5730942081152 768.72957944307916 0 0 0 0 3855.810598577591 796.71507021069726 0 796.71507021069726 -0.82224857696850862 0 0 0 0 23.895241869588631 2.9915964761700309 0 2.9915964761700309 -0.25522862212997566 0 0 0 0 1063.659260272907 1911.6684627997647 0 1911.6684627997647 -50.74867328867478 0 0 0 0 458.6841209349368 -747.12377427078468 0 -747.12377427078468 592.52404306257006 0 0 0 0 378.97783046947734 -653.22869122765235 0 -653.22869122765235 897.34205758253381 0 0 0 0 1050.5618034656072 -772.61355724233283 0 -772.61355724233283 -260.46554357277063 0 0 0 0 264.66658525407547 166.30487068169316 0 166.30487068169316 -812.11652571541094 0 0 0 0 45.636004554426393 4.8665564513712951 0 4.8665564513712951 -2.2007684332239617 0 0 0 0 203.22157215769403 -417.95019896974958 0 -417.95019896974958 -1.8018340130899446 0 0 0 0 409.64313529233186 253.77734563441479 0 253.77734563441479 -615.38123032443991 0 0 0 0 15.3382339370458 -1.9742826133091711 0 -1.9742826133091711 -1.1733784623271757 0 0 0 0 634.00176571686461 -939.85879624995948 0 -939.85879624995948 1031.286856063572 0 0 0 0 1518.319210514921 -1914.4954998138389 0 -1914.4954998138389 1942.691441560967 0 0 0 0 660.52229614861426 -626.68802297187904 0 -626.68802297187904 113.20531059868063 0 0 0 0 36.891488701930598 0.17575117690185493 0 0.17575117690185493 -3.1052940929625152 0 0 0 0 2102.7490127842029 -833.58670094580748 0 -833.58670094580748 -0.16717480936123674 0 0 0 0 2514.8095372388489 -1205.4579176576922 0 -1205.4579176576922 506.54102382672352 0 0 0 0 1962.4750212907165 -193.23070312867074 0 -193.23070312867074 216.69211154168403 0 0 0 0 812.4057684000727 34.086029651831154 0 34.086029651831154 348.60812942799009 0 0 0 0 1512.0789375785098 -414.8240759801904 0 -414.8240759801904 157.46067523229169 0 0 0 0 1174.4165474368492 -590.79218287207243 0 -590.79218287207243 350.13770304781491 0 0 0 0 792.4960524981434 -250.28943564674319 0 -250.28943564674319 125.24199589047481 0 0 0 0 1182.26355027307 -894.25233098046147 0 -894.25233098046147 175.38449263426264 0 0 0 0 745.03674811057863 -683.29595555081778 0 -683.29595555081778 104.95447212333795 0 0 0 0 442.60024633310968 -284.18375080419401 0 -284.18375080419401 230.62541905002763 0 0 0 0 282.92784077025135 -222.69368440851349 0 -222.69368440851349 210.60942226238512 0 0 0 0 668.78583881297527 -832.87888968848256 0 -832.87888968848256 358.12826346992608 0 0 0 0 1544.9362083135493 -1107.0124401610349 0 -1107.0124401610349 307.91583876157586 0 0 0 0 894.88492708551348 -962.4880272307621 0 -962.4880272307621 277.60429518439105 0 0 0 0 948.56230514316121 -1000.862535571247 0 -1000.862535571247 284.60913329797154 0 0 0 0 836.89516389174969 -936.95064274110268 0 -936.95064274110268 346.42292068812571 0 0 0 0 954.67458485372481 -993.49731946617487 0 -993.49731946617487 280.51245931440656 0 0 0 0 948.77841125396662 -715.33304091508273 0 -715.33304091508273 585.96081492392887 0 0 0 0 605.37983440529206 -755.72684409683461 0 -755.72684409683461 431.82977878427664 0 0 0 0 1003.2578243073367 -789.86168287696501 0 -789.86168287696501 204.91214840549583 0 0 0 0 -110.05770804393978 21.775692212699141 0 21.775692212699141 253.95528706619643 0 0 0 0 1238.4355755623037 -996.45479884907104 0 -996.45479884907104 777.171928371793 0 0 0 0 2705.860148908323 -222.26608233927823 0 -222.26608233927823 451.14117165541302 0 0 0 0 260.79546014929656 225.81225295614263 0 225.81225295614263 -776.58421777924286 0 0 0 0 448.73085687645653 -250.33437201578317 0 -250.33437201578317 -67.134156896504464 0 0 0 0 -371.21596965024946 -114.53998351393602 0 -114.53998351393602 -67.090539690645258 0 0 0 0 367.59229783085175 -452.12246337762872 0 -452.12246337762872 -691.77771739785385 0 0 0 0 241.185455673869 -295.71920399212377 0 -295.71920399212377 1.0323486045084564 0 0 0 0 602.43403127006604 -762.48532157570935 0 -762.48532157570935 79.135214573235771 0 0 0 0 430.77485905177309 0.287656001362393 0 0.287656001362393 -277.71289415684805 0 0 0 0 101.75772010240365 24.628993412728299 0 24.628993412728299 0.36821080996931244 0 0 0 0 -93.049409939092584 310.74397422146376 0 310.74397422146376 -437.15724833295371 0 0 0 0 48.118341284932761 5.1449550697404902 0 5.1449550697404902 -2.6257069842236049 0 0 0 0 -123.2211987961 -270.65724162535696 0 -270.65724162535696 -1013.3944850235566 0 0 0 0 -173.80196058712318 -142.18770621441899 0 -142.18770621441899 17.341138954714552 0 0 0 0 -358.2502443364026 119.46329561554901 0 119.46329561554901 459.71234446430185 0 0 0 0 36.962934759087339 31.089457110735765 0 31.089457110735765 -28.151420824656242 0 0 0 0 244.45564883097541 -92.00198183151133 0 -92.00198183151133 -467.82530010878372 0 0 0 0 235.0155423869146 -365.78984530051093 0 -365.78984530051093 -68.058267706564038 0 0 0 0 285.0578803753433 -87.853395159288823 0 -87.853395159288823 -124.7692350976522 0 0 0 0 358.04907450167593 323.98765170648994 0 323.98765170648994 471.56695458543618 0 0 0 0 1101.7972218685609 1057.9559714331517 0 1057.9559714331517 708.68189527054835 0 0 0 0 -291.11251286102924 151.78972405804063 0 151.78972405804063 424.42933702316384 0 0 0 0 -253.87303780541697 -56.157966954806653 0 -56.157966954806653 7.43758213123823 0 0 0 0 -4.3308123895666482 29.159661153557693 0 29.159661153557693 -12.696289040203554 0 0 0 0 2846.2272022454126 2048.1902166793952 0 2048.1902166793952 425.0467782491553 0 0 0 0 1096.4535339380818 1517.5250235726203 0 1517.5250235726203 1663.8413914170005 0 0 0 0 39.498674938212105 7.4466229308387106 0 7.4466229308387106 3.7282424831905203 0 0 0 0 -160.19516709135496 261.57542261797698 0 261.57542261797698 801.9732889006882 0 0 0 0 1038.9534117565781 1008.8424581285922 0 1008.8424581285922 891.26578975943403 0 0 0 0 1705.8087548792246 536.52142273661627 0 536.52142273661627 1095.7153714426322 0 0 0 0 372.03289162329747 210.47207168631849 0 210.47207168631849 736.702156928759 0 0 0 0 1458.8771031826036 1663.6391570472774 0 1663.6391570472774 1708.1407306170372 0 0 0 0 3054.6493060785579 962.68288618402335 0 962.68288618402335 -986.53878579356569 0 0 0 0 2042.9331545739551 1158.2049623866219 0 1158.2049623866219 122.38588654153864 0 0 0 0 20.309532672721502 -4.3280542957096912 0 -4.3280542957096912 1.0742220028193228 0 0 0 0 265.7514699989988 -235.50878559150385 0 -235.50878559150385 855.62517540138958 0 0 0 0 3418.7845158691343 1620.6053284054797 0 1620.6053284054797 -710.44951747419191 0 0 0 0 -520.54568102085614 -233.06603126678556 0 -233.06603126678556 3052.8514801341607 0 0 0 0 511.82198346975201 -929.30700550116762 0 -929.30700550116762 -158.79393647501433 0 0 0 0 33.813521129540163 -14.937726580009226 0 -14.937726580009226 5.9530680597801595 0 0 0 0 -215.12654547326383 29.245795093502185 0 29.245795093502185 237.72515858057892 0 0 0 0 -237.03324037854327 -125.07194904833341 0 -125.07194904833341 201.22175654070821 0 0 0 0 -6.4812406047713012 -158.85324437639906 0 -158.85324437639906 42.295693953274622 0 0 0 0 -81.132740186672891 -147.5038714960682 0 -147.5038714960682 -185.59717046478818 0 0 0 0 -17.107212353148498 26.261537169808715 0 26.261537169808715 -64.704956988747199 0 0 0 0 20.678121044411967 -4.2636739371391741 0 -4.2636739371391741 0.56436272627061412 0 0 0 0 4676.2989242309122 2456.7270986731805 0 2456.7270986731805 1683.0686745222636 0 0 0 0 -128.6690014989581 -128.9207479081326 0 -128.9207479081326 -55.039217152733102 0 0 0 0 5492.6905122027674 2178.6078117271882 0 2178.6078117271882 640.49471696022738 0 0 0 0 13.981183085812177 -9.7707629758056385 0 -9.7707629758056385 6.2779814632641102 0 0 0 0 5365.9908076992151 -901.56564725858073 0 -901.56564725858073 22.695711561595772 0 0 0 0 720.24640485028431 260.9016999054848 0 260.9016999054848 1684.7239169582285 0 0 0 0 5494.6966205627859 -1055.1331346400139 0 -1055.1331346400139 38.297838643014863 0 0 0 0 1485.3950592744513 -2442.1432219817098 0 -2442.1432219817098 3116.5544987632879 0 0 0 0 1649.8726201576355 -654.47664032711975 0 -654.47664032711975 1778.8649327445066 0 0 0 0 860.4031295151799 11.724154794843116 0 11.724154794843116 1497.2778115746364 0 0 0 0 1149.0215170969605 19.219003652490073 0 19.219003652490073 924.78282007759299 0 0 0 0 1428.6398642764834 -482.03978586331505 0 -482.03978586331505 538.43917741060102 0 0 0 0 1951.923872093852 1375.5068395580392 0 1375.5068395580392 1930.5207464440246 0 0 0 0 741.44691968156258 414.45503766962338 0 414.45503766962338 1321.9798692117224 0 0 0 0 836.93117118555529 123.48039060242127 0 123.48039060242127 1839.0975074409484 0 0 0 0 26.870650886907242 19.581919396225658 0 19.581919396225658 -5.8799616481728663 0 0 0 0 133.75080294931831 114.92592135196992 0 114.92592135196992 -256.03122925961816 0 0 0 0 100.7537731466 226.19988297095642 0 226.19988297095642 43.745477832848792 0 0 0 0 85.265216503903503 19.707422235858303 0 19.707422235858303 -279.91270741165363 0 0 0 0 56.512712025898509 -39.822614848685589 0 -39.822614848685589 60.484970488872136 0 0 0 0 168.74160742493405 8.5328528840606168 0 8.5328528840606168 50.002989286883349 0 0 0 0 16.723751486103254 3.4898930966439963 0 3.4898930966439963 1.9353185633410401 0 0 0 0 25.251124513422837 162.17824762749751 0 162.17824762749751 536.81111762209821 0 0 0 0 56.824602098532921 32.372343670145213 0 32.372343670145213 -0.467646627648719 0 0 0 0 83.685865391948028 95.310661079742985 0 95.310661079742985 -83.828965230936618 0 0 0 0 214.186548047408 -607.12693224967961 0 -607.12693224967961 376.91946264215483 0 0 0 0 13.869267618651065 1.5395377331532103 0 1.5395377331532103 0.024211974891334975 0 0 0 0 186.13508917725994 -53.007323328016355 0 -53.007323328016355 219.32866928182739 0 0 0 0 -19.466438262112206 17.989289913503427 0 17.989289913503427 -34.062241581792499 0 0 0 0 148.04483645828441 79.461798171462789 0 79.461798171462789 -80.373093809987026 0 0 0 0 135.69508005178795 -18.590323299709404 0 -18.590323299709404 -26.003120974904832 0 0 0 0 46.411079002558836 -39.736901378747589 0 -39.736901378747589 -12.229251174294191 0 0 0 0 47.712207013712032 -46.507354017674885 0 -46.507354017674885 0.20996144224095192 0 0 0 0 36.684647488165297 10.554685200801231 0 10.554685200801231 0.063196126617070358 0 0 0 0 63.256165818107547 8.3227612561312654 0 8.3227612561312654 -63.822261819085583 0 0 0 0 15.072800730085874 -45.945574781071983 0 -45.945574781071983 -12.266629775714094 0 0 0 0 -86.817382226116024 88.567818903916589 0 88.567818903916589 1.3917883900235708 0 0 0 0 11.879165986226127 2.1019176191935003 0 2.1019176191935003 -3.2065460115343489 0 0 0 0 -137.03227068676642 61.746051319191466 0 61.746051319191466 -4.7325264639788145 0 0 0 0 -0.47910354972296432 -0.43608026422083412 0 -0.43608026422083412 -0.15023724671934949 0 0 0 0 64.202769575473212 35.028039589715377 0 35.028039589715377 -23.669537388094795 0 0 0 0 28.013872785778062 17.248815662281515 0 17.248815662281515 7.0403477862383337 0 0 0 0 -81.500112349283881 152.1991088840833 0 152.1991088840833 -91.145403026214865 0 0 0 0 202.30390653801442 931.19689098398851 0 931.19689098398851 2172.5682668278423 0 0 0 0 15.423957791620097 9.363196149482178 0 9.363196149482178 -4.4061728513276925 0 0 0 0 61.731988757353975 -725.75037512492327 0 -725.75037512492327 247.93014846095093 0 0 0 0 1299.1460560228734 445.3533437542601 0 445.3533437542601 -1120.2774211988599 0 0 0 0 -101.10417354608944 -366.6691699629896 0 -366.6691699629896 -484.23361595143501 0 0 0 0 492.36449620570056 592.17383291551141 0 592.17383291551141 224.88972026501688 0 0 0 0 152.46428095121519 0.40458628949704689 0 0.40458628949704689 -28.209127772812508 0 0 0 0 53.751267344079679 14.868825903282413 0 14.868825903282413 -1.2410773552569481 0 0 0 0 -25.713503857405158 104.2387500941422 0 104.2387500941422 0.61992811091571665 0 0 0 0 19.102889905941993 11.611184826718059 0 11.611184826718059 5.8762421872789803 0 0 0 0 -6.173182355472818 45.655240888232584 0 45.655240888232584 78.736967452323825 0 0 0 0 0.01556211817660369 62.415111782835538 0 62.415111782835538 5.5200429969463585 0 0 0 0 -56.192814411630025 342.03776355085006 0 342.03776355085006 -249.45828617374161 0 0 0 0 -107.84196254794369 84.571864455675154 0 84.571864455675154 9.7967721747406813 0 0 0 0 223.53168229629227 84.94277226876423 0 84.94277226876423 -31.13862264121984 0 0 0 0 580.09015753439598 -325.6416595638961 0 -325.6416595638961 228.43827355751097 0 0 0 0 800.44504494406283 -29.77270151227134 0 -29.77270151227134 450.49705619341688 0 0 0 0 784.1272570926958 -85.233275171840262 0 -85.233275171840262 -10.658941378744203 0 0 0 0 30.336426814124934 -89.159859705244159 0 -89.159859705244159 -91.211172111314681 0 0 0 0 476.95271944120759 159.80290182526193 0 159.80290182526193 35.461850639229624 0 0 0 0 594.93893190650851 235.13334119892716 0 235.13334119892716 -544.09486511433738 0 0 0 0 -63.452825860877056 50.600196909073929 0 50.600196909073929 737.85555177757897 0 0 0 0 7.1726513030740762 4.2939436496704388 0 4.2939436496704388 2.1825373775103571 0 0 0 0 709.16798235809256 210.41784019704244 0 210.41784019704244 258.59694595827523 0 0 0 0 611.01727597782155 346.70120803980649 0 346.70120803980649 83.456505258933134 0 0 0 0 784.35675433797587 -195.00726376750401 0 -195.00726376750401 -801.60658183567693 0 0 0 0 383.1317669141572 -196.23944051429135 0 -196.23944051429135 -0.93062996871685755 0 0 0 0 121.13252516364446 99.412346106338191 0 99.412346106338191 305.30950260707687 0 0 0 0 123.84656020611874 728.35308573553891 0 728.35308573553891 159.48628063398314 0 0 0 0 225.43413552436687 -835.76617009833558 0 -835.76617009833558 566.97718307279183 0 0 0 0 194.00662322740027 17.862378732279527 0 17.862378732279527 -8.5857509323051318 0 0 0 0 731.94628290410037 707.23863555655601 0 707.23863555655601 -495.78815898166141 0 0 0 0 528.29243888093333 69.786654061214676 0 69.786654061214676 -971.85249446960734 0 0 0 0 558.23773785069352 -376.14580917627245 0 -376.14580917627245 11.940010878616135 0 0 0 0 191.34986674995162 -330.04898407240978 0 -330.04898407240978 9.7737868632380724 0 0 0 0 487.82819495249714 77.999604043532756 0 77.999604043532756 -171.5663648097543 0 0 0 0 578.01540888819 349.70291460000021 0 349.70291460000021 4.3842428139437288 0 0 0 0 453.2287026654958 82.788548300818547 0 82.788548300818547 -159.18179993369404 0 0 0 0 422.19430415455281 367.69192770127802 0 367.69192770127802 -5.9404575486450995 0 0 0 0 15.040417447120433 2.1511945466993438 0 2.1511945466993438 0.6710693517910955 0 0 0 0 1084.5610492880733 165.64346184348062 0 165.64346184348062 -162.18012471155635 0 0 0 0 69.947412767913193 196.85760142464756 0 196.85760142464756 -23.378140359590361 0 0 0 0 -72.474628003743419 -47.463851784885264 0 -47.463851784885264 -90.351204646824044 0 0 0 0 307.82232355287124 175.65949144956971 0 175.65949144956971 -87.700371109370224 0 0 0 0 307.82685642117576 169.31617294290623 0 169.31617294290623 -6.2520062754804826 0 0 0 0 22.806704023634666 -15.495663553032117 0 -15.495663553032117 -104.51822196434634 0 0 0 0 2.7965455520278795 -0.19958801665509895 0 -0.19958801665509895 -1.9359784930565653 0 0 0 0 -1.9006252683320781 31.128969322771326 0 31.128969322771326 -75.160961981685517 0 0 0 0 9.5053160413299338 4.025182624804188 0 4.025182624804188 -105.61270878531968 0 0 0 0 5.1668621370627079 -38.461823219204007 0 -38.461823219204007 -244.45989175943487 0 0 0 0 53.488603993653669 37.972795071549172 0 37.972795071549172 -278.81380598970281 0 0 0 0 -621.42029628081946 -329.13114126262371 0 -329.13114126262371 373.72173659639066 0 0 0 0 45.079003658359852 7.2910715399173114 0 7.2910715399173114 0.75325578487912681 0 0 0 0 178.17579063175435 -257.3209682947097 0 -257.3209682947097 143.08484208559366 0 0 0 0 183.67868632607872 11.733162459652227 0 11.733162459652227 -2.5202487078229878 0 0 0 0 360.39785806268628 31.538039406692036 0 31.538039406692036 -335.40428599933773 0 0 0 0 -31.351904220064171 101.14723453245983 0 101.14723453245983 36.419103170270546 0 0 0 0 343.67089671283611 484.78754698555895 0 484.78754698555895 -609.53706210395376 0 0 0 0 43.093008122610627 46.56789100354689 0 46.56789100354689 -130.31708844114746 0 0 0 0 53.095461930555757 112.50140334241689 0 112.50140334241689 -76.380457181418478 0 0 0 0 153.10877487300712 8.3237431775555706 0 8.3237431775555706 -1.6513899059893333 0 0 0 0 105.40191018825863 51.963707036654114 0 51.963707036654114 -23.314170881866858 0 0 0 0 36.829170548579498 2.2491292719204239 0 2.2491292719204239 10.032752866509306 0 0 0 0 197.28838709794218 32.557490071271559 0 32.557490071271559 99.494527396336252 0 0 0 0 41.800813337789123 -3.8930682065663689 0 -3.8930682065663689 1.552015281580051 0 0 0 0 111.35600433477845 1.6738508772671707 0 1.6738508772671707 -2.0990402012784739 0 0 0 0 254.65725308461697 -88.627530505450977 0 -88.627530505450977 -274.67739494422312 0 0 0 0 -49.05610215984052 -177.90719090854162 0 -177.90719090854162 155.43557354884291 0 0 0 0 69.261399720295856 13.500119832557374 0 13.500119832557374 2.0205115151570685 0 0 0 0 269.60176880264771 -48.238987027071786 0 -48.238987027071786 -0.30527948275334893 0 0 0 0 75.498962409474188 59.185364781391854 0 59.185364781391854 -170.59750779820388 0 0 0 0 48.691544770757901 66.179638682437599 0 66.179638682437599 -131.6156829263864 0 0 0 0 72.650850738721601 31.009389986870318 0 31.009389986870318 -110.47406197962209 0 0 0 0 70.354218250635313 52.014654890720976 0 52.014654890720976 -158.15181889390442 0 0 0 0 30.251140280044638 35.974035271001412 0 35.974035271001412 -158.87615756656123 0 0 0 0 757.58575066267804 392.57245910034624 0 392.57245910034624 136.74702981420944 0 0 0 0 59.452315412112512 37.466266433598321 0 37.466266433598321 -166.26550602770931 0 0 0 0 21.091313494631322 74.301380762531153 0 74.301380762531153 -187.32279562271742 0 0 0 0 11.535123856301652 51.393431155801409 0 51.393431155801409 -154.50911511157392 0 0 0 0 45.837868510687258 22.73128279325374 0 22.73128279325374 -202.66362896450948 0 0 0 0 40.374581610172754 7.1576508954556175 0 7.1576508954556175 -140.60996221573544 0 0 0 0 39.170649702427909 27.052702435356764 0 27.052702435356764 -98.245845015725308 0 0 0 0 59.537182881846093 30.560725647506843 0 30.560725647506843 -164.60554749500989 0 0 0 0 39.445803617592901 50.816982969214223 0 50.816982969214223 -164.32322759255749 0 0 0 0 54.650130948066362 -4.4837688063618089 0 -4.4837688063618089 -96.448261614968033 0 0 0 0 12.22259632746136 -6.8555670091359389 0 -6.8555670091359389 -5.7135963486715582 0 0 0 0 103.13906618324108 -1.9314266008433378 0 -1.9314266008433378 -84.039336061155836 0 0 0 0 100.57026657969982 25.735192196872561 0 25.735192196872561 -27.060237335731813 0 0 0 0 49.31928373289702 0.84111450709769997 0 0.84111450709769997 -39.125810209348856 0 0 0 0 65.663694748167472 17.353748663226668 0 17.353748663226668 -79.007415687389312 0 0 0 0 75.398802052324754 18.224413014355378 0 18.224413014355378 -133.84035711817978 0 0 0 0 54.966160260722972 35.394820510791078 0 35.394820510791078 -130.44689243089761 0 0 0 0 92.970274541410618 28.942914075735189 0 28.942914075735189 -113.3615474321 0 0 0 0 135.56836331454542 -15.208845429172015 0 -15.208845429172015 -67.850963816826379 0 0 0 0 87.983226119511528 -1.5395055457970557 0 -1.5395055457970557 -59.160794614279212 0 0 0 0 102.77290430746143 27.542798239664478 0 27.542798239664478 -98.713896029596071 0 0 0 0 107.5309916412225 -21.928111555210535 0 -21.928111555210535 -38.399434652603958 0 0 0 0 88.086955772902002 5.1368693975618953 0 5.1368693975618953 -42.103064658715084 0 0 0 0 120.83956480727647 -19.559576867460237 0 -19.559576867460237 -29.080805564392733 0 0 0 0 151.68415926853777 -58.103350342344811 0 -58.103350342344811 -18.562708851656282 0 0 0 0 132.67684512135747 3.6862148059777837 0 3.6862148059777837 -42.556015206157099 0 0 0 0 153.96636483180191 -44.316486939056858 0 -44.316486939056858 -33.389638720441326 0 0 0 0 70.754634234930563 47.971456534122353 0 47.971456534122353 -71.990060462234396 0 0 0 0 117.49276409322556 -13.677487557520578 0 -13.677487557520578 -62.306036497262539 0 0 0 0 102.98010647896444 48.658218399744328 0 48.658218399744328 -136.88771411194784 0 0 0 0 75.7197035709396 17.362134358236744 0 17.362134358236744 -102.33274904135351 0 0 0 0 85.603263957625245 18.464364417493403 0 18.464364417493403 3.7211363093388501 0 0 0 0 171.9502970417343 146.23505396074674 0 146.23505396074674 -7.9153247169224414 0 0 0 0 100.8050859409355 -1.9164348074016928 0 -1.9164348074016928 -4.3309415526068289 0 0 0 0 28.626307544414885 -83.521699394730319 0 -83.521699394730319 121.80779539180742 0 0 0 0 332.84233213262632 -266.6774705197011 0 -266.6774705197011 81.07040326476249 0 0 0 0 209.8403231473203 83.205185228324353 0 83.205185228324353 -209.55570986975772 0 0 0 0 283.90270452264303 -101.0852279728681 0 -101.0852279728681 -118.83632172115631 0 0 0 0 569.768142949295 -89.629394610640929 0 -89.629394610640929 -172.68571009903715 0 0 0 0 276.8901103909011 10.191286079083511 0 10.191286079083511 70.350899920140364 0 0 0 0 389.17078164984559 316.8559791575197 0 316.8559791575197 -191.21729701261387 0 0 0 0 101.0456599619647 86.814870022291529 0 86.814870022291529 -281.77779961708643 0 0 0 0 18.782615295029245 320.21908740542949 0 320.21908740542949 -236.6161289345676 0 0 0 0 37.240391593549418 9.0673400092177445 0 9.0673400092177445 7.1084991389912879 0 0 0 0 -336.55417153425878 169.12701031406687 0 169.12701031406687 -56.033613297788634 0 0 0 0 57.819695448755823 24.772714396880204 0 24.772714396880204 -2.7709112681955634 0 0 0 0 213.90094452982885 -35.64356577640774 0 -35.64356577640774 133.02283625976872 0 0 0 0 156.98639970950899 -121.02895204961351 0 -121.02895204961351 117.35218118688272 0 0 0 0 112.18687858298654 62.9191795485076 0 62.9191795485076 -147.59969965471913 0 0 0 0 204.09083979355637 -57.96781625609583 0 -57.96781625609583 143.24171974824822 0 0 0 0 112.37801501179638 -79.853634278979825 0 -79.853634278979825 162.37648724871178 0 0 0 0 27.398765942344539 -8.8996555246883986 0 -8.8996555246883986 -6.7765975639557521 0 0 0 0 150.77673614614469 -3.2899978121458844 0 -3.2899978121458844 -147.0767326906398 0 0 0 0 6.8794838259959761 52.543836625859456 0 52.543836625859456 -111.64435516488629 0 0 0 0 139.6938435037664 -7.6565669469619024 0 -7.6565669469619024 -130.19439759515899 0 0 0 0 212.0680468278133 -98.104840611464397 0 -98.104840611464397 78.649487761124419 0 0 0 0 71.162100265545973 29.463391169381495 0 29.463391169381495 -1.9792948236792078 0 0 0 0 192.37984019934811 -32.083236591573268 0 -32.083236591573268 136.07499964937142 0 0 0 0 146.65297034330433 -62.748196058819531 0 -62.748196058819531 67.501777638810381 0 0 0 0 151.46958684972105 -42.8683306050863 0 -42.8683306050863 7.0148262915284931 0 0 0 0 191.0705404006294 -69.095687074996363 0 -69.095687074996363 10.898511474546922 0 0 0 0 188.37349588197685 -39.828955285172896 0 -39.828955285172896 -7.9779865536415855 0 0 0 0 138.38038194927321 2.3761513848502602 0 2.3761513848502602 -19.765236050899489 0 0 0 0 216.86924810291021 -106.59636071982112 0 -106.59636071982112 101.20708311983253 0 0 0 0 159.12090343559248 -36.261513097416014 0 -36.261513097416014 46.539062007073426 0 0 0 0 189.96760541549884 -67.32961212450482 0 -67.32961212450482 46.056134122277932 0 0 0 0 260.76913590704498 11.456044285952828 0 11.456044285952828 18.257899831485247 0 0 0 0 106.78851779561228 46.207081133200631 0 46.207081133200631 17.877537171422546 0 0 0 0 2.6555699419543544 -0.61307294586765693 0 -0.61307294586765693 -1.3729465117854804 0 0 0 0 34.692575594322989 8.1606367762215086 0 8.1606367762215086 13.088492230800284 0 0 0 0 34.805473477316696 17.115235687418611 0 17.115235687418611 5.1109718403766635 0 0 0 0 3.7927117078107528 -0.90895447683467978 0 -0.90895447683467978 -1.8230338583509904 0 0 0 0 37.603207362568355 16.62384816503527 0 16.62384816503527 33.413677663928866 0 0 0 0 -41.733984949358273 -67.754934445248637 0 -67.754934445248637 125.56874167693877 0 0 0 0 -0.74880737448984291 -158.78853752137866 0 -158.78853752137866 72.231308887736304 0 0 0 0 169.78750138405303 -114.87808671911716 0 -114.87808671911716 83.470903230670729 0 0 0 0 52.10661927187175 -67.001312505416536 0 -67.001312505416536 134.48142056229335 0 0 0 0 -89.871934455135488 -211.36044144680602 0 -211.36044144680602 94.663209144199556 0 0 0 0 84.101625423325459 -77.000763968269894 0 -77.000763968269894 129.94306866789998 0 0 0 0 34.919524938915856 -34.330655306926928 0 -34.330655306926928 159.32903117729984 0 0 0 0 63.928792583668837 -66.212100292615105 0 -66.212100292615105 146.72361487586204 0 0 0 0 61.234986406969256 -56.055153747737222 0 -56.055153747737222 126.55142662490948 0 0 0 0 46.216622878680937 -96.616932895609352 0 -96.616932895609352 129.78007041492447 0 0 0 0 288.96490261045983 -222.3674553331648 0 -222.3674553331648 154.08459186079654 0 0 0 0 333.40215442204499 -132.7033068089404 0 -132.7033068089404 56.860294354567486 0 0 0 0 552.94064581840212 135.23527625435801 0 135.23527625435801 31.603505692849467 0 0 0 0 559.19009127668687 -150.16158461937493 0 -150.16158461937493 11.107163390032156 0 0 0 0 303.03250274411403 -53.597229463628082 0 -53.597229463628082 -31.397366632907961 0 0 0 0 290.15628849776112 -33.721297111657577 0 -33.721297111657577 -19.174666902616082 0 0 0 0 235.95117639933596 -114.42997988752359 0 -114.42997988752359 102.79791387244268 0 0 0 0 220.02732205409848 19.452383718834653 0 19.452383718834653 -62.383708458859701 0 0 0 0 115.82490939564013 -41.504788515303744 0 -41.504788515303744 -65.184194478869358 0 0 0 0 321.05794467349915 75.02297210617786 0 75.02297210617786 -117.7057249584509 0 0 0 0 269.99728023193893 108.04200498392697 0 108.04200498392697 -20.505959290412079 0 0 0 0 420.018365990647 72.795699972180159 0 72.795699972180159 -106.47774185102026 0 0 0 0 391.80749325206853 58.414646631251344 0 58.414646631251344 -113.80876068380212 0 0 0 0 378.27644557678286 101.50478045201066 0 101.50478045201066 -110.39219222962629 0 0 0 0 307.71751788018446 50.467140339420212 0 50.467140339420212 -139.70584134122231 0 0 0 0 425.94320026398782 96.746211726203541 0 96.746211726203541 -147.95304731095894 0 0 0 0 399.12628557483549 139.4078075147255 0 139.4078075147255 -73.326013574836793 0 0 0 0 342.93127951644419 -0.49174573638333641 0 -0.49174573638333641 -202.98466155579027 0 0 0 0 267.45200661069975 43.190618051109027 0 43.190618051109027 -100.0491902347062 0 0 0 0 185.59068929209025 10.614133643345212 0 10.614133643345212 -103.6119500603719 0 0 0 0 292.11606087744804 102.04662483912296 0 102.04662483912296 -61.166355946270414 0 0 0 0 235.10281393901823 152.23902016202646 0 152.23902016202646 3.3473980353683146 0 0 0 0 168.44100286414323 60.323298566282119 0 60.323298566282119 -38.594502053898736 0 0 0 0 166.85846070240586 65.826799575593668 0 65.826799575593668 -40.246053386530548 0 0 0 0 402.06928358869482 215.37998480932424 0 215.37998480932424 25.330158345982454 0 0 0 0 409.30557688229601 77.387570693620546 0 77.387570693620546 -108.84653127717348 0 0 0 0 388.67898127278022 74.353414944460383 0 74.353414944460383 -64.488824687142369 0 0 0 0 482.02679372680723 49.488218812766718 0 49.488218812766718 -62.544744790940911 0 0 0 0 535.06744143099058 173.96434874502575 0 173.96434874502575 37.253566964160655 0 0 0 0 501.04291083118005 54.597045653245914 0 54.597045653245914 87.376979751923955 0 0 0 0 169.67866316939217 345.54481064785762 0 345.54481064785762 774.35935147941382 0 0 0 0 -6.8553441465284664 16.628175601324699 0 16.628175601324699 -29.467530204513658 0 0 0 0 171.77722228739367 367.28353938929297 0 367.28353938929297 823.96698153720672 0 0 0 0 295.80683411641803 1217.9326421158903 0 1217.9326421158903 -135.03547925972907 0 0 0 0 238.7876477262339 107.90902893486403 0 107.90902893486403 939.85694096193947 0 0 0 0 2.1780517670975996 6.5060162381105471 0 6.5060162381105471 -13.504677991978317 0 0 0 0 610.77419809445564 477.09459857341881 0 477.09459857341881 838.1422420937613 0 0 0 0 536.62893412127687 1121.7246699279845 0 1121.7246699279845 -1300.1858151084634 0 0 0 0 535.61374171575153 2151.5648229913795 0 2151.5648229913795 -1226.8561504212948 0 0 0 0 53.121314331569977 10.812525970373017 0 10.812525970373017 0.39461629664335263 0 0 0 0 -1338.6968072002055 1399.4056738241516 0 1399.4056738241516 -85.91203330092344 0 0 0 0 188.65198240479367 -195.53007574613753 0 -195.53007574613753 -2139.7804060800281 0 0 0 0 2456.2532307362926 1937.9370363704506 0 1937.9370363704506 59.492643679601997 0 0 0 0 418.19140155601781 1266.4446596057664 0 1266.4446596057664 2192.227653620298 0 0 0 0 35.307173095832354 17.171361038386792 0 17.171361038386792 5.7189495079721091 0 0 0 0 -430.54178663164203 2296.4270524022377 0 2296.4270524022377 -573.1921059277621 0 0 0 0 2739.1341977264865 -3061.3864469894552 0 -3061.3864469894552 1204.0330120446283 0 0 0 0 1421.7351490399888 -2249.336056156304 0 -2249.336056156304 809.2527934987088 0 0 0 0 -156.20448990769364 1257.2757652566484 0 1257.2757652566484 -1810.0530465682498 0 0 0 0 82.82331079310157 45.502823700990142 0 45.502823700990142 15.284951231309869 0 0 0 0 4252.4733593658893 1591.4051480617482 0 1591.4051480617482 600.12978241493147 0 0 0 0 33.064895197239821 255.87158186548982 0 255.87158186548982 -1576.5750222184504 0 0 0 0 -995.76543441614194 937.14606890664186 0 937.14606890664186 -315.45415805395567 0 0 0 0 22.453416738950182 473.68842956866922 0 473.68842956866922 -588.97723208093385 0 0 0 0 604.16995026438963 562.28523058357814 0 562.28523058357814 -617.46542203535819 0 0 0 0 554.68180902489257 -386.88371669657715 0 -386.88371669657715 -232.68486264324451 0 0 0 0 1018.0124908114813 65.992196094108238 0 65.992196094108238 -846.99178302259634 0 0 0 0 303.41745162642474 -33.91493367766418 0 -33.91493367766418 -832.31908200350426 0 0 0 0 -758.12790966461034 470.27500278443722 0 470.27500278443722 -793.81051994092991 0 0 0 0 278.89788581759422 -71.367361173994766 0 -71.367361173994766 -689.80024538170915 0 0 0 0 505.44951640480576 264.43093065256039 0 264.43093065256039 -1322.9720434216588 0 0 0 0 89.961485648488406 50.525317545724199 0 50.525317545724199 18.615362995614056 0 0 0 0 -1345.4599732757633 -370.07924081232795 0 -370.07924081232795 513.90378444399357 0 0 0 0 945.68313414140721 609.02664772323851 0 609.02664772323851 -854.97473972534908 0 0 0 0 193.18758832193998 -171.94125668200058 0 -171.94125668200058 -770.76790458480536 0 0 0 0 1095.0227842038148 -2349.8901190849047 0 -2349.8901190849047 116.45043897299206 0 0 0 0 2822.5899107482983 -3505.8083409554029 0 -3505.8083409554029 -3022.7518426904498 0 0 0 0 6426.6642651552684 1251.3626460561718 0 1251.3626460561718 -1866.6796079975793 0 0 0 0 1371.3980986112438 -344.55416121258895 0 -344.55416121258895 -293.05901378684939 0 0 0 0 3139.5190505598148 -1218.2868294055061 0 -1218.2868294055061 -954.23756107552708 0 0 0 0 42.140357933036285 -1933.0676745108594 0 -1933.0676745108594 -26.038364723313862 0 0 0 0 2739.9960242965317 766.36317366623643 0 766.36317366623643 -311.54327017807009 0 0 0 0 1850.083864899847 -533.16096677302721 0 -533.16096677302721 -281.20502383971257 0 0 0 0 1445.5698308359424 734.39824573348869 0 734.39824573348869 268.60182076219644 0 0 0 0 947.54357357107801 377.54367891787388 0 377.54367891787388 320.42085082947597 0 0 0 0 755.66981466401558 -332.89847807672697 0 -332.89847807672697 78.575334207636843 0 0 0 0 460.50741709668364 -199.55663911096417 0 -199.55663911096417 167.34424834666879 0 0 0 0 -645.34584659164102 407.25497046533906 0 407.25497046533906 8.65203862897215 0 0 0 0 -35.549798098756582 52.35036888410059 0 52.35036888410059 57.811702032493486 0 0 0 0 -212.96438986973953 -184.0398537731744 0 -184.0398537731744 241.80620985568294 0 0 0 0 402.26171598892324 -396.27660541955447 0 -396.27660541955447 202.6579395828503 0 0 0 0 -357.90190060754685 -612.54130906117166 0 -612.54130906117166 91.775776124756717 0 0 0 0 50.509598640492186 29.022234344576646 0 29.022234344576646 -22.961785683152129 0 0 0 0 94.934787495993078 -12.345768914128712 0 -12.345768914128712 13.674430569899414 0 0 0 0 -14.123948137625121 14.576090836240837 0 14.576090836240837 116.10384170450561 0 0 0 0 112.04726766938984 -46.685971536564466 0 -46.685971536564466 75.330090821938938 0 0 0 0 13.030439219946402 9.8985922131554673 0 9.8985922131554673 2.5212047329598271 0 0 0 0 78.997506802290019 37.857104031888312 0 37.857104031888312 7.8074566468450382 0 0 0 0 541.4545293362462 215.02425755890602 0 215.02425755890602 2.2627202975008913 0 0 0 0 -287.82338869064552 395.56517347353105 0 395.56517347353105 -324.9925587368906 0 0 0 0 -371.7813119597995 299.49623413471625 0 299.49623413471625 -97.730215005949958 0 0 0 0 -178.54604366957938 108.90670038807687 0 108.90670038807687 -184.54268124376571 0 0 0 0 -146.90196845080936 135.44691561706102 0 135.44691561706102 -453.97590188473339 0 0 0 0 97.294869930439745 160.69207029866726 0 160.69207029866726 -631.29315703224529 0 0 0 0 -393.8101539549607 243.69959019874534 0 243.69959019874534 -387.5013465737436 0 0 0 0 48.533698480591738 -31.336558212036074 0 -31.336558212036074 -375.25653090312278 0 0 0 0 -57.981437769572949 242.29434538440398 0 242.29434538440398 -586.94296439684763 0 0 0 0 -283.81378851116278 676.63369160158129 0 676.63369160158129 -752.51714789723383 0 0 0 0 5.610007749417548 3.0095022149327662 0 3.0095022149327662 -0.88635012346336506 0 0 0 0 287.96634558137157 422.97870928489169 0 422.97870928489169 -850.83572702806055 0 0 0 0 548.20031947699681 360.62894860085527 0 360.62894860085527 -876.49479446269538 0 0 0 0 356.01448764128145 186.95317821337539 0 186.95317821337539 -985.45800489953683 0 0 0 0 320.59396730010303 30.479071965493532 0 30.479071965493532 -522.52660121227404 0 0 0 0 324.18878800087441 -275.67830419468049 0 -275.67830419468049 -198.70457005001617 0 0 0 0 486.67430740249984 -22.135651731746691 0 -22.135651731746691 -698.33412979450929 0 0 0 0 200.14596687361336 -161.20376098642254 0 -161.20376098642254 -109.02926393963688 0 0 0 0 212.15629771032764 -174.26021733663026 0 -174.26021733663026 -264.30311509481396 0 0 0 0 233.17347474121925 -14.15335202566007 0 -14.15335202566007 -544.70146012870043 0 0 0 0 283.941576806792 -70.369677472309718 0 -70.369677472309718 -452.97693906118002 0 0 0 0 275.86951420576224 -73.714339923624024 0 -73.714339923624024 -307.44373949672485 0 0 0 0 211.58390775531734 -114.9979117375905 0 -114.9979117375905 -145.84925206949504 0 0 0 0 212.75321494862874 -78.012944268213701 0 -78.012944268213701 -178.79389236491249 0 0 0 0 251.74579798454943 -22.161702777963619 0 -22.161702777963619 -269.97915428472305 0 0 0 0 260.45387763590224 -56.939962071022464 0 -56.939962071022464 -276.10597984168504 0 0 0 0 284.26551871447373 -23.828732513226502 0 -23.828732513226502 -424.93446302023392 0 0 0 0 487.15300666062831 -41.495375259313988 0 -41.495375259313988 -425.00697290790708 0 0 0 0 126.23072530332138 41.723808425841042 0 41.723808425841042 -449.58174115350045 0 0 0 0 277.00404801447803 -216.34447497393603 0 -216.34447497393603 -127.40741113228836 0 0 0 0 -31.365841045117122 57.821789616755154 0 57.821789616755154 -150.21183272891722 0 0 0 0 -145.20222537801601 245.26835416626932 0 245.26835416626932 -291.2789744524548 0 0 0 0 16.916299497221189 166.07217611145865 0 166.07217611145865 91.728421477869688 0 0 0 0 332.62639158286765 91.870382198412926 0 91.870382198412926 -442.74531968914539 0 0 0 0 6.6117084825461347 -3.2752279912616302 0 -3.2752279912616302 0.67702051804508123 0 0 0 0 406.38869037345285 -203.45827325185576 0 -203.45827325185576 221.84255219896696 0 0 0 0 350.97257774737955 251.07731619685802 0 251.07731619685802 159.39230173092074 0 0 0 0 268.00341004195434 293.24382261735565 0 293.24382261735565 417.63434525302972 0 0 0 0 2.8441375611780586 -1.3123595716610907 0 -1.3123595716610907 -0.94784212798910072 0 0 0 0 325.52442689174495 175.43714190926676 0 175.43714190926676 208.60272349428669 0 0 0 0 -103.26671061321395 70.047689744141962 0 70.047689744141962 -972.62185041309954 0 0 0 0 407.77165177435381 -167.21811480045119 0 -167.21811480045119 -1536.0078525454101 0 0 0 0 -129.31458258222847 164.54926463635627 0 164.54926463635627 202.95284567233534 0 0 0 0 -107.85877553436148 -237.95507933129946 0 -237.95507933129946 -664.19967444529948 0 0 0 0 38.580704210820841 -432.38031386371881 0 -432.38031386371881 264.62903112155323 0 0 0 0 352.56884935758717 285.26931295418029 0 285.26931295418029 -899.96951305143853 0 0 0 0 20.760925974827273 -5.2093787985363278 0 -5.2093787985363278 -0.01416490187173991 0 0 0 0 2388.5623366718501 -2421.5961153327999 0 -2421.5961153327999 416.94167491415027 0 0 0 0 5488.5645296506682 -1468.0437463968758 0 -1468.0437463968758 -1299.0817256135672 0 0 0 0 3210.8133248226368 -529.57240976431035 0 -529.57240976431035 -1064.9076133397498 0 0 0 0 477.66080264450284 93.169723840333745 0 93.169723840333745 131.67700953087558 0 0 0 0 2924.4157657069154 -975.52454599812381 0 -975.52454599812381 -42.269574201875486 0 0 0 0 2995.0373907328176 890.03783992363367 0 890.03783992363367 -87.822831280648188 0 0 0 0 3878.2199444342405 -466.35325665201191 0 -466.35325665201191 -1058.924171211936 0 0 0 0 5501.8533143072127 611.06437100525284 0 611.06437100525284 -844.08453978745865 0 0 0 0 3396.5468741888649 1089.0486418097964 0 1089.0486418097964 78.505145205448613 0 0 0 0 7.26648214965644 -1.5503040227754923 0 -1.5503040227754923 0.015018786938412854 0 0 0 0 3377.7988245023589 589.36883565860694 0 589.36883565860694 5.5790776102921882 0 0 0 0 398.24495365901385 839.23288674565788 0 839.23288674565788 707.5160989314171 0 0 0 0 216.69263293199765 271.6219883347145 0 271.6219883347145 504.31225577057455 0 0 0 0 39.290268302657921 -16.392262585424575 0 -16.392262585424575 0.94299660530159235 0 0 0 0 -473.82959002771531 739.40357836208455 0 739.40357836208455 1182.4840897540598 0 0 0 0 -302.43969676777488 -352.54740903358152 0 -352.54740903358152 -132.86899418234756 0 0 0 0 -407.92906718404265 -56.688340529995685 0 -56.688340529995685 50.840972736991716 0 0 0 0 -80.246881345199654 -32.183272468025621 0 -32.183272468025621 -336.60128521669458 0 0 0 0 736.11125848788652 439.67650931041436 0 439.67650931041436 297.26780482766799 0 0 0 0 279.80957957915962 269.93778026973621 0 269.93778026973621 400.78209251302411 0 0 0 0 320.04867812762677 280.10004486457672 0 280.10004486457672 387.18144463390911 0 0 0 0 47.728546218928273 -19.847791436647185 0 -19.847791436647185 -0.39247512686762076 0 0 0 0 297.8713775806973 305.84446138309318 0 305.84446138309318 412.32614642367651 0 0 0 0 -20.083606114349095 -608.18349940245946 0 -608.18349940245946 -367.03920528465687 0 0 0 0 -210.0871664097649 -267.93744249947372 0 -267.93744249947372 -165.57306548815495 0 0 0 0 99.648207190897665 114.24441706511152 0 114.24441706511152 132.18457509762084 0 0 0 0 153.87880652173772 -547.86440361129371 0 -547.86440361129371 -60.168466660708191 0 0 0 0 158.03214188205311 -374.14237660821209 0 -374.14237660821209 -491.85213299717009 0 0 0 0 406.96048363893351 -186.78176491216243 0 -186.78176491216243 -169.13971607165604 0 0 0 0 -57.482827190338867 -223.98189713994122 0 -223.98189713994122 279.08800719096598 0 0 0 0 1822.2218596184975 -496.03246099266653 0 -496.03246099266653 2.2901743767642984 0 0 0 0 455.03427805803949 -267.34621017289749 0 -267.34621017289749 -35.193332862660839 0 0 0 0 1104.2598968685052 150.02774788085983 0 150.02774788085983 -395.95248578409763 0 0 0 0 202.54856071798713 1017.1902207668719 0 1017.1902207668719 -217.38368424530756 0 0 0 0 2932.4259086723032 1331.8154213249302 0 1331.8154213249302 -221.61051757583073 0 0 0 0 2397.8636917563563 1731.1106754637424 0 1731.1106754637424 286.99884858315465 0 0 0 0 1366.2987676784105 1443.0416200149164 0 1443.0416200149164 846.22320587374236 0 0 0 0 1103.7536669134424 1057.6240456642774 0 1057.6240456642774 705.64551238910053 0 0 0 0 3195.083280147519 1442.2490297083596 0 1442.2490297083596 -176.89880223966725 0 0 0 0 72.157835399331816 207.33332146109862 0 207.33332146109862 -154.36142669692936 0 0 0 0 -1.4021678490365588 4.8471187714692689 0 4.8471187714692689 -0.098988782843822398 0 0 0 0 -312.28249241397134 373.5905601680733 0 373.5905601680733 -1.7341698557975178 0 0 0 0 109.67682325295755 83.969979299969168 0 83.969979299969168 -374.79836695522118 0 0 0 0 299.76653211409575 108.67571730355746 0 108.67571730355746 -373.54049268166682 0 0 0 0 113.2169557986781 226.06584414323814 0 226.06584414323814 -400.23787693453698 0 0 0 0 184.22430565913237 -99.765585941886599 0 -99.765585941886599 -64.567771200559491 0 0 0 0 1031.478264687612 589.27775657344716 0 589.27775657344716 311.41854516559499 0 0 0 0 949.07726634948631 750.93435897753659 0 750.93435897753659 -5.7239356822373679 0 0 0 0 746.09061759142787 97.963461616464201 0 97.963461616464201 -125.86506404005377 0 0 0 0 616.11249956779648 718.38893249599164 0 718.38893249599164 617.34053153803961 0 0 0 0 1766.6025278584275 956.97948669498817 0 956.97948669498817 113.31581043080928 0 0 0 0 1847.6756803275493 639.81248793479369 0 639.81248793479369 259.85762599258049 0 0 0 0 1859.0011461680406 1070.9780439601245 0 1070.9780439601245 91.233152685008164 0 0 0 0 2304.1401011458511 632.82942346070467 0 632.82942346070467 397.65104431299244 0 0 0 0 1814.7712118288327 670.33583578198352 0 670.33583578198352 169.83961611476934 0 0 0 0 1578.7092482680455 886.76676672364329 0 886.76676672364329 -24.039884246646352 0 0 0 0 1162.0678813600389 516.17467256512111 0 516.17467256512111 199.77870280787573 0 0 0 0 1579.8996395116847 914.21512671289406 0 914.21512671289406 54.694402101527885 0 0 0 0 286.65616126259556 499.2766546914167 0 499.2766546914167 304.54356632144305 0 0 0 0 183.35694719861931 23.557013870842884 0 23.557013870842884 5.8345759327623909 0 0 0 0 -52.634079397903406 -7.3594984757637576 0 -7.3594984757637576 -0.66569845784943027 0 0 0 0 -3.2053596699784048 33.825301257393079 0 33.825301257393079 -7.8952606303227739 0 0 0 0 1305.230393272228 235.43110781346161 0 235.43110781346161 -313.46636495139524 0 0 0 0 1683.452130363672 650.80483860387471 0 650.80483860387471 -206.50019100761898 0 0 0 0 1109.3103569513187 365.61855967283952 0 365.61855967283952 134.26305815576364 0 0 0 0 12.596177809482811 3.5115335488762582 0 3.5115335488762582 -3.1442993645183108 0 0 0 0 130.22782357239339 94.630514381784792 0 94.630514381784792 -36.914027532416185 0 0 0 0 -14.123211461439496 157.57954817076188 0 157.57954817076188 -97.594047510327073 0 0 0 0 -9.2038019476047168 31.09922832492542 0 31.09922832492542 -38.614859494948419 0 0 0 0 2144.5117728939122 617.50506658852669 0 617.50506658852669 162.72317141104992 0 0 0 0 -6.2864482909983668 12.261719628186086 0 12.261719628186086 36.143178406446886 0 0 0 0 1827.0237281333684 879.10819076307894 0 879.10819076307894 404.01568836386116 0 0 0 0 1899.5115364849044 835.75066806461973 0 835.75066806461973 428.23186639749815 0 0 0 0 1896.1535029151546 944.26243457601765 0 944.26243457601765 345.19560545995978 0 0 0 0 4.1503143082625797 11.803072645239126 0 11.803072645239126 3.0504711210876589 0 0 0 0 1093.267518491135 1024.5399306066649 0 1024.5399306066649 942.62005471387852 0 0 0 0 1792.6924596078752 2066.5398487600442 0 2066.5398487600442 1110.732960734699 0 0 0 0 4810.6008775585506 1994.0780430065972 0 1994.0780430065972 65.151881323310135 0 0 0 0 -437.8261463076924 -26.458883905400683 0 -26.458883905400683 885.08022799664241 0 0 0 0 2.6748575338381446 -0.41795803002517573 0 -0.41795803002517573 12.098448280726169 0 0 0 0 3155.6616627662588 783.15547802671676 0 783.15547802671676 406.39923375787077 0 0 0 0 91.317975059064338 -64.261432259615503 0 -64.261432259615503 -50.414201476360063 0 0 0 0 18.462183077208465 -131.22391415610855 0 -131.22391415610855 -257.43289538894874 0 0 0 0 51.672290950629815 -19.175410984921157 0 -19.175410984921157 -3.4925792976088488 0 0 0 0 266.85219315544236 334.99198064313111 0 334.99198064313111 478.88682576862072 0 0 0 0 29.199462979857344 64.302668999406478 0 64.302668999406478 6.7840245436891564 0 0 0 0 13.156553554465063 -69.988443217996746 0 -69.988443217996746 3.2788305054220785 0 0 0 0 389.45847257220157 248.77006599642277 0 248.77006599642277 -304.84561004145962 0 0 0 0 242.50758199195843 453.83574602715248 0 453.83574602715248 -183.19570552612413 0 0 0 0 56.087452694495084 -18.684302361621675 0 -18.684302361621675 -6.3737107942270139 0 0 0 0 204.52258130602422 5.4014236985862567 0 5.4014236985862567 -50.497235409401583 0 0 0 0 325.99668484654103 184.90070702975549 0 184.90070702975549 -251.28507353323266 0 0 0 0 139.01852634317765 64.630237888505803 0 64.630237888505803 369.06330070563104 0 0 0 0 -85.686325301532634 -106.31168593368849 0 -106.31168593368849 -876.89470556664219 0 0 0 0 -70.24118350687786 -301.96317788965553 0 -301.96317788965553 -341.94586738464568 0 0 0 0 -85.179460347862914 -345.59144770996181 0 -345.59144770996181 -189.48735115746422 0 0 0 0 -98.347412262608486 413.38957941945864 0 413.38957941945864 -360.38987432745216 0 0 0 0 -240.89997278983355 -366.75096833349608 0 -366.75096833349608 -779.85368576072824 0 0 0 0 13.658449036717968 -2.7882170227617955 0 -2.7882170227617955 -0.35090642663803395 0 0 0 0 353.04520562813559 229.75705932605979 0 229.75705932605979 -816.5043248074644 0 0 0 0 -22.263904094230384 -595.71389261480908 0 -595.71389261480908 57.763177081841604 0 0 0 0 365.31077130540507 -71.169169372468332 0 -71.169169372468332 -238.33447613848023 0 0 0 0 366.98464830897865 -1006.3854915903185 0 -1006.3854915903185 -115.22576377101814 0 0 0 0 95.582033976563253 -592.76260231240849 0 -592.76260231240849 -244.6466098228243 0 0 0 0 181.57040319108637 -660.49243759841056 0 -660.49243759841056 -557.82576491193868 0 0 0 0 179.00616424591863 -568.33180970998501 0 -568.33180970998501 -643.10999131165863 0 0 0 0 551.82235334164579 -761.57976900748918 0 -761.57976900748918 -828.89508056982595 0 0 0 0 179.59898682916537 -687.31965125497572 0 -687.31965125497572 -386.05415182490106 0 0 0 0 115.32519498298643 -560.97673678137198 0 -560.97673678137198 -1070.3292729561854 0 0 0 0 271.86783888648642 -460.97444946776329 0 -460.97444946776329 -1012.5086422741424 0 0 0 0 337.30869259913015 -645.80184861367252 0 -645.80184861367252 -831.80267396063391 0 0 0 0 96.663716167531675 -401.95317138603014 0 -401.95317138603014 -705.27389664807515 0 0 0 0 297.58498861390399 -470.08796985718482 0 -470.08796985718482 -761.39136565486228 0 0 0 0 102.91143198151258 -492.2929299205407 0 -492.2929299205407 -759.63861613189283 0 0 0 0 171.84169857407687 -388.73714810868478 0 -388.73714810868478 -724.34142047811861 0 0 0 0 127.97027850213999 -241.60187725421628 0 -241.60187725421628 -582.56719921365629 0 0 0 0 70.229306318680756 -437.07455588355606 0 -437.07455588355606 -748.64848118279951 0 0 0 0 47.902579798450461 -416.17726317209645 0 -416.17726317209645 -650.13504128847126 0 0 0 0 182.66009820811814 -590.74162260008325 0 -590.74162260008325 -645.59975770117126 0 0 0 0 2479.8389490976115 516.07576339533171 0 516.07576339533171 2023.4991732290446 0 0 0 0 2433.5833452819788 1086.0699585003945 0 1086.0699585003945 1047.0651913478973 0 0 0 0 -287.48156451163231 472.77159012067443 0 472.77159012067443 1757.6617859389614 0 0 0 0 77.134315350245743 -23.540463793876143 0 -23.540463793876143 269.55516283330962 0 0 0 0 20.306226990071252 -7.3053849691933408 0 -7.3053849691933408 4.3509140718804975 0 0 0 0 2772.4675887416379 622.56606962532533 0 622.56606962532533 313.38486726397036 0 0 0 0 18.829654770222973 0.26134768967554578 0 0.26134768967554578 -10.737927348354622 0 0 0 0 75.559068206668599 -882.05481657655037 0 -882.05481657655037 663.65880827542969 0 0 0 0 1189.8841149966465 -829.09888186550688 0 -829.09888186550688 -751.99706370129388 0 0 0 0 442.46256679142243 520.89227493742874 0 520.89227493742874 -556.86995487656714 0 0 0 0 182.93555261520669 -361.45643248745091 0 -361.45643248745091 -926.86652586054288 0 0 0 0 80.145357107394375 -468.31439625142684 0 -468.31439625142684 -1272.655367524238 0 0 0 0 -236.64262206526473 -685.21596154684153 0 -685.21596154684153 -1072.1494990400815 0 0 0 0 768.2575428422424 -413.04442730583332 0 -413.04442730583332 -77.644345296735992 0 0 0 0 -1243.2729132243985 -412.34478994561255 0 -412.34478994561255 -480.21068633520463 0 0 0 0 0.0041487290163786383 0.023770099533663824 0 0.023770099533663824 -0.59603150856086273 0 0 0 0 1110.1515595237724 -863.21213416442106 0 -863.21213416442106 433.53328016435717 0 0 0 0 2613.8385340845271 -834.15927474948739 0 -834.15927474948739 -962.87616548303049 0 0 0 0 1864.6981212932296 -29.736375539469464 0 -29.736375539469464 -1773.2882470548466 0 0 0 0 1988.3440464886662 1656.918702281775 0 1656.918702281775 -440.96299897178869 0 0 0 0 1389.2228365674382 1351.6806304473141 0 1351.6806304473141 -3551.4660854397025 0 0 0 0 119.24141927779908 26.366095951518531 0 26.366095951518531 -1.2435574560072746 0 0 0 0 1546.3371215102015 914.19377462982061 0 914.19377462982061 -967.66048448581751 0 0 0 0 -389.26540590713557 436.42179671821077 0 436.42179671821077 -1645.6734790138653 0 0 0 0 295.85832280344039 -86.131322081960732 0 -86.131322081960732 -1907.5553142335677 0 0 0 0 36.934690442813007 -568.0830684926409 0 -568.0830684926409 -1576.302047650689 0 0 0 0 110.96239606845484 -489.33137412486099 0 -489.33137412486099 -1421.0223886257108 0 0 0 0 68.15617159489193 -378.9218877885105 0 -378.9218877885105 -1229.4746182328854 0 0 0 0 133.45847372373635 17.833165685596448 0 17.833165685596448 -3.6263568841433087 0 0 0 0 94.996863454842241 11.524368655762032 0 11.524368655762032 -131.46587768417186 0 0 0 0 33.379311086419193 -7.7350747338904711 0 -7.7350747338904711 3.9182231312346625 0 0 0 0 -215.77029704886809 456.61059287378953 0 456.61059287378953 -3.0914437896321942 0 0 0 0 -530.76276701583265 -63.555643112405022 0 -63.555643112405022 -70.984290660289616 0 0 0 0 -515.55404474124589 21.8090226433022 0 21.8090226433022 272.34393362225273 0 0 0 0 -586.1107372687693 -234.84976515121454 0 -234.84976515121454 -197.08617460652181 0 0 0 0 -684.45718373681302 -230.42917990906017 0 -230.42917990906017 287.93010594632256 0 0 0 0 -749.85358230071142 113.75589992599157 0 113.75589992599157 662.47313181267657 0 0 0 0 -1138.8682409185567 106.7663554131621 0 106.7663554131621 730.27495276201307 0 0 0 0 -811.93703203143377 -80.132711454646625 0 -80.132711454646625 1004.0837151216865 0 0 0 0 -783.14567503021681 -134.13969888280053 0 -134.13969888280053 435.79321087559276 0 0 0 0 -200.62695551328943 50.859933151006572 0 50.859933151006572 422.27992061282771 0 0 0 0 200.15139784020721 -99.819680348532131 0 -99.819680348532131 -387.17022734468662 0 0 0 0 372.54766612651292 -46.962161584908131 0 -46.962161584908131 -616.6006731648622 0 0 0 0 174.58323426323477 -90.450449359935078 0 -90.450449359935078 -395.83129756497726 0 0 0 0 178.4448656377208 -188.87378739651206 0 -188.87378739651206 -560.42095406902297 0 0 0 0 195.5806644261902 -393.5605093436327 0 -393.5605093436327 -782.64780142330665 0 0 0 0 337.24691298065591 -154.90379942678783 0 -154.90379942678783 -802.71477243772506 0 0 0 0 228.18351570138475 -435.57675257969049 0 -435.57675257969049 -957.39393944860012 0 0 0 0 304.01025110494811 -461.7294280409767 0 -461.7294280409767 -1029.0575676209878 0 0 0 0 215.53357843687991 -322.80784578691078 0 -322.80784578691078 -1198.9325811117535 0 0 0 0 160.38841153457179 89.350791864990811 0 89.350791864990811 -1403.6195832417677 0 0 0 0 386.13370145426597 -144.97274620439759 0 -144.97274620439759 -1206.9323319355697 0 0 0 0 17.845979954407085 -77.878932437489027 0 -77.878932437489027 -778.96993167540791 0 0 0 0 54.009637528737443 16.617773633421251 0 16.617773633421251 -19.865416329538515 0 0 0 0 90.256701705744234 -2.854357108372362 0 -2.854357108372362 -21.004251798136448 0 0 0 0 156.14360492645937 -49.309975524333822 0 -49.309975524333822 -94.294150412171803 0 0 0 0 133.92942267564285 -35.118341335869218 0 -35.118341335869218 -69.375967703656897 0 0 0 0 144.69225600840582 -84.878114756833043 0 -84.878114756833043 -129.69755421661415 0 0 0 0 186.54139858997183 35.297166698343673 0 35.297166698343673 0.6994641886652655 0 0 0 0 261.86256237731141 92.997710304131488 0 92.997710304131488 -41.309750239599907 0 0 0 0 441.42817243200261 293.82164363065795 0 293.82164363065795 -324.19242000245936 0 0 0 0 203.64341603274806 -140.26240469503762 0 -140.26240469503762 -356.98370477605971 0 0 0 0 151.07675488990208 86.054232073744799 0 86.054232073744799 -156.94858371804986 0 0 0 0 80.908039427932096 -5.9055789368070748 0 -5.9055789368070748 -3.8714904379704267 0 0 0 0 84.446717132879712 34.080551229536958 0 34.080551229536958 18.658937180833959 0 0 0 0 -50.357478375750361 -206.70648517440247 0 -206.70648517440247 -357.32932521021939 0 0 0 0 -57.099420944563462 -135.15152655264814 0 -135.15152655264814 -223.06993515245915 0 0 0 0 130.85448476040619 -97.755697541447717 0 -97.755697541447717 -454.36877671928823 0 0 0 0 83.253685087300255 -255.5314753111054 0 -255.5314753111054 -543.66450632021724 0 0 0 0 -85.235688705317443 -350.68516788526722 0 -350.68516788526722 -629.40670994225502 0 0 0 0 27.674996378933429 -179.48097218108057 0 -179.48097218108057 -683.3605822140787 0 0 0 0 47.959528076316928 -264.33425455922406 0 -264.33425455922406 -614.26508834081574 0 0 0 0 41.057458137065623 -8.2692595220531757 0 -8.2692595220531757 -1.3731936327315761 0 0 0 0 177.54214183749718 -298.14831674684558 0 -298.14831674684558 -1580.9720268593933 0 0 0 0 168.62778862254345 -345.71795705995055 0 -345.71795705995055 -1313.9609700567657 0 0 0 0 407.94828928285278 -485.73473454086684 0 -485.73473454086684 -1105.8282340522428 0 0 0 0 33.586763560791667 -7.2507930428129654 0 -7.2507930428129654 -1.1458067256464486 0 0 0 0 -189.9348150723672 -434.58873761677523 0 -434.58873761677523 -791.11203561802063 0 0 0 0 4605.4273694084259 -579.78503490364426 0 -579.78503490364426 -1262.7929838176203 0 0 0 0 5474.3029234839705 -3305.2018945629047 0 -3305.2018945629047 -2389.937791675588 0 0 0 0 1117.9828874073864 1111.7318528481628 0 1111.7318528481628 -964.82721460324478 0 0 0 0 205.55633279238828 -774.75689061717321 0 -774.75689061717321 -365.82821823666677 0 0 0 0 65.76339005392947 -34.922127365318715 0 -34.922127365318715 -576.14880446927054 0 0 0 0 -223.70786861184752 -645.41963523005097 0 -645.41963523005097 -1138.5035267030157 0 0 0 0 1773.5505840538244 -1981.2401849235039 0 -1981.2401849235039 2350.0311578055444 0 0 0 0 10.050785018070684 6.9816435555398755 0 6.9816435555398755 -3.0990256471251207 0 0 0 0 17.900600765321542 1.1411614460925392 0 1.1411614460925392 10.222636755979059 0 0 0 0 5495.1229950069974 2699.0215078038732 0 2699.0215078038732 368.96078546786629 0 0 0 0 4.9064178132294245 -0.58449256706481378 0 -0.58449256706481378 20.025931333646714 0 0 0 0 4141.3841422773039 589.79615073994466 0 589.79615073994466 -303.31241778388625 0 0 0 0 69.392381127807312 48.398174759127414 0 48.398174759127414 54.379454069012354 0 0 0 0 40.489506357293664 -4.6448911560842419 0 -4.6448911560842419 -14.351713827373986 0 0 0 0 170.57046024930605 -157.86561401750015 0 -157.86561401750015 -567.86932944568673 0 0 0 0 18.147126927313792 6.658823436595469 0 6.658823436595469 5.9377621543540817 0 0 0 0 79.948445101057587 13.133040470520768 0 13.133040470520768 28.613104962351116 0 0 0 0 2299.6894236211665 459.57404852063019 0 459.57404852063019 -306.91808470514451 0 0 0 0 2287.6717251024274 -2531.2749804463829 0 -2531.2749804463829 1415.286615754404 0 0 0 0 5493.425475563221 -1100.2520491580303 0 -1100.2520491580303 -591.90067975874308 0 0 0 0 991.89891189424816 388.42645012134574 0 388.42645012134574 -163.25426303682127 0 0 0 0 1260.4364743100268 -551.17885548647018 0 -551.17885548647018 464.54327332195044 0 0 0 0 37.081036703468186 17.289068157893581 0 17.289068157893581 7.0048196027184417 0 0 0 0 572.22542388954025 316.10184184819559 0 316.10184184819559 254.47714810485081 0 0 0 0 540.42869143477583 -173.55470953589619 0 -173.55470953589619 54.476594010949498 0 0 0 0 481.92748415529786 94.829902845996855 0 94.829902845996855 -527.58281925279289 0 0 0 0 -64.277651391952531 -385.53231220843543 0 -385.53231220843543 -185.99220556854993 0 0 0 0 1302.3913503218646 2145.8395682126102 0 2145.8395682126102 1499.2060619321426 0 0 0 0 19.916463308165021 2.5184736193233022 0 2.5184736193233022 2.0957144217644754 0 0 0 0 124.74599797511291 76.619276997388624 0 76.619276997388624 -79.896129157794348 0 0 0 0 131.31229455413268 93.68895640258097 0 93.68895640258097 -45.57639580799605 0 0 0 0 93.762536444315202 24.661120912076594 0 24.661120912076594 7.4038481178559401 0 0 0 0 134.61529018158035 86.019799157508714 0 86.019799157508714 -60.860633474224414 0 0 0 0 113.32414237066405 80.878944071211663 0 80.878944071211663 -31.205312869202317 0 0 0 0 9.3450399833977968 34.719427526952273 0 34.719427526952273 7.6027547985615769 0 0 0 0 133.5892792402301 62.601983940885475 0 62.601983940885475 -53.574470454511356 0 0 0 0 123.96808587643318 51.125460688791463 0 51.125460688791463 -34.145487795296503 0 0 0 0 115.63796857009584 52.958092410211066 0 52.958092410211066 12.901480234733754 0 0 0 0 12.503283579670949 4.030901943405226 0 4.030901943405226 0.11176561235663662 0 0 0 0 22.245192147878697 130.74676789208161 0 130.74676789208161 33.885180556481828 0 0 0 0 65.37748754027416 189.51928863265175 0 189.51928863265175 15.458434360105002 0 0 0 0 84.315704294385796 136.42906426903687 0 136.42906426903687 -39.621527222531768 0 0 0 0 119.4508673780656 89.087933596347284 0 89.087933596347284 -30.784756145692882 0 0 0 0 99.268161331157899 99.065144466951097 0 99.065144466951097 46.88370619226589 0 0 0 0 168.42211546939507 178.83166188448922 0 178.83166188448922 -20.852454009539088 0 0 0 0 353.7539506198882 246.15082495410388 0 246.15082495410388 -25.496438724554082 0 0 0 0 175.33190228775857 130.64299501775835 0 130.64299501775835 -93.689178918678408 0 0 0 0 291.10333837560029 284.58840940096593 0 284.58840940096593 198.02039010046383 0 0 0 0 102.34010095612666 143.75974716180508 0 143.75974716180508 92.965486539298581 0 0 0 0 97.442992470776517 106.30328000094892 0 106.30328000094892 -28.189766933723149 0 0 0 0 19.523163718009528 54.939364733239245 0 54.939364733239245 -21.499677513257893 0 0 0 0 -22.584174091876775 69.084092592844627 0 69.084092592844627 158.94795928708231 0 0 0 0 -20.52593514732871 65.669132140984715 0 65.669132140984715 13.467303559647689 0 0 0 0 17.276185025479833 8.9404384108505965 0 8.9404384108505965 2.9285898762750757 0 0 0 0 4.9168598495743936 6.6967591836355496 0 6.6967591836355496 11.646139779030165 0 0 0 0 -2.2620930422635865 -28.381055369580622 0 -28.381055369580622 48.822172811316477 0 0 0 0 -30.141662917150825 12.509455961243305 0 12.509455961243305 306.31822108123242 0 0 0 0 5492.6490928000494 1373.2374337720871 0 1373.2374337720871 -716.25920675408622 0 0 0 0 2707.8157183483017 -496.18396650301793 0 -496.18396650301793 -422.51909863603868 0 0 0 0 22.74465249150289 30.333849106190868 0 30.333849106190868 9.8281756436984189 0 0 0 0 621.27622067878838 775.69886699022834 0 775.69886699022834 1237.1142400794317 0 0 0 0 -5.5110745292586216 30.494394918252866 0 30.494394918252866 4.0433032765119208 0 0 0 0 6.0552591207524529 12.4373134831458 0 12.4373134831458 30.90227113928227 0 0 0 0 26.604584773078287 19.418120742412981 0 19.418120742412981 1.4179965169200512 0 0 0 0 4037.0695152609187 -432.01374029859517 0 -432.01374029859517 -419.80376857370305 0 0 0 0 5494.2613403069481 -2975.6993049508301 0 -2975.6993049508301 362.0929275948788 0 0 0 0 -0.20978656398034445 7.0890548990639672 0 7.0890548990639672 1.9145607997745011 0 0 0 0 8.102918489033712 9.1140661078927536 0 9.1140661078927536 7.744133845043482 0 0 0 0 5478.3408599740651 31.17709342790064 0 31.17709342790064 7.5804262420096036 0 0 0 0 494.5338043707925 2.5017216226226537 0 2.5017216226226537 -864.93278844546376 0 0 0 0 -1648.1947801507122 1341.4877931228361 0 1341.4877931228361 1369.5443964043561 0 0 0 0 1382.9731240317196 3076.728631401204 0 3076.728631401204 1804.3406105760564 0 0 0 0 695.57167137068609 -130.78093456095775 0 -130.78093456095775 -40.622977313985757 0 0 0 0 646.53988959673734 583.9188982125022 0 583.9188982125022 297.84593942942246 0 0 0 0 197.44468814221909 776.30254800072998 0 776.30254800072998 218.28361896178808 0 0 0 0 11.347427266031389 16.081128376986598 0 16.081128376986598 7.9156077551486046 0 0 0 0 571.30309562836192 919.37437398672637 0 919.37437398672637 -1598.8003490096053 0 0 0 0 -359.41998513646104 372.68342550875809 0 372.68342550875809 -209.93264793047479 0 0 0 0 423.74700184524772 9.2487819190457685 0 9.2487819190457685 -1222.0311818800533 0 0 0 0 127.55498301966873 49.257037752567157 0 49.257037752567157 199.29741612855491 0 0 0 0 34.090883293536855 30.729999685165481 0 30.729999685165481 -25.697910643981931 0 0 0 0 746.35386296134675 -478.12009972867878 0 -478.12009972867878 31.339639566287588 0 0 0 0 802.98461313635926 308.65462663550693 0 308.65462663550693 420.30181061859685 0 0 0 0 533.84474797268467 -372.55251083439396 0 -372.55251083439396 252.35506200371344 0 0 0 0 667.90442903609164 -379.44497646671266 0 -379.44497646671266 171.06127526530508 0 0 0 0 35.88208322485729 34.323683591800503 0 34.323683591800503 -18.450835282755534 0 0 0 0 1139.2013648829125 -10.600755037955992 0 -10.600755037955992 289.90393028285848 0 0 0 0 1097.6089001488981 45.965850715397721 0 45.965850715397721 412.14130435976983 0 0 0 0 5500.2991659826075 1285.2609497989545 0 1285.2609497989545 -729.22412188724695 0 0 0 0 2315.8356261663357 1732.1520648427643 0 1732.1520648427643 -111.83518110799196 0 0 0 0 5485.5313025800669 3059.7213651041134 0 3059.7213651041134 412.59388880728676 0 0 0 0 1499.2234944567717 -97.252145731713455 0 -97.252145731713455 203.19283098652022 0 0 0 0 2431.6986818817313 1445.6688609170315 0 1445.6688609170315 594.72629196372645 0 0 0 0 727.84556565496496 -72.579583715465787 0 -72.579583715465787 -48.621299805957392 0 0 0 0 -127.11296369717456 -151.06208648833314 0 -151.06208648833314 -12.31206350637467 0 0 0 0 10.692381912675213 -20.627992768235021 0 -20.627992768235021 45.901285203948589 0 0 0 0 260.2164189780251 -273.78702489388684 0 -273.78702489388684 65.940599887432654 0 0 0 0 435.17587289778203 -50.937428144461364 0 -50.937428144461364 18.588589932231343 0 0 0 0 617.65422503081209 -263.1739955976135 0 -263.1739955976135 90.845757687945479 0 0 0 0 863.32427667376032 -238.27468129783551 0 -238.27468129783551 -87.886783293563667 0 0 0 0 541.70348437912162 -78.551118628869517 0 -78.551118628869517 -134.23167852978258 0 0 0 0 129.40390464330994 -59.691966753271572 0 -59.691966753271572 162.37960492663052 0 0 0 0 0.80490195888150806 -4.7104720766842334 0 -4.7104720766842334 10.214852188474364 0 0 0 0 764.23071581604381 -405.91348375008238 0 -405.91348375008238 77.754249213957678 0 0 0 0 774.77050291932028 -180.48623771564326 0 -180.48623771564326 -123.47021102779809 0 0 0 0 0.35920596585032327 -5.0796455358488366 0 -5.0796455358488366 12.8136395485707 0 0 0 0 -27.206529339053304 -361.27053711104941 0 -361.27053711104941 280.45809513980157 0 0 0 0 513.80586138466242 -463.07993163913488 0 -463.07993163913488 -99.072418831475261 0 0 0 0 521.49873759277057 -596.03152698761744 0 -596.03152698761744 607.65591673946619 0 0 0 0 456.86923295617669 -131.47649275956923 0 -131.47649275956923 107.09763551158903 0 0 0 0 105.68068257249979 -1358.0366637467887 0 -1358.0366637467887 860.17095590468671 0 0 0 0 34.691968492112906 30.40409863394116 0 30.40409863394116 -27.294758745186552 0 0 0 0 929.49166335706104 -533.79515482380134 0 -533.79515482380134 -560.45008483549123 0 0 0 0 1395.6473993508444 -423.67324995821537 0 -423.67324995821537 84.771532586317647 0 0 0 0 0.42464262830666222 -1.6572093956507103 0 -1.6572093956507103 6.30995918493673 0 0 0 0 -716.46735399836507 -99.965902415173332 0 -99.965902415173332 142.30703504337544 0 0 0 0 348.62067959995284 188.93758793145273 0 188.93758793145273 712.43813344232603 0 0 0 0 369.20878896555951 282.81337023376 0 282.81337023376 -54.416246819544256 0 0 0 0 845.56481720463489 -146.49262213961356 0 -146.49262213961356 -1031.8212100809274 0 0 0 0 1597.8239153437498 334.14981093721258 0 334.14981093721258 -818.25952394568867 0 0 0 0 -445.8907207788252 -538.06505968453257 0 -538.06505968453257 706.31428028073378 0 0 0 0 1588.3283984912923 -215.51934217449116 0 -215.51934217449116 -145.17392449604995 0 0 0 0 39.440524944500794 148.08256245842313 0 148.08256245842313 24.444627394271606 0 0 0 0 3.1062158495576355 -6.2369156112019901 0 -6.2369156112019901 16.25701012621964 0 0 0 0 19.866001673497706 -22.899672691940435 0 -22.899672691940435 17.416900930579061 0 0 0 0 -288.79095121323098 -701.81585850272904 0 -701.81585850272904 -682.53928607654871 0 0 0 0 -351.37696827281979 -1015.076514425557 0 -1015.076514425557 -488.51524434614703 0 0 0 0 -511.27345929376042 -18.499961718651122 0 -18.499961718651122 636.86226032964987 0 0 0 0 1465.7918905588886 -593.17603398348729 0 -593.17603398348729 -902.13402790853979 0 0 0 0 -409.8648270785161 -388.35351354128079 0 -388.35351354128079 1343.4692109896769 0 0 0 0 -535.30006219155985 -219.39897590645523 0 -219.39897590645523 1134.5779246751499 0 0 0 0 6.9573228322321654 -11.180050879885176 0 -11.180050879885176 10.371490630655307 0 0 0 0 0.73930884114088258 -840.81142616554735 0 -840.81142616554735 1289.3046862864394 0 0 0 0 -160.838100245448 -511.53310846201475 0 -511.53310846201475 662.07850851270814 0 0 0 0 -108.13085802906426 -509.6145713411297 0 -509.6145713411297 655.69779215299604 0 0 0 0 485.54098683226402 -459.32013406552051 0 -459.32013406552051 -221.2589769370843 0 0 0 0 -189.76065871451465 -342.18049504476676 0 -342.18049504476676 384.91181986904303 0 0 0 0 -402.73263044766645 -68.630663213828484 0 -68.630663213828484 655.55627418369568 0 0 0 0 7.4533053525021842 3.5752979961424174 0 3.5752979961424174 1.7002428361213622 0 0 0 0 161.57796757968026 229.87488198190863 0 229.87488198190863 542.74816378320133 0 0 0 0 639.86943271441851 -801.4098838714126 0 -801.4098838714126 -619.25043527396735 0 0 0 0 1956.3523861071189 -1162.2477974924077 0 -1162.2477974924077 -541.03213706285715 0 0 0 0 1226.221897733798 -949.08158932521565 0 -949.08158932521565 -365.73696335698151 0 0 0 0 995.79490091199114 -1097.6017399983448 0 -1097.6017399983448 -249.55862702748163 0 0 0 0 943.6043625269831 343.30670281950268 0 343.30670281950268 1285.0649848552794 0 0 0 0 31.373717370983094 29.125145585184853 0 29.125145585184853 -42.258658315192221 0 0 0 0 330.05270133567319 823.16188537673861 0 823.16188537673861 762.80036902480742 0 0 0 0 1056.0157489325447 85.006997195889539 0 85.006997195889539 -150.80170846428382 0 0 0 0 823.8552911294264 -895.15853122518183 0 -895.15853122518183 301.5906367149164 0 0 0 0 721.87998202166273 496.75127854834602 0 496.75127854834602 299.39419803254623 0 0 0 0 301.49712856128463 184.18204343940556 0 184.18204343940556 68.472950703559263 0 0 0 0 631.26968067129928 287.50178823037277 0 287.50178823037277 -22.409374234788629 0 0 0 0 391.18901954006287 77.285975146809051 0 77.285975146809051 -163.158819966588 0 0 0 0 341.64317373687572 81.705404527785191 0 81.705404527785191 -159.97742293831288 0 0 0 0 400.76400599190674 4.5894589651215938 0 4.5894589651215938 -127.33992671080341 0 0 0 0 230.76608267545816 -118.02179564410017 0 -118.02179564410017 -159.43494473432793 0 0 0 0 44.133349310539963 7.2022129588010202 0 7.2022129588010202 -73.409629315717979 0 0 0 0 576.51444966763711 -110.93661188579645 0 -110.93661188579645 -226.6320120618484 0 0 0 0 193.4344134329931 -27.374541868126414 0 -27.374541868126414 -63.844956458372508 0 0 0 0 160.08920970433974 -24.568996962791516 0 -24.568996962791516 -54.763807365965476 0 0 0 0 223.53739411816787 8.4290562344090176 0 8.4290562344090176 -65.004995127615075 0 0 0 0 268.30096107345889 5.8729211629161 0 5.8729211629161 -125.12609752909975 0 0 0 0 27.278093886763301 18.395067106778534 0 18.395067106778534 -3.6628589100647737 0 0 0 0 242.02258258895381 -47.194116266756964 0 -47.194116266756964 -266.82969414371473 0 0 0 0 407.94840749647847 157.97565350031346 0 157.97565350031346 -61.438369117299771 0 0 0 0 14.636005840223064 -24.926043148038737 0 -24.926043148038737 35.697508699935014 0 0 0 0 5.588334460851911 89.042149315602956 0 89.042149315602956 40.422395785530853 0 0 0 0 -165.21374204839231 -218.52292553133111 0 -218.52292553133111 328.1904606911894 0 0 0 0 31.428646671301976 -31.634996817843557 0 -31.634996817843557 82.694817229616092 0 0 0 0 205.99468166438601 -143.60700956281653 0 -143.60700956281653 -203.63567354968109 0 0 0 0 168.44155043268984 -88.560380744813301 0 -88.560380744813301 -236.57384525253656 0 0 0 0 189.9772532621937 -107.47130937140537 0 -107.47130937140537 -285.1037364370186 0 0 0 0 46.876155500527695 -39.01576020536951 0 -39.01576020536951 30.453217429571627 0 0 0 0 170.6435857859542 -95.521578307652817 0 -95.521578307652817 -222.31169648108789 0 0 0 0 -3.0160831946948861 -7.8934443222293496 0 -7.8934443222293496 -15.286276165745495 0 0 0 0 -478.3462041838211 -131.82006203916276 0 -131.82006203916276 -220.51591373958817 0 0 0 0 -338.86094690866594 -803.51837425575127 0 -803.51837425575127 -639.1167256406909 0 0 0 0 100.89244692237116 -23.555341741096527 0 -23.555341741096527 -22.940412689936238 0 0 0 0 64.083705323897703 -26.566085624344467 0 -26.566085624344467 7.2127579656440144 0 0 0 0 -693.39003074908396 -1085.4249807420761 0 -1085.4249807420761 400.68830818079505 0 0 0 0 -610.96173405057925 -429.23198180868565 0 -429.23198180868565 1854.641072963645 0 0 0 0 60.194916624971313 -11.541507219288967 0 -11.541507219288967 0.9305788668128363 0 0 0 0 2436.4151526675414 -517.5672809253324 0 -517.5672809253324 -1437.74414825655 0 0 0 0 7.4794273660954786 89.79310025743689 0 89.79310025743689 -31.557457812090206 0 0 0 0 30.426069516437565 13.689061610931731 0 13.689061610931731 -89.404122609215847 0 0 0 0 17.300337999680778 216.97007212551921 0 216.97007212551921 295.0525215618577 0 0 0 0 724.76017042341118 -866.81863221446736 0 -866.81863221446736 661.71757485058492 0 0 0 0 190.59871426767131 1271.1003529525515 0 1271.1003529525515 672.34342306071426 0 0 0 0 606.89163059580824 1599.8160589964045 0 1599.8160589964045 -286.98837389805237 0 0 0 0 906.65529416420031 1537.2266396858811 0 1537.2266396858811 -176.58070774369031 0 0 0 0 740.72745417398983 156.79266413631069 0 156.79266413631069 -302.8542598425683 0 0 0 0 1542.7886181952927 640.97049532788446 0 640.97049532788446 -20.78828170267775 0 0 0 0 2810.8388990268577 88.257040990456971 0 88.257040990456971 218.23674319453858 0 0 0 0 1302.1755398280984 -989.48993117000293 0 -989.48993117000293 578.32527086226344 0 0 0 0 540.22864758255309 -213.51348316738739 0 -213.51348316738739 -144.93652138237292 0 0 0 0 3.7893745547971207 -1.6773399597422838 0 -1.6773399597422838 2.1120710337418958 0 0 0 0 1276.894513370622 -413.92805130757881 0 -413.92805130757881 2757.7544072710734 0 0 0 0 111.9843507667174 -161.01723267993179 0 -161.01723267993179 1269.9649374324599 0 0 0 0 1160.8616954488043 137.6984222123522 0 137.6984222123522 288.52702351248627 0 0 0 0 24.621099010605121 -3.2844887487087533 0 -3.2844887487087533 1.2837551719347182 0 0 0 0 1433.5574389145113 1884.8153278941036 0 1884.8153278941036 975.29779623268132 0 0 0 0 1899.7101299534334 -750.8070662996073 0 -750.8070662996073 296.19950481337719 0 0 0 0 2246.7443076524942 479.622934045205 0 479.622934045205 321.46275597850581 0 0 0 0 878.64241207968291 718.80083022948952 0 718.80083022948952 513.43847466861621 0 0 0 0 873.64403539167688 195.78369748153256 0 195.78369748153256 454.37309295845574 0 0 0 0 715.58203968845919 -191.27031019763578 0 -191.27031019763578 1448.3783099276516 0 0 0 0 972.0871137688664 226.07157720449567 0 226.07157720449567 321.9661178684716 0 0 0 0 717.00957522781391 634.30752089154635 0 634.30752089154635 710.31472183441838 0 0 0 0 -553.71594969429134 -756.9403720537523 0 -756.9403720537523 1250.380244359927 0 0 0 0 -113.64628134873055 586.95742784022696 0 586.95742784022696 1462.5185863781917 0 0 0 0 4.7468639387808196 -8.5089060224513489 0 -8.5089060224513489 14.018346100066358 0 0 0 0 1140.7185857695804 -518.78327397139253 0 -518.78327397139253 132.01631261007424 0 0 0 0 937.24904741083446 -833.17981144507326 0 -833.17981144507326 752.56716685509991 0 0 0 0 255.9064998756694 -33.663084468109602 0 -33.663084468109602 69.330865014817732 0 0 0 0 321.87036733631248 93.374572563529455 0 93.374572563529455 72.54826308223295 0 0 0 0 204.92929589405321 6.2059813682683362 0 6.2059813682683362 -1.5956346353868867 0 0 0 0 180.66440645718831 -4.0292210890477236 0 -4.0292210890477236 13.035351845653793 0 0 0 0 131.13811178892865 50.356953587689759 0 50.356953587689759 171.1584373851889 0 0 0 0 109.6169412547606 90.030602402131592 0 90.030602402131592 159.06087606335791 0 0 0 0 105.39318688444473 89.597171400782145 0 89.597171400782145 212.68187819850078 0 0 0 0 64.534878547339758 64.415052378521693 0 64.415052378521693 200.0637317986191 0 0 0 0 107.22680693473376 39.843037566149704 0 39.843037566149704 204.8618346230802 0 0 0 0 153.2962118690848 -212.8875568061691 0 -212.8875568061691 132.93912434156331 0 0 0 0 46.221194443794957 84.791105962472074 0 84.791105962472074 559.24946207333369 0 0 0 0 375.63637882420153 -551.63825957684935 0 -551.63825957684935 518.62310200887521 0 0 0 0 40.495032369610271 571.82945029703444 0 571.82945029703444 989.04676622639795 0 0 0 0 320.72479708778701 423.33683717653639 0 423.33683717653639 382.94102993989566 0 0 0 0 157.77864818311355 329.93175588715673 0 329.93175588715673 360.48076440110765 0 0 0 0 264.03307346180372 464.40181472531901 0 464.40181472531901 529.63611189257597 0 0 0 0 5.4352822498961189 -3.4363816895814665 0 -3.4363816895814665 3.3342586951061768 0 0 0 0 24.71221398834723 153.68612535821575 0 153.68612535821575 411.99271198387726 0 0 0 0 147.41461253445959 128.79528032220387 0 128.79528032220387 168.71441396133741 0 0 0 0 1.9815904939432585 -1.2981115209961942 0 -1.2981115209961942 1.8178070304732596 0 0 0 0 235.57710063570812 167.15280978352311 0 167.15280978352311 384.45476365543948 0 0 0 0 536.79037490639166 248.40658198025847 0 248.40658198025847 190.26291421328756 0 0 0 0 489.16073361532472 133.33785799227667 0 133.33785799227667 315.71066045492682 0 0 0 0 457.87846488815376 11.541305534057472 0 11.541305534057472 74.222683091923727 0 0 0 0 398.64180127500731 243.96626688796431 0 243.96626688796431 214.02828847521613 0 0 0 0 472.88403417637164 256.39484906760515 0 256.39484906760515 247.08284829110926 0 0 0 0 448.67427738299739 220.21798267684198 0 220.21798267684198 251.64012400540093 0 0 0 0 325.88837941671954 240.90145364411887 0 240.90145364411887 245.09444558814903 0 0 0 0 452.21626336658665 238.35418439996874 0 238.35418439996874 234.75710060476831 0 0 0 0 457.69997881313611 237.69935145983663 0 237.69935145983663 232.42126385250549 0 0 0 0 457.7893276397881 273.44253511257625 0 273.44253511257625 91.124695142955943 0 0 0 0 371.27934882224508 321.86986139081455 0 321.86986139081455 358.22350660523767 0 0 0 0 395.34331095196831 390.24939741526339 0 390.24939741526339 203.27319749897265 0 0 0 0 376.99612870516285 334.45620436998047 0 334.45620436998047 45.385536676678385 0 0 0 0 461.03681195947138 574.37407247637532 0 574.37407247637532 312.7234577176647 0 0 0 0 536.06318420942989 395.52548409100518 0 395.52548409100518 -241.48121515610092 0 0 0 0 707.05149419516601 -134.23978773966755 0 -134.23978773966755 73.265962035412485 0 0 0 0 3.2379954391759185 0.47247581429616758 0 0.47247581429616758 -3.3189865167318242 0 0 0 0 448.0165612592682 24.868737571391648 0 24.868737571391648 41.595829684210003 0 0 0 0 219.6353035815664 -144.49920129563225 0 -144.49920129563225 82.580944958923737 0 0 0 0 405.5900216210066 32.592253076507404 0 32.592253076507404 83.243817647626202 0 0 0 0 388.39406858010625 97.056958591615398 0 97.056958591615398 139.27441864596494 0 0 0 0 626.75684204136178 196.08215081315296 0 196.08215081315296 126.25622704211673 0 0 0 0 438.69837917776022 125.30541612128582 0 125.30541612128582 101.79777739112251 0 0 0 0 429.44856997770148 173.14080107240173 0 173.14080107240173 236.24354489347479 0 0 0 0 456.26427853373025 215.46797876933078 0 215.46797876933078 203.13193353467386 0 0 0 0 419.799930143854 117.58161426151128 0 117.58161426151128 170.40574355334843 0 0 0 0 403.13518483993539 69.391502888222931 0 69.391502888222931 214.98479355848713 0 0 0 0 424.66788607733633 148.19338812178808 0 148.19338812178808 362.4027380918742 0 0 0 0 461.55775604324299 56.707439858135331 0 56.707439858135331 278.63477718077911 0 0 0 0 448.18223668053542 232.96467376278747 0 232.96467376278747 296.0487517788747 0 0 0 0 20.073166505256239 -20.268675185189146 0 -20.268675185189146 14.26052955617353 0 0 0 0 -353.13071948393554 -418.13701733644029 0 -418.13701733644029 -247.28001497911521 0 0 0 0 -338.71784487003606 -182.21961954258995 0 -182.21961954258995 68.756010008185058 0 0 0 0 176.0580465988096 -1071.9242650433125 0 -1071.9242650433125 -1109.1158375073805 0 0 0 0 1304.3641832039066 -184.86224336206192 0 -184.86224336206192 -742.7859281325434 0 0 0 0 949.90209992574819 201.35807529054637 0 201.35807529054637 -394.49959516391527 0 0 0 0 314.24607097259377 324.4380986971006 0 324.4380986971006 -410.41759572778938 0 0 0 0 626.51650550730847 451.00199515610336 0 451.00199515610336 395.95438456163447 0 0 0 0 675.28968331759097 306.9682531388986 0 306.9682531388986 -109.99556538288425 0 0 0 0 -652.59013532551762 629.98225105355959 0 629.98225105355959 -191.08727278042727 0 0 0 0 284.22869541235559 178.13921475972666 0 178.13921475972666 -130.1532155623774 0 0 0 0 1167.2947635989112 -191.49178271790288 0 -191.49178271790288 -587.54096370554339 0 0 0 0 1040.4945191852021 52.848826741127141 0 52.848826741127141 -809.43124251938161 0 0 0 0 894.26551486465905 253.27129138218379 0 253.27129138218379 -808.97032525459235 0 0 0 0 863.74765824621136 51.014811186269071 0 51.014811186269071 -589.80399567602763 0 0 0 0 159.99205586769676 -485.24141679626337 0 -485.24141679626337 61.626104412119275 0 0 0 0 -121.69744134853318 -341.13338070911084 0 -341.13338070911084 226.96394472871907 0 0 0 0 7.1923607582179443 -8.5872665873824587 0 -8.5872665873824587 7.0150450850782402 0 0 0 0 884.07577134080202 940.72620355235631 0 940.72620355235631 -630.75208542106839 0 0 0 0 -9.7802882386677084 -821.60089881153908 0 -821.60089881153908 180.84512026893208 0 0 0 0 175.55726336010594 -69.963042724055072 0 -69.963042724055072 56.45263346311549 0 0 0 0 3.175749803925271 -4.4949980989659721 0 -4.4949980989659721 -13.284872329253993 0 0 0 0 34.138739441212238 -354.23489033481928 0 -354.23489033481928 -51.483697419311284 0 0 0 0 85.893935404918011 -224.47865407941481 0 -224.47865407941481 -136.87919840603081 0 0 0 0 -197.628187196824 -212.51580523637176 0 -212.51580523637176 95.406616071933968 0 0 0 0 -122.3989559508409 -148.88860204703815 0 -148.88860204703815 -131.11053711717955 0 0 0 0 -268.14886489895434 -103.72287817471715 0 -103.72287817471715 80.530370263345048 0 0 0 0 -99.502158378742024 -83.747382437527449 0 -83.747382437527449 57.368069911808107 0 0 0 0 -37.44607524690764 -71.05712881616455 0 -71.05712881616455 36.772161195387525 0 0 0 0 8.7033610324910704 -38.392589183247509 0 -38.392589183247509 70.571992759385026 0 0 0 0 -26.299344445822499 -131.30108440174763 0 -131.30108440174763 70.520228651720572 0 0 0 0 -104.73476250953536 -12.249610952096646 0 -12.249610952096646 11.778136248866417 0 0 0 0 11.383141648244404 -26.924346375915224 0 -26.924346375915224 32.442548445257948 0 0 0 0 -35.121378933137748 23.740908145536196 0 23.740908145536196 24.287992810006699 0 0 0 0 -3.4798884471570055 6.1809400818418965 0 6.1809400818418965 1.0999987994532727 0 0 0 0 53.136800853455497 -64.243468304269754 0 -64.243468304269754 3.514148320271488 0 0 0 0 -9.6532862139542601 -38.231830054028606 0 -38.231830054028606 -28.882481297893133 0 0 0 0 87.423857830952329 -100.37239165517667 0 -100.37239165517667 13.684559681270912 0 0 0 0 -6.8896355359829187 -15.58618950549053 0 -15.58618950549053 -27.529308620023123 0 0 0 0 177.05952768857969 -119.29700131687105 0 -119.29700131687105 -55.594333625288527 0 0 0 0 78.607541678044072 -85.573825081698033 0 -85.573825081698033 66.403258576656299 0 0 0 0 14.78275197001858 28.874473280246548 0 28.874473280246548 -57.031469431892674 0 0 0 0 100.02678817334436 -16.530614877708189 0 -16.530614877708189 -110.72863129240977 0 0 0 0 0.858666047543025 -0.20282977899658761 0 -0.20282977899658761 -2.113836749116345 0 0 0 0 56.085307149660366 -69.123587511256574 0 -69.123587511256574 4.8095871510154211 0 0 0 0 95.521443354218718 -63.129276615129129 0 -63.129276615129129 -29.79038701403806 0 0 0 0 60.032652578993293 -32.816875314993013 0 -32.816875314993013 -29.306310281304405 0 0 0 0 55.59060838251753 -27.159809755974493 0 -27.159809755974493 -9.5283325464888549 0 0 0 0 65.254134263181186 -21.402440815807722 0 -21.402440815807722 -7.3456458374912472 0 0 0 0 142.77852798405456 37.689341648857592 0 37.689341648857592 -58.040905426914833 0 0 0 0 0.97698934186173858 1.0218176257109661 0 1.0218176257109661 -0.32466019667081625 0 0 0 0 20.315500054013683 92.24771851184687 0 92.24771851184687 -18.08071504214513 0 0 0 0 147.29530815474163 -85.422627283865097 0 -85.422627283865097 7.9454447696316493 0 0 0 0 -0.42059010747939851 -0.93348010750762 0 -0.93348010750762 -4.3026129546356344 0 0 0 0 138.75082939636195 -212.41057486082491 0 -212.41057486082491 150.91474094415571 0 0 0 0 -47.31279338344757 -45.380639651527417 0 -45.380639651527417 83.100838948692399 0 0 0 0 48.975105988887663 -34.27315882738867 0 -34.27315882738867 7.4042243190801855 0 0 0 0 52.969185581046986 -23.179642340141072 0 -23.179642340141072 1.4135989781043463 0 0 0 0 34.87489528608603 -24.55760843210453 0 -24.55760843210453 8.0562162884598365 0 0 0 0 0.33514369507116371 -15.655141856825761 0 -15.655141856825761 15.770629180986246 0 0 0 0 19.813308806062736 -32.199097150873712 0 -32.199097150873712 12.113162087207051 0 0 0 0 20.062796427893772 -23.963382712190423 0 -23.963382712190423 22.666313129378068 0 0 0 0 45.857916883898724 -31.250757675546765 0 -31.250757675546765 -4.7274294792414366 0 0 0 0 22.732648901328503 -55.114122997571485 0 -55.114122997571485 1.8736399880708632 0 0 0 0 431.06846307094384 -47.216823004475373 0 -47.216823004475373 184.31003505913577 0 0 0 0 407.36906412941607 -159.66749941152511 0 -159.66749941152511 136.12636820499006 0 0 0 0 429.09140070771809 -51.565150440403073 0 -51.565150440403073 193.23329792685581 0 0 0 0 422.79716804750205 32.93562689820601 0 32.93562689820601 306.24260942324918 0 0 0 0 412.98895606238511 -73.073273582002003 0 -73.073273582002003 149.88197662634934 0 0 0 0 426.61668441372876 27.860553122422289 0 27.860553122422289 117.97331386041606 0 0 0 0 420.19178655008727 -56.677807838987292 0 -56.677807838987292 18.641747160287196 0 0 0 0 418.12159068828623 -151.52712535737101 0 -151.52712535737101 64.178550502209873 0 0 0 0 396.87824878183164 -96.728656965419304 0 -96.728656965419304 -34.212368161494851 0 0 0 0 387.50572725566599 -72.922471400596805 0 -72.922471400596805 36.044498112961264 0 0 0 0 365.0740204918111 64.940102720480354 0 64.940102720480354 57.806145095217289 0 0 0 0 146.49524659842427 -5.7326483662463943 0 -5.7326483662463943 30.750255933457083 0 0 0 0 345.03563124609354 -59.051457325991578 0 -59.051457325991578 8.8612528249161642 0 0 0 0 248.14539095519285 -127.62723971600371 0 -127.62723971600371 -19.222001954902225 0 0 0 0 356.45019878055609 -4.8023624657816981 0 -4.8023624657816981 -113.35248390890501 0 0 0 0 343.81421930977376 -147.55710580022696 0 -147.55710580022696 -80.58597999562312 0 0 0 0 245.20458790462726 -113.88178170670926 0 -113.88178170670926 -3.1502855266262486 0 0 0 0 352.37562050581619 -129.75015267560866 0 -129.75015267560866 -49.082394278801075 0 0 0 0 251.56626111096557 -4.6701158951987054 0 -4.6701158951987054 -166.2458428822938 0 0 0 0 264.95954968649312 -61.246212766618555 0 -61.246212766618555 18.706170082273275 0 0 0 0 208.39346294919278 178.098514048254 0 178.098514048254 111.01467743261856 0 0 0 0 1.7677796341329781 0.70908503506075249 0 0.70908503506075249 -1.2797491721469285 0 0 0 0 186.5461845720115 -221.92992500360978 0 -221.92992500360978 -104.59927334914755 0 0 0 0 774.03725494342507 -327.13327145618905 0 -327.13327145618905 58.877230144416899 0 0 0 0 624.59262331527134 -134.5753137009051 0 -134.5753137009051 38.054556112525461 0 0 0 0 516.01985496432462 -152.15527372157703 0 -152.15527372157703 31.905274675410055 0 0 0 0 495.3995298781665 -253.18161296822564 0 -253.18161296822564 94.435025165641491 0 0 0 0 461.47771015164471 -212.03562236782864 0 -212.03562236782864 72.749017105084931 0 0 0 0 459.89789280816331 -116.26836219710094 0 -116.26836219710094 59.278788878840714 0 0 0 0 359.89972023530026 -171.88215394652241 0 -171.88215394652241 29.977464969997527 0 0 0 0 423.48749194627453 -171.7698586076358 0 -171.7698586076358 34.540014175149736 0 0 0 0 426.59800168610673 -156.10789074004992 0 -156.10789074004992 105.20258035204552 0 0 0 0 364.88722800844698 -187.59369607902227 0 -187.59369607902227 95.126939002451763 0 0 0 0 415.67177581269789 -194.07286315890588 0 -194.07286315890588 44.669579372784938 0 0 0 0 329.19325784859393 -194.84350337681917 0 -194.84350337681917 55.58806336014959 0 0 0 0 417.35307103428931 -184.37125752829161 0 -184.37125752829161 96.316852723201009 0 0 0 0 311.85204714725296 -91.174813887608025 0 -91.174813887608025 5.4719120488298358 0 0 0 0 400.56874557448464 -153.54099339290929 0 -153.54099339290929 29.988578093330943 0 0 0 0 380.73845504752535 -160.34903701727626 0 -160.34903701727626 109.60149455121581 0 0 0 0 450.04165380219638 -116.60062544309903 0 -116.60062544309903 113.28638064110692 0 0 0 0 396.62075524525426 0.92656045378771523 0 0.92656045378771523 -482.91730023800483 0 0 0 0 201.57433343133016 46.797958636888893 0 46.797958636888893 -222.86603006406403 0 0 0 0 363.2766386932999 -129.01945246200421 0 -129.01945246200421 -84.185351213940521 0 0 0 0 402.92212434951944 -111.43160163679022 0 -111.43160163679022 -92.783544501813594 0 0 0 0 389.27549017893762 44.493064759142726 0 44.493064759142726 -406.16908002593209 0 0 0 0 257.12181369471091 -185.17868705568816 0 -185.17868705568816 -130.06308840880502 0 0 0 0 424.20550776681921 -62.94960092026713 0 -62.94960092026713 -100.68713216486685 0 0 0 0 413.44672328270826 -55.60941461717448 0 -55.60941461717448 -77.2771695890915 0 0 0 0 520.24624983073591 -214.66965873745085 0 -214.66965873745085 -41.536777352628633 0 0 0 0 391.74140219767651 -182.22008827999775 0 -182.22008827999775 60.464827275152857 0 0 0 0 534.03087368636625 -258.37007661088228 0 -258.37007661088228 151.96903037027914 0 0 0 0 2.920098124528721 2.2567101332925432 0 2.2567101332925432 -3.5191826646279587 0 0 0 0 678.72071669774232 -267.16387856941378 0 -267.16387856941378 10.583212806710435 0 0 0 0 109.30897982334864 -23.076489179657983 0 -23.076489179657983 95.616763548374365 0 0 0 0 556.67100488369761 -146.5521668838428 0 -146.5521668838428 60.302000420130753 0 0 0 0 519.96455413227523 -199.84472592742395 0 -199.84472592742395 70.504734135896797 0 0 0 0 519.26770213551208 -217.11110098985137 0 -217.11110098985137 9.4041552481430699 0 0 0 0 554.17790677549783 -174.59349484574705 0 -174.59349484574705 -39.781964893089025 0 0 0 0 556.2845511705309 -154.2972857730274 0 -154.2972857730274 29.519192131148884 0 0 0 0 277.75786918868835 -81.553901141006463 0 -81.553901141006463 22.508313084971178 0 0 0 0 505.90243164493586 -281.77504893307105 0 -281.77504893307105 176.16054404322676 0 0 0 0 61.266150351984834 125.92203803034954 0 125.92203803034954 160.38376733865152 0 0 0 0 289.21774744847789 2.7760614526123391 0 2.7760614526123391 24.902391652875167 0 0 0 0 277.7851886617857 30.717788458987236 0 30.717788458987236 3.878935260071108 0 0 0 0 318.94878284596416 247.63881890204198 0 247.63881890204198 -401.61680269205135 0 0 0 0 330.32836576103728 71.800682754748323 0 71.800682754748323 -185.80903021626 0 0 0 0 307.58162186337722 21.397476415952951 0 21.397476415952951 -194.82176644950778 0 0 0 0 406.67864171640394 11.838311798922405 0 11.838311798922405 -205.82207538365947 0 0 0 0 235.08116623940441 73.817636697395756 0 73.817636697395756 -170.19256063819648 0 0 0 0 279.51335011838091 167.40138224399789 0 167.40138224399789 -129.1795232230279 0 0 0 0 322.03177809701822 37.933532807143962 0 37.933532807143962 -4.7962557324461201 0 0 0 0 167.41030962145305 178.59228151233947 0 178.59228151233947 -41.709355388760741 0 0 0 0 305.90427171369083 34.117035409137316 0 34.117035409137316 82.375858775809775 0 0 0 0 87.079320879726311 28.867566628131584 0 28.867566628131584 -56.672901850149657 0 0 0 0 471.72913865917144 118.81131493661451 0 118.81131493661451 -110.67845372497322 0 0 0 0 88.928005776084547 12.186504171009332 0 12.186504171009332 -5.0611096120730465 0 0 0 0 295.60775185096281 -187.90621144232068 0 -187.90621144232068 -413.45143844014547 0 0 0 0 364.2917719944744 208.27574343192146 0 208.27574343192146 -210.14464181319181 0 0 0 0 74.763231822187663 -50.94832331991438 0 -50.94832331991438 25.403005107800709 0 0 0 0 17.812916031024436 -11.027863029067149 0 -11.027863029067149 0.041439553416090291 0 0 0 0 51.975669997780869 -26.795703720780494 0 -26.795703720780494 20.782706179146771 0 0 0 0 50.871411912703479 -23.49886856512876 0 -23.49886856512876 12.350314118241386 0 0 0 0 53.247496749419952 -26.612880396936816 0 -26.612880396936816 12.237657318437414 0 0 0 0 29.590080467773461 -9.6348944185066969 0 -9.6348944185066969 -5.4110615268560487 0 0 0 0 51.975669997773366 -26.795703720763413 0 -26.795703720763413 20.78270617913131 0 0 0 0 51.975669997780756 -26.795703720777709 0 -26.795703720777709 20.7827061791304 0 0 0 0 35.873634955494666 -16.695860542634946 0 -16.695860542634946 8.0556652635301909 0 0 0 0 62.738672207389754 -25.280960535219947 0 -25.280960535219947 4.7650660498593425 0 0 0 0 11.790383694948563 -16.296763641633568 0 -16.296763641633568 10.937051149711023 0 0 0 0 33.296068852562939 -12.013088950862539 0 -12.013088950862539 11.675227653147886 0 0 0 0 41.225365579226491 -14.850105478788919 0 -14.850105478788919 18.587884753704202 0 0 0 0 23.807672456855826 -30.113370055140869 0 -30.113370055140869 11.319364365214614 0 0 0 0 35.591584138172948 -37.300882457279727 0 -37.300882457279727 7.8854725584569678 0 0 0 0 109.67370458626829 -35.938834547819624 0 -35.938834547819624 -46.900250518672692 0 0 0 0 11.262990822089762 -5.7955340003026024 0 -5.7955340003026024 -4.6198396858594606 0 0 0 0 44.662418621694087 -8.1589130137781467 0 -8.1589130137781467 6.3409509749853896 0 0 0 0 11.780379084871754 -2.6154735836525518 0 -2.6154735836525518 1.0821478520532537 0 0 0 0 139.10680204574601 -62.290995570583618 0 -62.290995570583618 -18.214992488463395 0 0 0 0 107.25381959948572 -47.083756224139506 0 -47.083756224139506 26.441866257597212 0 0 0 0 92.965588329781895 -18.828438074227961 0 -18.828438074227961 100.14788111254029 0 0 0 0 495.97333351307316 -84.794241963371405 0 -84.794241963371405 -3.0934833987321326 0 0 0 0 86.67737788373779 -37.383251437193394 0 -37.383251437193394 8.065864665677509 0 0 0 0 9.6610615264273605 -5.9379155926216569 0 -5.9379155926216569 0.069218536671215247 0 0 0 0 115.21142265959861 -91.734900278373061 0 -91.734900278373061 29.218776160167181 0 0 0 0 11.228030456044017 -1.1668605794933171 0 -1.1668605794933171 -2.6194363656558117 0 0 0 0 141.81962358724559 -68.507184741869423 0 -68.507184741869423 -5.4111452236575133 0 0 0 0 108.61590453670942 -47.77379989803012 0 -47.77379989803012 -5.1444571758345887 0 0 0 0 87.642769986356143 -35.28242217915431 0 -35.28242217915431 11.423750776133602 0 0 0 0 45.287428752140841 -25.073971709451143 0 -25.073971709451143 32.821677356672808 0 0 0 0 21.635548379968114 -18.867290267985503 0 -18.867290267985503 15.589306876454055 0 0 0 0 15.43703759194868 -23.410326551394924 0 -23.410326551394924 10.805248542758743 0 0 0 0 96.458828723069018 -77.647259116170289 0 -77.647259116170289 42.257104340158548 0 0 0 0 80.268752859454253 -62.387474454040785 0 -62.387474454040785 41.950551055753579 0 0 0 0 38.12433607847062 -17.598255974923806 0 -17.598255974923806 -4.2332603154599333 0 0 0 0 51.891344370960724 -28.704693393353864 0 -28.704693393353864 9.1695395828319306 0 0 0 0 77.347872954427658 -27.320859899060906 0 -27.320859899060906 -8.878057397669636 0 0 0 0 42.468290264798696 -23.077760518625031 0 -23.077760518625031 5.1849469662315055 0 0 0 0 42.280991568539321 -21.856605365128871 0 -21.856605365128871 -6.5159963446931215 0 0 0 0 42.186530084129672 -20.031722784081254 0 -20.031722784081254 7.7050771510660745 0 0 0 0 59.671125662433042 -43.514908608221049 0 -43.514908608221049 26.210601245260477 0 0 0 0 28.469620767908054 -46.637818727785998 0 -46.637818727785998 22.904336400941247 0 0 0 0 18.818560198803574 -0.056814286123127999 0 -0.056814286123127999 -4.0824791539562675 0 0 0 0 73.68076785741323 -37.216215430989223 0 -37.216215430989223 12.507954934259942 0 0 0 0 71.556441882901709 -139.16786500466242 0 -139.16786500466242 136.29395844080227 0 0 0 0 817.27218320399697 -17.014411890877454 0 -17.014411890877454 -14.441636935063798 0 0 0 0 70.777093890835985 -42.108354165588395 0 -42.108354165588395 0.15192352337932036 0 0 0 0 90.203618916959385 -39.905887270178937 0 -39.905887270178937 -4.1848417812980188 0 0 0 0 221.82673108577001 -36.668211300820985 0 -36.668211300820985 -64.265647823414838 0 0 0 0 -1.3573602197684522 -6.9913552644734729 0 -6.9913552644734729 6.289380016601716 0 0 0 0 231.91851651057198 17.496146942772867 0 17.496146942772867 1.003361230489614 0 0 0 0 141.39824657604186 -35.328510237546652 0 -35.328510237546652 36.789093385683373 0 0 0 0 200.60491706869652 0.123899016301948 0 0.123899016301948 10.444122991030781 0 0 0 0 625.44042754256589 -182.36330510765447 0 -182.36330510765447 -352.70376261576348 0 0 0 0 27.451413782086561 -40.592380670291874 0 -40.592380670291874 -4.9254346864648895 0 0 0 0 104.8192765450093 -15.018549395414333 0 -15.018549395414333 -2.5929782050098642 0 0 0 0 81.164275176464798 -30.207717297870659 0 -30.207717297870659 36.501127391244154 0 0 0 0 93.915563949864008 -24.248075521623832 0 -24.248075521623832 20.543914457453866 0 0 0 0 126.75791068997933 -65.985059365008055 0 -65.985059365008055 24.522484557973712 0 0 0 0 69.79192748199921 -13.660320241504451 0 -13.660320241504451 52.168412603172328 0 0 0 0 85.577927798671681 -13.593789184691332 0 -13.593789184691332 28.416524971537001 0 0 0 0 75.957188941658387 -25.991773663067761 0 -25.991773663067761 13.207859041995107 0 0 0 0 87.93993514855174 -30.624811100909938 0 -30.624811100909938 19.713022670312057 0 0 0 0 64.394182012994861 -22.752163178058709 0 -22.752163178058709 19.32301008453878 0 0 0 0 38.241391564855903 -1.3990509586643141 0 -1.3990509586643141 -10.510401268855853 0 0 0 0 72.213666229029513 -12.238655770849618 0 -12.238655770849618 4.0497233737605711 0 0 0 0 26.351036552006811 -6.025415189685944 0 -6.025415189685944 1.1223378798526511 0 0 0 0 42.346605333423213 -13.602634522555491 0 -13.602634522555491 2.829485428735552 0 0 0 0 30.186503633432778 -7.796482031397943 0 -7.796482031397943 1.9441007135564661 0 0 0 0 -58.968517603742612 -31.170707638147775 0 -31.170707638147775 45.657375569315263 0 0 0 0 26.964218882354658 -9.4563315665918175 0 -9.4563315665918175 0.22336172247031527 0 0 0 0 32.82388505522249 -17.800584764548148 0 -17.800584764548148 6.5930795309982386 0 0 0 0 20.94035868502942 -14.814331788576098 0 -14.814331788576098 13.622316897969027 0 0 0 0 68.958207871633931 -33.920843036328733 0 -33.920843036328733 23.37374369211102 0 0 0 0 16.081263424533638 -5.6375818326729483 0 -5.6375818326729483 16.666014672782609 0 0 0 0 32.848935942485696 -22.725196208011766 0 -22.725196208011766 19.940367937413612 0 0 0 0 -29.782116820009833 -21.127247721587082 0 -21.127247721587082 31.217704906461677 0 0 0 0 46.625065275458624 -22.481163011681133 0 -22.481163011681133 41.089613922187709 0 0 0 0 64.603318031640626 -12.870309342828499 0 -12.870309342828499 -2.2712863695724375 0 0 0 0 67.171677088012984 -8.5008359565545106 0 -8.5008359565545106 49.871990492803889 0 0 0 0 33.075731803739146 -25.315042508071656 0 -25.315042508071656 20.280896608974217 0 0 0 0 16.155668110820486 1.7535683185929418 0 1.7535683185929418 8.6246827671438364 0 0 0 0 7.4955192014325007 -66.571281019845628 0 -66.571281019845628 7.2433835509436904 0 0 0 0 -66.266602359812168 71.105416360895561 0 71.105416360895561 64.732739350351039 0 0 0 0 8.8790171368792095 -4.1340425110148002 0 -4.1340425110148002 -1.1528402910659601 0 0 0 0 54.599138577982103 -5.2027736175004975 0 -5.2027736175004975 19.623809463573707 0 0 0 0 23.614469986118756 3.1301581022924072 0 3.1301581022924072 -1.7518466061460991 0 0 0 0 25.845360737271008 -4.3998559233984444 0 -4.3998559233984444 -2.2801316248836656 0 0 0 0 18.677793613023823 -4.0541481398613541 0 -4.0541481398613541 0.74627764589240542 0 0 0 0 15.417558553875036 2.1515991364628864 0 2.1515991364628864 10.293179872241986 0 0 0 0 3.3250776267890725 6.4039652760255317 0 6.4039652760255317 1.1363749932232423 0 0 0 0 85.315040015351769 -29.805913210173458 0 -29.805913210173458 29.216875706601058 0 0 0 0 34.559444084885286 -15.678509845530016 0 -15.678509845530016 58.16745888035075 0 0 0 0 27.593810776752321 0.54172757562322182 0 0.54172757562322182 14.02708707346488 0 0 0 0 -13.875674850357882 -26.435510551402331 0 -26.435510551402331 37.268799397581461 0 0 0 0 25.195883650632197 8.1645691489680168 0 8.1645691489680168 11.190460314294747 0 0 0 0 115.57717121938049 79.780927863039324 0 79.780927863039324 52.487158802134218 0 0 0 0 45.091405468597259 19.171032310976443 0 19.171032310976443 -69.088618408815819 0 0 0 0 45.403591475971552 102.38125945393858 0 102.38125945393858 -52.193184258760198 0 0 0 0 155.29820654079421 138.40197698797033 0 138.40197698797033 131.59465265008657 0 0 0 0 42.220198519202313 -3.4088525748575194 0 -3.4088525748575194 -42.254026613097722 0 0 0 0 156.384602430207 -17.203003967826817 0 -17.203003967826817 3.0860655818651139 0 0 0 0 24.559967156205857 -60.828457485901254 0 -60.828457485901254 20.212603596090048 0 0 0 0 14.911654185294116 3.9743473629147132 0 3.9743473629147132 0.070572779844123801 0 0 0 0 149.1797705017926 -162.66556576201646 0 -162.66556576201646 89.251716878192383 0 0 0 0 99.597599784575436 -64.395899007758089 0 -64.395899007758089 65.630818325917062 0 0 0 0 38.48006372336431 109.62237226419597 0 109.62237226419597 134.5428673475576 0 0 0 0 -29.415230967172647 -15.105629462648722 0 -15.105629462648722 83.462446871226462 0 0 0 0 3.2197222336539371 -2.254037489439277 0 -2.254037489439277 0.69208730754837067 0 0 0 0 730.40535183372776 -206.99213990388489 0 -206.99213990388489 36.170922284538392 0 0 0 0 357.69470931551587 -1.1497740717049965 0 -1.1497740717049965 40.187403903864833 0 0 0 0 7.8525413603038032 -41.502779231148452 0 -41.502779231148452 -21.446612835261021 0 0 0 0 -30.015359234520474 8.1599631469989617 0 8.1599631469989617 158.16649079772378 0 0 0 0 90.266969865158899 -183.60601725700508 0 -183.60601725700508 233.09513746938728 0 0 0 0 39.291554047153113 -23.505465588972584 0 -23.505465588972584 100.13573383631365 0 0 0 0 73.994663957816556 92.74634916152354 0 92.74634916152354 412.00596939473871 0 0 0 0 76.712077989492172 -131.13280719385341 0 -131.13280719385341 50.889197960622369 0 0 0 0 33.90791205669484 -10.095415089959033 0 -10.095415089959033 6.1865090596202208 0 0 0 0 37.932818615353142 -13.947312420999044 0 -13.947312420999044 4.434709974448757 0 0 0 0 127.84524453915219 -140.43635760047573 0 -140.43635760047573 -77.641099641445635 0 0 0 0 34.099086524131643 -4.0714518493973877 0 -4.0714518493973877 2.1507679512533309 0 0 0 0 111.03485885456439 40.977181404815838 0 40.977181404815838 -112.32203218557424 0 0 0 0 -61.755484776987032 8.0881764441378436 0 8.0881764441378436 40.201070638106302 0 0 0 0 33.373953476095267 -9.2865469766568367 0 -9.2865469766568367 13.470655568072289 0 0 0 0 29.792465840238037 -4.0835323355653372 0 -4.0835323355653372 7.5906654862915275 0 0 0 0 239.9982851620116 -161.30352316696656 0 -161.30352316696656 23.20768534894296 0 0 0 0 86.268785353127896 -89.072787447082646 0 -89.072787447082646 41.878688408278236 0 0 0 0 223.07889787610884 -220.76645038066636 0 -220.76645038066636 194.54447497122533 0 0 0 0 190.25065388525763 -115.28442985783596 0 -115.28442985783596 140.83201328436121 0 0 0 0 264.04397013674316 -236.18807818137719 0 -236.18807818137719 126.56424575018548 0 0 0 0 417.50770184153953 -294.12429302036736 0 -294.12429302036736 112.44242916653539 0 0 0 0 310.57105303670323 -215.22298154707687 0 -215.22298154707687 58.601990245039175 0 0 0 0 53.216967208507413 42.535044486629886 0 42.535044486629886 1.8942064713073705 0 0 0 0 179.73268843777987 -21.139633463223674 0 -21.139633463223674 -52.98749941481833 0 0 0 0 16.141546614932331 6.3789186272912719 0 6.3789186272912719 3.2932864317738817 0 0 0 0 97.160542472620364 -77.3260823383863 0 -77.3260823383863 -33.918293538612488 0 0 0 0 3.9125342159412924 8.1535770679203186 0 8.1535770679203186 -1.0654129102465615 0 0 0 0 15.539297878731986 27.803307199219034 0 27.803307199219034 12.466973251142008 0 0 0 0 21.01950092363586 9.5284009043982678 0 9.5284009043982678 43.425269531074264 0 0 0 0 34.656704929811767 11.1280219327551 0 11.1280219327551 0.4369129029425487 0 0 0 0 80.755372812138376 -5.4822739665992231 0 -5.4822739665992231 15.171170706440307 0 0 0 0 83.311971088191058 23.979183005535106 0 23.979183005535106 92.339159032359476 0 0 0 0 239.9899292360351 -79.015753898605908 0 -79.015753898605908 -13.002640815349423 0 0 0 0 11.991212382423397 0.49401401253170718 0 0.49401401253170718 1.2986133648807381 0 0 0 0 27.90032025446186 4.1724460151663152 0 4.1724460151663152 21.148033882167738 0 0 0 0 37.256483163935627 -42.259948234581316 0 -42.259948234581316 93.306666388954909 0 0 0 0 53.045522952067643 -20.049230116403123 0 -20.049230116403123 44.204482864494821 0 0 0 0 28.493188916672807 -13.936128131681471 0 -13.936128131681471 42.702766654024117 0 0 0 0 3.5153880230446362 4.7582742076317572 0 4.7582742076317572 67.054765459295595 0 0 0 0 31.950163651692492 -2.0111983570192251 0 -2.0111983570192251 30.585267024977838 0 0 0 0 39.174977060010406 -9.198276776342027 0 -9.198276776342027 30.784960651104157 0 0 0 0 20.110402981576748 16.654385452892921 0 16.654385452892921 14.039565968017223 0 0 0 0 877.08147901593929 -332.28933866229971 0 -332.28933866229971 22.484980623618981 0 0 0 0 132.70378678908583 246.92536154356316 0 246.92536154356316 37.358423151541068 0 0 0 0 -127.64814163278027 -8.9011255728728251 0 -8.9011255728728251 266.2354395010783 0 0 0 0 1017.9359452003637 218.46803290437811 0 218.46803290437811 -132.23363360566691 0 0 0 0 -123.72441982678038 -25.709813344564054 0 -25.709813344564054 10.168156756771168 0 0 0 0 32.58440513369974 -4.6445908930050948 0 -4.6445908930050948 1.5640499098793841 0 0 0 0 16.624917071970771 7.5482582292440226 0 7.5482582292440226 8.4230767312864891 0 0 0 0 5487.9065645779956 -785.91966492483402 0 -785.91966492483402 -673.24744833874718 0 0 0 0 1907.9563863430133 71.451045770214691 0 71.451045770214691 461.08006374243399 0 0 0 0 205.65138220374229 -630.12060904644386 0 -630.12060904644386 595.97250218203885 0 0 0 0 1978.3989013896717 -780.71368077083184 0 -780.71368077083184 -41.586030982171508 0 0 0 0 939.59174374262375 -281.92605725555313 0 -281.92605725555313 -75.91078688520895 0 0 0 0 2036.9116533308961 -631.64915077326941 0 -631.64915077326941 -97.352031262725973 0 0 0 0 122.00331871068192 226.80520731018032 0 226.80520731018032 491.4734978755265 0 0 0 0 14.080612739954306 7.8668038135163911 0 7.8668038135163911 2.0671099943312199 0 0 0 0 5500.038535468505 -2215.4374491869971 0 -2215.4374491869971 753.65996320586009 0 0 0 0 787.9826721741747 -984.08057895365801 0 -984.08057895365801 1110.1745088100624 0 0 0 0 2145.8925760719567 -414.93318906240575 0 -414.93318906240575 -204.61091064554387 0 0 0 0 27.807285380143963 23.106284079640815 0 23.106284079640815 -1.3129325349360412 0 0 0 0 699.61982319523941 -53.988050706729268 0 -53.988050706729268 -111.35967794599178 0 0 0 0 5152.2191992170065 -1731.0293615280004 0 -1731.0293615280004 435.56952876979574 0 0 0 0 5498.8284466844234 -2214.9822601553078 0 -2214.9822601553078 753.60778897581133 0 0 0 0 226.38547371362438 -354.84073943658541 0 -354.84073943658541 399.4044290073723 0 0 0 0 209.37158739657025 -195.2745768609625 0 -195.2745768609625 190.36878711250756 0 0 0 0 316.3659741638221 -194.11162912683392 0 -194.11162912683392 145.21831684158718 0 0 0 0 64.603167662613487 -107.42251406802649 0 -107.42251406802649 185.18780153302214 0 0 0 0 111.36215997665113 -207.47624475000515 0 -207.47624475000515 284.4271394447461 0 0 0 0 538.31210521586581 -913.75599162891524 0 -913.75599162891524 1386.4007880457862 0 0 0 0 11.378243571549964 -4.2549261528360525 0 -4.2549261528360525 1.6940177667800564 0 0 0 0 1050.6071841660964 -342.29563147867464 0 -342.29563147867464 20.667702357403527 0 0 0 0 712.70196049652259 -577.05778984906988 0 -577.05778984906988 271.4400444374067 0 0 0 0 372.82768786164615 -340.16584760641962 0 -340.16584760641962 162.83915133020469 0 0 0 0 772.79251982675851 -348.07535060499868 0 -348.07535060499868 101.58557820247825 0 0 0 0 511.87166883295367 -439.47122214573511 0 -439.47122214573511 168.44965018856294 0 0 0 0 757.78755226920202 -309.41419203409282 0 -309.41419203409282 21.859247518642746 0 0 0 0 817.25651400570496 -284.97984558520307 0 -284.97984558520307 31.477694084948325 0 0 0 0 699.60016644128973 -229.32519529546789 0 -229.32519529546789 131.32130164211048 0 0 0 0 539.45967890581778 -336.39817943796402 0 -336.39817943796402 112.62560873012694 0 0 0 0 4393.6916216746395 -1460.2287806185457 0 -1460.2287806185457 404.68097698724523 0 0 0 0 3873.8553366321521 -934.76650773511631 0 -934.76650773511631 148.72356209444001 0 0 0 0 35.20250317907778 31.858005881748184 0 31.858005881748184 -8.3403820831828508 0 0 0 0 5499.713015465808 -1149.6025385680366 0 -1149.6025385680366 -301.48161815901813 0 0 0 0 4315.7885045303665 -462.8553591834139 0 -462.8553591834139 -592.3402033593477 0 0 0 0 5498.2523314061837 -228.70877248533643 0 -228.70877248533643 -815.58501170343095 0 0 0 0 4020.1039384990818 -1055.7138827017022 0 -1055.7138827017022 6.2737339176686646 0 0 0 0 3279.339744465713 -240.85141363655765 0 -240.85141363655765 -229.8382774809736 0 0 0 0 3389.228061322452 530.51748998134076 0 530.51748998134076 -770.65802181959498 0 0 0 0 37.357558116799652 35.867040931474733 0 35.867040931474733 -12.547618075250954 0 0 0 0 2265.9731548264353 -198.15489809755292 0 -198.15489809755292 -16.025581075885498 0 0 0 0 774.12938483479411 -325.8400435646945 0 -325.8400435646945 122.66577215044816 0 0 0 0 578.77829653105437 -86.941073229216045 0 -86.941073229216045 -23.584738150731027 0 0 0 0 -311.2115468815955 -88.489647387420518 0 -88.489647387420518 311.47943541409632 0 0 0 0 0.86475691821043776 -1.298079226862459 0 -1.298079226862459 3.7115553008636759 0 0 0 0 544.59483365147025 -408.60029765905506 0 -408.60029765905506 254.9215990993406 0 0 0 0 326.9383803818173 -339.52326102417635 0 -339.52326102417635 307.38817841665514 0 0 0 0 526.39185109752361 -421.24265570840862 0 -421.24265570840862 555.4550400077037 0 0 0 0 869.09895809871341 -109.41121101166868 0 -109.41121101166868 56.515880382668456 0 0 0 0 1532.5397450707699 -493.81574750475716 0 -493.81574750475716 75.497626911737825 0 0 0 0 301.87654343041686 -110.52580550421567 0 -110.52580550421567 91.396241063785055 0 0 0 0 312.3127022069184 -243.05266098035861 0 -243.05266098035861 416.09740318852073 0 0 0 0 -166.62740149219098 -128.01245169121557 0 -128.01245169121557 171.6036326635267 0 0 0 0 -36.884347143583 38.57741554523318 0 38.57741554523318 86.449931978086795 0 0 0 0 -62.374323257274227 -37.538197983246846 0 -37.538197983246846 239.2521973698008 0 0 0 0 -184.09627109852227 -22.704960376910975 0 -22.704960376910975 51.52021990646108 0 0 0 0 -60.52550567824801 -45.991872135858557 0 -45.991872135858557 31.936127779980779 0 0 0 0 552.27916187391884 -126.60202890260774 0 -126.60202890260774 130.27996310735853 0 0 0 0 201.83421370783626 22.819081945287053 0 22.819081945287053 81.83268734377998 0 0 0 0 202.2875687822343 -123.01366916572329 0 -123.01366916572329 239.86826231044347 0 0 0 0 171.5442106522587 -72.886385884081392 0 -72.886385884081392 -15.416112274855323 0 0 0 0 312.79136456120978 47.74067941337762 0 47.74067941337762 84.686598776557389 0 0 0 0 -97.014033167302841 152.00859363702193 0 152.00859363702193 2.3288666323843756 0 0 0 0 -130.46679539587421 39.712887215241949 0 39.712887215241949 138.26309618422886 0 0 0 0 12.068524120035249 2.1158483576996723 0 2.1158483576996723 4.5655925978573926 0 0 0 0 31.734288709743851 -10.168243517692474 0 -10.168243517692474 13.565820535352259 0 0 0 0 33.378103065078676 -13.392187159733416 0 -13.392187159733416 17.619307903986055 0 0 0 0 31.800701970043519 -10.641022340179603 0 -10.641022340179603 14.507654940436183 0 0 0 0 13.189862225352044 141.73100871045079 0 141.73100871045079 -58.836996372456269 0 0 0 0 10.309399612973863 7.6685850384040766 0 7.6685850384040766 3.2799448803717506 0 0 0 0 373.83535657240918 -107.20555482794191 0 -107.20555482794191 31.695878097088553 0 0 0 0 201.68420587664514 -160.53004677439242 0 -160.53004677439242 36.743800852352138 0 0 0 0 455.84202491627002 -354.92757323880323 0 -354.92757323880323 142.1229352141147 0 0 0 0 441.74129390062399 -273.38007166350155 0 -273.38007166350155 77.519272008548683 0 0 0 0 531.79125125569271 -320.58233602388361 0 -320.58233602388361 154.60071697302146 0 0 0 0 410.48158442306521 -252.71133730033171 0 -252.71133730033171 121.47387026656736 0 0 0 0 661.15480379704422 -132.00554905677893 0 -132.00554905677893 176.9530151515512 0 0 0 0 111.12666022989288 -87.01253583519474 0 -87.01253583519474 -99.312295421498106 0 0 0 0 94.918530235263461 -55.873912513859864 0 -55.873912513859864 -123.02467834500158 0 0 0 0 208.53963429736177 -112.69066689732483 0 -112.69066689732483 -213.46126486201661 0 0 0 0 124.14343096730954 -114.65384351545288 0 -114.65384351545288 -96.59224693592887 0 0 0 0 117.0682664187334 62.498148042708408 0 62.498148042708408 -258.3208159768015 0 0 0 0 138.08187443526731 -21.3129480822316 0 -21.3129480822316 -72.564666272210161 0 0 0 0 62.846189309369947 -32.055713489974551 0 -32.055713489974551 -60.153258603262429 0 0 0 0 139.98945114730668 -11.818180471972624 0 -11.818180471972624 -79.965731649469035 0 0 0 0 9.6461974528118759 -10.573979077509776 0 -10.573979077509776 -53.995665276132279 0 0 0 0 75.826565361021494 -56.940339290669726 0 -56.940339290669726 -97.746387593980216 0 0 0 0 79.745976333302679 145.91801006756532 0 145.91801006756532 35.90993022567659 0 0 0 0 5.6285908361310391 -3.6401440332145114 0 -3.6401440332145114 -1.346929652061398 0 0 0 0 -103.46210272129974 122.92116384325982 0 122.92116384325982 60.141791102596471 0 0 0 0 32.117872451030166 -22.174160896823203 0 -22.174160896823203 4.1477784368066395 0 0 0 0 172.58486371673644 -167.83883826626334 0 -167.83883826626334 -36.294476438601123 0 0 0 0 45.796709293754247 -8.9360344308397544 0 -8.9360344308397544 -53.495181226666318 0 0 0 0 81.193236614781199 8.904858669384339 0 8.904858669384339 -94.887036800917031 0 0 0 0 97.420981407914951 -140.25354215437983 0 -140.25354215437983 -9.2935236850817091 0 0 0 0 180.51992687302118 9.862413484357603 0 9.862413484357603 -116.43962550700189 0 0 0 0 26.81717724938062 -39.356660098389284 0 -39.356660098389284 -100.72707747382765 0 0 0 0 -2.3938551289574477 -6.337826234231855 0 -6.337826234231855 -42.58516252239842 0 0 0 0 -86.382037516874334 -19.417737415917856 0 -19.417737415917856 98.918901783904857 0 0 0 0 299.81240116189292 -250.82262753012685 0 -250.82262753012685 -0.09450266192845902 0 0 0 0 309.55356380924059 -69.114636068913683 0 -69.114636068913683 -35.09896804851769 0 0 0 0 34.480429491915856 20.102863588885498 0 20.102863588885498 307.66527499302356 0 0 0 0 158.51002156532195 -301.70890556138011 0 -301.70890556138011 279.6229287310631 0 0 0 0 4.2118630373217059 0.80870056716046435 0 0.80870056716046435 0.023889920381437779 0 0 0 0 20.882222897576867 0.23587014497405789 0 0.23587014497405789 -70.996702631609651 0 0 0 0 66.755221314495429 57.340597450032192 0 57.340597450032192 -33.137933588576857 0 0 0 0 310.28951982358853 10.722504276416114 0 10.722504276416114 -113.20855894079705 0 0 0 0 13.806814955078153 -18.875677954590202 0 -18.875677954590202 -40.912195146606791 0 0 0 0 52.182505256641889 11.579463220896514 0 11.579463220896514 -0.13986162681521819 0 0 0 0 6.6397690673313576 -2.4150299088879734 0 -2.4150299088879734 1.7479602676719392 0 0 0 0 12.582892118327209 1.102051783803617 0 1.102051783803617 2.2592671323871953 0 0 0 0 12.4107038762304 -21.583824527280399 0 -21.583824527280399 -35.140551566666488 0 0 0 0 28.015642532278434 -14.162051524547564 0 -14.162051524547564 -47.724224048123233 0 0 0 0 16.595718310778466 -32.920785555645011 0 -32.920785555645011 -76.701093755001239 0 0 0 0 8.9683775652065378 -22.397976354546245 0 -22.397976354546245 -38.67858358400872 0 0 0 0 -30.43013263852481 -45.242917117909315 0 -45.242917117909315 -51.716824959028372 0 0 0 0 20.135801002215885 -59.30202032171951 0 -59.30202032171951 -74.920392555971375 0 0 0 0 54.555446016609494 -33.736842087990112 0 -33.736842087990112 -127.49186891497675 0 0 0 0 37.453497307156795 -36.708515287924001 0 -36.708515287924001 -76.546843073816802 0 0 0 0 41.843544675073645 -70.825539369944636 0 -70.825539369944636 -79.897466161962257 0 0 0 0 86.618872898703557 -72.184601838115668 0 -72.184601838115668 -117.85118841243786 0 0 0 0 11.982885425488348 -76.177952222027216 0 -76.177952222027216 -81.092992762742028 0 0 0 0 41.489910627387872 -67.703442405532996 0 -67.703442405532996 -107.2936260470683 0 0 0 0 6.7101766104242415 -91.277271836194359 0 -91.277271836194359 -108.84232979791886 0 0 0 0 35.801139259412594 -13.329842316106578 0 -13.329842316106578 -110.10181134364302 0 0 0 0 80.538237601271248 42.72933558940872 0 42.72933558940872 -217.37361020522576 0 0 0 0 83.082436208162108 3.7964008201965953 0 3.7964008201965953 -79.131696308456867 0 0 0 0 129.79977137423703 -102.5193772248349 0 -102.5193772248349 -213.87166326060776 0 0 0 0 87.477504831746046 -79.22459753090402 0 -79.22459753090402 -86.727521537103712 0 0 0 0 93.258771854743827 -85.298290072334567 0 -85.298290072334567 -83.514816737834053 0 0 0 0 83.837496626671054 -52.221057986477717 0 -52.221057986477717 12.149666960182003 0 0 0 0 107.03577119805414 -146.48059411063264 0 -146.48059411063264 -56.198842697403052 0 0 0 0 -0.4953759735154506 -1.3913865788054238 0 -1.3913865788054238 -0.35878550360439299 0 0 0 0 108.75672558572842 -14.288295050944726 0 -14.288295050944726 -8.3954395674309126 0 0 0 0 142.88549991689069 -35.275173156358505 0 -35.275173156358505 -12.615345133227493 0 0 0 0 119.81201004676404 -22.229078963944403 0 -22.229078963944403 -3.7517744646856954 0 0 0 0 132.57083606349624 -23.477771209752973 0 -23.477771209752973 -23.529845976579054 0 0 0 0 122.03502269099408 -46.500633711395949 0 -46.500633711395949 -52.489752239644758 0 0 0 0 72.809220993032795 -59.727091324049525 0 -59.727091324049525 -40.033131249778307 0 0 0 0 970.05381503597891 -1237.0566717273214 0 -1237.0566717273214 1259.6730061122726 0 0 0 0 617.606574505764 638.86420600771635 0 638.86420600771635 -135.28617259486782 0 0 0 0 676.63246200891626 220.99051324994798 0 220.99051324994798 -828.13973453916697 0 0 0 0 97.900457093084697 -22.969964172762047 0 -22.969964172762047 -48.134362860762394 0 0 0 0 122.0195862565306 373.56072554711864 0 373.56072554711864 569.33757572818649 0 0 0 0 96.266339281682704 -24.032302390803572 0 -24.032302390803572 -1.3544345098002548 0 0 0 0 32.377743199564065 -456.20087467944541 0 -456.20087467944541 -52.290746367380052 0 0 0 0 103.82910796271918 -48.479207829061394 0 -48.479207829061394 4.968773141059275 0 0 0 0 23.516212258618907 -83.664511511364253 0 -83.664511511364253 -120.70783030547204 0 0 0 0 41.241369888981808 -28.357570151368748 0 -28.357570151368748 -172.87411479746197 0 0 0 0 42.079189800540917 -39.180476226734754 0 -39.180476226734754 -47.430197616232135 0 0 0 0 79.346375270471981 -75.253309371793591 0 -75.253309371793591 -83.112301274381934 0 0 0 0 100.57780680015621 -46.74708392157136 0 -46.74708392157136 17.802662838228343 0 0 0 0 71.290823492468917 -64.20866782140024 0 -64.20866782140024 -27.294128855222425 0 0 0 0 44.045143362309318 -221.23152376943835 0 -221.23152376943835 21.769745149843175 0 0 0 0 39.392422874741982 -17.187285458868534 0 -17.187285458868534 9.3572898865904435 0 0 0 0 -451.10580553005275 -213.00862250657156 0 -213.00862250657156 641.78910864865065 0 0 0 0 -101.44539931003783 16.383590810074111 0 16.383590810074111 368.52348396857269 0 0 0 0 24.966060830309118 -1.1246553744787136 0 -1.1246553744787136 -2.0262549875726124 0 0 0 0 -416.83802601152638 354.88155972770528 0 354.88155972770528 1386.8017397008352 0 0 0 0 520.00711791001959 43.42964965824649 0 43.42964965824649 215.08273395183642 0 0 0 0 50.081267653610496 -33.915626513582069 0 -33.915626513582069 18.669545678816021 0 0 0 0 -208.954072379953 -417.64927380658662 0 -417.64927380658662 217.26957796503484 0 0 0 0 -0.083960936059156666 -338.22954961586856 0 -338.22954961586856 594.88037477532271 0 0 0 0 -449.5560699523121 304.79355697679057 0 304.79355697679057 -189.02426791862672 0 0 0 0 108.88930401476682 -759.13697922702613 0 -759.13697922702613 -780.95843067913529 0 0 0 0 -148.42527709561818 11.907441283371043 0 11.907441283371043 301.07315025663593 0 0 0 0 -48.086024531437943 -417.29136153485342 0 -417.29136153485342 1309.9928073711781 0 0 0 0 8.4943244156182462 -19.603767877702818 0 -19.603767877702818 8.834371939276835 0 0 0 0 609.33667042726347 -586.09327495473485 0 -586.09327495473485 177.72892026137924 0 0 0 0 233.00334231378656 -476.2416495408861 0 -476.2416495408861 551.74679559859669 0 0 0 0 166.12642813572711 -46.834553226812204 0 -46.834553226812204 137.0897068747654 0 0 0 0 13.297489113736447 -173.4783127854862 0 -173.4783127854862 468.84677106826712 0 0 0 0 2974.5529222827245 -756.3608843676775 0 -756.3608843676775 -326.46815106771828 0 0 0 0 -2580.9311627962743 86.30877624736604 0 86.30877624736604 1392.9997849726224 0 0 0 0 338.03530503626098 145.95511655634709 0 145.95511655634709 -57.667792654633558 0 0 0 0 23.720457440878967 -20.420231858770084 0 -20.420231858770084 -11.420818164208455 0 0 0 0 -208.70551681721827 -303.31507723892764 0 -303.31507723892764 -145.51163025307869 0 0 0 0 136.27726023948344 -13.169294704897766 0 -13.169294704897766 -423.80619422644122 0 0 0 0 105.55672720154034 -60.542668864686931 0 -60.542668864686931 20.779403685623787 0 0 0 0 113.85153103417542 12.643700982054725 0 12.643700982054725 -133.36235181037955 0 0 0 0 419.62469127257646 -417.16836848296498 0 -417.16836848296498 113.7427400137301 0 0 0 0 78.843719956563632 -12.902350694828398 0 -12.902350694828398 -71.635536415332993 0 0 0 0 391.58670984118362 -374.48708646819068 0 -374.48708646819068 98.06360556331947 0 0 0 0 507.15138555340673 -705.39213997186016 0 -705.39213997186016 359.75038148543535 0 0 0 0 584.8465229138892 -576.60046767373933 0 -576.60046767373933 -443.67190923035014 0 0 0 0 459.45267440880707 -327.2161682232213 0 -327.2161682232213 42.22928407550171 0 0 0 0 421.54079266110693 -408.32108637219665 0 -408.32108637219665 130.28478410276875 0 0 0 0 51.894457491418891 62.033603415236925 0 62.033603415236925 -5.1144918303155773 0 0 0 0 49.642064123266209 49.387391736538802 0 49.387391736538802 87.58173071720239 0 0 0 0 438.1626474960467 608.85662139731528 0 608.85662139731528 -718.38120399195395 0 0 0 0 111.10826822469426 -84.310054782009956 0 -84.310054782009956 186.84271124763109 0 0 0 0 46.526988959146365 -23.548964241988187 0 -23.548964241988187 177.26146765572685 0 0 0 0 381.33921384846326 -209.69102860343628 0 -209.69102860343628 -117.4018540758525 0 0 0 0 196.63818699648527 -19.131497163420818 0 -19.131497163420818 23.86147010663808 0 0 0 0 164.89537169631859 35.340926994322217 0 35.340926994322217 -46.865313554228123 0 0 0 0 212.41877356048099 -8.4426280919869896 0 -8.4426280919869896 21.964267761072733 0 0 0 0 109.4925583007423 6.1721386913814058 0 6.1721386913814058 10.99211704865229 0 0 0 0 170.55757876037478 -45.158909240029971 0 -45.158909240029971 -24.990047340070305 0 0 0 0 184.98075891838471 -12.579665450602079 0 -12.579665450602079 41.191444619860704 0 0 0 0 91.959973428743979 -48.176072392427159 0 -48.176072392427159 32.763707924616028 0 0 0 0 80.15809604159837 31.121831627778057 0 31.121831627778057 -39.144913147569063 0 0 0 0 267.08161254748484 -115.19469387011486 0 -115.19469387011486 73.441914752191224 0 0 0 0 242.51621789770093 -293.59788247733212 0 -293.59788247733212 206.00167856908229 0 0 0 0 306.10282293614 -307.63030956732109 0 -307.63030956732109 175.98274018726261 0 0 0 0 364.96190931263118 -247.57908315599889 0 -247.57908315599889 108.2883976463927 0 0 0 0 341.53037257118558 -180.3408533878337 0 -180.3408533878337 -53.878571533052309 0 0 0 0 266.70852267050577 -127.81073518260018 0 -127.81073518260018 100.81102643292252 0 0 0 0 261.68290731697925 -98.861413051447016 0 -98.861413051447016 125.01413803130254 0 0 0 0 263.30035910515289 -89.383558319452277 0 -89.383558319452277 61.722435590789246 0 0 0 0 266.26570448293933 -136.24941692737775 0 -136.24941692737775 75.243021280322864 0 0 0 0 267.52659529357697 -148.38409404304548 0 -148.38409404304548 126.73257512535201 0 0 0 0 228.39911662186933 -170.3742191444544 0 -170.3742191444544 288.85171576502034 0 0 0 0 266.55309745819977 -123.60309064981266 0 -123.60309064981266 80.44659294061421 0 0 0 0 155.73997170363145 -17.630590465058049 0 -17.630590465058049 -43.1281517696234 0 0 0 0 275.84286913112737 -109.75487701532256 0 -109.75487701532256 55.744637613135637 0 0 0 0 109.86697140006103 -23.051099173082523 0 -23.051099173082523 -19.166311875048827 0 0 0 0 55.699592338967555 0.36512412234179692 0 0.36512412234179692 -20.991928423160271 0 0 0 0 -42.992146634038406 290.7626418078213 0 290.7626418078213 -189.03819225124244 0 0 0 0 136.4428913276497 -49.891133434528456 0 -49.891133434528456 -33.702362403518237 0 0 0 0 88.327250509934032 26.687928832298937 0 26.687928832298937 -25.50459065237796 0 0 0 0 97.735889665673312 42.479373177450611 0 42.479373177450611 -12.875568737547837 0 0 0 0 127.2368959553189 -4.1624339954716021 0 -4.1624339954716021 -45.966159028508102 0 0 0 0 157.91482482754509 15.369824218485519 0 15.369824218485519 -94.66739182008132 0 0 0 0 180.21895886765589 -55.242067796430256 0 -55.242067796430256 -12.462012258216816 0 0 0 0 73.994495483254823 -11.644635669469835 0 -11.644635669469835 -8.3067215725367944 0 0 0 0 75.205722912907731 -31.218505738979729 0 -31.218505738979729 -20.598527666996233 0 0 0 0 66.864025580493035 -12.343520549201003 0 -12.343520549201003 -97.531756445995939 0 0 0 0 168.08264752853574 25.054718978356789 0 25.054718978356789 -148.52617362730098 0 0 0 0 203.37635986606438 -9.8741408256628347 0 -9.8741408256628347 -70.463989746007428 0 0 0 0 70.349349403787684 5.7302374163054637 0 5.7302374163054637 -18.160698296376275 0 0 0 0 34.951419027143118 3.9407641645622675 0 3.9407641645622675 -17.863524524997711 0 0 0 0 87.773931768489916 -18.863065263656161 0 -18.863065263656161 -20.623938844912121 0 0 0 0 77.892960759279958 -20.848309934436429 0 -20.848309934436429 -52.545536313123876 0 0 0 0 77.86226928015094 -20.48652165950034 0 -20.48652165950034 -43.174061403938367 0 0 0 0 61.479633515117058 -14.573662956906134 0 -14.573662956906134 -21.633878727090092 0 0 0 0 125.23118416893703 17.541546110276613 0 17.541546110276613 -20.337672479899993 0 0 0 0 124.72842405417759 -9.0168049351009358 0 -9.0168049351009358 -40.916968977870056 0 0 0 0 19.989255451957831 -6.1472883788067492 0 -6.1472883788067492 -2.6859806123610106 0 0 0 0 169.4792611287703 -16.747920391545449 0 -16.747920391545449 -49.950056715429128 0 0 0 0 174.96202992714825 -27.15770115625628 0 -27.15770115625628 -73.124090844946721 0 0 0 0 213.40125781792449 -100.40169973281832 0 -100.40169973281832 73.12270590740809 0 0 0 0 182.01828928304894 33.238929984521747 0 33.238929984521747 -12.614167839750735 0 0 0 0 7.3699947260773797 9.9985003622488193 0 9.9985003622488193 -6.1197685632127303 0 0 0 0 150.2873269834854 -38.237106192013243 0 -38.237106192013243 40.30742911505331 0 0 0 0 146.85149189640651 -19.152423615106272 0 -19.152423615106272 -35.777608549129582 0 0 0 0 190.04963283299367 13.264502944909452 0 13.264502944909452 -33.433657212772232 0 0 0 0 116.36073564400431 86.473317911039885 0 86.473317911039885 -90.796747471190429 0 0 0 0 4.1680154554269393 -27.758901462636004 0 -27.758901462636004 59.454166119321599 0 0 0 0 95.75432474516856 -197.65418124074631 0 -197.65418124074631 -18.497577751818238 0 0 0 0 8.186463831931178 91.647587330643887 0 91.647587330643887 72.765873900909696 0 0 0 0 7.3366584735555307 11.903713371294181 0 11.903713371294181 -15.732925286467431 0 0 0 0 368.06219861694262 -15.229925169796843 0 -15.229925169796843 -28.694947932156538 0 0 0 0 101.72380945362966 39.740696304981611 0 39.740696304981611 101.2350656559247 0 0 0 0 11.090933850484191 0.90151310362779213 0 0.90151310362779213 -0.52528590750673132 0 0 0 0 152.92509563968926 -15.85227934867668 0 -15.85227934867668 -10.365943839432582 0 0 0 0 180.75544651527889 149.42292734750072 0 149.42292734750072 -269.46223116564238 0 0 0 0 25.604596522418433 193.5401326176534 0 193.5401326176534 74.628674544816477 0 0 0 0 46.372267557805912 -0.67987794960141201 0 -0.67987794960141201 -6.4570860279331947 0 0 0 0 130.57915253446845 -100.40442120175112 0 -100.40442120175112 -141.06335282392592 0 0 0 0 73.51649181760672 35.342200985084375 0 35.342200985084375 -50.485342272813327 0 0 0 0 79.633398744961596 287.19914944795573 0 287.19914944795573 -72.722314350970464 0 0 0 0 50.692601316711944 -181.58518588101572 0 -181.58518588101572 -93.149361368034988 0 0 0 0 7.1095832863866235 7.0736168634448404 0 7.0736168634448404 29.650227977392206 0 0 0 0 323.1563497113948 -44.338250894933481 0 -44.338250894933481 30.542654586344725 0 0 0 0 260.00549972323415 74.098292170447849 0 74.098292170447849 22.658370505798302 0 0 0 0 167.61831569609785 23.115281223499551 0 23.115281223499551 94.417921945862417 0 0 0 0 213.2243086186354 62.892105790338974 0 62.892105790338974 72.680949381113805 0 0 0 0 174.69858520624075 10.346645106701999 0 10.346645106701999 1.1594270214245626 0 0 0 0 249.00649464434173 33.083594366091347 0 33.083594366091347 1.024118347242009 0 0 0 0 216.1039762590608 46.215483281620891 0 46.215483281620891 13.554717612223158 0 0 0 0 217.73409410643455 71.298928230250738 0 71.298928230250738 23.685429679603658 0 0 0 0 172.45278152516948 49.127175238531663 0 49.127175238531663 95.808232107405274 0 0 0 0 133.62271618800332 -28.667578400466482 0 -28.667578400466482 11.426188696593556 0 0 0 0 374.86243182606268 75.452656698157668 0 75.452656698157668 9.9863981086328835 0 0 0 0 334.16411778791735 -115.57450743922345 0 -115.57450743922345 84.381154480775763 0 0 0 0 162.43428867564035 46.395709445290933 0 46.395709445290933 -34.292445800788755 0 0 0 0 164.29301195525113 36.035507923481418 0 36.035507923481418 23.016963587492143 0 0 0 0 206.17829284439722 89.845443523969152 0 89.845443523969152 -16.130394844135026 0 0 0 0 198.2341990981331 41.646270176914186 0 41.646270176914186 38.13042997037337 0 0 0 0 -86.135154305589822 -141.84612504218876 0 -141.84612504218876 124.42604271416167 0 0 0 0 -103.87106969383603 -33.585297493980761 0 -33.585297493980761 219.25255612061301 0 0 0 0 219.01879075666383 -11.922110798707337 0 -11.922110798707337 -6.7846090858660855 0 0 0 0 -5.8143798664776547 7.4038574016179268 0 7.4038574016179268 2.701803253752832 0 0 0 0 119.53853938688189 -180.49984627970753 0 -180.49984627970753 113.70261723264412 0 0 0 0 320.09163814001295 179.25475854461274 0 179.25475854461274 170.96199519320959 0 0 0 0 429.09073893625464 -81.098945362145514 0 -81.098945362145514 91.028491222063622 0 0 0 0 142.29553012941687 -67.962378294193968 0 -67.962378294193968 -47.148119412111782 0 0 0 0 265.26535117343155 45.676682094043144 0 45.676682094043144 11.535284670420197 0 0 0 0 109.49017570212163 -47.468721163599184 0 -47.468721163599184 -20.380799379301493 0 0 0 0 294.53224915384635 6.6983560646585829 0 6.6983560646585829 -25.846238207753004 0 0 0 0 58.545186907114839 -267.67422530024032 0 -267.67422530024032 121.94481533150656 0 0 0 0 94.941194589497172 -222.6380068469125 0 -222.6380068469125 -78.628907945659904 0 0 0 0 341.08953537596972 -160.31586676366805 0 -160.31586676366805 -79.719920809355727 0 0 0 0 330.85821623014749 -6.5526817975627276 0 -6.5526817975627276 -8.305990901122291 0 0 0 0 241.33264223230071 -315.68904539133405 0 -315.68904539133405 -320.04385095013185 0 0 0 0 746.26759330835921 157.43435581225094 0 157.43435581225094 -1299.0899473433533 0 0 0 0 218.44464358587356 -111.32516122197785 0 -111.32516122197785 249.87119482480648 0 0 0 0 187.57376637137168 -63.466126881273567 0 -63.466126881273567 222.67824165023376 0 0 0 0 278.74392200996658 -9.3431110900344105 0 -9.3431110900344105 -7.9121593721321659 0 0 0 0 185.03727252648969 258.63331550436897 0 258.63331550436897 -365.22408035268109 0 0 0 0 858.02680160111049 -157.47598161437008 0 -157.47598161437008 -119.3070775044348 0 0 0 0 221.7259748395004 -220.88158971298611 0 -220.88158971298611 -183.36943924308525 0 0 0 0 305.93145303673373 80.44819146149257 0 80.44819146149257 487.10629211479772 0 0 0 0 392.14612068077258 88.744007578490709 0 88.744007578490709 -148.80468930654774 0 0 0 0 187.93256986689812 -181.55634715723136 0 -181.55634715723136 -184.53056951281883 0 0 0 0 8.869011566328652 1.5997998226110361 0 1.5997998226110361 -0.34277949920374517 0 0 0 0 10.262429604088538 548.99871420333329 0 548.99871420333329 1311.0359555972368 0 0 0 0 20.460261727661418 104.47880837253251 0 104.47880837253251 1.3887209551921842 0 0 0 0 105.80765098200936 10.348303354964628 0 10.348303354964628 -258.65530558895898 0 0 0 0 26.339577600584477 1.143672658707338 0 1.143672658707338 -1.0233478860741574 0 0 0 0 369.13456095064976 109.42000985824097 0 109.42000985824097 102.94324316471648 0 0 0 0 435.573881590768 375.11398133825151 0 375.11398133825151 -812.96333237912586 0 0 0 0 1.1021862140478333 395.92541321142198 0 395.92541321142198 450.34564515737065 0 0 0 0 -65.708102741249604 548.50209317148756 0 548.50209317148756 -73.906896434628834 0 0 0 0 852.97052165756338 671.4355810311755 0 671.4355810311755 115.3704921307417 0 0 0 0 124.53147533970332 -208.90811353793015 0 -208.90811353793015 -324.46572042615662 0 0 0 0 377.53148999469096 10.995946114616231 0 10.995946114616231 -12.490685470097025 0 0 0 0 356.28547626999352 -90.271861903610443 0 -90.271861903610443 -259.75569797280878 0 0 0 0 -144.84067880998919 127.64099089720207 0 127.64099089720207 79.784483044684066 0 0 0 0 18.097583104121441 1004.7876655439093 0 1004.7876655439093 -915.08308361253785 0 0 0 0 -836.12675042946648 1000.4877964995869 0 1000.4877964995869 1488.2202671561058 0 0 0 0 382.65042430303583 -14.633310678387261 0 -14.633310678387261 -372.01601178501551 0 0 0 0 390.74259237159094 -51.805090153710921 0 -51.805090153710921 -373.66975264739085 0 0 0 0 369.90580505241371 0.14800408957260647 0 0.14800408957260647 -7.2122966944325899 0 0 0 0 455.78104334252566 -28.94576023861373 0 -28.94576023861373 -600.41788213611437 0 0 0 0 -210.90367653282738 -128.4851047307352 0 -128.4851047307352 838.94181883173837 0 0 0 0 29.436898732633097 -7.9953090794304522 0 -7.9953090794304522 2.4854061593416001 0 0 0 0 2786.8177826558458 -660.21830178064511 0 -660.21830178064511 -2116.1924333023644 0 0 0 0 -24.983431202323118 -435.76816945436349 0 -435.76816945436349 -71.387202965215693 0 0 0 0 403.33515610597533 19.1233127658179 0 19.1233127658179 -783.6251302576959 0 0 0 0 291.99734688284298 72.789064383659479 0 72.789064383659479 40.896112909419571 0 0 0 0 435.81118284060358 -49.001511815349659 0 -49.001511815349659 -209.70393151991129 0 0 0 0 399.83086646332958 18.366613771917855 0 18.366613771917855 -258.18685041471736 0 0 0 0 327.11230822463767 -102.59759695892956 0 -102.59759695892956 -348.3485731103774 0 0 0 0 427.75676483703137 -20.200025473617643 0 -20.200025473617643 -377.39113075503155 0 0 0 0 391.12248682001245 -96.585831086929431 0 -96.585831086929431 -247.87053987821764 0 0 0 0 446.39155749781457 -61.925679905205016 0 -61.925679905205016 -374.75272671473067 0 0 0 0 464.94109850539826 -3.8609452987820987 0 -3.8609452987820987 -198.24679440550835 0 0 0 0 406.22280667933228 -108.8801187501906 0 -108.8801187501906 -45.283532195541738 0 0 0 0 374.99402361409011 -4.0011649880011646 0 -4.0011649880011646 -244.50321187789797 0 0 0 0 401.35846723410214 -64.716473244193367 0 -64.716473244193367 -250.68956382024271 0 0 0 0 442.10431597012757 -45.006788948340045 0 -45.006788948340045 -11.33853554470079 0 0 0 0 492.92199207433441 -27.411599993952905 0 -27.411599993952905 144.71911107256255 0 0 0 0 534.17412416603474 -136.84761351725729 0 -136.84761351725729 74.106307744732476 0 0 0 0 466.69965540378689 131.24003461027564 0 131.24003461027564 81.521231714191345 0 0 0 0 384.83080623192654 13.527017780803817 0 13.527017780803817 -17.89361683516654 0 0 0 0 590.52992444260235 -8.1000877852775375 0 -8.1000877852775375 -23.743603355109371 0 0 0 0 540.59865895605617 194.69004019605291 0 194.69004019605291 42.562761248266725 0 0 0 0 744.6667576125983 51.386658115040063 0 51.386658115040063 100.69286309809104 0 0 0 0 388.73041408437712 276.7452712235463 0 276.7452712235463 200.01335136810667 0 0 0 0 596.14949329086448 323.0279296542767 0 323.0279296542767 169.33741447286775 0 0 0 0 10.432362799163002 0.92702007292355315 0 0.92702007292355315 0.43191525926382823 0 0 0 0 567.56736569029454 -489.9514592593514 0 -489.9514592593514 627.65075570423687 0 0 0 0 266.84942394967948 538.53696426815577 0 538.53696426815577 249.3842669149567 0 0 0 0 1030.3842120403151 456.55717407434452 0 456.55717407434452 119.39558352524 0 0 0 0 1186.6122667234176 -239.80512880433668 0 -239.80512880433668 363.97529997563743 0 0 0 0 650.1329819444436 70.177669407028588 0 70.177669407028588 847.62299114796269 0 0 0 0 687.27130199959356 81.828347901098823 0 81.828347901098823 167.33956075110018 0 0 0 0 512.8602031164628 -59.680885069163651 0 -59.680885069163651 473.31994863760156 0 0 0 0 753.79717561013786 -128.47618644824809 0 -128.47618644824809 183.86938834766988 0 0 0 0 660.39761594167794 11.110782097906849 0 11.110782097906849 385.74572336371011 0 0 0 0 430.98317629729058 -21.378098614856683 0 -21.378098614856683 397.50176294534322 0 0 0 0 524.20328781244461 -75.023874222476479 0 -75.023874222476479 231.64939495199701 0 0 0 0 422.53820093448667 -107.74554276492995 0 -107.74554276492995 255.67512473432271 0 0 0 0 179.47964069243608 54.656624520451714 0 54.656624520451714 80.496130785794776 0 0 0 0 5.9032389145704656 -1.438117913242678 0 -1.438117913242678 0.7708290883991431 0 0 0 0 179.45096930757791 52.967126340071445 0 52.967126340071445 85.136562603186576 0 0 0 0 16.088415788029266 -13.113307178157683 0 -13.113307178157683 11.323561004932117 0 0 0 0 -126.65231398998731 83.68380073751905 0 83.68380073751905 93.604400998719029 0 0 0 0 77.11505477754622 19.058288448362042 0 19.058288448362042 78.710233439444892 0 0 0 0 636.82779882462273 78.559806085326727 0 78.559806085326727 -79.174230899332542 0 0 0 0 574.20532712651038 367.86968097505678 0 367.86968097505678 159.79833019983698 0 0 0 0 452.11906238064512 257.6252253560441 0 257.6252253560441 63.127477065877429 0 0 0 0 446.69026790056523 246.74613295806876 0 246.74613295806876 87.627783713935059 0 0 0 0 432.38244233954902 253.13021473113076 0 253.13021473113076 152.0965590492242 0 0 0 0 457.46849644416216 209.90737856861597 0 209.90737856861597 99.670287800365031 0 0 0 0 373.58572974366689 187.18578449378356 0 187.18578449378356 78.271569477473804 0 0 0 0 379.74234793503319 143.31563350628269 0 143.31563350628269 73.89144178024344 0 0 0 0 337.88179405168921 120.22380466072445 0 120.22380466072445 70.909884066602899 0 0 0 0 307.9103330814396 119.18394621477637 0 119.18394621477637 172.87106757625043 0 0 0 0 388.37394062223393 252.5072226679481 0 252.5072226679481 385.43011136995483 0 0 0 0 -407.90609746647533 126.51432838558958 0 126.51432838558958 374.69681768521116 0 0 0 0 303.42988535780751 -1168.1904959500635 0 -1168.1904959500635 -360.72736596096365 0 0 0 0 971.10487499429291 202.83037955118471 0 202.83037955118471 64.348111238027741 0 0 0 0 -130.17400152715709 -63.8859993749561 0 -63.8859993749561 -84.011262029729551 0 0 0 0 3.4878121168878806 -2.8819070274597323 0 -2.8819070274597323 2.7665610916875494 0 0 0 0 -136.70745364216509 -95.404138736083212 0 -95.404138736083212 7.1033037536653865 0 0 0 0 -157.24262240757525 -34.621276476537787 0 -34.621276476537787 -14.199622122152959 0 0 0 0 -91.236939655587776 -148.45815860924495 0 -148.45815860924495 -41.911543290297232 0 0 0 0 5.7785501750484087 -8.2957535335216903 0 -8.2957535335216903 11.146028805860198 0 0 0 0 283.56892409894135 67.995463738306398 0 67.995463738306398 74.114802296121525 0 0 0 0 -33.010978580896335 -59.996123224884741 0 -59.996123224884741 -58.677275347161412 0 0 0 0 1.2463906966249851 -120.44470455525254 0 -120.44470455525254 -104.23808474392263 0 0 0 0 14.339452517182622 -0.39911820329218806 0 -0.39911820329218806 -1.1208514079819301 0 0 0 0 -49.13949447374398 -134.89707169114899 0 -134.89707169114899 78.812192315432185 0 0 0 0 26.901000029116403 -120.9204849791272 0 -120.9204849791272 -49.884004372392155 0 0 0 0 113.56619290302478 34.522106888614871 0 34.522106888614871 -218.56866594729991 0 0 0 0 25.684428111215311 -189.02799520003816 0 -189.02799520003816 115.87116369826981 0 0 0 0 19.644491426291893 0.57424161565399068 0 0.57424161565399068 -0.84515177680287223 0 0 0 0 -121.81591349048904 -26.510417830240385 0 -26.510417830240385 -104.95855525451225 0 0 0 0 1173.5219295555726 110.44947815191699 0 110.44947815191699 -141.26381311486693 0 0 0 0 120.83409934153315 -99.79396163059846 0 -99.79396163059846 -5.2773985300241293 0 0 0 0 15.893644094152478 -319.78842201342968 0 -319.78842201342968 587.79275380783838 0 0 0 0 -37.79987740580691 -59.896540764446854 0 -59.896540764446854 248.69616374465477 0 0 0 0 270.30437101560165 -333.01318389254993 0 -333.01318389254993 197.25925643430128 0 0 0 0 287.36204169560733 -389.66186361982204 0 -389.66186361982204 380.32321662238701 0 0 0 0 81.058979553679819 -182.90306193410379 0 -182.90306193410379 100.97144783232761 0 0 0 0 216.89731238967215 -325.35109654680309 0 -325.35109654680309 97.302325898923741 0 0 0 0 169.72391444965615 -351.65757536875753 0 -351.65757536875753 243.36558414518731 0 0 0 0 158.09995241633442 -337.22569296784332 0 -337.22569296784332 269.95531705710493 0 0 0 0 241.34695275786362 -444.70241212967358 0 -444.70241212967358 238.4395808653062 0 0 0 0 244.01672591267561 -419.21239667522468 0 -419.21239667522468 202.84278798013429 0 0 0 0 323.28770736595834 -349.18245522572283 0 -349.18245522572283 213.57643013486813 0 0 0 0 185.42627948449808 -328.98988758597125 0 -328.98988758597125 231.14313873831998 0 0 0 0 177.28453818240814 -318.35643478389306 0 -318.35643478389306 217.26357851551339 0 0 0 0 189.35031732158677 -408.16412957918578 0 -408.16412957918578 331.56164874248952 0 0 0 0 457.68198257295444 -549.12169847890709 0 -549.12169847890709 311.92014652470448 0 0 0 0 587.27558881021014 -114.04166398983841 0 -114.04166398983841 -75.434569021463176 0 0 0 0 183.34341161861084 -81.169195582392604 0 -81.169195582392604 4.9431821069324542 0 0 0 0 325.88062058299329 -85.843705451687583 0 -85.843705451687583 -58.982583748935212 0 0 0 0 270.79925927701152 -358.71261536982337 0 -358.71261536982337 121.52119889955884 0 0 0 0 163.12693749469327 -329.53862866176473 0 -329.53862866176473 162.03430845065986 0 0 0 0 473.3471616654133 194.41285258709649 0 194.41285258709649 349.55065786847376 0 0 0 0 487.50781822170393 92.600409797011707 0 92.600409797011707 314.42245909120788 0 0 0 0 753.95082158214791 128.50063397133545 0 128.50063397133545 416.46363513057554 0 0 0 0 493.02818777909852 45.690652808680397 0 45.690652808680397 525.69142576576178 0 0 0 0 440.17420618665165 151.46227821364403 0 151.46227821364403 493.11006284440191 0 0 0 0 440.26929458833183 -61.336103240491411 0 -61.336103240491411 480.63030609720613 0 0 0 0 1177.8873867559378 228.44331577550065 0 228.44331577550065 432.83092814347219 0 0 0 0 744.55045103022667 27.24932984639932 0 27.24932984639932 343.02286917883339 0 0 0 0 940.73484577365161 -460.17521786727048 0 -460.17521786727048 359.67468105390344 0 0 0 0 649.85978343566967 -273.63757183875396 0 -273.63757183875396 336.58511147156605 0 0 0 0 460.87630193641962 -400.86590508417635 0 -400.86590508417635 208.78484875406457 0 0 0 0 265.80441346057705 -196.86062138284126 0 -196.86062138284126 100.00763706156704 0 0 0 0 137.72566427769925 -7.5311585284982812 0 -7.5311585284982812 -12.259672472137709 0 0 0 0 356.8060672464344 -258.44105223202791 0 -258.44105223202791 183.18606039151155 0 0 0 0 0.56702021725270857 1.1155455692380087 0 1.1155455692380087 3.6012218090999504 0 0 0 0 538.43359115451756 329.80408377558427 0 329.80408377558427 139.60737014700635 0 0 0 0 436.2381737072501 259.0280325104909 0 259.0280325104909 435.3888793692455 0 0 0 0 441.89067608599726 66.462420573684199 0 66.462420573684199 -4.4720923631822416 0 0 0 0 420.53550730083953 216.94318884063239 0 216.94318884063239 198.07713044530271 0 0 0 0 446.90484961567563 318.63934127119319 0 318.63934127119319 256.30796835652541 0 0 0 0 479.38855271325519 259.99600008571815 0 259.99600008571815 170.24605332524334 0 0 0 0 321.27088264600025 17.651007207108364 0 17.651007207108364 292.75341073690743 0 0 0 0 0.92951914251389667 -0.60488395648854265 0 -0.60488395648854265 0.45165166018812197 0 0 0 0 62.322849072021199 91.596265273578524 0 91.596265273578524 146.46880642133135 0 0 0 0 329.97387891357403 -58.840688051246772 0 -58.840688051246772 13.733296091458215 0 0 0 0 3.1378439215595506 2.0748729516827424 0 2.0748729516827424 2.7708436181442417 0 0 0 0 21.337209254696063 19.789479381568867 0 19.789479381568867 -45.948583251349874 0 0 0 0 0.4503277332950919 1.6918967333773338 0 1.6918967333773338 7.3868649478722226 0 0 0 0 9.6723435178294039 -40.994192425746007 0 -40.994192425746007 128.49242117031645 0 0 0 0 -11.737009688564285 -32.91405991503143 0 -32.91405991503143 86.585763396268618 0 0 0 0 -64.08551508896926 106.43849405738388 0 106.43849405738388 -65.628812977441498 0 0 0 0 51.620783612452215 -117.03571856111603 0 -117.03571856111603 113.64059232078898 0 0 0 0 -6.6936400250597217 9.3486406799207487 0 9.3486406799207487 60.728179378838377 0 0 0 0 2.8004774062078184 1.7515679793892431 0 1.7515679793892431 0.84121528075410179 0 0 0 0 -16.805164436642372 107.27410706285815 0 107.27410706285815 -111.06815827998071 0 0 0 0 139.95405118123017 -111.93697272849511 0 -111.93697272849511 -78.752172957205602 0 0 0 0 16.732105447157664 12.120642027182868 0 12.120642027182868 10.025428908886681 0 0 0 0 0.59044421379526835 0.76287117675239813 0 0.76287117675239813 1.1884540293356483 0 0 0 0 -5.024886617023185 17.861511686685454 0 17.861511686685454 22.859157642052594 0 0 0 0 166.69703067365845 -85.499560895365562 0 -85.499560895365562 80.542921504115384 0 0 0 0 226.25376332840096 -100.75438418081657 0 -100.75438418081657 5.0534557781331557 0 0 0 0 166.49383134852542 -6.5740582718576661 0 -6.5740582718576661 -75.516972772407925 0 0 0 0 227.29689212399171 -74.309608334773969 0 -74.309608334773969 -87.587139890640231 0 0 0 0 243.11609612239772 0.55944739675746291 0 0.55944739675746291 4.3350519371222447 0 0 0 0 319.38596615137067 -1.2826036306494188 0 -1.2826036306494188 783.04333178178558 0 0 0 0 296.51806351906998 -116.72970321933349 0 -116.72970321933349 224.73896821141238 0 0 0 0 1117.735757040653 -394.21413681302835 0 -394.21413681302835 190.08251909162709 0 0 0 0 1037.0343500985327 -373.51129747258835 0 -373.51129747258835 61.393277808635048 0 0 0 0 493.12446874880698 -716.78506726749015 0 -716.78506726749015 950.68377106268872 0 0 0 0 289.52761258276587 -375.69372871615474 0 -375.69372871615474 379.4575793728992 0 0 0 0 133.96599158725076 -320.10522327488684 0 -320.10522327488684 257.55085533542933 0 0 0 0 212.9290673139003 -461.13127755052994 0 -461.13127755052994 471.96268551404955 0 0 0 0 -3.3120745476189768 -165.01174388973118 0 -165.01174388973118 219.66468408400152 0 0 0 0 91.865683480798907 -296.15583329607841 0 -296.15583329607841 370.87729575085177 0 0 0 0 27.162061749557324 -69.159054867484429 0 -69.159054867484429 188.90735365546152 0 0 0 0 39.243552015861496 -179.73673849364172 0 -179.73673849364172 556.41417014517265 0 0 0 0 -25.712985928762919 -64.844598756100979 0 -64.844598756100979 266.8322914612761 0 0 0 0 -51.80214967669599 -92.41441087845817 0 -92.41441087845817 186.76038113889047 0 0 0 0 1.7415604449702187 0.41008143590411095 0 0.41008143590411095 -0.36625367068639503 0 0 0 0 -52.867534950259142 180.16267217950025 0 180.16267217950025 -107.40065292225299 0 0 0 0 -66.417549058445729 1.4234729242332378 0 1.4234729242332378 202.25628903927469 0 0 0 0 -496.1888645449144 -304.97773672990843 0 -304.97773672990843 -84.196729946394555 0 0 0 0 262.20636676519825 -413.85799174025721 0 -413.85799174025721 -78.230227461981102 0 0 0 0 153.17634016185912 11.099842861966408 0 11.099842861966408 38.583055569604653 0 0 0 0 384.80553911714378 -233.72343699903922 0 -233.72343699903922 161.55652525744836 0 0 0 0 169.38053024964756 -132.57163066181965 0 -132.57163066181965 -155.67950786146181 0 0 0 0 437.23325955592736 -360.86510277770412 0 -360.86510277770412 -61.150139659413753 0 0 0 0 453.26172906837019 -456.92819685655809 0 -456.92819685655809 98.735805114906213 0 0 0 0 397.82011468040582 -418.50300134946815 0 -418.50300134946815 207.14605631775112 0 0 0 0 290.61843250576931 -467.55942801693891 0 -467.55942801693891 264.18402707638052 0 0 0 0 299.35113111368992 -430.81050077413602 0 -430.81050077413602 377.99955808863615 0 0 0 0 332.96091002417234 -541.28943570738397 0 -541.28943570738397 343.66616447973001 0 0 0 0 576.03987725255138 -553.39648832179228 0 -553.39648832179228 82.277477500166697 0 0 0 0 609.61039882562181 -320.58182043869249 0 -320.58182043869249 102.71488313768759 0 0 0 0 501.22978033527033 -117.43755183694566 0 -117.43755183694566 25.356575787481688 0 0 0 0 659.44540645851521 -152.76110918757365 0 -152.76110918757365 31.593212858262177 0 0 0 0 539.11531907373865 -336.82083636590824 0 -336.82083636590824 129.38188415821696 0 0 0 0 530.15920277652913 -374.19786889562943 0 -374.19786889562943 112.74417538298837 0 0 0 0 397.17387029977522 -402.36695962077931 0 -402.36695962077931 147.54389364511076 0 0 0 0 391.46444701147266 -282.64165479579196 0 -282.64165479579196 99.27588120732932 0 0 0 0 434.33940887806239 -321.63219926076385 0 -321.63219926076385 264.01974493117814 0 0 0 0 284.63415688584791 -397.88376490389828 0 -397.88376490389828 305.68152765071682 0 0 0 0 -89.341062498075189 -188.58930170876238 0 -188.58930170876238 262.16201897389192 0 0 0 0 249.85473822755739 -334.35852828499628 0 -334.35852828499628 316.29610027883336 0 0 0 0 434.74098993696498 -319.32582648549828 0 -319.32582648549828 120.56665057134978 0 0 0 0 182.37244995631045 -139.01978361825104 0 -139.01978361825104 173.31574300575994 0 0 0 0 0.095226962996655118 0.55749812308229707 0 0.55749812308229707 5.2767781736490829 0 0 0 0 2.8459577437424173 -0.97900994998029489 0 -0.97900994998029489 -7.5103677079062496 0 0 0 0 -14.844021991164482 -13.505840070399017 0 -13.505840070399017 68.369058489081908 0 0 0 0 -24.877970329822347 -23.773914386461286 0 -23.773914386461286 4.8534051103251841 0 0 0 0 217.35280401047203 -114.16379256254504 0 -114.16379256254504 154.71862048302501 0 0 0 0 63.273803060001228 10.647187976281657 0 10.647187976281657 -2.9948497209943525 0 0 0 0 107.25006370407937 27.226434891598274 0 27.226434891598274 -52.590548070755176 0 0 0 0 15.153132900901255 -20.49724262840391 0 -20.49724262840391 -54.973504156535455 0 0 0 0 -0.47378585524841554 2.255401798331448 0 2.255401798331448 1.8717866410495247 0 0 0 0 508.80881640710504 -265.1097116754612 0 -265.1097116754612 143.21649800282285 0 0 0 0 155.80053835481522 22.847821601784744 0 22.847821601784744 -35.164310332367677 0 0 0 0 243.5865949928193 -119.52575996629366 0 -119.52575996629366 34.117920586128093 0 0 0 0 80.383356241189176 -57.712825740310109 0 -57.712825740310109 19.555825408211149 0 0 0 0 78.866027672462224 -28.604734090626607 0 -28.604734090626607 32.459788250929705 0 0 0 0 18.262162142142188 -12.197052253594393 0 -12.197052253594393 -0.97515337928780355 0 0 0 0 -14.43363747872354 28.326231231203565 0 28.326231231203565 -10.332206843274662 0 0 0 0 19.886276048534924 -2.7531278266659314 0 -2.7531278266659314 -7.3329947656013239 0 0 0 0 2.5205639554936212 0.89706551243797605 0 0.89706551243797605 2.4431749769518945 0 0 0 0 77.623589461363736 -36.273780015779721 0 -36.273780015779721 -1.7483832622256159 0 0 0 0 -3.0590526340092765 -21.644210875691897 0 -21.644210875691897 61.412583778041153 0 0 0 0 16.957489542965959 -2.4490796088298765 0 -2.4490796088298765 -13.706614060166983 0 0 0 0 3.8797669273025832 -7.5852559169217528 0 -7.5852559169217528 1.6235100039471675 0 0 0 0 98.464229767319921 -46.877670777507319 0 -46.877670777507319 5.3032003503431042 0 0 0 0 27.518003941891948 -14.28485960162368 0 -14.28485960162368 6.3261711387358446 0 0 0 0 51.726497204712359 -11.200753537691526 0 -11.200753537691526 -0.85356876115110936 0 0 0 0 63.032382939876697 -52.702680619638727 0 -52.702680619638727 36.659201899338768 0 0 0 0 9.0949700900756341 0.25322842650110999 0 0.25322842650110999 -3.2840578792709429 0 0 0 0 4.5945827433590978 -7.2672911091772505 0 -7.2672911091772505 1.3859440724707639 0 0 0 0 552.64775915925566 -801.31299250976031 0 -801.31299250976031 817.10347764988273 0 0 0 0 411.34744759570458 -538.54790070336162 0 -538.54790070336162 334.96971900582048 0 0 0 0 77.507913438152173 -68.258396224571243 0 -68.258396224571243 105.68357602724609 0 0 0 0 -28.497857195092365 -227.97052379397064 0 -227.97052379397064 788.67161345843942 0 0 0 0 127.80098101279873 -192.57561843569329 0 -192.57561843569329 352.20057547925217 0 0 0 0 28.621066835139516 -13.472727125786371 0 -13.472727125786371 3.4007433682297732 0 0 0 0 164.00562925077247 -90.712840205922475 0 -90.712840205922475 8.4656516641152848 0 0 0 0 107.62726531423687 -447.62083299979531 0 -447.62083299979531 1142.8395460540009 0 0 0 0 430.00605214367533 193.71906969739484 0 193.71906969739484 0.92152981379877019 0 0 0 0 9.8330450508567537 -5.9082528861335391 0 -5.9082528861335391 3.9048049470767205 0 0 0 0 264.58835579060542 82.463765062829907 0 82.463765062829907 -113.66576318595435 0 0 0 0 212.17316751286853 87.91609247538463 0 87.91609247538463 -30.623182444724989 0 0 0 0 120.18753921924508 -3.8600771225483186 0 -3.8600771225483186 -110.89395652020812 0 0 0 0 82.422988417310989 -15.448618871321742 0 -15.448618871321742 -116.08268999497704 0 0 0 0 107.71130287040432 -31.091625115651368 0 -31.091625115651368 -123.56660362148432 0 0 0 0 24.669737178752257 -72.844560769302007 0 -72.844560769302007 -43.267771140632249 0 0 0 0 16.633642156746646 -93.574642452236276 0 -93.574642452236276 22.422829726868258 0 0 0 0 7.915545572170231 -108.91582773839127 0 -108.91582773839127 -70.670051242794216 0 0 0 0 54.933196369966026 2.5014490057246803 0 2.5014490057246803 55.906701394386801 0 0 0 0 10.009689381671251 -2.7016183444699635 0 -2.7016183444699635 -0.39504890195769704 0 0 0 0 53.393662667998797 -8.1833838474698837 0 -8.1833838474698837 15.483763391408502 0 0 0 0 -86.919919625332113 -49.831286168595852 0 -49.831286168595852 -25.318450301630492 0 0 0 0 7.7692878654925153 -15.550335887532128 0 -15.550335887532128 -1.3703369579989158 0 0 0 0 24.157679895060681 -14.245983144596188 0 -14.245983144596188 -9.018273386789561 0 0 0 0 55.965553557549356 -24.641477910030289 0 -24.641477910030289 -14.461158671929297 0 0 0 0 71.297959181392798 -7.5924594885591432 0 -7.5924594885591432 4.1143548742729763 0 0 0 0 14.020873166149869 -14.888660159662919 0 -14.888660159662919 -7.464494597688315 0 0 0 0 52.515470016660402 -6.4386240116273257 0 -6.4386240116273257 21.618922911338814 0 0 0 0 39.327911858629356 -27.837599650848091 0 -27.837599650848091 5.4074589369003121 0 0 0 0 61.557701078039827 -31.920849032963815 0 -31.920849032963815 19.11029606309603 0 0 0 0 30.645078681983392 -24.590623953033592 0 -24.590623953033592 -11.373594595807837 0 0 0 0 12.517383355589118 -16.398157365083534 0 -16.398157365083534 -2.9768739223090961 0 0 0 0 30.584098393159536 -17.333846829044987 0 -17.333846829044987 -9.5232836414331032 0 0 0 0 17.415375915679839 -16.733534260181187 0 -16.733534260181187 -4.1006782885575568 0 0 0 0 -0.063360974883835297 -62.375582577367823 0 -62.375582577367823 -17.575196382222202 0 0 0 0 67.057133459602483 -21.478098041160592 0 -21.478098041160592 -5.5714898821679526 0 0 0 0 22.64968305086262 2.0573148481778532 0 2.0573148481778532 -23.176572842510012 0 0 0 0 7.7645757909905768 -2.7799321487983377 0 -2.7799321487983377 -8.0442846082149551 0 0 0 0 41.804565661135712 -8.8677486343314058 0 -8.8677486343314058 18.132504503907967 0 0 0 0 72.13159711388289 -0.65281849470784437 0 -0.65281849470784437 -96.698091436657933 0 0 0 0 28.758618380365078 15.650810380127496 0 15.650810380127496 -10.614107774456897 0 0 0 0 1.1256895607075421 65.847765423372039 0 65.847765423372039 -18.979265562482396 0 0 0 0 -163.81958804624446 -70.214811337031279 0 -70.214811337031279 -66.496713099235421 0 0 0 0 87.031739764050144 -46.8343252246259 0 -46.8343252246259 -66.016895307984669 0 0 0 0 1.5020048937874506 -6.1560249896039068 0 -6.1560249896039068 -27.610474365192712 0 0 0 0 -77.386862725601532 -76.989270803482214 0 -76.989270803482214 -102.49021162628742 0 0 0 0 6.1428039876403489 1.3567607731318674 0 1.3567607731318674 -4.5471706794994056 0 0 0 0 -50.257810655166395 -137.67532310722709 0 -137.67532310722709 -101.30789356885543 0 0 0 0 126.81774666157435 -83.382314887285247 0 -83.382314887285247 -113.29776941102227 0 0 0 0 140.82519343624881 -240.8544482492689 0 -240.8544482492689 -15.467700532721665 0 0 0 0 -126.90502561146059 -158.26332110362682 0 -158.26332110362682 7.4849025495132082 0 0 0 0 -0.66270053480022995 1.7018129295857847 0 1.7018129295857847 -1.9092430139043213 0 0 0 0 -63.32718524172742 117.85218100654362 0 117.85218100654362 -58.091343106994827 0 0 0 0 -91.472744361963123 -146.35608818303285 0 -146.35608818303285 -18.314726534725651 0 0 0 0 100.06190735942801 38.48584571528545 0 38.48584571528545 -240.06348808459461 0 0 0 0 9.7986329538616701 146.26286908960276 0 146.26286908960276 -197.06159943841806 0 0 0 0 -90.81404340728659 -95.569461160941813 0 -95.569461160941813 23.467049854256857 0 0 0 0 -62.290710102961384 212.02345896107954 0 212.02345896107954 183.03227312033778 0 0 0 0 2.5601063850845094 100.12273663813966 0 100.12273663813966 25.946849321222089 0 0 0 0 -0.85269450665241919 -4.5398106615447489 0 -4.5398106615447489 -33.677610888830884 0 0 0 0 298.16397290975874 -163.28494076809193 0 -163.28494076809193 -20.843030931581325 0 0 0 0 5.5081068492372083 -0.73464289026208363 0 -0.73464289026208363 -0.59199051885772391 0 0 0 0 87.317452861203492 -37.941504917343082 0 -37.941504917343082 46.907336378504624 0 0 0 0 101.54953662389016 -206.06910230125186 0 -206.06910230125186 322.14652408935535 0 0 0 0 288.95795516508952 86.535817784289975 0 86.535817784289975 -113.28315151651191 0 0 0 0 106.20910857932085 200.6773042062826 0 200.6773042062826 -183.45926603656608 0 0 0 0 376.90736339524301 -39.722939418637452 0 -39.722939418637452 -155.43668364597943 0 0 0 0 -181.29347369931929 -521.92217158191852 0 -521.92217158191852 358.12343179383743 0 0 0 0 -117.73104125483951 -14.136090839603696 0 -14.136090839603696 362.01877854397662 0 0 0 0 182.53312671155436 -647.97359129648976 0 -647.97359129648976 80.04769161153672 0 0 0 0 764.05883015748987 84.884377423890783 0 84.884377423890783 -327.48192452914918 0 0 0 0 26.468942689985852 -28.351848509056708 0 -28.351848509056708 -112.14701938504777 0 0 0 0 -11.086633843951859 -84.65799333087017 0 -84.65799333087017 22.86295532299755 0 0 0 0 9.9170668948063394 -86.121281604845933 0 -86.121281604845933 -65.287871653407365 0 0 0 0 1.5403351182758342 -14.20037028819786 0 -14.20037028819786 85.57201960715247 0 0 0 0 30.195198635811266 -1.8652686245419901 0 -1.8652686245419901 0.60469676839704167 0 0 0 0 35.599616045714356 -17.410192600755067 0 -17.410192600755067 71.312868659660126 0 0 0 0 4.5522959473163525 -3.237671716523792 0 -3.237671716523792 8.9849141032655275 0 0 0 0 204.92474287374353 -40.943600742696617 0 -40.943600742696617 20.210864313625279 0 0 0 0 93.900559544097632 100.99820435719141 0 100.99820435719141 163.79430837626717 0 0 0 0 287.7332261175543 -63.56980188458715 0 -63.56980188458715 24.613734946118257 0 0 0 0 119.00063141050487 -102.74217149551134 0 -102.74217149551134 69.1781572794971 0 0 0 0 130.91841728589225 -166.51503069005395 0 -166.51503069005395 60.264897478809871 0 0 0 0 74.419097506179241 -64.845015940826443 0 -64.845015940826443 150.85832520872896 0 0 0 0 126.98153821142478 -27.179955876618578 0 -27.179955876618578 -91.843726425886416 0 0 0 0 7.854328284287476 104.15166579178594 0 104.15166579178594 -64.158787887603353 0 0 0 0 89.53585355541145 27.310131337636676 0 27.310131337636676 -48.540377346469086 0 0 0 0 276.00807876090857 -176.73142829584873 0 -176.73142829584873 94.22817851285572 0 0 0 0 82.373183209798299 -18.405703117263329 0 -18.405703117263329 550.63821946943472 0 0 0 0 510.53536523399089 380.84366730268721 0 380.84366730268721 -253.03902261857183 0 0 0 0 31.564781189867062 -14.119915798994953 0 -14.119915798994953 -10.767274141046308 0 0 0 0 37.698175183182201 -24.070283250151416 0 -24.070283250151416 10.697398122454437 0 0 0 0 -23.829963006952312 -208.77119561631116 0 -208.77119561631116 -365.90593127389184 0 0 0 0 230.07988819552702 -53.993069528508158 0 -53.993069528508158 -571.26668871028869 0 0 0 0 269.92943874720368 273.06410758877155 0 273.06410758877155 -236.629381654393 0 0 0 0 -2.8636235695448704 29.441306915833138 0 29.441306915833138 -61.956491325143816 0 0 0 0 52.50210394395981 9.7673598814744764 0 9.7673598814744764 -55.190399738276028 0 0 0 0 52.761384415483917 79.425737431753532 0 79.425737431753532 -60.519741571239138 0 0 0 0 28.542388520465465 69.643977229652137 0 69.643977229652137 -142.09437598989371 0 0 0 0 23.93385880610731 36.102197760322838 0 36.102197760322838 -81.625501490221723 0 0 0 0 37.13414732828096 -41.629672188125824 0 -41.629672188125824 27.689756387432681 0 0 0 0 40.075889085099334 -35.702548528319312 0 -35.702548528319312 -11.997407221428148 0 0 0 0 37.714681643740676 -21.95628058662825 0 -21.95628058662825 6.147405472624806 0 0 0 0 67.168877286501811 -12.905634527523489 0 -12.905634527523489 -147.57211282314984 0 0 0 0 41.725418648158666 -14.371628157323357 0 -14.371628157323357 -10.768433358485709 0 0 0 0 61.88507790210133 -23.949180244539093 0 -23.949180244539093 -21.181329485287733 0 0 0 0 49.79528557145386 -10.856838556452203 0 -10.856838556452203 -30.335919774227023 0 0 0 0 -6.0107295849593356 -22.445032307804013 0 -22.445032307804013 -4.5391954020351477 0 0 0 0 20.714587290392956 -21.194331385854639 0 -21.194331385854639 -9.285243781213012 0 0 0 0 28.307031362928683 -21.170943002958666 0 -21.170943002958666 -8.1774119062520185 0 0 0 0 12.846755195991136 -22.973055725838094 0 -22.973055725838094 -6.2689006674463599 0 0 0 0 17.583272701507667 -1.939486963766285 0 -1.939486963766285 -16.905210098266707 0 0 0 0 28.418504079832928 -36.272953530987252 0 -36.272953530987252 6.2968234751533601 0 0 0 0 45.354415610374417 -28.113279337891981 0 -28.113279337891981 -5.7017433310038541 0 0 0 0 -157.16782419863739 -310.70750841621611 0 -310.70750841621611 115.91593067752183 0 0 0 0 -159.93298863917289 -93.880036086146816 0 -93.880036086146816 -451.38728505334075 0 0 0 0 -179.95767716789851 -153.35326291086585 0 -153.35326291086585 -375.76113179799609 0 0 0 0 -0.63206793784999604 -14.450978168024953 0 -14.450978168024953 7.1716299608145029 0 0 0 0 127.42186716696597 -429.95440406453145 0 -429.95440406453145 -1601.4270114185638 0 0 0 0 7.3212692875261496 -12.454689392869845 0 -12.454689392869845 4.7154432397272394 0 0 0 0 -20.253878480085405 -84.085422066289539 0 -84.085422066289539 43.888004427611747 0 0 0 0 17.563422545732465 -30.237435399711103 0 -30.237435399711103 11.497747427652484 0 0 0 0 34.023151137851528 -329.75298405527542 0 -329.75298405527542 -314.55697333275066 0 0 0 0 22.088234721631892 -15.264269331621719 0 -15.264269331621719 5.468889773025408 0 0 0 0 22.547907274565659 -29.645259834378521 0 -29.645259834378521 2.3354675256050541 0 0 0 0 22.754136333009228 -29.13207389125364 0 -29.13207389125364 2.2774735870634686 0 0 0 0 11.380186520924326 -24.4155656563089 0 -24.4155656563089 9.1711065020817841 0 0 0 0 18.080191072989692 -21.225451042015038 0 -21.225451042015038 1.7515727749432699 0 0 0 0 17.506846006817796 -24.172446269939883 0 -24.172446269939883 -1.2678376528438093 0 0 0 0 26.748260840366129 -27.042096165435396 0 -27.042096165435396 -3.4007221536826364 0 0 0 0 26.167713785082015 -33.59175695692312 0 -33.59175695692312 -1.9589524277344026 0 0 0 0 27.316165419033496 -29.312023760247939 0 -29.312023760247939 -5.9047578903891917 0 0 0 0 16.61104349110974 -30.737713476344425 0 -30.737713476344425 -4.8599230303825607 0 0 0 0 33.381944406661205 -37.741833733275143 0 -37.741833733275143 -8.9916962974830312 0 0 0 0 28.789371941849822 -10.467046932111771 0 -10.467046932111771 -9.9744537169362957 0 0 0 0 25.664529252151624 -15.728982777909067 0 -15.728982777909067 -2.3557178906321496 0 0 0 0 25.350059844262432 -22.1334078172722 0 -22.1334078172722 -9.4515372008090708 0 0 0 0 47.173667060094886 -20.754727014044875 0 -20.754727014044875 -10.235587767783272 0 0 0 0 6.7453076893907564 -42.410641172021428 0 -42.410641172021428 19.968175324952426 0 0 0 0 3.8998597064473302 -6.3481490981563304 0 -6.3481490981563304 2.6818394062900115 0 0 0 0 -0.43770928567460032 -4.2487096723645621 0 -4.2487096723645621 2.0677157079041941 0 0 0 0 28.975848748581484 -12.975542970608785 0 -12.975542970608785 -34.096136637800555 0 0 0 0 26.199831902573351 8.2934854206637283 0 8.2934854206637283 10.259857813333156 0 0 0 0 16.541439668482781 15.955985718342049 0 15.955985718342049 -47.721911483690747 0 0 0 0 4.4957192475849297 -42.499449409922363 0 -42.499449409922363 19.908989163657679 0 0 0 0 18.599249895196408 -23.624523626473774 0 -23.624523626473774 25.604585639448487 0 0 0 0 28.822573295779875 -42.850170164299769 0 -42.850170164299769 -21.163619891444966 0 0 0 0 36.193482420378132 -22.515644376333285 0 -22.515644376333285 -23.607915699134082 0 0 0 0 -12.09808893915033 -28.160347446476635 0 -28.160347446476635 28.220502241941745 0 0 0 0 -223.61666648022947 -202.53201107666644 0 -202.53201107666644 132.37361575780051 0 0 0 0 -208.53049723638105 -75.180054194346667 0 -75.180054194346667 221.33870805934021 0 0 0 0 53.764734400130692 -90.544623696081999 0 -90.544623696081999 -150.0843277648637 0 0 0 0 -5.1466233670944348 -46.82880063812172 0 -46.82880063812172 23.139190021754189 0 0 0 0 14.852981736839865 46.824598053940917 0 46.824598053940917 95.059102037263528 0 0 0 0 283.0491471705609 74.819260397327525 0 74.819260397327525 -144.59473400072764 0 0 0 0 22.348017624390422 -16.915940214442458 0 -16.915940214442458 12.095553335702556 0 0 0 0 27.927224371313059 18.166730049137811 0 18.166730049137811 -11.987063556158319 0 0 0 0 52.026985072574462 -21.362821929816619 0 -21.362821929816619 -1.1346649553595398 0 0 0 0 29.352443814968865 -20.22049056349158 0 -20.22049056349158 17.137904938314477 0 0 0 0 46.207509427025798 -6.3777032583864184 0 -6.3777032583864184 25.619470959141836 0 0 0 0 16.790683756567887 -48.23870717258842 0 -48.23870717258842 106.38926950381028 0 0 0 0 0.65223208193168603 -0.43123981050398186 0 -0.43123981050398186 -0.31395783848589209 0 0 0 0 70.823718856030609 -9.0085917525470904 0 -9.0085917525470904 5.6391592716945524 0 0 0 0 73.348323356301989 -50.529452446282221 0 -50.529452446282221 21.121197341914467 0 0 0 0 31.652003526178305 -22.777610450907787 0 -22.777610450907787 15.535521971705748 0 0 0 0 14.569224754770403 -28.013584204290424 0 -28.013584204290424 -7.1612829045343034 0 0 0 0 43.037984702328686 -30.984372040433527 0 -30.984372040433527 -9.7454959908830006 0 0 0 0 41.977880934387031 -5.4966681729699651 0 -5.4966681729699651 -4.5247039112584844 0 0 0 0 11.788609957309461 4.1715942831643105 0 4.1715942831643105 -12.449238943982735 0 0 0 0 32.551218211461673 -12.034776896772826 0 -12.034776896772826 -8.9928490201161537 0 0 0 0 107.62838825974177 -54.555293708295949 0 -54.555293708295949 -27.458056659041176 0 0 0 0 101.5157638405326 -71.305376200966919 0 -71.305376200966919 -18.338692533419817 0 0 0 0 91.477519308566116 -85.606926722941353 0 -85.606926722941353 -78.677081339933466 0 0 0 0 71.455816641624551 -128.2092309071113 0 -128.2092309071113 -197.14651895536034 0 0 0 0 103.18486797365767 -40.355261972371181 0 -40.355261972371181 -19.310688589672282 0 0 0 0 -14.653413688898581 -111.93063438166007 0 -111.93063438166007 -45.10775592498976 0 0 0 0 20.007262315193657 -67.407769835336694 0 -67.407769835336694 -20.654709850157815 0 0 0 0 120.64261575047567 -17.312321760660552 0 -17.312321760660552 41.431600641366458 0 0 0 0 197.22064038255485 134.96970019071466 0 134.96970019071466 26.106101376192385 0 0 0 0 -156.24399474381062 -81.99189712636462 0 -81.99189712636462 8.1705855061450166 0 0 0 0 -99.157665760081727 -130.81836439258382 0 -130.81836439258382 -183.20971807305159 0 0 0 0 17.07943929310602 -13.874730112149408 0 -13.874730112149408 7.6107773596608075 0 0 0 0 31.462016177803889 -2.4832925513164295 0 -2.4832925513164295 -10.938370637533183 0 0 0 0 27.764239298296161 -106.48034499378991 0 -106.48034499378991 -223.25616169886734 0 0 0 0 -78.085611113427149 12.437675253341922 0 12.437675253341922 -134.28078336565432 0 0 0 0 -35.336758657052997 -30.057097752940479 0 -30.057097752940479 10.13109571748646 0 0 0 0 -6.8354956422626856 -142.56656294067602 0 -142.56656294067602 30.060671073964841 0 0 0 0 -90.621681330652791 -149.46595030005534 0 -149.46595030005534 88.531521237709526 0 0 0 0 1.57003160196561 1.61746918387243 0 1.61746918387243 -3.683595111493188 0 0 0 0 60.708673213877773 -13.961611914137961 0 -13.961611914137961 -116.33018269797321 0 0 0 0 -87.098995521417237 96.823246339209277 0 96.823246339209277 265.90173535133727 0 0 0 0 -99.206936169794972 -133.58118502377454 0 -133.58118502377454 101.29137182705585 0 0 0 0 2.8239431942697877 0.42229801553045831 0 0.42229801553045831 1.268698851257601 0 0 0 0 -87.36351443077001 -157.98237912141241 0 -157.98237912141241 109.75153759975206 0 0 0 0 -114.38878455146914 -190.94853599300802 0 -190.94853599300802 74.467282533593789 0 0 0 0 223.45258560194634 79.172578479685399 0 79.172578479685399 -149.75554693479751 0 0 0 0 200.23779637180269 34.994095975893515 0 34.994095975893515 -188.83706237817967 0 0 0 0 5.7619378371746279 -25.972274417731228 0 -25.972274417731228 25.040789905381303 0 0 0 0 3.2402784306750618 -1.0020187811518113 0 -1.0020187811518113 -0.56922435140411132 0 0 0 0 146.92496927312459 -41.152238138798566 0 -41.152238138798566 8.3484305886231596 0 0 0 0 169.65896282129688 29.594521906058162 0 29.594521906058162 -47.559671888105072 0 0 0 0 249.11632194613048 21.811534378934311 0 21.811534378934311 -52.87260479379438 0 0 0 0 18.293198192120258 -15.538171208230892 0 -15.538171208230892 12.005407623621196 0 0 0 0 28.454659949726192 101.75514879140428 0 101.75514879140428 166.67813953782047 0 0 0 0 -115.08647321487661 -265.74579326523963 0 -265.74579326523963 -95.975955300105852 0 0 0 0 15.951649030495901 -59.634662395590567 0 -59.634662395590567 -27.075773047179609 0 0 0 0 -38.256820165246609 -82.954843165759485 0 -82.954843165759485 -29.263851332807462 0 0 0 0 3.6574731651053298 -87.655057109716154 0 -87.655057109716154 -13.996536553172064 0 0 0 0 81.582669983617961 17.101915961997292 0 17.101915961997292 -82.099707256381862 0 0 0 0 113.33059997641249 -20.793407235690324 0 -20.793407235690324 -39.301421018316432 0 0 0 0 249.92657587575377 9.1151271361474073 0 9.1151271361474073 -37.060934437488839 0 0 0 0 129.75184352560609 -139.77908428622669 0 -139.77908428622669 77.668331475353739 0 0 0 0 -0.85172788766726626 -2.470188105372344 0 -2.470188105372344 3.4251491661363804 0 0 0 0 190.98388956424969 89.802824493058353 0 89.802824493058353 26.546616118765996 0 0 0 0 119.58428319629456 40.722487414515228 0 40.722487414515228 6.0848229930747948 0 0 0 0 -100.87212057394936 -206.64959167704114 0 -206.64959167704114 146.25751871122213 0 0 0 0 91.484838258141281 -91.397982990227348 0 -91.397982990227348 209.59920409863616 0 0 0 0 68.876702329804175 36.816184159256409 0 36.816184159256409 184.2797232927594 0 0 0 0 -34.905454620267847 -86.318412343034652 0 -86.318412343034652 209.52249986893491 0 0 0 0 -29.463710194024316 -61.202989840428813 0 -61.202989840428813 155.72551294533969 0 0 0 0 55.774903394747525 -74.688706563152664 0 -74.688706563152664 139.80383839544538 0 0 0 0 -0.34399473875055264 26.328218889221148 0 26.328218889221148 171.21209316318527 0 0 0 0 -135.93443941000442 -172.83788141234072 0 -172.83788141234072 139.76113537638048 0 0 0 0 6.4154827358059521 1.2702921558314415 0 1.2702921558314415 -0.28893792325663981 0 0 0 0 120.65525224651356 -49.146068613122225 0 -49.146068613122225 13.81631921198823 0 0 0 0 -197.42598315875512 -136.15852218602868 0 -136.15852218602868 120.25557992200265 0 0 0 0 102.27073951344937 -11.370947618914215 0 -11.370947618914215 -38.089078627679555 0 0 0 0 52.303262720604835 -16.27073291845543 0 -16.27073291845543 1.6793176440565509 0 0 0 0 0.41161961841862649 -1.9829668772508739 0 -1.9829668772508739 57.310458137291789 0 0 0 0 699.26499199019963 -257.22089781562545 0 -257.22089781562545 236.54211833984118 0 0 0 0 147.73342566601787 276.68362879003689 0 276.68362879003689 139.11695473003238 0 0 0 0 -190.0149586253101 -152.89230544280872 0 -152.89230544280872 151.00612629355874 0 0 0 0 -108.85993266267906 -167.62693225144994 0 -167.62693225144994 -256.81691704149489 0 0 0 0 -65.723620440589002 60.480492074329277 0 60.480492074329277 285.41085933526847 0 0 0 0 314.11203471643967 7.1848284816405794 0 7.1848284816405794 196.93511685663725 0 0 0 0 316.37330224920697 24.363912209787145 0 24.363912209787145 299.96814267605896 0 0 0 0 675.76517246610456 15.864167892939804 0 15.864167892939804 148.44708632762922 0 0 0 0 246.16742977626745 -209.6852375409635 0 -209.6852375409635 230.80373983912068 0 0 0 0 165.41682703009428 65.196924322780092 0 65.196924322780092 221.52973525290599 0 0 0 0 8.4362557637068676 -1.5483684323612579 0 -1.5483684323612579 222.42857399505738 0 0 0 0 30.033767271437682 44.016977338267225 0 44.016977338267225 211.81974062968294 0 0 0 0 23.151347434220952 38.651467916661204 0 38.651467916661204 284.85541994623463 0 0 0 0 18.404529680483392 -3.9566169253025691 0 -3.9566169253025691 192.11154364599975 0 0 0 0 -1.0377860702137696 -62.021837082620777 0 -62.021837082620777 229.20556641821531 0 0 0 0 31.232156847268925 -92.627216338456719 0 -92.627216338456719 42.989349926544605 0 0 0 0 -131.78258274021937 -59.364421643768821 0 -59.364421643768821 95.381194209280238 0 0 0 0 -115.09363030783425 -115.40972344708666 0 -115.40972344708666 230.20171306335689 0 0 0 0 64.668306915744324 54.434768425108814 0 54.434768425108814 53.593470372012462 0 0 0 0 -16.925473520444939 -165.19069285027672 0 -165.19069285027672 -63.50456012283712 0 0 0 0 916.17664923994744 -341.85284099368062 0 -341.85284099368062 -9.407017502270719 0 0 0 0 766.10472700965329 -438.558683755586 0 -438.558683755586 84.055007786182159 0 0 0 0 1.4347678926467182 2.0210714609799822 0 2.0210714609799822 1.33973858666665 0 0 0 0 600.40083167373086 -393.03375076925659 0 -393.03375076925659 194.67846533999045 0 0 0 0 439.23779122602718 -407.62534814962919 0 -407.62534814962919 113.6238728137364 0 0 0 0 597.60494254218065 -359.54291799771363 0 -359.54291799771363 53.775308383602351 0 0 0 0 482.7379793356522 -302.40242230041099 0 -302.40242230041099 77.061569506980049 0 0 0 0 451.33505744949798 -400.36064822632716 0 -400.36064822632716 141.00099863920968 0 0 0 0 239.36451542709256 -278.30121193865489 0 -278.30121193865489 141.16937621102755 0 0 0 0 842.67458091705339 -243.47922382450633 0 -243.47922382450633 61.044925442844033 0 0 0 0 312.90672182674462 -301.96180331789856 0 -301.96180331789856 5.1898593894211444 0 0 0 0 411.42698710926197 -357.05973644994833 0 -357.05973644994833 -12.95999247032114 0 0 0 0 419.43686598879867 -330.89878168598648 0 -330.89878168598648 24.571925836500895 0 0 0 0 259.29452625621343 -105.98249954328367 0 -105.98249954328367 -49.697579425869208 0 0 0 0 345.16897371030245 -249.58950070436549 0 -249.58950070436549 35.097943646211206 0 0 0 0 315.05469027641811 -314.95179608248282 0 -314.95179608248282 145.75193097451847 0 0 0 0 252.28111066928977 -151.97323481177727 0 -151.97323481177727 -57.64491948145519 0 0 0 0 293.60139655837338 -115.26515266539059 0 -115.26515266539059 -130.54906916210348 0 0 0 0 160.29977125312143 18.857428196281035 0 18.857428196281035 -83.059228560136035 0 0 0 0 119.84754685956432 70.069824612357479 0 70.069824612357479 -133.9864997768945 0 0 0 0 120.0875659456724 -70.618897520229439 0 -70.618897520229439 22.589727094725276 0 0 0 0 81.44121525202354 12.977428335248987 0 12.977428335248987 -90.880512610399819 0 0 0 0 83.179338915935659 -53.794183263040395 0 -53.794183263040395 -179.40964687265841 0 0 0 0 93.667316745850258 29.491847734127987 0 29.491847734127987 -83.530124555414659 0 0 0 0 1371.620720264018 -28.626297340866586 0 -28.626297340866586 -81.932190145666937 0 0 0 0 575.21148444869323 -450.10633494223794 0 -450.10633494223794 70.10535013423214 0 0 0 0 -149.51377953508927 -363.13472917203489 0 -363.13472917203489 101.69212711133605 0 0 0 0 1.7676682408605018 -2.9384089112790548 0 -2.9384089112790548 5.6239414093825459 0 0 0 0 41.332779070507968 -200.56343080445367 0 -200.56343080445367 13.186767158497787 0 0 0 0 1366.5856263846545 -108.16910091397767 0 -108.16910091397767 -42.874766121418361 0 0 0 0 288.04831383004057 55.700270048400853 0 55.700270048400853 -80.8230983125286 0 0 0 0 295.89311254790846 24.096612828103389 0 24.096612828103389 8.7454633791567176 0 0 0 0 -156.85530584068329 233.76047107679005 0 233.76047107679005 66.317668258354388 0 0 0 0 469.56698915838206 -245.19981300178006 0 -245.19981300178006 -313.94985161746081 0 0 0 0 -257.7196160259773 -243.50276137988112 0 -243.50276137988112 65.825149279229663 0 0 0 0 7.8084863060859391 -5.7182174962853054 0 -5.7182174962853054 4.7847418642569579 0 0 0 0 1678.3543085510755 647.83319116923576 0 647.83319116923576 64.620352333207848 0 0 0 0 85.731754732965783 35.041605472575611 0 35.041605472575611 -86.476505883010759 0 0 0 0 68.779360299202381 -35.537126559327589 0 -35.537126559327589 -118.86724218756626 0 0 0 0 6.7213931613447357 -8.538693330660891 0 -8.538693330660891 11.252984851868419 0 0 0 0 -70.689102123149496 -148.52767809722718 0 -148.52767809722718 -135.3661274014471 0 0 0 0 -5.825369219557615 -29.912891410878728 0 -29.912891410878728 22.186994355104616 0 0 0 0 -12.940186542607989 -20.818913116436761 0 -20.818913116436761 -47.923312319668185 0 0 0 0 41.357300541436416 -22.993139034433625 0 -22.993139034433625 -66.80299316325727 0 0 0 0 41.535441168236503 -18.814239853794277 0 -18.814239853794277 1.8113103979922016 0 0 0 0 -9.1951000230328646 -12.797369288136906 0 -12.797369288136906 -16.47762314922511 0 0 0 0 33.873434319983062 -68.431366287291894 0 -68.431366287291894 -35.895425623135452 0 0 0 0 33.445964794620522 -68.74254478413468 0 -68.74254478413468 -9.6642749585480487 0 0 0 0 12.47291952775592 -13.738180239216206 0 -13.738180239216206 10.936990830996209 0 0 0 0 80.7176748474958 74.261543400963092 0 74.261543400963092 -22.013522960380214 0 0 0 0 3.8981525382934876 -6.7793237291838579 0 -6.7793237291838579 3.1774334370434403 0 0 0 0 115.24354973186564 45.660475601454891 0 45.660475601454891 -148.30494092515437 0 0 0 0 230.88584703483502 145.55138326726592 0 145.55138326726592 36.19928096129297 0 0 0 0 0.58078243728130019 -1.4912741221888126 0 -1.4912741221888126 2.7966058826850428 0 0 0 0 -202.00315446134482 17.359444382924266 0 17.359444382924266 152.92930780134338 0 0 0 0 24.284349890553614 -22.395873969474508 0 -22.395873969474508 13.287225130707867 0 0 0 0 28.284313551121159 -81.925617581160623 0 -81.925617581160623 -66.899607325358375 0 0 0 0 27.202674063810264 -109.87491994132415 0 -109.87491994132415 0.33142394197057001 0 0 0 0 19.405737796212634 -101.46018384402896 0 -101.46018384402896 30.607388697146234 0 0 0 0 71.703785581892589 -35.406734222236992 0 -35.406734222236992 -128.1538301427363 0 0 0 0 -7.3368636294617318 -21.390058618468174 0 -21.390058618468174 -4.8340772987139644 0 0 0 0 35.339074185591016 -7.5728251156715487 0 -7.5728251156715487 27.187479981490469 0 0 0 0 17.983256198146876 -9.5251828040953228 0 -9.5251828040953228 -11.208077304825629 0 0 0 0 8.053916166711133 -52.638886398899558 0 -52.638886398899558 2.6248373192429426 0 0 0 0 34.405558839956939 -13.806026560196187 0 -13.806026560196187 -12.962460784328869 0 0 0 0 34.925020007918647 -15.711177364656123 0 -15.711177364656123 -8.5691137881767645 0 0 0 0 18.890625284970071 -11.440796475410622 0 -11.440796475410622 -14.87827376788745 0 0 0 0 19.929575229637663 -9.7576170773774038 0 -9.7576170773774038 -13.746590185412288 0 0 0 0 11.847025367613242 -10.529628274893184 0 -10.529628274893184 -18.264715167642862 0 0 0 0 36.787703973940523 -21.604015943740265 0 -21.604015943740265 -2.2293000932114069 0 0 0 0 696.27822523927898 217.00183595771614 0 217.00183595771614 101.15925169329057 0 0 0 0 1146.4191651949368 56.95832771172536 0 56.95832771172536 -102.04251675716932 0 0 0 0 657.78896717951284 95.314049321901621 0 95.314049321901621 -26.727657964032915 0 0 0 0 689.3439648837084 -35.49451251316691 0 -35.49451251316691 -66.625408499323385 0 0 0 0 408.02200693548366 49.338444598269234 0 49.338444598269234 108.91137788283595 0 0 0 0 19.423451111799352 -15.581845816514274 0 -15.581845816514274 11.327277266437477 0 0 0 0 414.38538593702833 21.881493412344753 0 21.881493412344753 2.4757615099952091 0 0 0 0 36.523288074095035 -340.65866279964393 0 -340.65866279964393 -119.81185266865941 0 0 0 0 431.27723323096143 -6.3741374514729614 0 -6.3741374514729614 -58.590219525758584 0 0 0 0 369.4207646883151 113.35768520575584 0 113.35768520575584 -34.338972716604076 0 0 0 0 50.522563155933312 18.506364107733589 0 18.506364107733589 17.739689156904205 0 0 0 0 293.33391620364273 13.421409053253228 0 13.421409053253228 -16.801188827172155 0 0 0 0 606.12433880007302 -5.0938927021279596 0 -5.0938927021279596 -122.03719167559484 0 0 0 0 662.45155102883291 10.073926811757701 0 10.073926811757701 -101.19208792827158 0 0 0 0 605.33194936804648 -22.500761828365285 0 -22.500761828365285 -118.25130136180815 0 0 0 0 650.55487846391043 -32.429034612596297 0 -32.429034612596297 -136.6022707001066 0 0 0 0 420.48079473399412 -85.811799955688684 0 -85.811799955688684 0.72347406106928247 0 0 0 0 454.12323916529931 -178.83649641893726 0 -178.83649641893726 7.9707909378921613 0 0 0 0 692.98164560944133 -35.874125858239495 0 -35.874125858239495 -137.17746053962901 0 0 0 0 1028.4216250208265 -518.76321478827867 0 -518.76321478827867 191.13199980322861 0 0 0 0 345.22065534378635 -168.16626391195496 0 -168.16626391195496 21.282957734412776 0 0 0 0 0.38210197933156564 -0.39334855986565742 0 -0.39334855986565742 0.3509693858114673 0 0 0 0 66.176519591157557 83.499027480569566 0 83.499027480569566 -459.4862399299418 0 0 0 0 28.315759533405071 -47.571772245808461 0 -47.571772245808461 -29.665567202182501 0 0 0 0 10.198483608259323 -35.173557366609742 0 -35.173557366609742 17.362098481990529 0 0 0 0 -155.57279421953717 -46.518400685668894 0 -46.518400685668894 43.231637882354335 0 0 0 0 343.90994640729798 -66.072764674661641 0 -66.072764674661641 6.8057762045136769 0 0 0 0 42.72055660613114 -11.287606891473843 0 -11.287606891473843 -1.3003555257819244 0 0 0 0 10.473178013494788 -6.5834834021981123 0 -6.5834834021981123 -0.18070728110238932 0 0 0 0 -69.217952255035925 -25.508221025729654 0 -25.508221025729654 -12.736353745998713 0 0 0 0 0.76437516296772401 -25.310916711327252 0 -25.310916711327252 6.090337625521002 0 0 0 0 203.76787229378533 -31.736730964880735 0 -31.736730964880735 20.378933053552828 0 0 0 0 13.885934007495649 -24.605625324620746 0 -24.605625324620746 2.3329317380349011 0 0 0 0 50.130428485572338 -28.645475175259435 0 -28.645475175259435 3.8125740719297028 0 0 0 0 7.5337448847756718 -18.547909282007993 0 -18.547909282007993 6.8664043129615635 0 0 0 0 3.1018139638326829 -29.38540573217233 0 -29.38540573217233 -3.1820147665166587 0 0 0 0 8.4678640868514776 -25.612809845806623 0 -25.612809845806623 -2.6065439852245618 0 0 0 0 28.824594706510595 -22.103107809526506 0 -22.103107809526506 1.0915319653066824 0 0 0 0 4.3220965605571564 -35.898269266273701 0 -35.898269266273701 0.25913244718780959 0 0 0 0 -1.1830269285710528 -2.7152557771969441 0 -2.7152557771969441 -10.691824527315475 0 0 0 0 24.229469783407694 -24.175954657906118 0 -24.175954657906118 6.7128438157815253 0 0 0 0 -34.26040040969383 -7.1337888892467163 0 -7.1337888892467163 -9.6617639067608252 0 0 0 0 0.56824917773576544 -15.987760683043646 0 -15.987760683043646 -4.7830642341156349 0 0 0 0 -4.7286978085467126 8.361182169026506 0 8.361182169026506 -3.6719831125064957 0 0 0 0 3.9995017010831475 -4.3988707171277071 0 -4.3988707171277071 -6.7751552290603243 0 0 0 0 22.405266560381278 46.236619500001325 0 46.236619500001325 -31.404596023605336 0 0 0 0 1.7977025584550574 -20.909842133065467 0 -20.909842133065467 -66.145428447573522 0 0 0 0 -23.193571105701267 47.687287686484979 0 47.687287686484979 89.180569833224581 0 0 0 0 -11.873309394677563 -58.386388585547365 0 -58.386388585547365 185.52810417385444 0 0 0 0 -2.4749651849087968 -17.610423075902645 0 -17.610423075902645 40.03772911924716 0 0 0 0 -6.593419559096219 -13.166585919918361 0 -13.166585919918361 44.14144307810966 0 0 0 0 11.383198635739973 -74.532702686632547 0 -74.532702686632547 104.85424228473676 0 0 0 0 66.561642070344533 -102.92938514506659 0 -102.92938514506659 127.33000525377429 0 0 0 0 -58.576776746485848 -9.1719604437494127 0 -9.1719604437494127 9.7230783965314913 0 0 0 0 -10.374918991073258 -2.5403887920603552 0 -2.5403887920603552 3.6027147923502341 0 0 0 0 -46.304309373808792 7.691331447007542 0 7.691331447007542 15.695911069242356 0 0 0 0 55.508099944796413 -92.589787978335153 0 -92.589787978335153 45.119061657122984 0 0 0 0 8.972417181335004 -23.2598006344856 0 -23.2598006344856 -13.943961332102845 0 0 0 0 -0.40128013968481469 -0.11764888526261075 0 -0.11764888526261075 1.3962059458744136 0 0 0 0 -92.030827397189569 85.018248499081892 0 85.018248499081892 62.244376552438553 0 0 0 0 14.979714388406137 -119.36653307584493 0 -119.36653307584493 121.14515199555353 0 0 0 0 2.9328079303377308 -72.153466841888076 0 -72.153466841888076 134.30802305764064 0 0 0 0 146.7605629038153 -188.94135998625779 0 -188.94135998625779 3.49356587782313 0 0 0 0 8.4935740753644495 -89.730078141431022 0 -89.730078141431022 153.03095847964141 0 0 0 0 7.0172672107291874 -102.72848029545548 0 -102.72848029545548 89.696326978897559 0 0 0 0 21.757197140468634 -79.507553287003248 0 -79.507553287003248 -1.6879381849521451 0 0 0 0 40.347324779693736 -148.12195819057797 0 -148.12195819057797 143.95347393432166 0 0 0 0 16.155041459911445 -23.99089181497925 0 -23.99089181497925 -91.383733977334487 0 0 0 0 82.411977692914661 -88.161537776173191 0 -88.161537776173191 -150.30575655173834 0 0 0 0 52.136325930383464 -131.90308114407549 0 -131.90308114407549 -39.529391774352916 0 0 0 0 21.387715993252215 -34.016579526662412 0 -34.016579526662412 16.368196284792937 0 0 0 0 -59.789476763566199 -120.96480424189031 0 -120.96480424189031 4.3319537447505354 0 0 0 0 -23.098798703795183 -54.632987946318281 0 -54.632987946318281 13.986760970368778 0 0 0 0 -282.56616664153989 30.09249439148698 0 30.09249439148698 59.479092805777327 0 0 0 0 -5.2454333464464753 -10.802546209749604 0 -10.802546209749604 5.1350488429564987 0 0 0 0 -98.101520613767207 -400.80219663320167 0 -400.80219663320167 189.6224122836129 0 0 0 0 -451.18106171641193 -290.60142424432934 0 -290.60142424432934 264.8494174021107 0 0 0 0 93.153503940935479 -124.82689773561287 0 -124.82689773561287 554.27103165392145 0 0 0 0 465.17032358239521 -87.492283388441138 0 -87.492283388441138 -204.69982147305382 0 0 0 0 752.16227252721728 392.42696950152276 0 392.42696950152276 288.25776177248918 0 0 0 0 1602.1262109983363 -32.898063811408292 0 -32.898063811408292 -453.16849589548656 0 0 0 0 640.12840115728613 -649.44880422753886 0 -649.44880422753886 -38.890694039309892 0 0 0 0 -79.423571826089756 -100.8733769552282 0 -100.8733769552282 -10.082871036232973 0 0 0 0 94.249593978205667 -62.264247426240672 0 -62.264247426240672 -6.4241772033710731 0 0 0 0 10.389747545223301 -4.1181180953753085 0 -4.1181180953753085 -3.4140545232739896 0 0 0 0 -181.00262527889572 -228.00006714848041 0 -228.00006714848041 -82.687404241871263 0 0 0 0 160.77341482830525 89.558857224173607 0 89.558857224173607 -412.84021311341559 0 0 0 0 6.9781058231255315 -5.3995677021031216 0 -5.3995677021031216 -0.2106305416755439 0 0 0 0 87.443754141102545 -160.48484389468285 0 -160.48484389468285 245.53079101135404 0 0 0 0 -106.31159082252998 -179.24398963349267 0 -179.24398963349267 -682.59678962624275 0 0 0 0 -81.615157594031189 46.644019928677608 0 46.644019928677608 -346.32432944488664 0 0 0 0 55.03164117610612 -0.82220261534155403 0 -0.82220261534155403 -2.6699330500606591 0 0 0 0 63.240994879488426 -106.3901571620188 0 -106.3901571620188 -435.43199039104991 0 0 0 0 112.20865031690209 -0.80991462683421389 0 -0.80991462683421389 -771.96444200575615 0 0 0 0 2.8199951113081809 -0.33598497478082834 0 -0.33598497478082834 -0.097807808663813667 0 0 0 0 -93.818972549776845 -96.28100212675082 0 -96.28100212675082 -363.45015233121694 0 0 0 0 57.538846074181492 -73.445185068944056 0 -73.445185068944056 -362.63757787072882 0 0 0 0 38.524585284758359 -56.421519310105623 0 -56.421519310105623 -295.72861609582469 0 0 0 0 113.04747188123292 12.935059654909253 0 12.935059654909253 -328.16867575142305 0 0 0 0 191.82548868086451 33.239893049339571 0 33.239893049339571 -325.38135229943941 0 0 0 0 57.761870382615598 57.521809522229091 0 57.521809522229091 -352.4576832888232 0 0 0 0 246.5794736238895 -18.769852198463141 0 -18.769852198463141 -285.17190960310279 0 0 0 0 187.70709662402078 -9.3161434711167033 0 -9.3161434711167033 -146.1504606020714 0 0 0 0 200.88665492353539 -88.120877341356334 0 -88.120877341356334 -192.2085210117242 0 0 0 0 109.76221466905554 -36.147581201567519 0 -36.147581201567519 -221.00539761965837 0 0 0 0 118.88934659229562 -85.552428773515942 0 -85.552428773515942 -285.17433081865494 0 0 0 0 138.72359157972369 -118.14229310322294 0 -118.14229310322294 -298.5040111881417 0 0 0 0 102.37976239080672 -60.759354932622344 0 -60.759354932622344 -314.69034471834351 0 0 0 0 108.58858568396681 -34.47491475820118 0 -34.47491475820118 -206.00085598119659 0 0 0 0 90.046299616817123 -121.97566347123217 0 -121.97566347123217 -292.44083766893527 0 0 0 0 87.369852194206032 -119.88342685406599 0 -119.88342685406599 -215.44228469923934 0 0 0 0 46.972844548754438 -99.828187508839704 0 -99.828187508839704 -220.15789865049805 0 0 0 0 45.856249412681791 -85.76379925469621 0 -85.76379925469621 -303.32441183427511 0 0 0 0 101.54613532051735 -80.237480267085232 0 -80.237480267085232 -421.64888576096746 0 0 0 0 -24.179349746620574 55.11141785737027 0 55.11141785737027 -72.114254977587279 0 0 0 0 319.72538176384114 -76.37267723983723 0 -76.37267723983723 -157.66751288772014 0 0 0 0 -27.601439356571063 62.935505565302719 0 62.935505565302719 -53.907324540152558 0 0 0 0 54.978576098586927 0.58287957434361015 0 0.58287957434361015 0.65555984177909388 0 0 0 0 37.084612387698144 -7.6293695762885818 0 -7.6293695762885818 7.4085495765907723 0 0 0 0 35.483140817032108 -35.921280032647473 0 -35.921280032647473 -71.216257538461377 0 0 0 0 54.63981341681702 0.31519133773593444 0 0.31519133773593444 -6.0518289275361861 0 0 0 0 69.919281667789619 -30.479074026247076 0 -30.479074026247076 -80.024557714534467 0 0 0 0 29.322856822916947 -15.736106178152113 0 -15.736106178152113 -73.615224726964925 0 0 0 0 6.7423911085279542 -22.29547540286336 0 -22.29547540286336 -60.922164450239279 0 0 0 0 -13.043382328818552 -154.98938470454596 0 -154.98938470454596 -269.98667500993702 0 0 0 0 86.227340161080065 -107.53455161063889 0 -107.53455161063889 -259.70875809619821 0 0 0 0 84.113205269920627 -162.84359660946819 0 -162.84359660946819 -835.21448144641045 0 0 0 0 -194.89536662847968 352.2459895334473 0 352.2459895334473 -358.49794615308906 0 0 0 0 -0.85954866620811998 -0.74065846919836531 0 -0.74065846919836531 -9.5690802746088348 0 0 0 0 -244.10707549923245 -300.159146681202 0 -300.159146681202 -171.10698163135123 0 0 0 0 -376.87443078497745 346.63291381934255 0 346.63291381934255 -329.15914745499322 0 0 0 0 -82.130684930147254 68.689002564179646 0 68.689002564179646 -67.140360254841653 0 0 0 0 -52.638590373418992 149.81240143932882 0 149.81240143932882 -143.63933320021169 0 0 0 0 169.99741225587786 -312.86899955508432 0 -312.86899955508432 -755.15213939100454 0 0 0 0 40.887690510367975 258.13423362760909 0 258.13423362760909 -728.53058231298064 0 0 0 0 393.05340713159967 -258.75265726176241 0 -258.75265726176241 -283.15984794304677 0 0 0 0 169.41341235240543 9.6381636644086939 0 9.6381636644086939 -228.83159922258233 0 0 0 0 193.43176359440258 18.179028933166364 0 18.179028933166364 -367.42056015616345 0 0 0 0 98.378884558977006 38.663800265293958 0 38.663800265293958 -139.49540229597915 0 0 0 0 48.345768180843152 100.82350375685382 0 100.82350375685382 -120.61195026396854 0 0 0 0 -33.418147346383194 48.919996725209785 0 48.919996725209785 -59.122422551910859 0 0 0 0 9.3028677506704724 -6.22099432095672 0 -6.22099432095672 -25.399049679231489 0 0 0 0 -24.434790825253003 54.566768780040547 0 54.566768780040547 -82.102027951614218 0 0 0 0 -29.022475142504845 60.513811437915138 0 60.513811437915138 -85.767672922191196 0 0 0 0 92.808835092080699 -26.50122342122495 0 -26.50122342122495 -4.3405252026994674 0 0 0 0 14.320850552125023 9.0032862072716711 0 9.0032862072716711 -20.084372377923287 0 0 0 0 -30.027642402186757 32.927546221953889 0 32.927546221953889 -74.267957174824915 0 0 0 0 -46.073523415019736 -10.917578972708725 0 -10.917578972708725 6.0821848324703751 0 0 0 0 4.8718849444508265 -2.0184462103074878 0 -2.0184462103074878 0.87646225239816999 0 0 0 0 27.98805870915271 8.4634263193632364 0 8.4634263193632364 -40.584004736239926 0 0 0 0 48.032527617746382 41.98670658147239 0 41.98670658147239 4.8105808370928571 0 0 0 0 0.24969645330531876 -0.61735721052478354 0 -0.61735721052478354 -3.9529846738220291 0 0 0 0 34.746152310195612 26.413547915912204 0 26.413547915912204 -129.06621961483324 0 0 0 0 48.914192263546283 60.805261326038817 0 60.805261326038817 28.392404658476153 0 0 0 0 100.44447090529138 64.014828577280241 0 64.014828577280241 -19.958765539715387 0 0 0 0 80.112824534971878 -5.9317357159361563 0 -5.9317357159361563 -42.711916927441052 0 0 0 0 67.080565424272208 18.827057838501787 0 18.827057838501787 -60.919928693072507 0 0 0 0 15.597162156143966 4.868975507396982 0 4.868975507396982 -16.170546790925503 0 0 0 0 85.821261262281041 -26.420582053390092 0 -26.420582053390092 -21.08336675325063 0 0 0 0 100.37587029825954 -12.948033465626395 0 -12.948033465626395 -29.086667277260858 0 0 0 0 56.608626644509059 21.50094692251821 0 21.50094692251821 -51.363779031081322 0 0 0 0 26.656971073978639 7.1168138186494616 0 7.1168138186494616 -6.5116768659527224 0 0 0 0 80.625967174462858 -29.563342457941076 0 -29.563342457941076 -24.252086727728056 0 0 0 0 10.499319803495311 7.1795994827697882 0 7.1795994827697882 -25.697749391184146 0 0 0 0 95.559544048199314 -22.434778154849482 0 -22.434778154849482 -38.21675122511806 0 0 0 0 116.92571631030296 -25.501459492063077 0 -25.501459492063077 -67.195234287097264 0 0 0 0 65.405216980267141 -25.888202270497914 0 -25.888202270497914 14.858936145701591 0 0 0 0 4.9786796700358877 5.9512216797943154 0 5.9512216797943154 -22.879104660382374 0 0 0 0 13.980174658965922 2.8200599719628769 0 2.8200599719628769 -30.342151038372258 0 0 0 0 48.48953772810637 -12.643339290044423 0 -12.643339290044423 3.7698779465536063 0 0 0 0 47.078269917063153 28.816363923232302 0 28.816363923232302 -44.776455244406861 0 0 0 0 64.41040088183945 -3.5002158114652957 0 -3.5002158114652957 -44.190824312247969 0 0 0 0 11.030351883264174 3.5306502943495985 0 3.5306502943495985 -28.027591245770676 0 0 0 0 68.17009276470344 -15.942135235321985 0 -15.942135235321985 -27.898862141355494 0 0 0 0 34.176574226366938 14.756008949102124 0 14.756008949102124 -39.107505487318122 0 0 0 0 27.965094258674071 4.03774088488899 0 4.03774088488899 -17.787824220591574 0 0 0 0 15.660497132347217 0.37936074625190486 0 0.37936074625190486 -14.165310013461138 0 0 0 0 9.0384036032337463 11.012476521297685 0 11.012476521297685 -27.757049596712932 0 0 0 0 45.854648766457103 -162.49681149281605 0 -162.49681149281605 -76.40886471518661 0 0 0 0 20.787014109992015 -0.35280507006882544 0 -0.35280507006882544 -3.1559666198045306 0 0 0 0 16.810791904563445 4.2707868325062748 0 4.2707868325062748 -1.0805345052752031 0 0 0 0 8.8080405464144178 3.4594840113185086 0 3.4594840113185086 1.4389843431056057 0 0 0 0 123.25818507856457 80.820586925316093 0 80.820586925316093 71.023850731327002 0 0 0 0 7.0470831863058265 -2.3063761888558929 0 -2.3063761888558929 11.833599534324549 0 0 0 0 8.1814561146074425 2.9011140940712181 0 2.9011140940712181 -0.36490090461485991 0 0 0 0 -29.146486799392733 17.94647956509607 0 17.94647956509607 -23.154340197314923 0 0 0 0 10.276730569073607 34.083428162958086 0 34.083428162958086 -58.158695260643981 0 0 0 0 18.479626990418183 0.26172989250790124 0 0.26172989250790124 -39.174819962002402 0 0 0 0 48.351163438812364 -35.923855471113711 0 -35.923855471113711 22.107062520212594 0 0 0 0 -46.01985312117904 49.894534908711876 0 49.894534908711876 -30.222347082761189 0 0 0 0 -25.817703702123254 82.938346671628551 0 82.938346671628551 -67.982633399507904 0 0 0 0 3.1313449903367996 -0.3196464087234574 0 -0.3196464087234574 -1.4268542401234932 0 0 0 0 10.171566855558808 5.1346794998976861 0 5.1346794998976861 1.8890783682761505 0 0 0 0 18.000365000189049 -19.109923600650291 0 -19.109923600650291 27.658027796525857 0 0 0 0 22.671667639777297 -28.816492700052095 0 -28.816492700052095 20.253427124400332 0 0 0 0 40.955901536668534 -24.015218941907733 0 -24.015218941907733 15.050763862656822 0 0 0 0 41.128892630658811 -22.985881174972747 0 -22.985881174972747 19.636259744464041 0 0 0 0 18.647976658248808 -19.541175494399795 0 -19.541175494399795 27.193243603875089 0 0 0 0 16.961295257031452 -13.929950079838818 0 -13.929950079838818 23.384450859860863 0 0 0 0 17.224691652023466 -17.165901954680521 0 -17.165901954680521 26.197183622179182 0 0 0 0 21.204783624096308 -16.718119825096437 0 -16.718119825096437 22.471918608112901 0 0 0 0 52.914336560934316 -20.248259295191929 0 -20.248259295191929 10.221431132782527 0 0 0 0 98.367629207248683 -37.42880033513984 0 -37.42880033513984 3.3886225039732381 0 0 0 0 102.32974384018235 -36.521380956451139 0 -36.521380956451139 0.85376777718829544 0 0 0 0 -0.069210433325750387 1.4266337576523824 0 1.4266337576523824 -0.88237870765145843 0 0 0 0 105.74722190517059 -45.122171623111171 0 -45.122171623111171 9.7144993779438664 0 0 0 0 62.20505908477935 -26.552222335150418 0 -26.552222335150418 10.389500614841381 0 0 0 0 53.347413292940473 -41.080114728713852 0 -41.080114728713852 -48.016314240965585 0 0 0 0 62.534385297397193 -40.827467993644461 0 -40.827467993644461 46.527492585697473 0 0 0 0 2.2770447528637305 69.794367213349744 0 69.794367213349744 -95.638313418689449 0 0 0 0 -34.945577560647507 112.80861399918325 0 112.80861399918325 -48.154884413189393 0 0 0 0 -11.025839674766758 26.875219135739371 0 26.875219135739371 -65.206825787732214 0 0 0 0 41.680642864754191 12.713412395924934 0 12.713412395924934 -72.530120293292384 0 0 0 0 18.637810492073186 45.455330771216722 0 45.455330771216722 -100.17497554489046 0 0 0 0 1.9896741394040873 34.720434047235813 0 34.720434047235813 -42.80745712629323 0 0 0 0 15.885974336764775 43.253372564530764 0 43.253372564530764 -62.312333054343071 0 0 0 0 17.619819438645209 43.681997307103757 0 43.681997307103757 -57.220993836841444 0 0 0 0 41.438552519997756 55.116234164880069 0 55.116234164880069 -73.248027637449923 0 0 0 0 57.648428625558154 -12.176469531102384 0 -12.176469531102384 -41.711322025473692 0 0 0 0 -55.25932911138807 84.369738193177909 0 84.369738193177909 -73.060600399852532 0 0 0 0 -36.681206109235063 36.805437873983465 0 36.805437873983465 -68.283642160596628 0 0 0 0 3.1616041759643849 0.78522641238670587 0 0.78522641238670587 -0.4556562416484482 0 0 0 0 251.30408399897539 -201.31432238096673 0 -201.31432238096673 123.85347641606631 0 0 0 0 127.01833574316697 -44.139690594552121 0 -44.139690594552121 19.344578536392874 0 0 0 0 109.45129363836895 -92.36437701034356 0 -92.36437701034356 81.771688691105737 0 0 0 0 7.6186173700184838 2.9133190836583509 0 2.9133190836583509 0.052810708183887556 0 0 0 0 138.40411837224383 -70.593751849138471 0 -70.593751849138471 24.800875608535534 0 0 0 0 113.60976830449363 -42.799336172673975 0 -42.799336172673975 -0.45645139953194303 0 0 0 0 105.65959459081932 -37.855414697184642 0 -37.855414697184642 20.104013913864947 0 0 0 0 91.798486337000213 -28.179341683776784 0 -28.179341683776784 -2.0254408027321915 0 0 0 0 98.404451654743752 -26.772830433440504 0 -26.772830433440504 -6.1387215244349136 0 0 0 0 75.668900627737457 -13.963396857744101 0 -13.963396857744101 -1.9781889103742287 0 0 0 0 124.61205293599778 -50.268313811579446 0 -50.268313811579446 10.402310530867908 0 0 0 0 111.95420196219584 -19.598327229061084 0 -19.598327229061084 -20.718191554917212 0 0 0 0 31.455804850702407 -1.3797803466004552 0 -1.3797803466004552 -0.39701659323600325 0 0 0 0 124.2212470232401 13.055124138311481 0 13.055124138311481 -29.531193953449474 0 0 0 0 17.950451367796369 -21.662921869611907 0 -21.662921869611907 -1.1022057478167895 0 0 0 0 59.910276193201526 6.5811815258881552 0 6.5811815258881552 -22.212195739117341 0 0 0 0 82.546507157327142 4.9069455383619243 0 4.9069455383619243 -25.723385984661945 0 0 0 0 144.78744612890296 -53.396915815118973 0 -53.396915815118973 22.745437777630428 0 0 0 0 150.98937156124987 -60.616410336679678 0 -60.616410336679678 22.097496787325781 0 0 0 0 114.060546720415 -30.912221984584448 0 -30.912221984584448 11.683067054276535 0 0 0 0 69.765223365936777 16.188412290155711 0 16.188412290155711 -11.416523878003574 0 0 0 0 159.37059885284361 -11.566003701165727 0 -11.566003701165727 -6.0122515029652277 0 0 0 0 177.46004286771495 -60.25517593400275 0 -60.25517593400275 -60.978211545777185 0 0 0 0 81.408491946691356 26.647090151727525 0 26.647090151727525 -68.792718141422483 0 0 0 0 176.41445208343794 -50.197025892265628 0 -50.197025892265628 -93.880230440469404 0 0 0 0 160.32355475809891 -55.489093953611018 0 -55.489093953611018 -48.072397398486373 0 0 0 0 -23.336152316500375 3.3768414557985125 0 3.3768414557985125 30.971995415889069 0 0 0 0 -2.8134926951915862 -17.249131663295557 0 -17.249131663295557 -4.298574144039069 0 0 0 0 -102.98988278694742 15.396253349524613 0 15.396253349524613 77.2678175925289 0 0 0 0 5.9391237084336641 -17.99068453631449 0 -17.99068453631449 -8.0574487351705937 0 0 0 0 252.66799057698572 20.301553167883714 0 20.301553167883714 -70.569303655754993 0 0 0 0 11.732210475652209 -58.39642819360153 0 -58.39642819360153 112.45873028140818 0 0 0 0 161.66723935909977 -103.08689702205766 0 -103.08689702205766 -5.8710476301439485 0 0 0 0 148.26072759951057 -79.393815351651938 0 -79.393815351651938 -41.096643253862112 0 0 0 0 161.95770368986996 3.0594841940037441 0 3.0594841940037441 -74.720629933761984 0 0 0 0 104.98271273512728 84.977127528867172 0 84.977127528867172 9.117376290052789 0 0 0 0 99.289920019309193 19.998638645046963 0 19.998638645046963 1.9505441484678199 0 0 0 0 20.367461428253282 -17.499096943953958 0 -17.499096943953958 -21.355855360293109 0 0 0 0 180.72953498696643 18.954669240432708 0 18.954669240432708 -62.34073394438019 0 0 0 0 117.04875992466486 -18.413017068868399 0 -18.413017068868399 -13.344833644114942 0 0 0 0 160.25228074127517 -48.613805393118355 0 -48.613805393118355 -24.289883122290217 0 0 0 0 141.36354797972308 12.637180323205257 0 12.637180323205257 -22.652490030106492 0 0 0 0 111.53269074500713 -15.925428973672297 0 -15.925428973672297 -49.439460039965297 0 0 0 0 167.50562043568061 -47.372019916288593 0 -47.372019916288593 -6.1784517893611337 0 0 0 0 151.49437702394425 -41.186814369058141 0 -41.186814369058141 1.4165100938819251 0 0 0 0 132.26406130544774 -32.452078816386688 0 -32.452078816386688 2.8850950355165423 0 0 0 0 15.937209459840824 -20.566703498923744 0 -20.566703498923744 2.5588153012927672 0 0 0 0 -4.2829613021057256 -16.364233174703912 0 -16.364233174703912 -9.9500147968559975 0 0 0 0 219.3065424394008 -24.211571870216176 0 -24.211571870216176 -32.266510252453145 0 0 0 0 133.71004410465866 -27.478730625161397 0 -27.478730625161397 -14.433121191363966 0 0 0 0 98.951907170310733 -23.85218755252663 0 -23.85218755252663 -12.373150175702932 0 0 0 0 89.728405687665145 -6.0314674202818992 0 -6.0314674202818992 -16.448955773941066 0 0 0 0 93.593681100508547 -28.596939330114168 0 -28.596939330114168 5.3657433206029168 0 0 0 0 88.827369026835186 -29.328885656704074 0 -29.328885656704074 9.4162968165401253 0 0 0 0 51.026080283328554 9.5251076200873257 0 9.5251076200873257 -23.241503241879798 0 0 0 0 88.020141985929513 -17.350031411212512 0 -17.350031411212512 -8.7484813302326074 0 0 0 0 69.720467703533359 -6.9942236563508686 0 -6.9942236563508686 -4.543707614954883 0 0 0 0 101.48064555872406 -18.500314313013064 0 -18.500314313013064 -10.766999424575715 0 0 0 0 106.81153139242087 -20.266921345957144 0 -20.266921345957144 -4.372347206786344 0 0 0 0 87.741534102556386 -4.8213953456128777 0 -4.8213953456128777 -8.4500479001716116 0 0 0 0 24.936638273327844 -24.31870412369085 0 -24.31870412369085 23.606730241156129 0 0 0 0 63.539477409548283 -16.327449274313295 0 -16.327449274313295 -3.9005603230382668 0 0 0 0 115.66287519894831 -4.6406864228702034 0 -4.6406864228702034 -9.6204121928155928 0 0 0 0 95.169940153486095 21.808717712985981 0 21.808717712985981 6.3640198659886664 0 0 0 0 126.45293265717919 -31.663528014855729 0 -31.663528014855729 -37.007613956836508 0 0 0 0 204.20477964513702 -25.878769680271944 0 -25.878769680271944 -38.565982565906552 0 0 0 0 130.4398953988275 79.030622140383912 0 79.030622140383912 49.900605584736695 0 0 0 0 9.3459955943586124 -6.272981628246427 0 -6.272981628246427 -2.6878888260715925 0 0 0 0 66.871396857954096 -7.6086395026436549 0 -7.6086395026436549 8.4959457530617328 0 0 0 0 27.925336176188182 -0.32733285974612158 0 -0.32733285974612158 0.83940367907307767 0 0 0 0 39.28044777728374 15.308513072309225 0 15.308513072309225 -10.284868556119214 0 0 0 0 73.04551104400889 -5.4951053725471866 0 -5.4951053725471866 -0.59803933298098855 0 0 0 0 29.575841996753297 20.411687647948384 0 20.411687647948384 -7.8376433233024727 0 0 0 0 32.484403894553438 11.103122084662743 0 11.103122084662743 -5.7047203541773754 0 0 0 0 64.478740049716464 9.5646570897708898 0 9.5646570897708898 -2.3954301591200284 0 0 0 0 27.058280033132178 3.7975785598525817 0 3.7975785598525817 4.7256916387559613 0 0 0 0 70.480226602761832 2.8498255173954021 0 2.8498255173954021 -16.045589766174089 0 0 0 0 45.329601665559949 -3.2833485656147161 0 -3.2833485656147161 -6.9444963612220789 0 0 0 0 57.20691917813383 0.077728682270389982 0 0.077728682270389982 -6.6328956133438624 0 0 0 0 59.76397369087465 -17.227599666774879 0 -17.227599666774879 -4.039348177416187 0 0 0 0 44.981033401977157 -0.87509774456535183 0 -0.87509774456535183 0.83423813207582498 0 0 0 0 110.28941705352918 -25.374239836369725 0 -25.374239836369725 4.7321455653182056 0 0 0 0 72.437658311704581 0.65139742902424302 0 0.65139742902424302 -24.371998684152004 0 0 0 0 104.88444516147138 28.037806990649187 0 28.037806990649187 -8.9857229247554642 0 0 0 0 55.786713167347841 -9.1769020998566901 0 -9.1769020998566901 -11.360674578826366 0 0 0 0 59.345111774185938 1.4901149328201484 0 1.4901149328201484 -23.256693465641089 0 0 0 0 104.41739172500093 -31.322342674180618 0 -31.322342674180618 4.7787266193317919 0 0 0 0 107.00726961766486 -30.770451811029488 0 -30.770451811029488 4.8613814764939889 0 0 0 0 104.79936920625778 -26.02410120871798 0 -26.02410120871798 4.6896534122442972 0 0 0 0 95.566045131126884 -31.324479035225522 0 -31.324479035225522 5.155265725620211 0 0 0 0 95.235332623349677 -25.53794672411459 0 -25.53794672411459 7.5068612287377618 0 0 0 0 104.83324079039448 -25.61925624094647 0 -25.61925624094647 4.9202578856074979 0 0 0 0 10.598256038822001 -12.460973210972043 0 -12.460973210972043 23.939038676306154 0 0 0 0 16.817580229209852 3.3099299810228331 0 3.3099299810228331 8.5176615627515275 0 0 0 0 39.828270606769365 -6.0332765511343496 0 -6.0332765511343496 12.30586557661627 0 0 0 0 63.609155838748848 4.3963951217165231 0 4.3963951217165231 -13.970531035538443 0 0 0 0 9.3156468818589246 0.0042052326353427816 0 0.0042052326353427816 -0.83278946593046044 0 0 0 0 105.70946895094676 -26.349552443435641 0 -26.349552443435641 3.5085894833482598 0 0 0 0 51.720194154346245 -7.7198181007033781 0 -7.7198181007033781 -5.9857242821149157 0 0 0 0 56.01509929241729 -0.94170354317066085 0 -0.94170354317066085 -0.89408559082949068 0 0 0 0 8.1135501711482476 1.3370758137538843 0 1.3370758137538843 3.1271404225407053 0 0 0 0 26.467233289779642 -3.7633462017655432 0 -3.7633462017655432 0.61422589805605554 0 0 0 0 20.413780609320384 -2.2554839820768393 0 -2.2554839820768393 -1.7638204198010499 0 0 0 0 14.228320716248021 -4.5843950863553999 0 -4.5843950863553999 3.6894254947593907 0 0 0 0 29.85751617659183 1.9095350743991162 0 1.9095350743991162 0.94656409756123594 0 0 0 0 12.632061231633998 11.566060536065379 0 11.566060536065379 12.534771746115439 0 0 0 0 13.260583704817691 6.9165357030224186 0 6.9165357030224186 22.704062662018259 0 0 0 0 17.161771147206309 -7.694488777036895 0 -7.694488777036895 14.126490037409894 0 0 0 0 8.4506178834417369 3.2762752358657963 0 3.2762752358657963 22.324888283550536 0 0 0 0 142.4672742665789 14.83206046817395 0 14.83206046817395 -31.297941436976544 0 0 0 0 -0.73492790233640903 0.98090075619390404 0 0.98090075619390404 1.5443569854871022 0 0 0 0 16.050608403733349 15.560969058221417 0 15.560969058221417 46.482166437961496 0 0 0 0 11.522676839575894 -5.7782414933978288 0 -5.7782414933978288 2.827511245757492 0 0 0 0 21.301597929632408 -24.55103348760008 0 -24.55103348760008 -2.2335766261567187 0 0 0 0 7.7447292709386204 0.021394418774988821 0 0.021394418774988821 0.010934480301109772 0 0 0 0 17.666899496374754 12.998522816548416 0 12.998522816548416 10.975287569674038 0 0 0 0 27.735237653469085 -5.8689025690327981 0 -5.8689025690327981 -4.5662527350341406 0 0 0 0 14.058784521883354 1.258054296435148 0 1.258054296435148 -6.2078298960113898 0 0 0 0 14.308037794315652 -1.0656577821736164 0 -1.0656577821736164 -4.7009787294951444 0 0 0 0 17.316017524310155 -2.2360191590851173 0 -2.2360191590851173 0.63133711691625649 0 0 0 0 23.69391863064223 -1.969365254884238 0 -1.969365254884238 -6.2628947938005517 0 0 0 0 18.767026961889144 -1.3175540289337135 0 -1.3175540289337135 3.1336640440681727 0 0 0 0 50.849137085606344 -34.656221750850818 0 -34.656221750850818 33.233781961032946 0 0 0 0 39.812191904929932 26.350484376367604 0 26.350484376367604 -9.5637255594010639 0 0 0 0 6.1965164768283785 -0.24823809182642265 0 -0.24823809182642265 -3.5114815946890197 0 0 0 0 42.564858295983868 -30.103330677284248 0 -30.103330677284248 33.895342987560298 0 0 0 0 28.964848961950338 -14.304229143474004 0 -14.304229143474004 24.917843402156905 0 0 0 0 15.879444022910803 1.0162672563292574 0 1.0162672563292574 -5.4878554812008247 0 0 0 0 78.1663496682595 -25.712723244432709 0 -25.712723244432709 5.4858435224632558 0 0 0 0 17.187621153194414 -9.69409298123486 0 -9.69409298123486 24.22038652518313 0 0 0 0 20.518548055624706 -5.6268649412941159 0 -5.6268649412941159 25.261593094161071 0 0 0 0 76.410708734358195 -43.879901763519229 0 -43.879901763519229 -1.8450768510028865 0 0 0 0 4.9680034067053782 -0.5423099001295526 0 -0.5423099001295526 -0.36247589203316721 0 0 0 0 16.938436464988627 0.84888010355098231 0 0.84888010355098231 30.397156348140925 0 0 0 0 13.604819278029026 -2.5087889056449058 0 -2.5087889056449058 28.618988215828722 0 0 0 0 62.595212346030166 3.9785907944115024 0 3.9785907944115024 27.443582777592383 0 0 0 0 24.425083757967514 -16.707892294524072 0 -16.707892294524072 38.65519146355291 0 0 0 0 6.6255023646808695 1.4267071373260478 0 1.4267071373260478 47.58018766890018 0 0 0 0 -17.747238557058154 16.248762282610187 0 16.248762282610187 42.838658449532886 0 0 0 0 11.884299873665441 0.92362188954211888 0 0.92362188954211888 31.784383547642392 0 0 0 0 -3.7255439051659778 7.2984531507354404 0 7.2984531507354404 36.808113605617109 0 0 0 0 5.1368508096202277 15.453600702860513 0 15.453600702860513 15.570397079598479 0 0 0 0 10.114854480430949 21.825210437178612 0 21.825210437178612 7.2205936528287111 0 0 0 0 8.9652627642499283 19.815172154760148 0 19.815172154760148 18.988577182593872 0 0 0 0 -14.638353830945562 45.920844096405744 0 45.920844096405744 1.4906012453020594 0 0 0 0 62.714429363230977 21.751976976175087 0 21.751976976175087 -18.81547055305667 0 0 0 0 19.042313178913901 35.687162489632101 0 35.687162489632101 -27.936814327887987 0 0 0 0 -30.577963798248675 87.429475605955304 0 87.429475605955304 -32.693807166949455 0 0 0 0 -40.90896163880825 41.705673881519942 0 41.705673881519942 14.114417847056302 0 0 0 0 -15.863324818617912 41.928423791502269 0 41.928423791502269 11.255820546472023 0 0 0 0 -3.4330683285734267 43.416035143557565 0 43.416035143557565 -41.566229715092049 0 0 0 0 35.689201531737652 -0.16550871203281758 0 -0.16550871203281758 1.8983731496777114 0 0 0 0 102.69373783041374 -3.7029578113179014 0 -3.7029578113179014 1.9958292002793314 0 0 0 0 100.38059828218825 -12.920958907346602 0 -12.920958907346602 -3.4115668798831038 0 0 0 0 91.020939626352629 -13.321979829753218 0 -13.321979829753218 8.7232330498513875 0 0 0 0 26.595258124587644 20.073506399746549 0 20.073506399746549 1.4497333304352966 0 0 0 0 30.071060806076275 21.394430675389458 0 21.394430675389458 -16.481504611752825 0 0 0 0 66.969002859505679 13.157915432865572 0 13.157915432865572 -4.0795746565889672 0 0 0 0 35.655090935761109 41.361902191838453 0 41.361902191838453 -86.57799973608553 0 0 0 0 58.724399189612654 8.8416501498094249 0 8.8416501498094249 -2.4806421077214331 0 0 0 0 29.213831818036851 38.857609945690797 0 38.857609945690797 -86.928968989263012 0 0 0 0 147.17491184507077 -19.563878053228024 0 -19.563878053228024 -7.3783305368719976 0 0 0 0 108.21165350161027 -24.179295127083265 0 -24.179295127083265 13.733484683276686 0 0 0 0 80.60242740927788 19.025384510072854 0 19.025384510072854 5.8072643814593903 0 0 0 0 68.840277956100181 9.678251085415468 0 9.678251085415468 0.48153256749719731 0 0 0 0 144.15105218652752 29.613951984356788 0 29.613951984356788 -62.822144891668813 0 0 0 0 55.744070934772026 88.222507267238143 0 88.222507267238143 -24.280678116665285 0 0 0 0 82.144818546374722 12.336371445595063 0 12.336371445595063 -10.556160700781987 0 0 0 0 72.719831467063329 12.839006062061216 0 12.839006062061216 2.0976212263168525 0 0 0 0 15.452913405373693 74.841728372704893 0 74.841728372704893 -240.99040905911261 0 0 0 0 77.314856676691761 -50.121667377932596 0 -50.121667377932596 -14.019294064621446 0 0 0 0 55.089028068994367 7.1813546876670955 0 7.1813546876670955 -5.3319515680351444 0 0 0 0 15.421564137268831 18.022162899418227 0 18.022162899418227 -2.0284689414701895 0 0 0 0 165.5842397862325 17.994627561315596 0 17.994627561315596 -59.308441766293981 0 0 0 0 159.54302934007501 -7.3848027141873125 0 -7.3848027141873125 -66.88681810375266 0 0 0 0 56.60961772245355 -9.357972079819362 0 -9.357972079819362 -44.672924809174994 0 0 0 0 132.20163464322104 213.19871232396866 0 213.19871232396866 235.17785742904056 0 0 0 0 1.6028043046337643 -0.9668983843101131 0 -0.9668983843101131 0.51699328654801835 0 0 0 0 283.61179687391268 223.6587337834525 0 223.6587337834525 -88.864611187220646 0 0 0 0 364.31669270538259 125.31816381574986 0 125.31816381574986 0.10827602159150256 0 0 0 0 116.31000079170917 -73.204475905024694 0 -73.204475905024694 57.243476048422778 0 0 0 0 268.57119228708325 -113.89742127023769 0 -113.89742127023769 -62.681707745684207 0 0 0 0 173.15902861670475 -25.039631009222532 0 -25.039631009222532 -44.769851928180316 0 0 0 0 16.571840538215639 -4.9001252695961739 0 -4.9001252695961739 -0.78839583154768156 0 0 0 0 58.709618250912172 35.147412951940304 0 35.147412951940304 -68.31066109218105 0 0 0 0 153.39211473814794 -9.3009460092360428 0 -9.3009460092360428 -128.33630481698594 0 0 0 0 102.31314518649015 -47.171530508936435 0 -47.171530508936435 -30.566407189399712 0 0 0 0 104.18895318011346 -40.492062222815221 0 -40.492062222815221 -29.876031279393942 0 0 0 0 -6.3818760638241656 -42.525673557439291 0 -42.525673557439291 4.4889561619442446 0 0 0 0 48.040439666074235 -57.57474803771526 0 -57.57474803771526 0.0060699419026226838 0 0 0 0 -1.9008730119019219 0.38805785592069242 0 0.38805785592069242 -0.91288535063403009 0 0 0 0 65.366717713593971 -21.963284217348622 0 -21.963284217348622 -30.765508761508727 0 0 0 0 85.814680302573834 39.098927631778224 0 39.098927631778224 -28.004269361084425 0 0 0 0 84.638770963356365 -4.076180174201852 0 -4.076180174201852 -33.178200557734385 0 0 0 0 46.347670411516447 56.533921398341306 0 56.533921398341306 -30.029885124049542 0 0 0 0 16.962355312807972 3.8651227658331777 0 3.8651227658331777 -5.5004547268740058 0 0 0 0 40.871154428987211 4.2698685943180976 0 4.2698685943180976 -20.552872917673767 0 0 0 0 80.346866238825896 -0.24510152037824184 0 -0.24510152037824184 -10.762580940501294 0 0 0 0 60.715677760118979 2.4159535511927217 0 2.4159535511927217 -6.4265190856535037 0 0 0 0 55.492598407709011 1.9838372123011823 0 1.9838372123011823 3.1664728564428515 0 0 0 0 47.038078052202195 0.20069591032941503 0 0.20069591032941503 -2.4525011868514488 0 0 0 0 49.198343164702294 6.4858433997023894 0 6.4858433997023894 -7.0897408555181656 0 0 0 0 57.902797863498563 -1.451531972492603 0 -1.451531972492603 2.6676420565418084 0 0 0 0 83.450371098835603 -6.2134466921461353 0 -6.2134466921461353 -2.0061371492070066 0 0 0 0 48.244954072637483 1.9052671386170914 0 1.9052671386170914 -21.157429884192084 0 0 0 0 70.257836411139579 -2.4076746698490012 0 -2.4076746698490012 -31.280103708964816 0 0 0 0 90.622676442319062 -62.030498489155434 0 -62.030498489155434 14.073266005836331 0 0 0 0 120.93391606181831 10.76231612890254 0 10.76231612890254 -5.4614789328725237 0 0 0 0 55.446938359769888 -17.352174192830631 0 -17.352174192830631 1.9043148758460404 0 0 0 0 75.533711249166117 1.0591903087972199 0 1.0591903087972199 -2.6393541567513634 0 0 0 0 129.6293291662887 6.8837920078174193 0 6.8837920078174193 -9.7759499030899093 0 0 0 0 74.457804480779373 -6.2553470633021533 0 -6.2553470633021533 -3.0297706628351859 0 0 0 0 77.03175687143812 -1.651824636436686 0 -1.651824636436686 -31.355628692231278 0 0 0 0 102.56509511460899 -7.4624233088111396 0 -7.4624233088111396 -55.640596243397567 0 0 0 0 96.234031659470475 -5.7825539623171025 0 -5.7825539623171025 -8.432377605649739 0 0 0 0 117.34641669003759 -15.578151009573503 0 -15.578151009573503 -65.587719172984066 0 0 0 0 76.474640533462264 -20.188631033875044 0 -20.188631033875044 -0.77371488858459436 0 0 0 0 90.793038569448981 -14.451465904144243 0 -14.451465904144243 -20.838743650693687 0 0 0 0 83.147250936293915 17.831992659061626 0 17.831992659061626 -15.955470870502216 0 0 0 0 61.602041305027001 -8.6068626275709619 0 -8.6068626275709619 -12.134212970750713 0 0 0 0 88.680130304463091 -42.660991046515392 0 -42.660991046515392 -6.6070655439804398 0 0 0 0 71.189377335525933 -12.752002280558941 0 -12.752002280558941 -32.019792142720689 0 0 0 0 115.93715093654009 -42.438917764770494 0 -42.438917764770494 -36.3386104167339 0 0 0 0 182.98352014197735 -44.27687231544644 0 -44.27687231544644 -55.807211070836388 0 0 0 0 120.27789063405362 73.189899575260483 0 73.189899575260483 -54.362264970082833 0 0 0 0 68.35775491577806 91.44892054895854 0 91.44892054895854 -57.884856253322596 0 0 0 0 418.15525832559797 84.879944489448235 0 84.879944489448235 -213.63140803385363 0 0 0 0 261.48550934518425 -205.75105495639895 0 -205.75105495639895 125.98419011084798 0 0 0 0 259.62735617689032 172.48989614561103 0 172.48989614561103 -14.169623506511527 0 0 0 0 38.512349132302916 100.73164497679339 0 100.73164497679339 -0.39801273407397086 0 0 0 0 83.434540342161199 -184.35639534715258 0 -184.35639534715258 356.98478246976867 0 0 0 0 29.830043657879287 101.84136500036968 0 101.84136500036968 29.148864744511798 0 0 0 0 3.4459162314889227 1.2331135751098685 0 1.2331135751098685 0.50567780544041319 0 0 0 0 -200.35832951558405 8.7623598588802878 0 8.7623598588802878 -4.2236240064270305 0 0 0 0 14.583545214467449 162.65061842797513 0 162.65061842797513 20.356618635294751 0 0 0 0 13.075208276316289 -2.7173120493876866 0 -2.7173120493876866 -3.5395620696302399 0 0 0 0 160.10746714504785 237.71529762323888 0 237.71529762323888 -372.19718972943986 0 0 0 0 102.62126826919848 350.22719049641694 0 350.22719049641694 -19.917433977247867 0 0 0 0 -73.841388220433146 78.212523832450628 0 78.212523832450628 158.16440365550733 0 0 0 0 167.28985930181807 -14.029963089948621 0 -14.029963089948621 0.35482953458571026 0 0 0 0 111.56856696488103 117.84165890211391 0 117.84165890211391 -113.83536056970735 0 0 0 0 447.30106227015494 -104.2851044348248 0 -104.2851044348248 -0.24519431056776875 0 0 0 0 295.96494988395716 -262.91069989582178 0 -262.91069989582178 268.85196413026688 0 0 0 0 7.991309133823961 160.10672772173052 0 160.10672772173052 956.0937234806529 0 0 0 0 461.64810187183321 -980.65059541527944 0 -980.65059541527944 -869.22236021902472 0 0 0 0 1019.5675593914348 817.21916423441178 0 817.21916423441178 -142.49501327490157 0 0 0 0 81.124614421478327 -388.84460757775031 0 -388.84460757775031 -1278.8191834056483 0 0 0 0 10.680069933058064 7.8898319819452638 0 7.8898319819452638 -3.9087593357320793 0 0 0 0 -4.3520631457213312 -50.761295538406102 0 -50.761295538406102 104.67819773298908 0 0 0 0 231.19156643390306 -94.864580130575177 0 -94.864580130575177 112.51733357128796 0 0 0 0 40.561344809160801 9.1898497893253079 0 9.1898497893253079 31.108264042553401 0 0 0 0 78.376130968070356 11.297324468092484 0 11.297324468092484 -12.490340448792267 0 0 0 0 50.923454853281669 11.95930496941542 0 11.95930496941542 -0.58169461671341871 0 0 0 0 79.461806750608957 39.739330534143392 0 39.739330534143392 7.7643758893664199 0 0 0 0 39.232098786975257 -45.034555381135306 0 -45.034555381135306 2.9025155892512657 0 0 0 0 46.097664110209053 -6.1573646670133826 0 -6.1573646670133826 -10.946970429928209 0 0 0 0 85.593009940843331 4.2879029870596241 0 4.2879029870596241 -32.263182916920414 0 0 0 0 87.600754515471635 6.1288621531343779 0 6.1288621531343779 -40.270779288245649 0 0 0 0 80.5442240612756 -12.442924089416294 0 -12.442924089416294 -14.462560097603159 0 0 0 0 85.55425746864978 -1.4644070153281348 0 -1.4644070153281348 5.7800581503238941 0 0 0 0 64.849172363610705 2.6763720704286129 0 2.6763720704286129 33.251951522984825 0 0 0 0 87.264587231274788 3.0656572613916495 0 3.0656572613916495 -5.3005704454155307 0 0 0 0 89.880918091716012 37.803967870524502 0 37.803967870524502 -100.03350988532475 0 0 0 0 35.166872562040226 56.467941033650618 0 56.467941033650618 -32.051693338493351 0 0 0 0 18.955346470771474 -15.303408005858728 0 -15.303408005858728 -31.34741467461663 0 0 0 0 -38.803891638177447 -18.889506189656913 0 -18.889506189656913 87.65158175885972 0 0 0 0 -13.656453986244742 -69.860484890063873 0 -69.860484890063873 105.27605766623853 0 0 0 0 -25.980719089362537 -53.945473582632758 0 -53.945473582632758 107.25700345118057 0 0 0 0 769.91120795295865 502.62720368913506 0 502.62720368913506 167.76480453200384 0 0 0 0 57.464242261594336 121.33469723804728 0 121.33469723804728 277.44470915529837 0 0 0 0 30.885904675960774 -69.359413917935854 0 -69.359413917935854 34.579497827445266 0 0 0 0 10.994399816082932 -20.525700050410649 0 -20.525700050410649 24.758333923592527 0 0 0 0 17.317579870519694 -62.662606528064771 0 -62.662606528064771 107.72741809769832 0 0 0 0 53.580605158873368 -56.209372447874557 0 -56.209372447874557 829.12378512483701 0 0 0 0 110.31309424608844 -415.86872245222821 0 -415.86872245222821 1620.1143356656539 0 0 0 0 54.31388125065132 122.6801618871832 0 122.6801618871832 1565.9866699004051 0 0 0 0 279.16599842708092 -261.62482154750796 0 -261.62482154750796 751.57494152776781 0 0 0 0 0.3210028364080415 0.43817313791342372 0 0.43817313791342372 0.58863279621433406 0 0 0 0 229.97705321361718 -151.59430471316682 0 -151.59430471316682 1039.6275242576921 0 0 0 0 314.67483840684872 -171.70442496755823 0 -171.70442496755823 714.16230208339402 0 0 0 0 196.1364043604699 -153.23580492510519 0 -153.23580492510519 732.68720473533904 0 0 0 0 234.18422371038469 -297.96646663710635 0 -297.96646663710635 468.14176728065104 0 0 0 0 315.90604144698591 -375.44346066789694 0 -375.44346066789694 512.48553756534238 0 0 0 0 446.37148497015005 -498.71045641619821 0 -498.71045641619821 842.09257993342544 0 0 0 0 370.63711895051529 -278.47532802022943 0 -278.47532802022943 383.60400034270424 0 0 0 0 -57.802177336881869 -208.72562889545043 0 -208.72562889545043 844.29926828186217 0 0 0 0 120.09659197501605 -254.34347228415572 0 -254.34347228415572 759.66574386513639 0 0 0 0 121.88849880680209 -223.68498220614129 0 -223.68498220614129 526.11752362664993 0 0 0 0 88.551174393913243 -295.85192341277798 0 -295.85192341277798 554.51120716064997 0 0 0 0 81.848441654714406 -198.1970085109806 0 -198.1970085109806 240.7626534714218 0 0 0 0 -129.39212426028098 -3.5966474589677091 0 -3.5966474589677091 793.27221247269335 0 0 0 0 -45.840362718328834 -103.11579197022002 0 -103.11579197022002 469.21621917898392 0 0 0 0 -21.804095941071864 -295.39859390443235 0 -295.39859390443235 396.98269667083696 0 0 0 0 -11.675003142198875 -6.8607857192616919 0 -6.8607857192616919 1.9010135631974647 0 0 0 0 -117.78642724541714 -89.154130877436728 0 -89.154130877436728 858.65721746515374 0 0 0 0 135.80721990106395 -43.518248062325256 0 -43.518248062325256 202.86780398430346 0 0 0 0 -95.038367496745195 -324.64471750424309 0 -324.64471750424309 313.46056425010465 0 0 0 0 -227.49543749340228 -125.19773219938725 0 -125.19773219938725 612.15831262534084 0 0 0 0 -9.593218650086385 -5.8764713748534163 0 -5.8764713748534163 -0.18099030716468967 0 0 0 0 40.37281410061405 -29.615282109070904 0 -29.615282109070904 67.383914882234194 0 0 0 0 119.16795916721458 12.37947475008059 0 12.37947475008059 141.94163863783388 0 0 0 0 -176.22341291565681 -298.38050747277703 0 -298.38050747277703 45.555083918172386 0 0 0 0 -54.715308373954031 -318.78946499044287 0 -318.78946499044287 -265.50785902635289 0 0 0 0 -3.4059223299495329 -6.0246989883000275 0 -6.0246989883000275 -0.70028962327752398 0 0 0 0 -113.58552477316698 44.00416872108508 0 44.00416872108508 54.17746313860971 0 0 0 0 -36.919243023439776 -306.32782498909182 0 -306.32782498909182 -244.13379364091361 0 0 0 0 -44.412181329738814 -370.85810216832033 0 -370.85810216832033 -166.9825548411236 0 0 0 0 93.723163930844748 -227.82328149611567 0 -227.82328149611567 -197.768033021978 0 0 0 0 -102.93841103168961 -1.8127908903442176 0 -1.8127908903442176 112.48903199964661 0 0 0 0 -93.532873243559152 37.439690362978126 0 37.439690362978126 87.510340724515117 0 0 0 0 -41.742269133799709 16.083287604523321 0 16.083287604523321 62.639619681865952 0 0 0 0 -98.618881362126558 -20.430345392140339 0 -20.430345392140339 92.098560764989088 0 0 0 0 1.468364629385178 -51.171647927917093 0 -51.171647927917093 93.059629926769048 0 0 0 0 -169.3547545473848 7.9163227309578588 0 7.9163227309578588 102.94100298318267 0 0 0 0 -68.311653900163947 11.380773387227464 0 11.380773387227464 13.974508869545957 0 0 0 0 -66.542897228966467 -19.297542325369761 0 -19.297542325369761 92.535617188080323 0 0 0 0 -83.943019308149815 27.381295874289833 0 27.381295874289833 97.109920748699551 0 0 0 0 -65.831416888016975 -5.2836490551102173 0 -5.2836490551102173 90.764771894295706 0 0 0 0 -62.28773037852261 -44.63974359354421 0 -44.63974359354421 148.33221200129537 0 0 0 0 -60.017952268302906 -7.4505345078050595 0 -7.4505345078050595 72.018258183661374 0 0 0 0 -196.86888798128348 76.592681253795433 0 76.592681253795433 62.462033468678783 0 0 0 0 136.28539858291333 -123.93560084173293 0 -123.93560084173293 75.518089525853043 0 0 0 0 2.8225435895948863 4.2591938892573182 0 4.2591938892573182 -2.4517700713769903 0 0 0 0 -5.2309230535756797 -86.164283409570089 0 -86.164283409570089 131.68915890515564 0 0 0 0 28.145154937359621 -43.116741598739509 0 -43.116741598739509 13.023220941233376 0 0 0 0 12.696924393880181 -22.550012244890013 0 -22.550012244890013 46.119665488534849 0 0 0 0 -87.870154446558445 -14.104511177951963 0 -14.104511177951963 49.356681528724948 0 0 0 0 4.3409955196495105 -1.929471362574759 0 -1.929471362574759 1.4948648052361335 0 0 0 0 49.11885018349858 -42.291857469205638 0 -42.291857469205638 52.81546095034588 0 0 0 0 -64.596257452503778 18.451299965348881 0 18.451299965348881 -58.804401915239396 0 0 0 0 -63.734547388303326 -60.985796606075382 0 -60.985796606075382 32.161196342562107 0 0 0 0 -32.161141225391475 -29.977833561238526 0 -29.977833561238526 48.752012064318478 0 0 0 0 -49.432932248921134 -72.850750976864788 0 -72.850750976864788 160.46620541966672 0 0 0 0 -72.478590403799899 -16.05160526355553 0 -16.05160526355553 111.91353478210476 0 0 0 0 -20.302892707812134 -73.791486188894851 0 -73.791486188894851 82.273106011781465 0 0 0 0 -62.733851677415259 -39.936236802786524 0 -39.936236802786524 69.562167203842591 0 0 0 0 -51.304886482626898 -35.875854748595884 0 -35.875854748595884 61.610798827851795 0 0 0 0 -2.5880270425986964 -72.890840301004459 0 -72.890840301004459 123.47528045848776 0 0 0 0 -9.4206973224936519 -105.30233250032052 0 -105.30233250032052 54.919420078036921 0 0 0 0 -63.587431770333239 -42.677642810289456 0 -42.677642810289456 -2.2724728958187121 0 0 0 0 -8.8091392836013256 -128.20335148040286 0 -128.20335148040286 121.96491960856929 0 0 0 0 63.629935865348671 28.623039079523096 0 28.623039079523096 -25.343590253727598 0 0 0 0 30.186402231774991 -72.963335058964731 0 -72.963335058964731 -24.053362436443877 0 0 0 0 26.850281205363842 -36.510897490316225 0 -36.510897490316225 -23.774919761770455 0 0 0 0 -6.4358594874047981 -16.91396361228842 0 -16.91396361228842 -1.3028798637003467 0 0 0 0 21.430866183480248 -29.564989230289711 0 -29.564989230289711 0.10742859583115205 0 0 0 0 9.3177392514189705 -86.88579183535785 0 -86.88579183535785 45.117256293184141 0 0 0 0 -8.6480716374935582 -38.718844493683719 0 -38.718844493683719 0.39864360977389879 0 0 0 0 9.9185569504111868 -27.765008441623323 0 -27.765008441623323 2.3744924210750629 0 0 0 0 7.4323282509309223 -18.151008423526491 0 -18.151008423526491 6.8635150346762899 0 0 0 0 12.829829585864616 -22.425258433433868 0 -22.425258433433868 14.047972532066069 0 0 0 0 -12.297610633904696 -26.072471658944778 0 -26.072471658944778 11.159574426117615 0 0 0 0 4.6228112342876955 -16.492302160904586 0 -16.492302160904586 1.8385716355559936 0 0 0 0 -6.054873652778042 -23.676538044008055 0 -23.676538044008055 8.5566877717576517 0 0 0 0 -11.96885016115084 -31.589295888621052 0 -31.589295888621052 8.2224023203634715 0 0 0 0 2.1342082281374815 -15.473976250496008 0 -15.473976250496008 13.471307171873468 0 0 0 0 29.08919739749399 -39.031503965834645 0 -39.031503965834645 -12.034815016375433 0 0 0 0 11.339934454037575 -12.137380737623744 0 -12.137380737623744 1.9932195653396434 0 0 0 0 -10.287649195783501 -29.349024182197688 0 -29.349024182197688 37.509521998775654 0 0 0 0 0.53898856183513999 11.870344817971727 0 11.870344817971727 -36.009129355868936 0 0 0 0 -29.735086985492671 -20.686955156554028 0 -20.686955156554028 88.214140403496174 0 0 0 0 2.6544055087369429 -1.4171249041505405 0 -1.4171249041505405 -1.0157896997519913 0 0 0 0 794.11674056633365 -179.26751129710811 0 -179.26751129710811 -220.8541326177583 0 0 0 0 -4.643412491557001 -4.2396693942227444 0 -4.2396693942227444 9.7226044880375131 0 0 0 0 797.39804948936217 400.91405965717058 0 400.91405965717058 204.25922966502549 0 0 0 0 259.49870739551989 20.739780000380961 0 20.739780000380961 41.317523484711273 0 0 0 0 746.09409583511297 75.468480528045802 0 75.468480528045802 -100.05301366710046 0 0 0 0 416.52327308413805 215.17022535793512 0 215.17022535793512 121.27625742160853 0 0 0 0 500.85648000298534 54.096353791608635 0 54.096353791608635 -51.476957881000999 0 0 0 0 501.43373276841521 35.167248378165709 0 35.167248378165709 -103.51982970207973 0 0 0 0 655.57787740402637 -22.570022016442181 0 -22.570022016442181 -150.73287099107984 0 0 0 0 690.37813265086879 -16.616521225583256 0 -16.616521225583256 -74.759286082899052 0 0 0 0 694.71262806426967 7.3545292301669178 0 7.3545292301669178 -134.33761965144549 0 0 0 0 678.12089894041128 -107.3119558051194 0 -107.3119558051194 -124.24727346069267 0 0 0 0 430.65383117094461 -28.139744452837476 0 -28.139744452837476 -94.836146311744415 0 0 0 0 398.66429418360349 -160.03330325014667 0 -160.03330325014667 -31.183498753880485 0 0 0 0 405.45714462408796 -81.238503399244109 0 -81.238503399244109 -53.583025777868897 0 0 0 0 252.9275610838763 -62.810765878137857 0 -62.810765878137857 -2.6925599171372596 0 0 0 0 252.29718468548526 -77.86665500317406 0 -77.86665500317406 -30.247549530973629 0 0 0 0 265.15621267582173 -52.168641398035106 0 -52.168641398035106 -13.747149828671354 0 0 0 0 263.90501773828692 -62.720454492952399 0 -62.720454492952399 -21.618831622490688 0 0 0 0 760.72952216053091 -92.201468058112368 0 -92.201468058112368 -93.157322990205103 0 0 0 0 691.93965121739893 -34.301953806638721 0 -34.301953806638721 122.1306966289676 0 0 0 0 1001.6549186834163 46.510208370848659 0 46.510208370848659 -82.194778404169483 0 0 0 0 4.8151421940264072 -7.7832097363219361 0 -7.7832097363219361 -1.8153700451029451 0 0 0 0 11.60754141287525 -2.5938194809016011 0 -2.5938194809016011 -5.10794829525328 0 0 0 0 51.090953731745685 -38.648840805739496 0 -38.648840805739496 6.0692182828606747 0 0 0 0 29.952346619145828 -11.025622033112995 0 -11.025622033112995 -6.4114131061778608 0 0 0 0 20.337575630052015 -3.6376527004031232 0 -3.6376527004031232 1.8950858503085328 0 0 0 0 16.228693260102176 -14.233874895568277 0 -14.233874895568277 1.2791283805245826 0 0 0 0 1.3498699683550512 -7.7261256022839007 0 -7.7261256022839007 6.6892334919029963 0 0 0 0 14.404406828888881 -10.87111209053586 0 -10.87111209053586 3.894874521038723 0 0 0 0 29.871479355362681 -12.31926105004743 0 -12.31926105004743 -2.9636039532451832 0 0 0 0 48.874377922533313 -24.264722429252288 0 -24.264722429252288 8.1930475275439676 0 0 0 0 -118.20213830849389 17.441358357379613 0 17.441358357379613 45.128813961576725 0 0 0 0 55.057608477771282 -69.390283924325558 0 -69.390283924325558 -33.864856911310198 0 0 0 0 92.860283706380869 -85.795246766741911 0 -85.795246766741911 18.661612632584365 0 0 0 0 63.074206440593116 -45.714193555890233 0 -45.714193555890233 23.594299507748929 0 0 0 0 47.477375031361589 -164.794930446134 0 -164.794930446134 79.435869775412357 0 0 0 0 -193.56362918709056 71.320879366999179 0 71.320879366999179 29.963032892001593 0 0 0 0 47.526406472956296 1.9274257513880002 0 1.9274257513880002 11.687719898474825 0 0 0 0 44.450136596686207 -28.172483559776083 0 -28.172483559776083 14.812272500413656 0 0 0 0 4.137713052998123 -2.7524211184261418 0 -2.7524211184261418 -0.26588465949463469 0 0 0 0 20.565744356659707 -59.761820002688182 0 -59.761820002688182 1.4984050518396543 0 0 0 0 19.546279796602903 -17.417124070132559 0 -17.417124070132559 -33.668464591399243 0 0 0 0 13.701343811146216 -45.117747923917705 0 -45.117747923917705 70.650499327462967 0 0 0 0 -2.1258714533178136 -4.2259424230869627 0 -4.2259424230869627 33.888389011289291 0 0 0 0 -42.674270813644398 7.9168640833449899 0 7.9168640833449899 21.504099040907022 0 0 0 0 20.421736271600821 -15.977127997435673 0 -15.977127997435673 -34.576933316526265 0 0 0 0 -45.662897498395068 -104.94407556874222 0 -104.94407556874222 119.59697750055784 0 0 0 0 101.60386929253582 -79.220194203848223 0 -79.220194203848223 45.81986266173044 0 0 0 0 -2.693876615841873 -0.69571819759948994 0 -0.69571819759948994 -2.2373835750468061 0 0 0 0 4.5829819095199014 -1.1837109492164188 0 -1.1837109492164188 -0.31849222760997264 0 0 0 0 148.33248678952805 26.425644372075112 0 26.425644372075112 -66.248696689493954 0 0 0 0 30.811608677569893 -48.482924705582263 0 -48.482924705582263 71.438851806918137 0 0 0 0 26.064940371317789 -39.273354474480584 0 -39.273354474480584 62.526454359776835 0 0 0 0 30.202226761321072 -55.328873251773985 0 -55.328873251773985 39.040812716533765 0 0 0 0 28.651795934838447 -45.007697933798568 0 -45.007697933798568 66.121568859925901 0 0 0 0 44.538867365830811 -41.827493797647548 0 -41.827493797647548 60.035155568050868 0 0 0 0 -1.8009201360005989 -0.88472176907004041 0 -0.88472176907004041 1.3004384950491463 0 0 0 0 78.520022846852953 -44.59517574031679 0 -44.59517574031679 43.397262903872615 0 0 0 0 43.878783572930843 -36.881599105198802 0 -36.881599105198802 63.403514295341665 0 0 0 0 -29.885322693080525 -9.7786285492729803 0 -9.7786285492729803 392.8899984866448 0 0 0 0 157.41686618413951 -161.64991026751704 0 -161.64991026751704 157.23281858735936 0 0 0 0 -44.516827058134368 72.563447885653659 0 72.563447885653659 39.277788627042355 0 0 0 0 -23.616548825589234 -3.4530893373396339 0 -3.4530893373396339 109.64513613123745 0 0 0 0 763.87162955760232 149.89207625052364 0 149.89207625052364 -0.37215850722168398 0 0 0 0 776.16888125473633 -533.66362116874143 0 -533.66362116874143 724.76808331475149 0 0 0 0 1598.3100547700888 247.8907038958896 0 247.8907038958896 -86.344249196975397 0 0 0 0 600.47987388554611 -139.30554239265075 0 -139.30554239265075 -142.84376973182862 0 0 0 0 70.623798314372834 -298.22214348189709 0 -298.22214348189709 134.38806953405765 0 0 0 0 -162.13556606325437 685.33825550792699 0 685.33825550792699 444.01433736824765 0 0 0 0 0.22070296283501989 0.73055106579147377 0 0.73055106579147377 1.2358622033613926 0 0 0 0 339.24455200749799 103.34758573111458 0 103.34758573111458 372.24044410312854 0 0 0 0 11.450056615260337 -5.3841491938655821 0 -5.3841491938655821 1.7017327107743125 0 0 0 0 926.27477098655072 771.92718460635615 0 771.92718460635615 952.6508378027429 0 0 0 0 775.44839710058295 -731.45406924087183 0 -731.45406924087183 1416.922740316033 0 0 0 0 1184.6292527606711 -39.412792909381096 0 -39.412792909381096 154.35985170339518 0 0 0 0 1691.1495379078769 -418.60184543550849 0 -418.60184543550849 410.16738514669123 0 0 0 0 522.0128272624861 -80.714773171118395 0 -80.714773171118395 156.49573261619116 0 0 0 0 758.84688267160527 -35.887437454972314 0 -35.887437454972314 -343.66170660557327 0 0 0 0 707.7871956966701 -107.92163987970343 0 -107.92163987970343 -279.3489638145802 0 0 0 0 548.03991685417714 77.399481276675942 0 77.399481276675942 -398.53534807329652 0 0 0 0 385.05439288950583 -294.42672835884377 0 -294.42672835884377 -567.1199619471372 0 0 0 0 394.55947760428535 225.09347867295446 0 225.09347867295446 -228.90538252337137 0 0 0 0 363.09798101123306 323.38360397130691 0 323.38360397130691 346.48270760359537 0 0 0 0 28.199510016012937 78.619740457826992 0 78.619740457826992 -236.7423151327402 0 0 0 0 344.46910475018376 147.30602239689233 0 147.30602239689233 -709.76222371326367 0 0 0 0 53.424645121631329 -218.27081391991305 0 -218.27081391991305 -530.50455754215454 0 0 0 0 -0.084986356989247724 206.62164167983701 0 206.62164167983701 -86.492939460336174 0 0 0 0 17.979158423346234 117.04787228184978 0 117.04787228184978 -136.76581209241704 0 0 0 0 34.490388239835738 364.108186905617 0 364.108186905617 222.90342555913639 0 0 0 0 -116.7669690764742 35.964294568977493 0 35.964294568977493 -34.935265865442489 0 0 0 0 80.503749013437357 2.3777931707931117 0 2.3777931707931117 -13.539724706592455 0 0 0 0 141.11692010969637 289.76018969468055 0 289.76018969468055 -453.26431610764303 0 0 0 0 52.84228616673596 -12.596351983800211 0 -12.596351983800211 -1.3586528199705294 0 0 0 0 -36.759507810696959 63.498361823250434 0 63.498361823250434 180.92152006210381 0 0 0 0 66.530871568740338 23.450456761162869 0 23.450456761162869 -7.3102116864701845 0 0 0 0 163.15073534851399 -29.342293961912901 0 -29.342293961912901 -71.573360023781788 0 0 0 0 57.363683915376896 29.572825568438059 0 29.572825568438059 19.246199690987389 0 0 0 0 58.369513664908197 8.240870212942184 0 8.240870212942184 -4.0089969783046797 0 0 0 0 48.499428256633109 60.812753644729298 0 60.812753644729298 5.0928168312975153 0 0 0 0 68.658463675865562 -6.9325605863814701 0 -6.9325605863814701 1.0582260495125091 0 0 0 0 72.868011405575089 -52.564453180908458 0 -52.564453180908458 36.033329599536955 0 0 0 0 85.57329510251293 -39.503445275158811 0 -39.503445275158811 24.09710516470841 0 0 0 0 46.941581407769718 -3.5314952251021197 0 -3.5314952251021197 -6.1533058553419639 0 0 0 0 28.632221005188512 6.9376490216937272 0 6.9376490216937272 -7.3670987285333576 0 0 0 0 -6.8079089703387581 4.3221317010829248 0 4.3221317010829248 -0.093551511821268321 0 0 0 0 10.204234296497077 3.3898183506978796 0 3.3898183506978796 -1.1230849994488155 0 0 0 0 279.80761046439875 25.849361256116381 0 25.849361256116381 -109.92131927896538 0 0 0 0 296.86764000798576 5.8690040046092804 0 5.8690040046092804 -96.552412573632068 0 0 0 0 289.65958179335576 -18.539367482569503 0 -18.539367482569503 -75.043318251584594 0 0 0 0 187.5419536564732 3.7317131261404768 0 3.7317131261404768 -39.84172261961811 0 0 0 0 257.58630559741869 -11.073197446876236 0 -11.073197446876236 -69.550528692042107 0 0 0 0 305.42947568313684 131.95201162923524 0 131.95201162923524 50.38535415128797 0 0 0 0 15.201035856889689 -26.784895315246182 0 -26.784895315246182 -1.5749858555184635 0 0 0 0 212.11132518062368 61.825788767923257 0 61.825788767923257 -123.7715623623734 0 0 0 0 -89.851988984475611 -292.38273809225393 0 -292.38273809225393 77.639300483600437 0 0 0 0 138.95122465207601 13.19584927309797 0 13.19584927309797 -8.8392369685745109 0 0 0 0 70.213219991248707 -18.284253417191167 0 -18.284253417191167 -2.3935756001779112 0 0 0 0 82.132199646952358 -6.2287184752506448 0 -6.2287184752506448 6.5946039382733943 0 0 0 0 114.41322154572117 -113.17517336814244 0 -113.17517336814244 45.688363228862187 0 0 0 0 122.49943632626673 -26.935901513585968 0 -26.935901513585968 -0.50867328164682135 0 0 0 0 78.196044689277187 -5.5500028109527193 0 -5.5500028109527193 -85.403874518124212 0 0 0 0 295.41646190744359 -21.035737962967687 0 -21.035737962967687 -135.74173889024769 0 0 0 0 64.714310395780785 -20.346796300306735 0 -20.346796300306735 9.2286600676895993 0 0 0 0 141.74929146782961 45.683547015557266 0 45.683547015557266 -52.07326262159296 0 0 0 0 0.56404498597078145 -8.4165087968180217 0 -8.4165087968180217 4.4346280853928466 0 0 0 0 18.117427974321856 -1.3593838025857963 0 -1.3593838025857963 -3.2514274359422775 0 0 0 0 31.562759831052972 -21.380426350722701 0 -21.380426350722701 21.412441210836505 0 0 0 0 13.589411510503851 -4.5534328608730323 0 -4.5534328608730323 0.01883000433916315 0 0 0 0 29.712605157094004 -3.4586672045523863 0 -3.4586672045523863 -0.40204166207236147 0 0 0 0 230.88010654159007 -136.83955098685354 0 -136.83955098685354 22.887210036784122 0 0 0 0 253.15248158856411 -32.419728962506966 0 -32.419728962506966 37.369585954588203 0 0 0 0 735.641651431215 -257.25971695846192 0 -257.25971695846192 123.43253607236714 0 0 0 0 -2.7195451059788525 -1.0743274032019485 0 -1.0743274032019485 6.7855659025398793 0 0 0 0 283.24521616789571 -39.075179306035373 0 -39.075179306035373 -15.959916707320701 0 0 0 0 259.27370618045097 -45.087859044087381 0 -45.087859044087381 -15.87165591485882 0 0 0 0 266.51908257651303 -7.9915035615786243 0 -7.9915035615786243 -68.623586436833733 0 0 0 0 272.19268063490745 -63.306047250587966 0 -63.306047250587966 -37.863415018020163 0 0 0 0 216.31513774718042 20.228313092533607 0 20.228313092533607 0.22585508667006682 0 0 0 0 180.06314172538259 43.647228159317471 0 43.647228159317471 14.583003222617922 0 0 0 0 35.948507461958798 -10.671651732223786 0 -10.671651732223786 8.9818197828717388 0 0 0 0 60.902670114577631 30.327922661866896 0 30.327922661866896 -40.374451138726833 0 0 0 0 -8.7786819900793489 -96.903653253741368 0 -96.903653253741368 354.52631053949563 0 0 0 0 122.46277377216029 -193.63097456692628 0 -193.63097456692628 139.2958743522772 0 0 0 0 67.210314289438429 6.4352631443307899 0 6.4352631443307899 -1.4807407191796591 0 0 0 0 123.79821165004978 -99.272207365991562 0 -99.272207365991562 59.693390397108487 0 0 0 0 242.87834644636314 -32.609909932642111 0 -32.609909932642111 -93.049064047369058 0 0 0 0 96.045906555850706 -10.028852639716888 0 -10.028852639716888 9.0439282784551711 0 0 0 0 188.33094901016739 -27.269326898524469 0 -27.269326898524469 92.415803980658438 0 0 0 0 439.69681577559822 -336.86240050801189 0 -336.86240050801189 -949.30253111140155 0 0 0 0 127.82790485519217 -106.10956135522156 0 -106.10956135522156 61.001373453337123 0 0 0 0 132.37478579796442 -47.448764887712983 0 -47.448764887712983 21.512766830706838 0 0 0 0 203.82244871047442 -76.324430647837289 0 -76.324430647837289 -861.51291390576807 0 0 0 0 477.02612141420832 -154.77977153674146 0 -154.77977153674146 -841.07265634521355 0 0 0 0 86.066087900777347 -86.771041312043963 0 -86.771041312043963 -584.43769152868481 0 0 0 0 8.1337385926744901 -178.6774896561692 0 -178.6774896561692 -642.55544906228715 0 0 0 0 78.994070623563857 -265.83576727250488 0 -265.83576727250488 -546.17890989292937 0 0 0 0 -536.70316023018677 -219.46513578404483 0 -219.46513578404483 -635.50879928479844 0 0 0 0 35.48959919961635 -50.8276080551517 0 -50.8276080551517 94.434994217358962 0 0 0 0 61.688562275444042 -38.045513073571023 0 -38.045513073571023 15.775118076331875 0 0 0 0 16.635403075728391 -721.15009967519973 0 -721.15009967519973 -828.02255160441382 0 0 0 0 45.729074097936973 -115.03633389241259 0 -115.03633389241259 -90.235812142664145 0 0 0 0 163.33644309054944 -149.75037585287555 0 -149.75037585287555 -154.39675562549428 0 0 0 0 66.718974408117219 -25.036222269144822 0 -25.036222269144822 6.5892757953910266 0 0 0 0 85.899124779214617 -136.46664491509046 0 -136.46664491509046 133.71529057161752 0 0 0 0 100.66003964003175 9.0415922785327894 0 9.0415922785327894 -49.940004081825464 0 0 0 0 115.55194431807081 -75.530677445818952 0 -75.530677445818952 28.284265794701817 0 0 0 0 -268.30879385722801 -150.22196230267582 0 -150.22196230267582 -1971.9619765727293 0 0 0 0 -443.54332680592779 -717.96675355065236 0 -717.96675355065236 -791.0436589803212 0 0 0 0 -129.35575663985219 -489.17105748798349 0 -489.17105748798349 -783.53239394898935 0 0 0 0 157.99561186379287 -508.71987178781274 0 -508.71987178781274 -940.95945117335214 0 0 0 0 -18.773019938642392 -328.4071626062032 0 -328.4071626062032 -464.06567578742397 0 0 0 0 -388.94612522161333 -381.13957738351201 0 -381.13957738351201 -443.8685786622591 0 0 0 0 -227.34773460720317 -452.59828730647496 0 -452.59828730647496 -488.91153023214429 0 0 0 0 -62.866432013805024 -501.8019997192896 0 -501.8019997192896 -475.94089289518888 0 0 0 0 -102.20532759654452 -398.02406489160057 0 -398.02406489160057 -214.53138638398377 0 0 0 0 -174.63581974265981 -337.59913975897689 0 -337.59913975897689 -258.77289046376245 0 0 0 0 -2.898038744693622 -409.65536376871387 0 -409.65536376871387 -229.58151371195709 0 0 0 0 -111.32698662555777 -663.35118557986789 0 -663.35118557986789 -615.64713247770851 0 0 0 0 15.913593624776695 -490.27696453413955 0 -490.27696453413955 -517.13960711801701 0 0 0 0 102.69341203232761 -409.16021161873505 0 -409.16021161873505 -584.92468232964893 0 0 0 0 90.864600540022366 -367.78391709579955 0 -367.78391709579955 -585.67891451867035 0 0 0 0 24.305384346633218 -435.59726214161674 0 -435.59726214161674 -556.67850058129989 0 0 0 0 -53.761372942055459 -381.25560560173881 0 -381.25560560173881 8.1404575777596619 0 0 0 0 -66.516554847592488 -220.19551614125339 0 -220.19551614125339 -115.15600478870329 0 0 0 0 4.0354325702064671 -449.34768478865226 0 -449.34768478865226 -288.53721990056511 0 0 0 0 -48.171404241664277 -268.46337521721944 0 -268.46337521721944 -41.797915225128236 0 0 0 0 -8.7904571354738437 -447.35446378232882 0 -447.35446378232882 -188.74319340652073 0 0 0 0 75.415557395463111 -228.11539495865327 0 -228.11539495865327 -55.678527156924247 0 0 0 0 -30.161910866561811 -157.20397713173134 0 -157.20397713173134 263.72098781725072 0 0 0 0 28.042744812555611 -337.293634093523 0 -337.293634093523 10.312255803528387 0 0 0 0 6.8653019710909575 -236.60597603263886 0 -236.60597603263886 163.49479677841737 0 0 0 0 139.24795081629418 -354.87154971298878 0 -354.87154971298878 129.51183304462756 0 0 0 0 -5.8824591971351765 -279.189195613224 0 -279.189195613224 268.42124698673433 0 0 0 0 102.23816594440723 -245.7880909541127 0 -245.7880909541127 -79.214666843334271 0 0 0 0 59.257221173495054 -338.64697709815664 0 -338.64697709815664 -87.287992768026925 0 0 0 0 184.84618914837483 -232.60200256684038 0 -232.60200256684038 -45.425568105478305 0 0 0 0 218.06978411047021 -349.04474942745583 0 -349.04474942745583 234.65334629172867 0 0 0 0 68.161989508313127 -209.40808314143214 0 -209.40808314143214 -49.964183975735068 0 0 0 0 212.45147206887486 -199.15650659521725 0 -199.15650659521725 175.33973151897226 0 0 0 0 302.60401100646413 -209.16455957594189 0 -209.16455957594189 351.27269965408777 0 0 0 0 467.75955645466456 -382.83491666862392 0 -382.83491666862392 149.82990306752436 0 0 0 0 360.13208726831363 -197.03297742836094 0 -197.03297742836094 -170.82565073998558 0 0 0 0 229.33727807324613 -163.75288915443889 0 -163.75288915443889 -179.2886916323896 0 0 0 0 394.66398122935789 -35.941974029479752 0 -35.941974029479752 -295.50015206677017 0 0 0 0 366.53544294558378 -271.51219329989499 0 -271.51219329989499 -414.53714432955167 0 0 0 0 219.50217018387048 -109.35099740200531 0 -109.35099740200531 -581.74965620952389 0 0 0 0 200.10069438745268 -288.83492509413918 0 -288.83492509413918 -542.7272891793873 0 0 0 0 51.9693960739678 -179.31333173317307 0 -179.31333173317307 -368.8949683691535 0 0 0 0 -55.244470430799993 -360.10653506499511 0 -360.10653506499511 -283.92468679231388 0 0 0 0 1.24486076226367 -237.88292615542514 0 -237.88292615542514 -225.19794051067583 0 0 0 0 198.604531466146 -318.82236832112903 0 -318.82236832112903 -261.57134273488919 0 0 0 0 58.30398314224567 -64.75670900525796 0 -64.75670900525796 -24.535843799074428 0 0 0 0 55.793414159332713 -32.231491457062617 0 -32.231491457062617 16.503350695659584 0 0 0 0 46.606590049137594 -21.842477112010783 0 -21.842477112010783 -17.916194251316796 0 0 0 0 -47.695457090681884 -384.05832629636643 0 -384.05832629636643 -263.64708962107579 0 0 0 0 -202.77292628432042 -353.34501529034424 0 -353.34501529034424 -187.77540886212819 0 0 0 0 73.849742946593324 -313.35997870101346 0 -313.35997870101346 -193.51466353233263 0 0 0 0 -18.719852025882574 -144.51176210870653 0 -144.51176210870653 -59.31838680805231 0 0 0 0 -308.72394634626107 -42.409503688350014 0 -42.409503688350014 -313.28634573494128 0 0 0 0 -286.18107600853546 -211.13233984185354 0 -211.13233984185354 -66.159656412328331 0 0 0 0 53.265885707864072 -283.65744137569345 0 -283.65744137569345 -474.97341782158765 0 0 0 0 23.269149272469804 -187.86697382872808 0 -187.86697382872808 -342.81089988689928 0 0 0 0 154.5347835852881 -272.8203966279325 0 -272.8203966279325 -934.01185596730647 0 0 0 0 -100.60522136453073 20.395574254489475 0 20.395574254489475 -695.08414432250902 0 0 0 0 60.851585704833269 -27.359002228558893 0 -27.359002228558893 -77.525583086703591 0 0 0 0 -140.44569582224358 5.2234047025762038 0 5.2234047025762038 -30.745526979461829 0 0 0 0 32.922569799353369 -195.62145540643451 0 -195.62145540643451 -46.910424591666015 0 0 0 0 -30.778083563025575 -148.08456040193778 0 -148.08456040193778 92.694755207973344 0 0 0 0 121.63585491143749 -124.66561258708748 0 -124.66561258708748 -45.13143213094645 0 0 0 0 113.87766784930136 -43.972260286376013 0 -43.972260286376013 -26.579313814257148 0 0 0 0 174.97386492775695 -71.14174109518035 0 -71.14174109518035 -313.36387731619197 0 0 0 0 28.328494882181985 -193.11028678801722 0 -193.11028678801722 -55.432621760268376 0 0 0 0 52.476711640949361 -143.59788809159681 0 -143.59788809159681 139.67040782220943 0 0 0 0 57.399374515157831 -26.144036202969481 0 -26.144036202969481 5.9424761462554212 0 0 0 0 82.683791124998606 10.25133608707182 0 10.25133608707182 16.678569105497445 0 0 0 0 48.63374900414226 0.24811939734431121 0 0.24811939734431121 -0.96287228520993329 0 0 0 0 -18.285001381460461 -138.10959432327564 0 -138.10959432327564 496.84021253795413 0 0 0 0 141.47006426287408 -149.65458860268279 0 -149.65458860268279 145.05175556678387 0 0 0 0 206.02486636099638 -85.435267938596098 0 -85.435267938596098 98.93048341790653 0 0 0 0 80.054936618631473 39.259307679590165 0 39.259307679590165 244.97967540977783 0 0 0 0 45.331450044148369 18.491055165089087 0 18.491055165089087 -0.059219426296337641 0 0 0 0 41.881817717570812 10.632585880262795 0 10.632585880262795 -16.974040561077057 0 0 0 0 29.266569911909755 -0.40760864296820881 0 -0.40760864296820881 -4.4959229386239326 0 0 0 0 31.478775272879375 -0.48229469072342823 0 -0.48229469072342823 -0.81686315476831894 0 0 0 0 36.178957095617079 5.21317875928397 0 5.21317875928397 0.001722883252874578 0 0 0 0 23.010921337961918 0.57792940778253388 0 0.57792940778253388 -0.004324645923916539 0 0 0 0 121.8308881786179 -59.406903975811019 0 -59.406903975811019 82.759254356630663 0 0 0 0 43.70243328626384 47.560194734607421 0 47.560194734607421 161.06100615033642 0 0 0 0 36.827655054337811 -172.67817874261118 0 -172.67817874261118 472.55346320160601 0 0 0 0 10.018214725147118 -0.86119326277388752 0 -0.86119326277388752 0.0018256409736135083 0 0 0 0 50.696403611480491 -206.27785287088216 0 -206.27785287088216 514.38018361386582 0 0 0 0 17.232306707703856 -1.748302903887172 0 -1.748302903887172 -0.64295759557212717 0 0 0 0 14.109787053137552 -2.4923727609148854 0 -2.4923727609148854 -0.92448088529328221 0 0 0 0 46.472780645184685 -139.61174312384475 0 -139.61174312384475 4.4376417222265729 0 0 0 0 194.96817042936163 -9.3316217682511819 0 -9.3316217682511819 97.731508444506233 0 0 0 0 40.230999314786459 121.28987538831075 0 121.28987538831075 -193.83743903091863 0 0 0 0 135.5906596076311 -29.594160116296734 0 -29.594160116296734 -230.4961249003959 0 0 0 0 27.65504917371436 -25.952899916253614 0 -25.952899916253614 18.455533248491349 0 0 0 0 33.253356590482213 -21.655268885016937 0 -21.655268885016937 5.7112383084511293 0 0 0 0 46.148930739465868 -353.66742242192197 0 -353.66742242192197 871.83488109330233 0 0 0 0 19.701453805749679 2.4938978181628499 0 2.4938978181628499 -2.8796770025451215 0 0 0 0 73.455027909163618 1.4759771399176316 0 1.4759771399176316 -273.74732653365481 0 0 0 0 -7.799889230489498 -17.763251718719403 0 -17.763251718719403 77.290698159462352 0 0 0 0 88.330621160537703 -163.95365525651914 0 -163.95365525651914 -26.255419779073236 0 0 0 0 45.934401182351962 -26.063898284911922 0 -26.063898284911922 6.8784081739314376 0 0 0 0 31.020125213835854 -29.498388298256032 0 -29.498388298256032 14.471008679505417 0 0 0 0 61.353979827777948 -48.273512098987567 0 -48.273512098987567 -7.9453236911675162 0 0 0 0 -148.49996665213257 -299.48896392565621 0 -299.48896392565621 -216.58603569578008 0 0 0 0 -129.68893611984186 169.19974336315033 0 169.19974336315033 -316.75676595845107 0 0 0 0 -55.17436044148053 -264.34434973007228 0 -264.34434973007228 -196.06247445013105 0 0 0 0 -398.94145277615462 -207.27827739537429 0 -207.27827739537429 129.982123264439 0 0 0 0 -251.58057501449366 35.310499101874484 0 35.310499101874484 104.40669807152699 0 0 0 0 -89.468060985498596 4.6459910746111746 0 4.6459910746111746 115.47601745587053 0 0 0 0 -175.06898367885151 -131.19037322634995 0 -131.19037322634995 179.08247370735717 0 0 0 0 -167.98107416364655 -197.8189741753763 0 -197.8189741753763 282.68987346999711 0 0 0 0 -67.001668137439992 -145.27227495739817 0 -145.27227495739817 140.63241773760979 0 0 0 0 -20.871317476587137 -293.54707343189284 0 -293.54707343189284 246.11420865601002 0 0 0 0 -62.176633205216262 -31.531228742066816 0 -31.531228742066816 3.1677611945057 0 0 0 0 -81.92132031545043 -281.06934799020928 0 -281.06934799020928 254.13742974070556 0 0 0 0 82.530520362226525 -143.06294777716278 0 -143.06294777716278 133.50439699716958 0 0 0 0 278.79429685950163 -257.71046233821596 0 -257.71046233821596 216.38136918042551 0 0 0 0 134.86026525657508 -264.28509181153845 0 -264.28509181153845 353.85979139928918 0 0 0 0 -15.012177034661534 7.1494510684483146 0 7.1494510684483146 0.90242927229426573 0 0 0 0 230.63170226325747 -438.37853143141001 0 -438.37853143141001 250.31832598701385 0 0 0 0 45.106639425677713 -90.759908517869917 0 -90.759908517869917 104.2517588620658 0 0 0 0 105.08368869347032 -283.86694536262371 0 -283.86694536262371 353.53327129610807 0 0 0 0 -54.255484064193865 -21.557438465443113 0 -21.557438465443113 10.784852013161201 0 0 0 0 48.343895706548437 -33.6163038952741 0 -33.6163038952741 16.163881885888333 0 0 0 0 188.69576617143321 -213.17811213293476 0 -213.17811213293476 -36.20694190316317 0 0 0 0 -5.9190070132026449 -35.613387692770175 0 -35.613387692770175 10.519605727395174 0 0 0 0 292.18423077939951 -152.13426548038109 0 -152.13426548038109 73.860607658853723 0 0 0 0 3.7443909682945105 -9.8614826273713447 0 -9.8614826273713447 7.321934550901811 0 0 0 0 -10.654472034321998 -13.276195483057677 0 -13.276195483057677 11.836559700494981 0 0 0 0 106.41823052422842 -356.13104988130078 0 -356.13104988130078 709.72720446792653 0 0 0 0 200.31947820214555 -400.48915717925956 0 -400.48915717925956 489.42723465329948 0 0 0 0 98.827112505663536 -303.35258111445677 0 -303.35258111445677 554.72388836580478 0 0 0 0 309.49766773766896 -414.0670520448125 0 -414.0670520448125 168.43142075394576 0 0 0 0 260.08084855119887 -214.60941908459341 0 -214.60941908459341 56.102702579441484 0 0 0 0 278.27756898636653 -362.40747757811681 0 -362.40747757811681 171.16364161834326 0 0 0 0 326.2579975288827 -254.00444751875966 0 -254.00444751875966 273.53169496537953 0 0 0 0 256.95480952406069 -312.52116741879445 0 -312.52116741879445 -25.446764055672134 0 0 0 0 369.38236734326347 -424.2251442237532 0 -424.2251442237532 242.22299738752235 0 0 0 0 305.84656447649468 -211.26765325628367 0 -211.26765325628367 -31.780769832854276 0 0 0 0 192.88390743374475 -303.96472101298264 0 -303.96472101298264 222.82202066128153 0 0 0 0 228.13121668330859 -330.69081638778505 0 -330.69081638778505 162.40806971905931 0 0 0 0 256.07941281203239 -158.97505700764987 0 -158.97505700764987 -225.70275022995315 0 0 0 0 90.204462081484962 -176.39305176818903 0 -176.39305176818903 34.504711124626738 0 0 0 0 198.35835514229257 -185.3806568265486 0 -185.3806568265486 26.844697473419274 0 0 0 0 279.06406945921441 -105.24205372992564 0 -105.24205372992564 -336.17029843343562 0 0 0 0 279.43344470020384 -255.09726072306194 0 -255.09726072306194 -63.233487728349473 0 0 0 0 156.16988982827752 -83.641959294201115 0 -83.641959294201115 -171.53495620830154 0 0 0 0 201.76966435927898 -37.468271693116549 0 -37.468271693116549 -280.23551057503801 0 0 0 0 253.9273651537369 -40.397292329722632 0 -40.397292329722632 -328.84223821452269 0 0 0 0 129.85828375383335 -27.138177743687301 0 -27.138177743687301 2.7880526320129357 0 0 0 0 261.50475747343444 -55.119637908901154 0 -55.119637908901154 -503.06574770164002 0 0 0 0 251.55469908524537 -131.75356558592011 0 -131.75356558592011 -329.46762374278637 0 0 0 0 -15.378929666941985 -94.397904884732952 0 -94.397904884732952 -236.93456058302081 0 0 0 0 234.69659062672872 -226.42455405059741 0 -226.42455405059741 -474.75161350199642 0 0 0 0 126.48944128834091 -37.32774151382516 0 -37.32774151382516 10.233209357612825 0 0 0 0 343.20334466919303 -187.04896989666668 0 -187.04896989666668 -272.93795641854695 0 0 0 0 94.107163010077784 3.183655546406726 0 3.183655546406726 -215.77220444102613 0 0 0 0 119.47248446636513 -0.76359071425054026 0 -0.76359071425054026 -177.04026258996419 0 0 0 0 119.59812151757171 -41.583294548833784 0 -41.583294548833784 0.98212211620155143 0 0 0 0 78.634116101951804 -259.1005715657916 0 -259.1005715657916 -90.142561788603416 0 0 0 0 188.47887984660338 -168.05638600166867 0 -168.05638600166867 -48.453285010312356 0 0 0 0 -22.821340809809044 -32.281603725213472 0 -32.281603725213472 134.45950569827801 0 0 0 0 -16.152773972717114 -265.77579860176115 0 -265.77579860176115 243.40695129531377 0 0 0 0 155.75352476333501 -182.21984250585956 0 -182.21984250585956 -0.18882817968005838 0 0 0 0 -4.1828467856685165 -287.39487405255045 0 -287.39487405255045 267.30663927201704 0 0 0 0 178.72848266887013 -270.82730698578098 0 -270.82730698578098 -102.21539645897144 0 0 0 0 172.39460578706348 -320.50962718913638 0 -320.50962718913638 180.29622112825541 0 0 0 0 186.10934386387817 279.64560338729297 0 279.64560338729297 -2059.1034953423191 0 0 0 0 365.93492830407922 -114.57796327032884 0 -114.57796327032884 -445.93767268893316 0 0 0 0 140.79703755112951 19.574308785159115 0 19.574308785159115 -10.668224540538642 0 0 0 0 -11.830380643474086 -30.96725548083819 0 -30.96725548083819 -21.01530088943025 0 0 0 0 -970.73061189294094 526.13677896347826 0 526.13677896347826 -818.84059941183034 0 0 0 0 516.95396848174278 2301.4924415957207 0 2301.4924415957207 -2688.8152166455475 0 0 0 0 333.00962422261364 -716.5653864161327 0 -716.5653864161327 351.41958784799908 0 0 0 0 1188.2160084416391 1068.2170013198986 0 1068.2170013198986 -156.80693334018042 0 0 0 0 -14.572381907929923 -1.5328783548165177 0 -1.5328783548165177 1.1600907001478884 0 0 0 0 225.26046451411094 -266.45704062688355 0 -266.45704062688355 409.1973453449682 0 0 0 0 413.48995368331452 284.05948982272844 0 284.05948982272844 -10.045537677875473 0 0 0 0 498.96076992532471 32.349175673178252 0 32.349175673178252 -537.56633256546593 0 0 0 0 -42.686502018885221 279.6711997092325 0 279.6711997092325 92.488161790921822 0 0 0 0 3.4168111374601722 3.7706053757137852 0 3.7706053757137852 219.91462964794528 0 0 0 0 67.391102769906865 97.939995329711564 0 97.939995329711564 -126.94183412957318 0 0 0 0 126.38508642319101 5.6508717464425615 0 5.6508717464425615 -23.139961761834865 0 0 0 0 27.53762268400169 370.16196084093463 0 370.16196084093463 -238.92729432312353 0 0 0 0 -45.392663759907009 120.17592197847443 0 120.17592197847443 47.465344687639117 0 0 0 0 0.78175265537288396 8.834905563549432 0 8.834905563549432 -9.3507110550815238 0 0 0 0 -76.501492565032095 109.12831333657368 0 109.12831333657368 94.874572832898707 0 0 0 0 263.86890450739884 368.65634327920998 0 368.65634327920998 -232.6867650564559 0 0 0 0 124.31787588803275 6.0151261094651289 0 6.0151261094651289 -14.154907879314322 0 0 0 0 423.29607826285064 -39.208864821661656 0 -39.208864821661656 -1158.2800814792986 0 0 0 0 211.72022133963765 147.91219059255832 0 147.91219059255832 -568.93035152878315 0 0 0 0 -107.29555836786312 205.70041365578868 0 205.70041365578868 -787.26165955603369 0 0 0 0 209.10709664432216 -340.75509083163502 0 -340.75509083163502 -721.13007818100732 0 0 0 0 492.96000905710389 -557.51054614334271 0 -557.51054614334271 -114.67245595376141 0 0 0 0 298.49881198887306 -75.213325611999437 0 -75.213325611999437 171.16469463071758 0 0 0 0 189.26189922689809 -98.988760218724224 0 -98.988760218724224 -357.0696445437211 0 0 0 0 364.74383551560459 -231.29807301349479 0 -231.29807301349479 -502.4668977130932 0 0 0 0 129.76501897926209 -323.56722030370889 0 -323.56722030370889 419.30019390371501 0 0 0 0 586.04959097516257 -471.38422420459165 0 -471.38422420459165 451.71152749226445 0 0 0 0 824.7341383046878 91.104470392720032 0 91.104470392720032 675.16397342732785 0 0 0 0 403.6440614942403 -381.99248998375595 0 -381.99248998375595 659.83094446926862 0 0 0 0 614.74600830607233 -396.31731437559483 0 -396.31731437559483 418.54799364081555 0 0 0 0 2016.2586603645468 358.18286651405515 0 358.18286651405515 546.53737460652701 0 0 0 0 889.47116712808202 522.89674859683714 0 522.89674859683714 835.48305689540803 0 0 0 0 942.92018425749848 -154.80507530757836 0 -154.80507530757836 252.22179435131534 0 0 0 0 217.9920792291814 344.65487172742746 0 344.65487172742746 -48.908856154640034 0 0 0 0 832.22757711017039 62.524895762232688 0 62.524895762232688 -896.5779198743885 0 0 0 0 433.07712572655873 -546.15716553915649 0 -546.15716553915649 -645.87334735971876 0 0 0 0 807.0320197018882 728.27879436335661 0 728.27879436335661 -28.315128824357089 0 0 0 0 1413.3531854130124 3929.5065538330086 0 3929.5065538330086 1432.1186250039316 0 0 0 0 2249.4987960585277 776.24069986244854 0 776.24069986244854 -2395.0110623245341 0 0 0 0 141.34759822374326 640.84348239167934 0 640.84348239167934 -47.870085722886415 0 0 0 0 2232.3123540807283 342.59404867612943 0 342.59404867612943 1062.8992197282214 0 0 0 0 1830.8298038606299 1015.529280070376 0 1015.529280070376 -14.653142023115834 0 0 0 0 4981.4943246275652 1684.0602498312633 0 1684.0602498312633 -702.03479301716106 0 0 0 0 4576.1160712827186 4484.6863602220292 0 4484.6863602220292 91.623842613496436 0 0 0 0 5158.9724822505377 1587.7937130059095 0 1587.7937130059095 1030.6164214162709 0 0 0 0 3442.9867374667083 1475.9364449517761 0 1475.9364449517761 812.2001620730116 0 0 0 0 2105.0410139392989 789.41503960194677 0 789.41503960194677 898.5593145346229 0 0 0 0 3436.0645287098596 669.79992655942033 0 669.79992655942033 287.85251564919417 0 0 0 0 4150.0955990859366 357.7893606417324 0 357.7893606417324 316.51581239861935 0 0 0 0 3388.5412848534615 563.43542646158585 0 563.43542646158585 715.26086265884078 0 0 0 0 3959.4635995207209 524.04471704733737 0 524.04471704733737 -127.47560470728604 0 0 0 0 3293.7265835560429 787.35511415801398 0 787.35511415801398 578.34821543686849 0 0 0 0 2475.0003904631012 414.52424005197554 0 414.52424005197554 332.98800971322726 0 0 0 0 3281.079380995332 889.63173026475442 0 889.63173026475442 465.88086779983882 0 0 0 0 2758.8783526328625 319.24980333524218 0 319.24980333524218 246.22729470787635 0 0 0 0 1697.3024449130462 614.67505202638131 0 614.67505202638131 844.18264513064014 0 0 0 0 1305.6497775118914 -78.278546988870858 0 -78.278546988870858 534.26533830575363 0 0 0 0 1492.9259139675705 166.10588093051592 0 166.10588093051592 645.74431868703414 0 0 0 0 2222.8590672442515 6.1090410256674659 0 6.1090410256674659 189.71281660916247 0 0 0 0 1895.7214097705437 89.693472644571784 0 89.693472644571784 316.92080909225501 0 0 0 0 2833.9116657662671 3.6079547104844778 0 3.6079547104844778 -168.6119721473799 0 0 0 0 3509.5464077596844 142.09825681832717 0 142.09825681832717 7.2385500157538445 0 0 0 0 2943.2465152747718 334.04072632441836 0 334.04072632441836 158.68549603506608 0 0 0 0 69.033746850531315 35.619307813411069 0 35.619307813411069 20.739624232519873 0 0 0 0 445.72848244778288 -541.01217991753197 0 -541.01217991753197 323.6502428320041 0 0 0 0 3.2175885180287196 -0.18951451313996159 0 -0.18951451313996159 1.7383072145537874 0 0 0 0 764.08772963020601 -171.28753556340007 0 -171.28753556340007 684.24660462654572 0 0 0 0 933.15633861048263 -393.64052668547765 0 -393.64052668547765 443.65365835416196 0 0 0 0 670.73333579300379 -449.25407718902079 0 -449.25407718902079 486.61636281796848 0 0 0 0 630.61114386629197 202.35293414004775 0 202.35293414004775 -15.043024421854 0 0 0 0 1870.2076670124625 -120.0377267258003 0 -120.0377267258003 173.66691142942182 0 0 0 0 20.293831522947755 9.7718771879641508 0 9.7718771879641508 -1.872913386087204 0 0 0 0 61.385863831265851 419.38454426235751 0 419.38454426235751 -474.15250565871838 0 0 0 0 -449.45691800874192 -164.09939599043832 0 -164.09939599043832 -31.102865063056072 0 0 0 0 11.500856025055327 4.6689176853598156 0 4.6689176853598156 -0.42706195487936127 0 0 0 0 217.52222922150395 220.42482493074434 0 220.42482493074434 2.2846286676875276 0 0 0 0 -39.468116095711594 1023.4437692210463 0 1023.4437692210463 -352.78192324344479 0 0 0 0 5.458748978485346 -1.5958326645355854 0 -1.5958326645355854 0.31564500086260383 0 0 0 0 29.769796890876023 -538.41872731186822 0 -538.41872731186822 970.32630980593387 0 0 0 0 725.70816672465298 64.556852561354901 0 64.556852561354901 -74.614379021418259 0 0 0 0 3082.4514439698396 371.36875809155401 0 371.36875809155401 44.261368749207122 0 0 0 0 3255.0093603504793 229.29852536821625 0 229.29852536821625 -37.537269353827242 0 0 0 0 2997.8331418359885 309.05045937216988 0 309.05045937216988 128.04556611562066 0 0 0 0 3171.9674250969838 265.71538461443924 0 265.71538461443924 -14.490783303583839 0 0 0 0 3841.5797367084888 -572.87880752586807 0 -572.87880752586807 -5.2062522582595108 0 0 0 0 2294.7571115079336 -728.53471593755273 0 -728.53471593755273 13.939015510351851 0 0 0 0 3284.426809133045 592.79257265654087 0 592.79257265654087 259.98798118159806 0 0 0 0 3018.5816179953399 835.65631639019205 0 835.65631639019205 -476.28539792862153 0 0 0 0 3399.4190288761019 -377.22926696717394 0 -377.22926696717394 295.86887136241353 0 0 0 0 2742.5909055786906 72.064019215882368 0 72.064019215882368 -1.0722869409551699 0 0 0 0 2830.0842819084355 253.32541921751562 0 253.32541921751562 127.43364543654484 0 0 0 0 2950.4530427767895 72.878081306379741 0 72.878081306379741 -81.656691344226715 0 0 0 0 1345.4326349387411 -168.58911643594854 0 -168.58911643594854 228.05203759601721 0 0 0 0 482.17883179806813 155.46452070632691 0 155.46452070632691 0.61307287248048969 0 0 0 0 1343.9533157918595 -135.20480360022316 0 -135.20480360022316 -202.21679849935276 0 0 0 0 212.74063824841869 -208.16440935472838 0 -208.16440935472838 -195.75406809117271 0 0 0 0 -65.546011779937544 -110.10133570495819 0 -110.10133570495819 7.1598323595611646 0 0 0 0 2.6902687899011681 -3.3994664073736658 0 -3.3994664073736658 -3.5195285121572746 0 0 0 0 260.43906483189858 57.039428503893745 0 57.039428503893745 -2.2969144762881228 0 0 0 0 176.48754142486723 -57.882630360696567 0 -57.882630360696567 -51.741466821583828 0 0 0 0 302.61082289475598 -52.162860099841168 0 -52.162860099841168 -57.135762670999412 0 0 0 0 234.37382504637935 51.943729333491468 0 51.943729333491468 20.249631178239341 0 0 0 0 129.25325376109959 -22.419405612082169 0 -22.419405612082169 46.309174792914064 0 0 0 0 0.39072695079946484 0.018546207940005388 0 0.018546207940005388 -0.98414631357099047 0 0 0 0 239.72420278425852 -41.091310307202789 0 -41.091310307202789 0.076048157844021733 0 0 0 0 408.33955167628301 64.950115599385754 0 64.950115599385754 -17.243003790795512 0 0 0 0 305.34197335722274 40.531387396678753 0 40.531387396678753 -16.900627139944682 0 0 0 0 561.03457466614782 155.01215949097434 0 155.01215949097434 -85.130504322895746 0 0 0 0 122.13632048657746 -50.836311931417924 0 -50.836311931417924 28.130785581902686 0 0 0 0 218.96828827790159 78.946490142812706 0 78.946490142812706 41.183942413410279 0 0 0 0 105.59994894996635 -192.49271584448951 0 -192.49271584448951 -123.53209346684872 0 0 0 0 -64.865299234137638 66.9521031503904 0 66.9521031503904 42.237392598174722 0 0 0 0 123.82611736489343 190.20049500508662 0 190.20049500508662 -63.742589001867657 0 0 0 0 130.09794603456976 -117.19225835325483 0 -117.19225835325483 -117.72408821818304 0 0 0 0 294.89942602065275 216.89733817609843 0 216.89733817609843 -116.64233351392653 0 0 0 0 451.15296428019064 91.804419936476393 0 91.804419936476393 -83.235598665277905 0 0 0 0 92.762051278603224 10.155719934632195 0 10.155719934632195 -1.6719505061649431 0 0 0 0 141.22059100333718 -92.681164399793147 0 -92.681164399793147 -302.07582047497704 0 0 0 0 317.80311746400548 125.56379862312895 0 125.56379862312895 62.428055966805459 0 0 0 0 79.138188252516557 -212.39576440056203 0 -212.39576440056203 -96.495277948307148 0 0 0 0 -2.4840812103648204 -102.23892203004777 0 -102.23892203004777 -64.730292870487119 0 0 0 0 76.381349138828227 109.90585520332021 0 109.90585520332021 -19.771220770581067 0 0 0 0 33.736048617822377 7.8977116207965139 0 7.8977116207965139 -2.4415474222112348 0 0 0 0 132.84841601742664 102.03108726705929 0 102.03108726705929 -51.873384027654879 0 0 0 0 242.35306001029676 133.34323617367454 0 133.34323617367454 -80.072549176397388 0 0 0 0 181.56878874605172 -54.054644745227165 0 -54.054644745227165 -89.6635756948981 0 0 0 0 0.31959190184472419 0.2257551423830364 0 0.2257551423830364 -1.4842232730308602 0 0 0 0 168.63477656501345 -61.239327445857441 0 -61.239327445857441 -35.198885096569938 0 0 0 0 163.99170510284603 -34.837530463509211 0 -34.837530463509211 -96.560673284191353 0 0 0 0 188.54594113124767 -15.39238957565442 0 -15.39238957565442 -193.46203855176736 0 0 0 0 187.73539393866668 -9.2884816653215694 0 -9.2884816653215694 -74.059605471017335 0 0 0 0 120.19051047430548 -32.715083831246886 0 -32.715083831246886 -21.360745774832594 0 0 0 0 140.55357838621421 -18.721029668648811 0 -18.721029668648811 -37.929246764745471 0 0 0 0 7.5742941618249091 -12.970281823319908 0 -12.970281823319908 -8.9797546003602626 0 0 0 0 141.32509667996783 -41.593736803536672 0 -41.593736803536672 -37.793490432053844 0 0 0 0 156.74001022824086 -36.332507138494691 0 -36.332507138494691 -39.21767355558427 0 0 0 0 146.25891706917901 16.835595153453397 0 16.835595153453397 -40.924380750748469 0 0 0 0 132.26731063671468 -46.523302967744485 0 -46.523302967744485 -7.8527771598006666 0 0 0 0 0.52884098842450911 -0.015677554093144863 0 -0.015677554093144863 -2.4859264192070567 0 0 0 0 261.26400719591766 25.940954139507653 0 25.940954139507653 -18.453721578934505 0 0 0 0 144.45946286348044 -53.53996401847877 0 -53.53996401847877 7.6142526744462202 0 0 0 0 27.174632072390523 9.0707646743635166 0 9.0707646743635166 18.358838007041669 0 0 0 0 28.772268505104876 8.6434519068425217 0 8.6434519068425217 7.0081446333435053 0 0 0 0 21.189692142325327 -3.9340726965196495 0 -3.9340726965196495 -5.7720643280850865 0 0 0 0 44.634123744734097 3.4800793660232832 0 3.4800793660232832 -0.0061315924015272966 0 0 0 0 42.355823243451596 2.6956883711811765 0 2.6956883711811765 0.80282143399898409 0 0 0 0 36.545505362795666 7.1290313711253326 0 7.1290313711253326 0.82353124067094363 0 0 0 0 6.9015442074438766 0.34751483182446918 0 0.34751483182446918 -0.68625054322785328 0 0 0 0 917.63737442795536 120.36149087204737 0 120.36149087204737 -20.926898825184992 0 0 0 0 861.88524160289671 -36.100328407227515 0 -36.100328407227515 0.16109775707175478 0 0 0 0 15.946055246677133 1.0984299540396163 0 1.0984299540396163 27.637518999131082 0 0 0 0 4.5994967895014724 1.4920258954446695 0 1.4920258954446695 1.1883092417252004 0 0 0 0 698.7657805113995 -158.00112153768308 0 -158.00112153768308 -62.054504775174792 0 0 0 0 869.36300348568693 -144.74523636564842 0 -144.74523636564842 -68.720780785881175 0 0 0 0 9.0157020916847017 8.7535545691278571 0 8.7535545691278571 8.5426589820655323 0 0 0 0 594.57812267361874 -223.14604324673829 0 -223.14604324673829 -81.286092419384431 0 0 0 0 328.32874341943534 -79.640589065346262 0 -79.640589065346262 29.847383546029505 0 0 0 0 595.04272058414062 54.894690544039179 0 54.894690544039179 -34.093963582853746 0 0 0 0 368.76073519545025 -395.83934547876584 0 -395.83934547876584 -119.63103474792661 0 0 0 0 731.88308246806264 -280.20358978732702 0 -280.20358978732702 -103.81819689129867 0 0 0 0 839.27468597854022 -270.13518748173277 0 -270.13518748173277 -337.14083844226928 0 0 0 0 1305.1973486029892 -246.83644320047733 0 -246.83644320047733 -347.67737201816118 0 0 0 0 786.15915178204887 -184.98970136380066 0 -184.98970136380066 -160.69268665134342 0 0 0 0 938.32592385911266 -165.20950316269307 0 -165.20950316269307 -225.99940153960233 0 0 0 0 766.85428200522438 -204.28548121004786 0 -204.28548121004786 -147.64768895338628 0 0 0 0 776.0702340445423 -233.89133138617112 0 -233.89133138617112 -166.73734899280271 0 0 0 0 737.40711697211373 -161.97568453176564 0 -161.97568453176564 27.659183378537726 0 0 0 0 716.48945643936167 -109.82676599035328 0 -109.82676599035328 -87.397252388496838 0 0 0 0 533.86615546647226 -52.244825585442904 0 -52.244825585442904 -0.16695841238277548 0 0 0 0 751.1335510633362 -59.632209425868012 0 -59.632209425868012 -127.18975948163632 0 0 0 0 689.84193349161069 -11.231166869662076 0 -11.231166869662076 -134.91664441325082 0 0 0 0 892.73464481120391 24.219407137311347 0 24.219407137311347 -266.73915907347015 0 0 0 0 676.62525057847961 319.45739137464898 0 319.45739137464898 -74.673635888659419 0 0 0 0 1074.956725635624 81.031821927017916 0 81.031821927017916 -269.71705162718467 0 0 0 0 1081.1887250212603 37.080439175204901 0 37.080439175204901 -424.97963721033079 0 0 0 0 1197.470884445429 403.30169806438266 0 403.30169806438266 -361.94201563742877 0 0 0 0 144.42322465928737 346.69106067029952 0 346.69106067029952 455.69615975160127 0 0 0 0 1207.1737987697707 460.14277561723304 0 460.14277561723304 -38.125731298707393 0 0 0 0 38.374199261514377 1.5822928177129683 0 1.5822928177129683 -0.048724101176368106 0 0 0 0 898.5749242756865 1000.6664586331303 0 1000.6664586331303 808.22696582762671 0 0 0 0 -46.721917896102241 31.035920235258956 0 31.035920235258956 300.47840338582046 0 0 0 0 -614.67923426785273 -1976.7614685008721 0 -1976.7614685008721 1769.6086906610185 0 0 0 0 98.708409007323098 28.748775257181101 0 28.748775257181101 2.2970750645156475 0 0 0 0 5841.7070852771867 1384.8151955737012 0 1384.8151955737012 -729.7421899785727 0 0 0 0 3839.1869265791029 832.99460052774759 0 832.99460052774759 -298.04125727968403 0 0 0 0 3535.3556643450866 -2847.2495615311736 0 -2847.2495615311736 380.91016527662794 0 0 0 0 46.395695844898 -2259.7758698814491 0 -2259.7758698814491 1306.5941340328768 0 0 0 0 16.989207190927118 9.6233215538813965 0 9.6233215538813965 -295.11580828659498 0 0 0 0 -168.10438909097866 -1345.7960889455435 0 -1345.7960889455435 1103.0723291193863 0 0 0 0 120.27350871589442 -870.74858393544343 0 -870.74858393544343 -13.440692194531948 0 0 0 0 524.00704935626709 -515.190216601153 0 -515.190216601153 -212.36251287747427 0 0 0 0 801.92725740381866 -1131.6735177399742 0 -1131.6735177399742 52.851936956420104 0 0 0 0 -28.082365259120706 -515.04825488701613 0 -515.04825488701613 -45.562414155436954 0 0 0 0 2048.6239332178084 -661.36923598638248 0 -661.36923598638248 -502.96555390126036 0 0 0 0 1847.8025786420912 172.40630483544419 0 172.40630483544419 -401.10153294621682 0 0 0 0 862.63903319402493 -487.63046492192433 0 -487.63046492192433 -394.49048270353046 0 0 0 0 863.25005753194978 -566.61726986935969 0 -566.61726986935969 -239.83331362367971 0 0 0 0 -1190.1682329319301 -61.394021380300956 0 -61.394021380300956 351.80192183156822 0 0 0 0 416.65248061208695 -222.10753328682412 0 -222.10753328682412 102.6395251142385 0 0 0 0 67.446849889471196 -340.8877402929354 0 -340.8877402929354 -653.16853579234385 0 0 0 0 2.8283748095027477 9.9704746338941987 0 9.9704746338941987 0.43301887171293185 0 0 0 0 32.276948525723014 8.7542257311164491 0 8.7542257311164491 2.2223845126518311 0 0 0 0 50.103025969532609 7.4175210743795219 0 7.4175210743795219 -3.1935420989254908 0 0 0 0 33.936665193017689 14.191454789615705 0 14.191454789615705 -2.699455693659047 0 0 0 0 33.605014239268513 21.949279622367442 0 21.949279622367442 5.4638396397288247 0 0 0 0 -864.08287104440387 -782.13503008466137 0 -782.13503008466137 744.89743390252738 0 0 0 0 30.655888433102518 17.376106815941966 0 17.376106815941966 -31.207588599909286 0 0 0 0 83.702119036708893 15.755084340570122 0 15.755084340570122 -14.225818988107807 0 0 0 0 -4630.5743477559881 1063.984158956466 0 1063.984158956466 -105.61425896430865 0 0 0 0 93.039138415762267 11.449184210515085 0 11.449184210515085 -20.60002887773004 0 0 0 0 7.1447777420980856 50.739314798003761 0 50.739314798003761 58.303797808315721 0 0 0 0 62.038792679972801 24.415799510585735 0 24.415799510585735 2.7180769203385076 0 0 0 0 40.560966674267547 16.846250302837461 0 16.846250302837461 -6.5919454583685138 0 0 0 0 47.993736751570395 -8.3504452854133433 0 -8.3504452854133433 -1.3234444863464887 0 0 0 0 26.950080805021571 8.5114627610773823 0 8.5114627610773823 12.07976818195425 0 0 0 0 28.642823768212111 10.397981382582401 0 10.397981382582401 -1.7768449142829468 0 0 0 0 29.510096007943275 5.5711067837710146 0 5.5711067837710146 0.44770100709787219 0 0 0 0 -4.765204495852231 -56.908574142879843 0 -56.908574142879843 44.445004262384202 0 0 0 0 131.3691404031415 -182.86313404338989 0 -182.86313404338989 4.1724180860283013 0 0 0 0 23.972425576906971 -38.006780799151898 0 -38.006780799151898 -130.98254716641895 0 0 0 0 140.17900484334677 -57.116072367341076 0 -57.116072367341076 -186.18131502446522 0 0 0 0 53.248098328436868 8.8528844809703173 0 8.8528844809703173 -6.6972547824611661 0 0 0 0 66.893026132223895 59.379596968375154 0 59.379596968375154 -366.78285140095977 0 0 0 0 24.516980366642173 6.1962708479365745 0 6.1962708479365745 -5.2598913341281524 0 0 0 0 85.100636058705277 -112.99371875294855 0 -112.99371875294855 -234.60492411048472 0 0 0 0 62.611008914391277 -105.65494866186145 0 -105.65494866186145 -182.63716823001778 0 0 0 0 233.41257247808971 -38.29207365157481 0 -38.29207365157481 -156.24127432639125 0 0 0 0 152.72663063408982 2.7503594667543894 0 2.7503594667543894 -63.019476110247524 0 0 0 0 585.47560232746764 -23.065161619303126 0 -23.065161619303126 -61.488408591835537 0 0 0 0 263.17059937934391 -20.568753458828724 0 -20.568753458828724 -128.96152581977185 0 0 0 0 41.025575442712579 92.119924944857928 0 92.119924944857928 -185.85398598492611 0 0 0 0 182.64139584341319 46.717660935629283 0 46.717660935629283 -383.08102748432066 0 0 0 0 87.551894366275519 -71.966341768926213 0 -71.966341768926213 -360.8113737219719 0 0 0 0 215.78891767613823 2.2471581654681358 0 2.2471581654681358 -420.73805522167459 0 0 0 0 244.2994364365295 5.9912764708751638 0 5.9912764708751638 -378.03733323710003 0 0 0 0 192.99175960986759 31.726757376593241 0 31.726757376593241 -210.21023991583206 0 0 0 0 440.49212727160193 135.04800814879763 0 135.04800814879763 -213.19218399048987 0 0 0 0 -28.119663663092069 160.68625223522577 0 160.68625223522577 -36.733995876536937 0 0 0 0 40.501953187420611 4.9699609725752225 0 4.9699609725752225 0.9574003244164917 0 0 0 0 313.23471133162093 722.69775201359721 0 722.69775201359721 677.82116040143956 0 0 0 0 -649.7396653505275 -2991.9812904837436 0 -2991.9812904837436 2718.726205973338 0 0 0 0 1099.5916865278446 567.52022146386264 0 567.52022146386264 -908.96371554736015 0 0 0 0 1097.5406261214084 454.43510888810806 0 454.43510888810806 -152.24423905203184 0 0 0 0 351.99080640907414 478.61455059672585 0 478.61455059672585 165.35162778127233 0 0 0 0 1102.0080474033457 -48.767401611911978 0 -48.767401611911978 -179.3463146640745 0 0 0 0 1337.5994358236276 429.98897432938054 0 429.98897432938054 105.96765776914356 0 0 0 0 837.23357543995371 -336.95347233199738 0 -336.95347233199738 -230.47294972384401 0 0 0 0 848.92226732985 192.8476115619365 0 192.8476115619365 -409.95792945002859 0 0 0 0 904.35647697518652 -195.43952273904029 0 -195.43952273904029 -3.3066408400709406 0 0 0 0 -1.4868250301326498 0.34257411145002692 0 0.34257411145002692 0.17259403657870909 0 0 0 0 62.564731031961855 -192.25211154675901 0 -192.25211154675901 302.41365874974645 0 0 0 0 432.08470896170184 -326.00097908036696 0 -326.00097908036696 340.62124024082368 0 0 0 0 792.07943615099066 42.800954878286234 0 42.800954878286234 -909.19492503257914 0 0 0 0 -140.95123740205599 -234.6393225182143 0 -234.6393225182143 -19.843940743962605 0 0 0 0 -100.86203762982041 -163.38208608165576 0 -163.38208608165576 6.343434120730592 0 0 0 0 -129.46876857146708 -241.43289155124526 0 -241.43289155124526 -146.38663525466984 0 0 0 0 -167.61146913436824 -233.76032864569407 0 -233.76032864569407 27.051034618237509 0 0 0 0 -220.33655104553327 -189.25168074375893 0 -189.25168074375893 -1.6181465147239749 0 0 0 0 -0.12767488835379481 -55.492452587042976 0 -55.492452587042976 39.296146142305133 0 0 0 0 -151.47361971574719 -178.81830377554601 0 -178.81830377554601 -215.76272234533459 0 0 0 0 -5.7795727897175198 -4.6060715155185328 0 -4.6060715155185328 -4.1901627607584802 0 0 0 0 717.7502176053822 441.86319973113859 0 441.86319973113859 -1325.7586636978685 0 0 0 0 1895.576020171924 386.08799190075206 0 386.08799190075206 -1463.0960911067475 0 0 0 0 440.62139011335967 -375.06739844340331 0 -375.06739844340331 -1009.6085537897358 0 0 0 0 1495.3513582629021 -986.26521383181137 0 -986.26521383181137 -658.3213810939717 0 0 0 0 1427.3752375582699 547.78600341640833 0 547.78600341640833 -1030.6918389096641 0 0 0 0 16.238415310194902 3.6466931224564405 0 3.6466931224564405 7.8923542007388594 0 0 0 0 -178.11859049706254 2843.9266923480141 0 2843.9266923480141 -747.00660053388492 0 0 0 0 -2830.470430347108 1579.613361285109 0 1579.613361285109 -234.13230981209017 0 0 0 0 9034.8287795054785 1138.6701609704041 0 1138.6701609704041 -1182.9800575363734 0 0 0 0 1845.8700521938881 1088.0124467075257 0 1088.0124467075257 -1627.3232479237531 0 0 0 0 455.67895991541445 1443.4884696949048 0 1443.4884696949048 -1592.6744948779888 0 0 0 0 103.87675052379456 28.385482177938421 0 28.385482177938421 4.292732019985305 0 0 0 0 172.9050434602832 838.69440743949963 0 838.69440743949963 -1483.0882187395791 0 0 0 0 -685.99301910260692 742.71917774337044 0 742.71917774337044 -1366.5934587456049 0 0 0 0 135.19115670133033 41.237867113298137 0 41.237867113298137 -21.616416885810963 0 0 0 0 111.897113647894 28.475274633427151 0 28.475274633427151 -28.002799652342446 0 0 0 0 26.257237005805528 -13.339830999986077 0 -13.339830999986077 -9.5791457115769614 0 0 0 0 148.32386029977351 8.4918386903480041 0 8.4918386903480041 -21.787713821363013 0 0 0 0 152.26157563709421 12.976541962931577 0 12.976541962931577 -88.024283708597295 0 0 0 0 149.73103935655672 85.869753601121374 0 85.869753601121374 -40.21001387953379 0 0 0 0 172.09390360594261 169.32760714533799 0 169.32760714533799 -181.02326084756942 0 0 0 0 425.04559345258167 866.41053947932778 0 866.41053947932778 -1595.95253772055 0 0 0 0 1099.3623296010483 690.80058653653032 0 690.80058653653032 -1643.6378331520245 0 0 0 0 359.13397833498311 -297.76667942525637 0 -297.76667942525637 -1207.6870801216937 0 0 0 0 869.32710123841389 -213.61778838592306 0 -213.61778838592306 -1320.0575693117353 0 0 0 0 761.15703070379095 467.14588484762498 0 467.14588484762498 -1395.5547779922417 0 0 0 0 46.730549023719504 -71.463572790406033 0 -71.463572790406033 -1304.678476547384 0 0 0 0 -41.639836236427072 519.821751906602 0 519.821751906602 -1311.3873531462023 0 0 0 0 -643.10387548353174 -554.72017808858106 0 -554.72017808858106 -634.53900022564972 0 0 0 0 141.43000408290789 30.032045542066932 0 30.032045542066932 2.5911374358333465 0 0 0 0 76.939965079120157 -28.720563361132136 0 -28.720563361132136 -49.100029890890596 0 0 0 0 434.25573489360977 -417.54668341046636 0 -417.54668341046636 -1146.3601672035661 0 0 0 0 359.76032145009958 -254.81147851095136 0 -254.81147851095136 -1177.074094486549 0 0 0 0 5175.1460183271265 503.239341583645 0 503.239341583645 -3465.5966958540248 0 0 0 0 -128.3992549329414 -2113.6506508685543 0 -2113.6506508685543 2619.4864635471918 0 0 0 0 42.174770385337609 -25.127635418667012 0 -25.127635418667012 7.4115181013322591 0 0 0 0 1545.875625362125 1241.4618364787061 0 1241.4618364787061 -196.4257290272044 0 0 0 0 726.89235517707129 -740.75133653638704 0 -740.75133653638704 -639.69370452371436 0 0 0 0 165.63148388871923 -1097.2660865778553 0 -1097.2660865778553 -393.02057974470119 0 0 0 0 716.24793870779104 -368.3630196994759 0 -368.3630196994759 355.0292748961142 0 0 0 0 -1763.300327287121 -747.45104999586147 0 -747.45104999586147 1150.5346337032333 0 0 0 0 1359.5517326685222 135.88320654951977 0 135.88320654951977 -631.25696586781771 0 0 0 0 13.402010241384559 -34.524719102227436 0 -34.524719102227436 24.983192051350791 0 0 0 0 823.70578233514971 340.94100330206902 0 340.94100330206902 -167.32905508650265 0 0 0 0 823.90225719443697 261.21541751637142 0 261.21541751637142 952.76691987870436 0 0 0 0 2912.6528799850494 2187.7777429965313 0 2187.7777429965313 2648.812803933637 0 0 0 0 2191.697288780284 -2056.1902723618973 0 -2056.1902723618973 2279.5822042452 0 0 0 0 4645.7744675161084 -69.80943395579834 0 -69.80943395579834 -940.28096022949671 0 0 0 0 3656.5846970721032 2641.6569269102465 0 2641.6569269102465 -739.32642880037895 0 0 0 0 54.424779798662883 7.7223870555529572 0 7.7223870555529572 3.7124476817703451 0 0 0 0 2153.2564278112113 2432.6793825674295 0 2432.6793825674295 1745.5722417178686 0 0 0 0 4356.9216280057008 -303.41322133856511 0 -303.41322133856511 -293.60595433158232 0 0 0 0 1926.9486549738067 -1738.8002818085492 0 -1738.8002818085492 872.25787843183866 0 0 0 0 2506.6777453037794 -510.14321231123813 0 -510.14321231123813 -275.27038006211978 0 0 0 0 1640.5757578398643 -220.74431638874859 0 -220.74431638874859 -238.80752622944783 0 0 0 0 1981.7518481695879 -75.096437004965082 0 -75.096437004965082 -247.76193166039889 0 0 0 0 2975.6345376505342 959.44709417985825 0 959.44709417985825 -98.479366063782436 0 0 0 0 1376.4814970535444 484.44575864592639 0 484.44575864592639 -165.79765777901139 0 0 0 0 1396.5918695133078 496.22777355062681 0 496.22777355062681 -335.41669385200476 0 0 0 0 -318.70305978058605 684.89456571106439 0 684.89456571106439 404.3154772368157 0 0 0 0 -1225.1191392886758 -361.83737370026074 0 -361.83737370026074 80.377956384344543 0 0 0 0 523.4641478485355 287.06762231443992 0 287.06762231443992 -125.7228511603098 0 0 0 0 504.65591303726251 404.39487822671708 0 404.39487822671708 -48.575162227055444 0 0 0 0 807.86992966283287 308.78724523676146 0 308.78724523676146 48.128546271411778 0 0 0 0 1123.0272532982926 318.62729248449705 0 318.62729248449705 -44.074539158354128 0 0 0 0 516.1373691462868 -127.00790565879379 0 -127.00790565879379 416.89253979671321 0 0 0 0 1071.7173806726205 -364.06733958600603 0 -364.06733958600603 303.57251463794205 0 0 0 0 1226.4973002968763 -75.598754509147966 0 -75.598754509147966 50.291994333382718 0 0 0 0 1060.7594540789942 125.6854598200116 0 125.6854598200116 -9.9625186476405361 0 0 0 0 1320.5883061013592 52.070191223258917 0 52.070191223258917 -152.6238202466659 0 0 0 0 1420.628340902651 77.90094103789761 0 77.90094103789761 -277.84703257001581 0 0 0 0 1350.5141964844461 109.10119749276254 0 109.10119749276254 -173.47980246505904 0 0 0 0 1365.0300899033464 164.31310289272551 0 164.31310289272551 -118.52571092846665 0 0 0 0 -298.31332994331024 108.21295782132387 0 108.21295782132387 174.20749506359994 0 0 0 0 -201.61859313750028 -185.52694351726655 0 -185.52694351726655 251.44868054436995 0 0 0 0 -1.0574449172370635 -1.953517441868371 0 -1.953517441868371 -4.2213217355814239 0 0 0 0 -961.3909253345555 124.76605401136678 0 124.76605401136678 418.50403121408283 0 0 0 0 -294.78347880330693 -393.71514364611534 0 -393.71514364611534 320.89813230073196 0 0 0 0 -219.66761536702688 -135.71814237271707 0 -135.71814237271707 1140.6382498247076 0 0 0 0 760.27717984726769 -800.75295596984267 0 -800.75295596984267 437.86645324746723 0 0 0 0 156.54599392571254 284.08352258060444 0 284.08352258060444 43.227315987788643 0 0 0 0 177.03775172127644 425.8638793620849 0 425.8638793620849 562.56834638204407 0 0 0 0 3.7055547837125857 -4.8226890562438882 0 -4.8226890562438882 8.825453410604954 0 0 0 0 1475.9330410112016 -840.15570011233069 0 -840.15570011233069 462.69674541824497 0 0 0 0 1767.1586532415968 -34.372762082220731 0 -34.372762082220731 398.34034600951827 0 0 0 0 1327.2487692422874 214.93679579828472 0 214.93679579828472 559.6415847761923 0 0 0 0 1778.6871458737878 232.77598689350407 0 232.77598689350407 10.463618264437173 0 0 0 0 11.785332167821508 -21.766132496884183 0 -21.766132496884183 22.844052473051388 0 0 0 0 1612.6825782748056 353.08700047921252 0 353.08700047921252 105.95162441450884 0 0 0 0 3248.4309873307939 -26.143237902816963 0 -26.143237902816963 -318.25741289557391 0 0 0 0 5.2403816826730747 -7.4040203535648175 0 -7.4040203535648175 9.1351229765626929 0 0 0 0 -689.33035778367775 -138.28701849759886 0 -138.28701849759886 404.99456331355077 0 0 0 0 924.98318983473291 -521.22201053188974 0 -521.22201053188974 488.68227883657437 0 0 0 0 1576.6170635999151 -472.56264695999289 0 -472.56264695999289 220.59125264870772 0 0 0 0 453.47029724997265 -114.63046167292612 0 -114.63046167292612 366.92641257488049 0 0 0 0 1682.1397266116255 -46.973010675275191 0 -46.973010675275191 -48.723630926576334 0 0 0 0 1002.4307794338492 423.56373749118177 0 423.56373749118177 -525.71969225611247 0 0 0 0 1512.6656527216473 -904.96384848167031 0 -904.96384848167031 1124.6700348953418 0 0 0 0 333.95774576472468 298.07608344335358 0 298.07608344335358 46.319061817483998 0 0 0 0 -282.54441493860213 -327.14898310280114 0 -327.14898310280114 443.96187253496464 0 0 0 0 3.3780273425192036 -9.9482259139285532 0 -9.9482259139285532 21.501262337722601 0 0 0 0 -51.957422359409975 -16.855058143289398 0 -16.855058143289398 -0.20142180523589559 0 0 0 0 -83.815716583310859 -76.978821248231043 0 -76.978821248231043 215.69727578156937 0 0 0 0 20.276295744474282 4.1950031779557406 0 4.1950031779557406 4.121490096514778 0 0 0 0 128.5320126155566 95.208021959386116 0 95.208021959386116 11.392910274145677 0 0 0 0 80.940091691219095 10.300216601178782 0 10.300216601178782 242.450287194265 0 0 0 0 -115.55797048711611 27.86560990918224 0 27.86560990918224 18.067743562436135 0 0 0 0 9.3443599897494778 -8.9561070866921852 0 -8.9561070866921852 21.898143310976813 0 0 0 0 -68.803821177076316 200.25146969609187 0 200.25146969609187 97.853879258911547 0 0 0 0 263.16550900458242 42.14834000172209 0 42.14834000172209 -188.47162670115131 0 0 0 0 462.11816687574901 280.73419530126012 0 280.73419530126012 13.495068922535211 0 0 0 0 724.15303582936758 -29.813619991585256 0 -29.813619991585256 -207.65458467772032 0 0 0 0 6.9657879421326925 2.3101064904200612 0 2.3101064904200612 1.0045958903813976 0 0 0 0 -122.89411223665229 267.39312168115453 0 267.39312168115453 1007.6683953185525 0 0 0 0 76.695414037472801 168.17307413917956 0 168.17307413917956 571.19951958141519 0 0 0 0 389.49655572971096 387.70192375960778 0 387.70192375960778 668.26490921783375 0 0 0 0 -810.34162614529487 1000.0327652730748 0 1000.0327652730748 714.19428439793637 0 0 0 0 451.33178577548824 -252.36801458137256 0 -252.36801458137256 535.43688274205192 0 0 0 0 -133.28597327094758 -6.2038344337970557 0 -6.2038344337970557 162.38446938667221 0 0 0 0 553.80867089466483 213.2866113977102 0 213.2866113977102 -131.98597224503828 0 0 0 0 736.96001575573291 531.05716782214051 0 531.05716782214051 -361.31850523339835 0 0 0 0 215.31889538377436 175.24967337643335 0 175.24967337643335 160.58878884230762 0 0 0 0 1.5691874129094288 -1.5783638149376316 0 -1.5783638149376316 4.0790679939054204 0 0 0 0 543.17398407943256 108.19410785395121 0 108.19410785395121 -2.3252764779399513 0 0 0 0 298.70314145766315 479.91264464306369 0 479.91264464306369 -211.65548633008575 0 0 0 0 1256.0920845361106 -44.583524041702503 0 -44.583524041702503 -40.112704943218887 0 0 0 0 1072.0841001495719 -357.54677197993101 0 -357.54677197993101 354.59275166804218 0 0 0 0 1219.731934649596 -433.00603022647476 0 -433.00603022647476 143.2511257697779 0 0 0 0 994.00411234638887 -241.02230155644202 0 -241.02230155644202 -4.4956209302517891 0 0 0 0 758.50852583142114 -72.688804353920204 0 -72.688804353920204 -102.92941187653582 0 0 0 0 962.70037830735964 -265.17368552094831 0 -265.17368552094831 -16.385344095660912 0 0 0 0 928.3603424492394 -324.25981868314295 0 -324.25981868314295 27.965964437732509 0 0 0 0 442.30215041257907 -60.931195373784249 0 -60.931195373784249 90.28145440950675 0 0 0 0 677.47740702654119 -117.25154097547897 0 -117.25154097547897 -6.4089253090692182 0 0 0 0 667.7969205366353 -136.1754934461373 0 -136.1754934461373 124.722047363809 0 0 0 0 579.91665402535 -104.17321494765901 0 -104.17321494765901 178.73097550988803 0 0 0 0 451.3185672989639 -116.55307098542016 0 -116.55307098542016 172.66389390140148 0 0 0 0 437.34002467799291 49.315329053091205 0 49.315329053091205 92.886824674121272 0 0 0 0 235.68795289518312 -74.230377750273874 0 -74.230377750273874 80.183044141176083 0 0 0 0 141.91937987520942 90.816515153529082 0 90.816515153529082 123.47047671771118 0 0 0 0 267.96138827184041 -33.000652394874763 0 -33.000652394874763 192.6843644171918 0 0 0 0 140.03861183740082 42.626195112876374 0 42.626195112876374 23.971171009347984 0 0 0 0 70.315274728753138 -1.5339359249207689 0 -1.5339359249207689 70.03900223867339 0 0 0 0 52.940441495069535 110.07438611651719 0 110.07438611651719 53.144507207796778 0 0 0 0 70.896802325733006 -8.9549807132630121 0 -8.9549807132630121 47.236878333802025 0 0 0 0 133.41970760637196 34.904198439239281 0 34.904198439239281 -7.9239063761870057 0 0 0 0 -93.121066776515363 -215.36326507946828 0 -215.36326507946828 76.592349498985641 0 0 0 0 1.3169677734774154 -2.7060538526990285 0 -2.7060538526990285 5.8745191164307649 0 0 0 0 126.50264380926092 -46.751966891351913 0 -46.751966891351913 -182.98931507383622 0 0 0 0 -23.809701401682105 112.98058254964258 0 112.98058254964258 -104.61664957635776 0 0 0 0 157.57723229826661 -123.24791823527221 0 -123.24791823527221 -2.7900775035031415 0 0 0 0 209.7677479009144 -38.700416097830384 0 -38.700416097830384 87.62971469310105 0 0 0 0 385.03545799403219 11.891461856081492 0 11.891461856081492 10.026347257448833 0 0 0 0 152.73371134215267 23.751545138193251 0 23.751545138193251 93.675085225627754 0 0 0 0 427.79462165945006 -99.863219072536367 0 -99.863219072536367 17.333055461841468 0 0 0 0 34.914556185649417 -208.17990337399465 0 -208.17990337399465 -38.505444512642043 0 0 0 0 -82.756978765188251 56.409215335638123 0 56.409215335638123 -55.886883488621606 0 0 0 0 -176.3151201994333 1058.2583105222602 0 1058.2583105222602 230.97470518899445 0 0 0 0 -0.010656981035424451 1.2738308111172785 0 1.2738308111172785 -2.8505125767531165 0 0 0 0 586.27904610507539 435.71415662194204 0 435.71415662194204 311.02243522367735 0 0 0 0 335.99859974707942 263.12834454610766 0 263.12834454610766 407.78729925881271 0 0 0 0 272.53646220461815 310.73521230976303 0 310.73521230976303 376.97347814749946 0 0 0 0 338.00845267476689 250.6035263444586 0 250.6035263444586 263.41384713364459 0 0 0 0 591.16227536366205 405.95338800871741 0 405.95338800871741 208.58552676603585 0 0 0 0 312.6107102734095 118.53077345315978 0 118.53077345315978 42.123789816012504 0 0 0 0 540.42840766767767 247.88368565341807 0 247.88368565341807 99.049268649845544 0 0 0 0 -2.5601440729633396 4.8311809490716087 0 4.8311809490716087 -7.3324528245106517 0 0 0 0 10.55997923668474 -29.070063719078007 0 -29.070063719078007 13.339184537475489 0 0 0 0 -192.22365206544055 -74.962734914984111 0 -74.962734914984111 67.685248020753249 0 0 0 0 193.2726681115164 118.60625407779571 0 118.60625407779571 86.327855192026163 0 0 0 0 -190.35775832770742 74.333704526219265 0 74.333704526219265 78.658242601405277 0 0 0 0 0.32851128364100646 0.32112053740127067 0 0.32112053740127067 -0.77937462159188975 0 0 0 0 -64.799596113771258 7.7389246813544332 0 7.7389246813544332 117.97984266745217 0 0 0 0 -45.44833535644284 -17.670703604731102 0 -17.670703604731102 71.72389163464436 0 0 0 0 192.35223127919016 164.83454619562417 0 164.83454619562417 81.721247481723367 0 0 0 0 215.13697768829297 207.7387296832369 0 207.7387296832369 112.71111907708291 0 0 0 0 189.02050058354507 163.58312675075376 0 163.58312675075376 90.839024407962825 0 0 0 0 184.13090401529917 150.98268077277908 0 150.98268077277908 63.437035556986302 0 0 0 0 136.56173648510594 183.88805735795495 0 183.88805735795495 114.14508019933055 0 0 0 0 173.35756279280758 201.66151142205308 0 201.66151142205308 102.31705197259089 0 0 0 0 156.74084935226711 205.37136770172674 0 205.37136770172674 142.64799356909623 0 0 0 0 183.30881542230782 236.29073769137403 0 236.29073769137403 138.37989443650167 0 0 0 0 177.32866157990065 230.29431843879274 0 230.29431843879274 141.05603485391566 0 0 0 0 204.97963126865216 222.30594632303587 0 222.30594632303587 164.66953638140831 0 0 0 0 176.17618838843191 204.32538031572449 0 204.32538031572449 154.4488980466499 0 0 0 0 317.59905556909507 233.31288131268366 0 233.31288131268366 119.15471059716901 0 0 0 0 204.30900284799282 228.92156575804711 0 228.92156575804711 232.92771153280773 0 0 0 0 258.32470874857972 223.25991008085225 0 223.25991008085225 199.21175655039224 0 0 0 0 167.91476869027247 235.93417044921102 0 235.93417044921102 297.28999078976221 0 0 0 0 135.02883052208927 123.32248709348971 0 123.32248709348971 116.92491047590738 0 0 0 0 92.768660520174308 158.20330435655387 0 158.20330435655387 235.71268638224274 0 0 0 0 1452.9959564894598 -116.5602138222016 0 -116.5602138222016 -157.31442034403653 0 0 0 0 1393.6809222975971 183.8093194355597 0 183.8093194355597 -186.50205850298744 0 0 0 0 1532.7426141708784 -42.982485822657054 0 -42.982485822657054 -131.8139725332785 0 0 0 0 1323.2230059348512 -96.005372405880564 0 -96.005372405880564 -55.417720259014459 0 0 0 0 1348.6947088247252 49.104991155091511 0 49.104991155091511 -177.02538897265231 0 0 0 0 1181.1384632738918 -357.40601476482743 0 -357.40601476482743 134.03486543544884 0 0 0 0 1064.5307712629801 -279.15640194382365 0 -279.15640194382365 128.27921182509317 0 0 0 0 1110.8489176644143 -432.38765485157546 0 -432.38765485157546 65.017509769936623 0 0 0 0 979.53183082022588 -275.44416609016616 0 -275.44416609016616 43.372742229355651 0 0 0 0 1303.7582531898224 -407.44158939373244 0 -407.44158939373244 42.925757086261001 0 0 0 0 1499.9846127829078 -178.90123563874681 0 -178.90123563874681 -75.812841149347321 0 0 0 0 1322.7286136720068 -357.5810440169646 0 -357.5810440169646 51.715745751042789 0 0 0 0 1560.8634427531142 -588.49759282424748 0 -588.49759282424748 210.99808200479674 0 0 0 0 1191.4449500274568 -472.78577659513644 0 -472.78577659513644 130.25539601668925 0 0 0 0 898.37889744831773 -248.99746401216805 0 -248.99746401216805 234.71119788370146 0 0 0 0 894.85529304022202 -270.93261186275618 0 -270.93261186275618 129.35397684682812 0 0 0 0 582.16796448061359 -76.590916934969201 0 -76.590916934969201 334.46158976537401 0 0 0 0 820.55456787075673 -174.22010961284758 0 -174.22010961284758 261.8318713748173 0 0 0 0 1313.7365481405941 -502.35796452722309 0 -502.35796452722309 312.01026930720593 0 0 0 0 1458.9389420657099 -310.90381293188835 0 -310.90381293188835 282.86332468890032 0 0 0 0 1817.4592091149898 -883.03996953946114 0 -883.03996953946114 1101.1007700121504 0 0 0 0 1973.9753277514974 -217.29440463085143 0 -217.29440463085143 -150.51366744444843 0 0 0 0 1729.800086639676 48.510627444731085 0 48.510627444731085 -179.64164508317299 0 0 0 0 1667.1060832392322 19.664415756799713 0 19.664415756799713 -129.97832663172812 0 0 0 0 3321.0720684258413 -199.1003198814999 0 -199.1003198814999 -144.97855789221705 0 0 0 0 142.57163214159664 176.62468165326072 0 176.62468165326072 314.56799750169625 0 0 0 0 1847.685432311082 1168.6439291023887 0 1168.6439291023887 642.58183345665566 0 0 0 0 329.08353082306712 -23.842935687836587 0 -23.842935687836587 -78.111668301174632 0 0 0 0 68.113824468685493 -10.514031147218542 0 -10.514031147218542 -1.4357825166119191 0 0 0 0 530.23694220011384 72.371162327359954 0 72.371162327359954 -129.38057535980852 0 0 0 0 1298.2388483507384 616.35340987525319 0 616.35340987525319 158.04610012275452 0 0 0 0 1090.1511523265508 357.34083237298159 0 357.34083237298159 -48.084053399397249 0 0 0 0 315.52052865896985 178.63655492272687 0 178.63655492272687 106.85988907125648 0 0 0 0 521.27104256824532 161.09854784524737 0 161.09854784524737 43.937904078301926 0 0 0 0 701.5988185442402 -30.65995215063208 0 -30.65995215063208 -67.603730074580199 0 0 0 0 1249.7167926506954 80.447020875285034 0 80.447020875285034 -133.17963175085879 0 0 0 0 147.0253008300715 -147.33719223721391 0 -147.33719223721391 141.67513961519944 0 0 0 0 252.16460342626669 -191.03296999714621 0 -191.03296999714621 161.57694640864116 0 0 0 0 186.40175688150339 -128.59716355107957 0 -128.59716355107957 130.45631610544024 0 0 0 0 231.62561938271392 -219.46507291195394 0 -219.46507291195394 157.05739458926382 0 0 0 0 120.41020251778536 -19.223234142969432 0 -19.223234142969432 6.6787232335943827 0 0 0 0 210.73680106468964 -152.02819418224772 0 -152.02819418224772 40.102656138545171 0 0 0 0 -35.868719447084004 -18.705742753109689 0 -18.705742753109689 87.960645256165662 0 0 0 0 0.22834951570069961 2.9486905673739727 0 2.9486905673739727 1.1804156451403731 0 0 0 0 85.242246861904277 -30.075222034449382 0 -30.075222034449382 -3.9418634139128699 0 0 0 0 66.006147324602352 -55.021876743870507 0 -55.021876743870507 131.07445904504493 0 0 0 0 182.95158122869907 -97.834627010173335 0 -97.834627010173335 73.745226569370516 0 0 0 0 169.55471556459088 -100.12823694029407 0 -100.12823694029407 156.01693554106896 0 0 0 0 121.72440110263415 6.4824049733322227 0 6.4824049733322227 44.235728933790824 0 0 0 0 83.587783873808803 -18.582177762698393 0 -18.582177762698393 28.044849147498098 0 0 0 0 4.6210557101876475 39.085009174949619 0 39.085009174949619 18.287969863748287 0 0 0 0 -33.527067792601883 30.916137566717907 0 30.916137566717907 168.92278819379794 0 0 0 0 13.890612754177283 1.5747612853154465 0 1.5747612853154465 -2.9840585186817634 0 0 0 0 -1.5173276174464263 53.711813265660112 0 53.711813265660112 2.3350102386524441 0 0 0 0 27.62732776007033 59.502037558758275 0 59.502037558758275 -7.0356120878520869 0 0 0 0 10.819576477937517 14.490996439674518 0 14.490996439674518 -2.1269457844146586 0 0 0 0 31.127290334137797 34.328357376189672 0 34.328357376189672 -63.964122812186815 0 0 0 0 19.589036405914953 8.4146941974076412 0 8.4146941974076412 -4.0653393880869064 0 0 0 0 10.496661822544844 32.753639573975647 0 32.753639573975647 -8.7246532125121377 0 0 0 0 170.02966102550272 162.99377271712953 0 162.99377271712953 95.377460926349613 0 0 0 0 52.91748484512209 235.6069964291321 0 235.6069964291321 388.73387682251871 0 0 0 0 -0.6187861409281652 10.373447200211217 0 10.373447200211217 -4.2508292417680664 0 0 0 0 -0.21086193485325566 -0.11260434831993393 0 -0.11260434831993393 2.2186567989912556 0 0 0 0 115.23060607875232 -57.092072484805726 0 -57.092072484805726 -104.76274432649643 0 0 0 0 126.22917743423022 82.969295738216033 0 82.969295738216033 274.08403053319034 0 0 0 0 179.98537860247598 136.31971640535284 0 136.31971640535284 160.77398079186355 0 0 0 0 171.39762274303939 161.42940631478717 0 161.42940631478717 95.104972048431733 0 0 0 0 173.69906897377223 163.86002875033057 0 163.86002875033057 94.28211702214162 0 0 0 0 124.03943573060678 67.730323974811142 0 67.730323974811142 -1.28201092171102 0 0 0 0 169.75818718981463 200.85551144754953 0 200.85551144754953 38.79862068100644 0 0 0 0 120.7990071248496 162.61785934039699 0 162.61785934039699 172.07638921478338 0 0 0 0 104.29771910308045 132.32286875005178 0 132.32286875005178 278.10182107218361 0 0 0 0 165.76522871226189 95.071450584372883 0 95.071450584372883 257.09137071021541 0 0 0 0 145.86185066160397 295.54481461720798 0 295.54481461720798 239.40686956470608 0 0 0 0 171.45735956195858 222.22780392812615 0 222.22780392812615 229.77554176748708 0 0 0 0 215.48199387016211 148.05812546883169 0 148.05812546883169 25.60871518009742 0 0 0 0 250.59467731305267 27.145239527428934 0 27.145239527428934 -18.919240754055977 0 0 0 0 268.66947466479905 185.52603204376149 0 185.52603204376149 449.52196295230186 0 0 0 0 355.84394293838704 -163.14558898887458 0 -163.14558898887458 185.06301970096274 0 0 0 0 2.7322684983547845 2.8008302081724992 0 2.8008302081724992 3.0173681867564373 0 0 0 0 499.94698852050351 -523.10789893796368 0 -523.10789893796368 654.83644378890085 0 0 0 0 118.63120022493695 -115.05734026462862 0 -115.05734026462862 206.21299087553052 0 0 0 0 133.46854612519382 41.963355735075311 0 41.963355735075311 62.508334415288573 0 0 0 0 209.85086786681495 -148.1492499770543 0 -148.1492499770543 443.19829661548329 0 0 0 0 -117.81575849586807 -65.114330505255452 0 -65.114330505255452 134.89438841607239 0 0 0 0 -51.105357067615842 -251.29146660309459 0 -251.29146660309459 440.98921001967801 0 0 0 0 336.78631081832282 -210.37756067248677 0 -210.37756067248677 14.038429909909382 0 0 0 0 -37.569563589946483 76.30448506405537 0 76.30448506405537 439.0050399612627 0 0 0 0 -34.452906923215778 -27.441319727960888 0 -27.441319727960888 155.06892781654642 0 0 0 0 18.086041160160676 -33.06773556779217 0 -33.06773556779217 77.066086709604861 0 0 0 0 117.11323830100446 111.16182378801273 0 111.16182378801273 53.074405741225746 0 0 0 0 37.846430730078737 -10.282616413860993 0 -10.282616413860993 1.0527737297760082 0 0 0 0 -0.23893095212952176 -4.4291606100849208 0 -4.4291606100849208 145.52652363205561 0 0 0 0 69.480350746853219 3.8270762023857969 0 3.8270762023857969 1.128750727410079 0 0 0 0 385.77092123031616 -257.54442656091851 0 -257.54442656091851 254.05086097798085 0 0 0 0 321.60444317881775 -142.01283411321629 0 -142.01283411321629 155.74008880411566 0 0 0 0 265.725091577071 -191.80161665234664 0 -191.80161665234664 156.30960623487272 0 0 0 0 309.8873993656598 -146.50488335881437 0 -146.50488335881437 127.74839137232993 0 0 0 0 298.21504828657635 -154.68964344916071 0 -154.68964344916071 154.61229014994205 0 0 0 0 334.47220127088076 -249.56967487346242 0 -249.56967487346242 303.77269137311396 0 0 0 0 435.09312030568253 -304.13328171393914 0 -304.13328171393914 205.50415180973596 0 0 0 0 5.3974363153607499 5.3945880692879484 0 5.3945880692879484 12.579571210388156 0 0 0 0 20.272061062692785 -7.6660470395845444 0 -7.6660470395845444 4.2287800853968083 0 0 0 0 5.5109268060041359 -5.5666905572202268 0 -5.5666905572202268 25.78919355177095 0 0 0 0 30.902692738425685 54.051048552648354 0 54.051048552648354 -131.3083892197435 0 0 0 0 0.73957201997711763 2.033539908836512 0 2.033539908836512 3.9266277100032321 0 0 0 0 539.47323147801217 -386.6032225349345 0 -386.6032225349345 324.83671139567309 0 0 0 0 425.50172689078317 -261.8271838724404 0 -261.8271838724404 189.83904281659488 0 0 0 0 486.85907878907165 -171.79532426549986 0 -171.79532426549986 176.85513012814408 0 0 0 0 265.01935765793314 -157.18725549575902 0 -157.18725549575902 233.71536987441323 0 0 0 0 320.83827521919739 -214.63355271980072 0 -214.63355271980072 200.81798855163015 0 0 0 0 339.20840474800207 -151.88837064356358 0 -151.88837064356358 191.99913496070712 0 0 0 0 7.049757271378013 6.4510357936988498 0 6.4510357936988498 9.1372664016368574 0 0 0 0 314.40666001228965 -241.24595022462654 0 -241.24595022462654 167.52003624588065 0 0 0 0 398.78683865578205 -90.468900477213083 0 -90.468900477213083 41.552896857801898 0 0 0 0 -29.009956408583093 55.687560297108575 0 55.687560297108575 -50.954806853234913 0 0 0 0 0.2223917068913579 86.957384244910827 0 86.957384244910827 -32.835873370318041 0 0 0 0 4.1217165140844827 5.2865984808415476 0 5.2865984808415476 4.8922581455257017 0 0 0 0 -95.20129344923771 76.324813556992467 0 76.324813556992467 -13.952059339580956 0 0 0 0 -90.108636539225699 65.128132388720587 0 65.128132388720587 7.9553794093008037 0 0 0 0 127.87679915258195 -19.363948010730383 0 -19.363948010730383 -260.01420820131887 0 0 0 0 95.369716943620006 -70.847929388850389 0 -70.847929388850389 -127.3799710975436 0 0 0 0 -0.19590326791808366 72.186590785014232 0 72.186590785014232 -39.77784685282495 0 0 0 0 55.526058170857141 94.05530396820086 0 94.05530396820086 -81.926733222070652 0 0 0 0 180.47236947221973 147.06385405191486 0 147.06385405191486 -11.667045649658576 0 0 0 0 106.72843894366815 -2.695258609776829 0 -2.695258609776829 -70.998049991492735 0 0 0 0 409.0934363186534 -182.08881202691009 0 -182.08881202691009 35.413244945214501 0 0 0 0 182.12275126809254 -137.80030554062705 0 -137.80030554062705 -21.574684972662908 0 0 0 0 71.501479262038629 -53.824117784575321 0 -53.824117784575321 318.65979594492455 0 0 0 0 489.32120090036187 -95.662970475631482 0 -95.662970475631482 57.78109711599609 0 0 0 0 2.4591005134784609 2.5647318528884711 0 2.5647318528884711 0.59570772192943089 0 0 0 0 -2.9180498959467513 73.92366956638125 0 73.92366956638125 69.977574952865325 0 0 0 0 434.20319811482841 -161.60436100522088 0 -161.60436100522088 251.61613597862015 0 0 0 0 164.69384923134203 -240.40140018252123 0 -240.40140018252123 250.21977442575007 0 0 0 0 313.47013923041959 -227.56805625438642 0 -227.56805625438642 -150.21664708445314 0 0 0 0 1.0137603033528535 -1.0156175748699212 0 -1.0156175748699212 1.5702203303351752 0 0 0 0 85.729832132445154 -156.62878057491503 0 -156.62878057491503 71.502026282299994 0 0 0 0 222.1669426697481 172.63165960071819 0 172.63165960071819 53.482782491373655 0 0 0 0 -100.6353421720778 55.995815011929608 0 55.995815011929608 -21.557469168663374 0 0 0 0 -58.520353142404929 85.919815514515221 0 85.919815514515221 -78.436556908889543 0 0 0 0 -10.307841984220431 38.893788878794112 0 38.893788878794112 -37.160346122201645 0 0 0 0 68.318237759798649 -32.882027643460788 0 -32.882027643460788 -68.11484812246772 0 0 0 0 59.781301067545428 -138.48498796866869 0 -138.48498796866869 20.206905478725275 0 0 0 0 -89.662927857367322 59.019014840982891 0 59.019014840982891 -72.131394081464578 0 0 0 0 -103.03238832126954 30.476026176361756 0 30.476026176361756 -129.15950257176883 0 0 0 0 19.03604025145961 -2.4221388592334137 0 -2.4221388592334137 3.3808391841444099 0 0 0 0 14.720426854217465 9.0655569902201236 0 9.0655569902201236 -3.7139463470008138 0 0 0 0 -102.68105048689176 37.427387786306099 0 37.427387786306099 -201.87396770790474 0 0 0 0 618.11727288196562 76.869747552900662 0 76.869747552900662 -410.07204798143903 0 0 0 0 -136.97632822339074 94.066567871001098 0 94.066567871001098 -129.48383937742983 0 0 0 0 612.77290552694467 -8.2003636539234321 0 -8.2003636539234321 3.0281260619340173 0 0 0 0 1.9110629795574994 2.0062514921997945 0 2.0062514921997945 1.4489776515149373 0 0 0 0 -137.20722669547831 94.772846765034046 0 94.772846765034046 -62.667593229354679 0 0 0 0 297.22740825929213 -17.880651974247485 0 -17.880651974247485 111.91027977916474 0 0 0 0 399.79830010915612 -164.61301541165858 0 -164.61301541165858 219.85632361072021 0 0 0 0 -303.66353157322737 -87.82361964865413 0 -87.82361964865413 218.04006863345967 0 0 0 0 133.78951424884144 490.1963240134055 0 490.1963240134055 -227.46224314089159 0 0 0 0 314.06358575329068 289.74083287614485 0 289.74083287614485 448.62390121335648 0 0 0 0 4.0286140415968816 -3.6161606568467555 0 -3.6161606568467555 1.4355386502717158 0 0 0 0 318.84500198802561 -516.6362887996529 0 -516.6362887996529 30.751694733961358 0 0 0 0 1143.0691918983648 -59.520759203343914 0 -59.520759203343914 -56.498193354172713 0 0 0 0 1576.501728548441 -611.8272078772693 0 -611.8272078772693 366.69397230349023 0 0 0 0 682.59523068723502 -625.50852665657749 0 -625.50852665657749 581.0748794577371 0 0 0 0 1105.3418820167717 -186.54096864586927 0 -186.54096864586927 -16.312181116421016 0 0 0 0 397.76003815428703 -194.80040440553876 0 -194.80040440553876 114.82726076050017 0 0 0 0 993.69804130643752 -421.67984851830715 0 -421.67984851830715 -51.707757302279788 0 0 0 0 836.77427328288468 -68.804645915139872 0 -68.804645915139872 71.160712858344596 0 0 0 0 714.05245217337506 -223.61092733420537 0 -223.61092733420537 107.02735276427558 0 0 0 0 1450.9961269808482 -83.921751267137154 0 -83.921751267137154 -101.51052701714161 0 0 0 0 1109.9488072122331 -288.77458034841948 0 -288.77458034841948 -48.094188453808783 0 0 0 0 1298.4531318115241 119.2391912906071 0 119.2391912906071 -141.84558629705862 0 0 0 0 1055.4072212916799 8.6292380756522107 0 8.6292380756522107 -117.01942927158871 0 0 0 0 1055.4082252934097 2.4355047190231143 0 2.4355047190231143 94.304100348082102 0 0 0 0 920.43910190032329 116.76310183854321 0 116.76310183854321 3.9683708325178486 0 0 0 0 1.4681696425729456 1.8441499596390827 0 1.8441499596390827 0.75757310321366944 0 0 0 0 185.02646578739223 -92.312339829205484 0 -92.312339829205484 220.20362721051515 0 0 0 0 134.10153170948251 -152.36039764947282 0 -152.36039764947282 160.56217641489548 0 0 0 0 171.79099630804558 -146.62025893074042 0 -146.62025893074042 132.26513842225904 0 0 0 0 295.97742642992671 -204.54259832733601 0 -204.54259832733601 119.83061684676068 0 0 0 0 265.0790513419488 -192.63805326636475 0 -192.63805326636475 117.66734458491555 0 0 0 0 281.87280491739511 -169.54011160673963 0 -169.54011160673963 135.42224299243537 0 0 0 0 275.76009187566524 -144.61357244980127 0 -144.61357244980127 148.91423658704764 0 0 0 0 246.92865971105493 -116.88806215802015 0 -116.88806215802015 137.78959224450409 0 0 0 0 453.70216891121527 -11.810910323072903 0 -11.810910323072903 184.1905674024174 0 0 0 0 3936.1597089315474 1476.310817911904 0 1476.310817911904 12.40214421429809 0 0 0 0 3015.8294222858894 934.04583188426682 0 934.04583188426682 -9.4378737324842632 0 0 0 0 3854.3230259468764 1606.4819929083362 0 1606.4819929083362 220.36848843893074 0 0 0 0 3942.7792462344441 692.71165887336031 0 692.71165887336031 -477.88825618488943 0 0 0 0 3197.0695173241329 1264.9750428283774 0 1264.9750428283774 -151.19108688545407 0 0 0 0 4598.3609620623465 1670.349461102574 0 1670.349461102574 -337.64691316668603 0 0 0 0 5496.2298775623531 959.24167522207892 0 959.24167522207892 -884.6706528987412 0 0 0 0 4750.4762506267944 333.71283328532752 0 333.71283328532752 -420.36159224042552 0 0 0 0 4099.0204526649759 432.14788874133626 0 432.14788874133626 0.68894368112202475 0 0 0 0 4182.2332018678626 641.39690948874807 0 641.39690948874807 -258.29951712654452 0 0 0 0 3346.2325170566473 526.96274804238851 0 526.96274804238851 -226.59358425249184 0 0 0 0 4212.5993037420812 988.98618502956811 0 988.98618502956811 -526.95481968884951 0 0 0 0 3339.8940308863639 559.50510628326879 0 559.50510628326879 -392.65671975159785 0 0 0 0 1843.7728055120388 485.89743983993469 0 485.89743983993469 -131.49952618827024 0 0 0 0 2413.8876445282513 293.59121524575698 0 293.59121524575698 -193.55484423388691 0 0 0 0 3588.775608204327 571.36547883179912 0 571.36547883179912 0.33596994580887979 0 0 0 0 3813.7703745441977 518.69579003410604 0 518.69579003410604 -232.46015678959225 0 0 0 0 2479.6528569415532 -524.00340502161657 0 -524.00340502161657 -1250.0216146086705 0 0 0 0 13.597594275007395 3.1052249642413869 0 3.1052249642413869 -5.1856720467213275 0 0 0 0 -924.18923979878309 1641.0305309380146 0 1641.0305309380146 4.6376666135333888 0 0 0 0 3562.9673050142756 -1196.8068178628714 0 -1196.8068178628714 198.62814102003745 0 0 0 0 900.17913836092339 -437.44821518298772 0 -437.44821518298772 154.64005730724034 0 0 0 0 18.547716712289684 2.1128298383644051 0 2.1128298383644051 -17.520064483644987 0 0 0 0 40.427103290421655 983.88314234589552 0 983.88314234589552 -1163.1081618842049 0 0 0 0 855.78506785386526 95.659340459616118 0 95.659340459616118 -81.099602937290001 0 0 0 0 606.67749234284565 -377.87712362904119 0 -377.87712362904119 -10.282300330979069 0 0 0 0 2323.2123638872581 -301.41247629454142 0 -301.41247629454142 -288.15016241825833 0 0 0 0 1097.4863479430205 127.68099880064005 0 127.68099880064005 -17.155665511469579 0 0 0 0 1577.542864160976 -145.67031365236744 0 -145.67031365236744 -159.04770315026184 0 0 0 0 597.14320481813047 384.37504445313363 0 384.37504445313363 38.991806695695686 0 0 0 0 182.35799908272747 12.13323388175445 0 12.13323388175445 135.97883440988505 0 0 0 0 793.71682713627888 -98.10978912804913 0 -98.10978912804913 -8.8992213585415811 0 0 0 0 53.955213862304447 -29.5921834829592 0 -29.5921834829592 -2.9511927059315308 0 0 0 0 1130.1913191669155 715.50666909402889 0 715.50666909402889 274.34472657371265 0 0 0 0 2684.6479635621217 438.31998800708118 0 438.31998800708118 -271.56596410033251 0 0 0 0 1505.600715706918 484.60765687931752 0 484.60765687931752 223.85178877976682 0 0 0 0 2256.0015595299483 1383.5687277851926 0 1383.5687277851926 583.98135574950186 0 0 0 0 284.1536711268127 307.98987752731341 0 307.98987752731341 -67.17756604362927 0 0 0 0 184.98194322176278 85.337508234041422 0 85.337508234041422 -77.569403613277331 0 0 0 0 240.1523788178165 285.9936170316771 0 285.9936170316771 67.827736534284895 0 0 0 0 205.99844864456827 165.14898287858705 0 165.14898287858705 150.4239595771661 0 0 0 0 229.52085580237326 152.31106512776967 0 152.31106512776967 111.44494286488566 0 0 0 0 52.803622521162026 -28.752153063435117 0 -28.752153063435117 -1.9521301553769803 0 0 0 0 521.22267956857104 -84.208929339562133 0 -84.208929339562133 248.77581266059678 0 0 0 0 277.17384360154392 126.25951456053292 0 126.25951456053292 692.10425641230654 0 0 0 0 230.35224466833461 137.36167277626703 0 137.36167277626703 302.82774932926156 0 0 0 0 288.43084240870667 180.12219771089235 0 180.12219771089235 209.83226827822614 0 0 0 0 231.6465879091993 306.99399947925212 0 306.99399947925212 294.77704549885198 0 0 0 0 249.18279702748987 268.66973128371387 0 268.66973128371387 100.11595329183683 0 0 0 0 312.70856209995691 300.84217484385977 0 300.84217484385977 226.60756030091295 0 0 0 0 395.75040240641101 339.66442120228226 0 339.66442120228226 242.60004701378648 0 0 0 0 1059.1150725935877 422.15885532892662 0 422.15885532892662 112.28208651250634 0 0 0 0 343.30662537338503 370.77790203064859 0 370.77790203064859 1053.6879139999166 0 0 0 0 92.891734633216402 -294.746479826783 0 -294.746479826783 228.76435522480551 0 0 0 0 478.08844271687849 -884.00533509130923 0 -884.00533509130923 1047.4836759754844 0 0 0 0 1038.3121936813404 245.83759527653342 0 245.83759527653342 -36.926975282948888 0 0 0 0 -38.967213756965066 71.307919575612459 0 71.307919575612459 299.88452602727648 0 0 0 0 -24.613475318823475 213.38390213177399 0 213.38390213177399 1288.895571766493 0 0 0 0 5.688450892797448 -5.1170729011193998 0 -5.1170729011193998 5.8487828719209549 0 0 0 0 627.00632968533318 -391.96411078960261 0 -391.96411078960261 970.69631078824204 0 0 0 0 1136.3690259896248 -301.76447614036113 0 -301.76447614036113 6.4925308608715113 0 0 0 0 768.9470697860088 -13.835893193788024 0 -13.835893193788024 -123.62032278134848 0 0 0 0 719.28190920779889 -11.445411116892558 0 -11.445411116892558 -5.522411777392108 0 0 0 0 712.97256631485652 -48.573851011629358 0 -48.573851011629358 -136.76514674376722 0 0 0 0 141.46454901013931 -182.44858769490031 0 -182.44858769490031 -162.5412838382772 0 0 0 0 99.587265708949417 -141.30414168574657 0 -141.30414168574657 -32.964796696206577 0 0 0 0 13.033141058783428 -15.985734836546612 0 -15.985734836546612 14.637163977717154 0 0 0 0 283.21023212355794 16.11546842739881 0 16.11546842739881 -77.220068641461694 0 0 0 0 179.46906847111677 66.188906543950765 0 66.188906543950765 58.05420802644494 0 0 0 0 576.5219581128913 140.14940873015303 0 140.14940873015303 -103.85350389703399 0 0 0 0 581.79467318917159 33.504947072682626 0 33.504947072682626 -110.16679923509741 0 0 0 0 371.31823682895629 53.541295606387393 0 53.541295606387393 -86.403378517451074 0 0 0 0 356.14873434064793 -41.911101977526641 0 -41.911101977526641 -106.33561004398234 0 0 0 0 98.244524774199817 52.077578168120453 0 52.077578168120453 -77.752044261460469 0 0 0 0 229.5451693055802 -70.158948254500046 0 -70.158948254500046 -27.711290067174559 0 0 0 0 220.0521185338439 -80.279471618387561 0 -80.279471618387561 -156.09648851710153 0 0 0 0 378.19979059445905 -49.585315921038273 0 -49.585315921038273 -42.053103026951703 0 0 0 0 546.81248231252539 -38.048668772064957 0 -38.048668772064957 -97.412327564206862 0 0 0 0 377.51943660354118 -39.119687638069024 0 -39.119687638069024 -47.038551004694455 0 0 0 0 578.09460778004723 -56.59079221356933 0 -56.59079221356933 -72.425626726174414 0 0 0 0 576.94667900364584 -55.670546724192491 0 -55.670546724192491 -56.704466600220258 0 0 0 0 151.24936791756772 -61.47593372299616 0 -61.47593372299616 60.66010899766934 0 0 0 0 332.79133625340182 -169.90242470039266 0 -169.90242470039266 49.952740146981341 0 0 0 0 771.30010852814303 26.876649174710565 0 26.876649174710565 -91.183608322651253 0 0 0 0 766.45063143927837 -45.276190957575182 0 -45.276190957575182 -141.10998015121913 0 0 0 0 833.50956987167592 -121.90182193553937 0 -121.90182193553937 -43.887884302694147 0 0 0 0 800.55847626645118 -82.789920807425005 0 -82.789920807425005 -70.537126731203898 0 0 0 0 833.90316250128672 16.595476246687667 0 16.595476246687667 -119.36397880827099 0 0 0 0 952.85452278872253 93.227588144742185 0 93.227588144742185 -72.869498224085874 0 0 0 0 827.10175866344525 157.90275864396688 0 157.90275864396688 -49.39255820145172 0 0 0 0 578.49688058315951 55.316662711921026 0 55.316662711921026 -20.98872166331671 0 0 0 0 751.66014086144423 -50.580677194722909 0 -50.580677194722909 43.444723742338738 0 0 0 0 453.50513484221301 7.2125411615588746 0 7.2125411615588746 171.46330773989985 0 0 0 0 458.68916659125352 50.012833994854077 0 50.012833994854077 157.61918263780785 0 0 0 0 207.99317697233346 130.13411616047892 0 130.13411616047892 149.81297937484146 0 0 0 0 532.19642005915011 163.48542651320884 0 163.48542651320884 25.534603600512582 0 0 0 0 356.31638852406468 65.73495572415095 0 65.73495572415095 88.22315547225503 0 0 0 0 49.666827842780151 -26.724811773842276 0 -26.724811773842276 -10.673715002311354 0 0 0 0 101.57717685612442 -247.86509987044354 0 -247.86509987044354 79.891321272534469 0 0 0 0 423.02720851484628 567.6060630698471 0 567.6060630698471 322.40948772324919 0 0 0 0 791.18239604445989 124.12668048623982 0 124.12668048623982 -25.15322656949138 0 0 0 0 995.95189928362379 332.51069462956957 0 332.51069462956957 156.21190617423963 0 0 0 0 19.012462480405759 -7.3700766034562548 0 -7.3700766034562548 -4.6102245616933839 0 0 0 0 1276.5050866381207 313.04984596754321 0 313.04984596754321 128.03655351683847 0 0 0 0 1233.830246644502 766.34284794093219 0 766.34284794093219 646.27773449059191 0 0 0 0 983.20095429866342 537.53143665149582 0 537.53143665149582 626.13884643784877 0 0 0 0 2152.2638772117207 895.72483995732273 0 895.72483995732273 263.60181728118914 0 0 0 0 17.792921679939354 -231.49138448822222 0 -231.49138448822222 269.05507901344936 0 0 0 0 14.667859288994407 -20.49262735948804 0 -20.49262735948804 14.79668524975137 0 0 0 0 50.164079678652342 30.012668129434132 0 30.012668129434132 -443.12521180230215 0 0 0 0 15.370844055287705 -21.220964302564767 0 -21.220964302564767 -31.538582395555672 0 0 0 0 25.990850211441284 139.04677001006667 0 139.04677001006667 40.950176580991695 0 0 0 0 411.99278169098761 -652.49921284112145 0 -652.49921284112145 -58.870866940815176 0 0 0 0 95.247652983187436 -627.16001040630113 0 -627.16001040630113 321.51361059821647 0 0 0 0 51.960633586480981 -544.87137962261363 0 -544.87137962261363 343.67436099502982 0 0 0 0 39.627405970182735 13.239630743580067 0 13.239630743580067 -0.024033489766372852 0 0 0 0 709.83894063779007 -1816.0392660464297 0 -1816.0392660464297 1240.7758736403036 0 0 0 0 26.269612557555433 1.1992045061243601 0 1.1992045061243601 -0.27271595338301202 0 0 0 0 63.548632910755259 30.024029205852752 0 30.024029205852752 -11.360553163749444 0 0 0 0 62.750815467064967 26.224722322476659 0 26.224722322476659 -13.957256173616042 0 0 0 0 39.630823294706715 13.255919738783483 0 13.255919738783483 -0.012630957509775711 0 0 0 0 66.227951202134136 15.699734274453832 0 15.699734274453832 1.8137308915852746 0 0 0 0 -177.28298476984492 -1664.8876539408693 0 -1664.8876539408693 1965.4175097686048 0 0 0 0 2777.2433480620675 -62.128527222959292 0 -62.128527222959292 -1577.3547822535393 0 0 0 0 -906.4472369778232 376.63807764642706 0 376.63807764642706 829.15024975465531 0 0 0 0 935.35927708515374 -257.82529335442041 0 -257.82529335442041 214.71000819781329 0 0 0 0 548.21514082420617 -642.9029269778448 0 -642.9029269778448 597.61824929199724 0 0 0 0 -1.4427065302152187 -339.65046546075064 0 -339.65046546075064 527.33150826446763 0 0 0 0 2766.3466265386814 315.8415422728948 0 315.8415422728948 -116.24679070525599 0 0 0 0 2672.5614571499755 -702.67984491984225 0 -702.67984491984225 -86.180202129895406 0 0 0 0 1136.1435698549903 -533.30054557153062 0 -533.30054557153062 171.78507424198688 0 0 0 0 1780.9261917062977 -46.350504586940588 0 -46.350504586940588 18.46509319152392 0 0 0 0 1548.9591268987861 257.65850306083303 0 257.65850306083303 136.57703371508069 0 0 0 0 1455.1999021193187 185.27658474202781 0 185.27658474202781 86.561138507866417 0 0 0 0 1600.4821323532669 597.28063429144731 0 597.28063429144731 279.60701292416888 0 0 0 0 1409.7945972281741 194.54339643740695 0 194.54339643740695 125.17204003854204 0 0 0 0 999.24417674756842 48.088589033000972 0 48.088589033000972 125.25338093884558 0 0 0 0 1039.6554230619513 -38.985068469780799 0 -38.985068469780799 68.771782615543998 0 0 0 0 1157.2139819531585 -119.32330809625091 0 -119.32330809625091 39.284887993564098 0 0 0 0 1095.1059698951576 -127.87610616549136 0 -127.87610616549136 -17.917980822663594 0 0 0 0 757.5268547234009 -93.30448685623378 0 -93.30448685623378 3.7047232632530722 0 0 0 0 1086.6526422758179 36.807407849410993 0 36.807407849410993 -62.190237358892773 0 0 0 0 649.19645072420826 -222.19782604303509 0 -222.19782604303509 106.2288027195691 0 0 0 0 732.32233660976635 -364.31371220828169 0 -364.31371220828169 237.82746076235298 0 0 0 0 592.41264720101026 -280.42376597594784 0 -280.42376597594784 56.635520989791985 0 0 0 0 723.56957866303856 -53.423132966731828 0 -53.423132966731828 -24.03820545819508 0 0 0 0 346.66466155950911 -240.98115069600135 0 -240.98115069600135 154.42386286138935 0 0 0 0 213.07291456655366 -99.330022106692013 0 -99.330022106692013 133.32904715608311 0 0 0 0 423.0441801972338 -144.46201127734821 0 -144.46201127734821 35.168840265077051 0 0 0 0 91.873095172166359 -232.50788517248498 0 -232.50788517248498 216.20459485188621 0 0 0 0 -211.12610897689592 -4.484698858072079 0 -4.484698858072079 122.21557938737942 0 0 0 0 -0.66792425475563277 1.5285974241541709 0 1.5285974241541709 -0.26031190618892053 0 0 0 0 -7.7399238607977168 -2.8380951251521083 0 -2.8380951251521083 16.266197867248593 0 0 0 0 -42.972369481110945 -24.472065220364129 0 -24.472065220364129 85.516649727049298 0 0 0 0 -88.291789378999965 65.094964235503539 0 65.094964235503539 3.1931524599922341 0 0 0 0 -7.8789716347528156 -3.4731137287326419 0 -3.4731137287326419 53.238177896402135 0 0 0 0 -67.569800918397959 126.92723936089715 0 126.92723936089715 77.828537913079572 0 0 0 0 69.317292353075231 24.856213085524914 0 24.856213085524914 10.541095208662709 0 0 0 0 -213.64595604516217 21.122488056225393 0 21.122488056225393 193.74144458656701 0 0 0 0 2.0523493926884839 141.27575066262602 0 141.27575066262602 -36.261952645042584 0 0 0 0 -213.14060849482485 27.262751835329254 0 27.262751835329254 143.60335125968413 0 0 0 0 -90.843855192772025 66.467728229175464 0 66.467728229175464 113.24589541462319 0 0 0 0 60.708897458185675 46.169071291653665 0 46.169071291653665 -0.30223791895130603 0 0 0 0 75.253724015579792 49.087463181219697 0 49.087463181219697 -25.833935601070891 0 0 0 0 -265.84441332957795 744.88615503176243 0 744.88615503176243 -507.63494458767946 0 0 0 0 77.774887157908324 26.503077071034923 0 26.503077071034923 7.6244274553411726 0 0 0 0 102.58234928976162 5.6194316929737589 0 5.6194316929737589 -4.0031136615941705 0 0 0 0 112.72709615023632 34.943600251835235 0 34.943600251835235 0.032122859798578138 0 0 0 0 66.130369426769903 38.699125352659642 0 38.699125352659642 -0.010783588426394224 0 0 0 0 81.343362625018926 22.197307699303167 0 22.197307699303167 4.781886252866876 0 0 0 0 55.335516606020974 3.5396820588388631 0 3.5396820588388631 0.00013034694343040491 0 0 0 0 52.454484503308777 8.9224304335136075 0 8.9224304335136075 0.13354143453167458 0 0 0 0 62.051116848131642 7.0243918238311878 0 7.0243918238311878 -0.084824207459448075 0 0 0 0 -0.55295896806935474 -0.24414715442640045 0 -0.24414715442640045 0.26283195894165096 0 0 0 0 190.6791412193561 12.466275472433299 0 12.466275472433299 -19.076462018010197 0 0 0 0 18.418951553769588 1.7834200699745679 0 1.7834200699745679 0.13887570492724982 0 0 0 0 107.75026139654801 26.694870376539043 0 26.694870376539043 -21.55515224238286 0 0 0 0 82.273092039773474 14.502562088673605 0 14.502562088673605 7.3028394212178602 0 0 0 0 58.03513868371374 2.8252851731412107 0 2.8252851731412107 3.4174517544720606 0 0 0 0 62.942247224971652 15.794934471694145 0 15.794934471694145 4.3698495176384693 0 0 0 0 41.568468316560029 5.8676138860492983 0 5.8676138860492983 3.9331715761575143 0 0 0 0 23.142984385744228 -7.3872682055290397 0 -7.3872682055290397 -3.3558443425105628 0 0 0 0 32.743340437811696 2.394947920953129 0 2.394947920953129 1.911977174603444 0 0 0 0 45.332819263654528 10.773329847228496 0 10.773329847228496 -0.43418617189362863 0 0 0 0 34.688471384361037 20.807521321670151 0 20.807521321670151 19.522725496829025 0 0 0 0 25.767012024304677 5.5823159119925876 0 5.5823159119925876 2.4469038285941545 0 0 0 0 77.336943603062537 12.409172157333286 0 12.409172157333286 11.689834271147181 0 0 0 0 40.238711035723099 15.68990729758282 0 15.68990729758282 13.527892775636587 0 0 0 0 34.407418017004886 -4.1580380332719926 0 -4.1580380332719926 1.2417173221807776 0 0 0 0 23.307932555209845 -2.8760886959498748 0 -2.8760886959498748 -21.125400428565626 0 0 0 0 34.875390899784691 -1.0897563126751564 0 -1.0897563126751564 5.2054555887955312 0 0 0 0 28.051627394419654 -7.4121894520765039 0 -7.4121894520765039 5.7607595742994313 0 0 0 0 -1.6504475857673242 3.397445021806007 0 3.397445021806007 2.8762577988172726 0 0 0 0 -4.7669705600710586 20.900232879374016 0 20.900232879374016 74.713583053494858 0 0 0 0 48.53936883712305 10.446100105858392 0 10.446100105858392 0.98328270845933519 0 0 0 0 36.579683631716762 6.0845265521134024 0 6.0845265521134024 -10.226205713546733 0 0 0 0 60.109022917262138 7.3240751010688996 0 7.3240751010688996 9.4193962267755396 0 0 0 0 43.939054853903144 21.275052483189654 0 21.275052483189654 3.9204979667017277 0 0 0 0 1.2153842639061736 10.55690514117358 0 10.55690514117358 21.297495274000784 0 0 0 0 -8.9933429652010091 35.33131761763434 0 35.33131761763434 32.8032155439696 0 0 0 0 51.778099911040044 -13.925714186144319 0 -13.925714186144319 -1.1382624827756445 0 0 0 0 17.571327360853445 -7.5799210674736912 0 -7.5799210674736912 8.1032357079566175 0 0 0 0 2.2704432581727474 1.0075528887390988 0 1.0075528887390988 1.2018298200816062 0 0 0 0 7.9097072365693748 6.8631155217881314 0 6.8631155217881314 0.26374726679205196 0 0 0 0 51.33018973902108 -10.519484272750432 0 -10.519484272750432 0.058556671002179428 0 0 0 0 15.343823087905974 -2.2464268165727503 0 -2.2464268165727503 1.0875907431505905 0 0 0 0 54.808067068253877 -4.2523610894916146 0 -4.2523610894916146 -5.6343535612095366 0 0 0 0 62.883283611823572 -9.1541339400226889 0 -9.1541339400226889 -2.8498772525015283 0 0 0 0 51.366684261680348 -6.6607641099340071 0 -6.6607641099340071 12.22850785697193 0 0 0 0 40.501135708400398 -88.675251808308531 0 -88.675251808308531 -89.125334399200256 0 0 0 0 57.096244113199646 -4.2743907245721857 0 -4.2743907245721857 -1.3556712430236075 0 0 0 0 59.091775209243679 -4.1940628550157726 0 -4.1940628550157726 -12.013386604117473 0 0 0 0 21.023348623537458 -42.400678868036266 0 -42.400678868036266 -28.7821022746175 0 0 0 0 30.781758024422743 -18.136006018451951 0 -18.136006018451951 -6.1372005319708478 0 0 0 0 -2.133492398311688 -17.813386988301204 0 -17.813386988301204 -16.951323721407867 0 0 0 0 18.33295962815464 -46.323334601948545 0 -46.323334601948545 -30.65566482304655 0 0 0 0 0.047366048103619107 -9.6243448704838386 0 -9.6243448704838386 -15.511064865859202 0 0 0 0 5.5478388365299907 19.458249344426804 0 19.458249344426804 -52.454202929819076 0 0 0 0 26.994714961067075 1.713212000548765 0 1.713212000548765 -80.275477334145762 0 0 0 0 24.532047408356448 -8.6513368354414979 0 -8.6513368354414979 -42.661061961118321 0 0 0 0 23.472497560433112 -13.536177375559433 0 -13.536177375559433 -2.2527102755142288 0 0 0 0 26.70444394635706 -36.114397381334925 0 -36.114397381334925 -78.012668221659624 0 0 0 0 24.763514230381304 -16.166848141071142 0 -16.166848141071142 1.3053036937326361 0 0 0 0 21.199156184738968 -9.6132223098802569 0 -9.6132223098802569 0.61228770467755567 0 0 0 0 48.97598586557433 -12.940617467033235 0 -12.940617467033235 -2.5950886079245947 0 0 0 0 19.186647207746063 -22.350627996002856 0 -22.350627996002856 -20.445118780745311 0 0 0 0 36.650994918541983 -5.8773892979266975 0 -5.8773892979266975 -2.9072532367167696 0 0 0 0 27.663077860234978 -5.5276215732224898 0 -5.5276215732224898 -24.586762459023948 0 0 0 0 60.656939239532221 -6.6990498751733867 0 -6.6990498751733867 0.71032781166331915 0 0 0 0 9.7733188791185341 -1.5519813147456887 0 -1.5519813147456887 -0.20710151375739905 0 0 0 0 23.083767052714563 -16.213565432001182 0 -16.213565432001182 -19.518970710395536 0 0 0 0 11.149357072514249 -19.277762084978306 0 -19.277762084978306 -2.9458464480849784 0 0 0 0 -107.92383271854487 6.1512078735177056 0 6.1512078735177056 -79.900454306660777 0 0 0 0 12.060585058061406 -11.011312570119387 0 -11.011312570119387 3.001791153234791 0 0 0 0 -33.453771717409836 -131.49446667312395 0 -131.49446667312395 169.09596696580934 0 0 0 0 -125.14764521381585 -76.360150713439452 0 -76.360150713439452 77.45258590761091 0 0 0 0 15.678542320921849 -11.389988849415488 0 -11.389988849415488 4.2862231727481754 0 0 0 0 -76.336278879491147 -185.18632691698872 0 -185.18632691698872 21.109210242645077 0 0 0 0 149.42590808323394 -141.75903357902422 0 -141.75903357902422 34.783759298688892 0 0 0 0 11.349764112428147 -12.514082356918557 0 -12.514082356918557 10.146456434969434 0 0 0 0 105.09391158734798 74.906024642273451 0 74.906024642273451 -170.26376675680331 0 0 0 0 -34.343340378691209 46.890791832593095 0 46.890791832593095 153.36097699759102 0 0 0 0 173.57903518911917 -11.75840066482624 0 -11.75840066482624 -251.49161051548617 0 0 0 0 155.9848068091087 -141.57705009104302 0 -141.57705009104302 -106.69256778111821 0 0 0 0 -21.215437246777583 3.9696586352672512 0 3.9696586352672512 -16.644697720560544 0 0 0 0 43.208183539521997 -149.49338163176844 0 -149.49338163176844 252.61828941530257 0 0 0 0 1.5063298347823206 -1.1777573975603772 0 -1.1777573975603772 -0.35788392573254235 0 0 0 0 52.19639302745054 -170.77246748897426 0 -170.77246748897426 280.03977636112177 0 0 0 0 -81.743725886350148 -91.326349404134362 0 -91.326349404134362 221.77637440557373 0 0 0 0 93.514951978817408 -84.926431930789931 0 -84.926431930789931 283.07056436245966 0 0 0 0 -85.017157166439574 -106.29942538362684 0 -106.29942538362684 286.2445454012834 0 0 0 0 -99.575778312864713 -92.642825259475785 0 -92.642825259475785 668.2663019516317 0 0 0 0 30.509258206919185 -348.40812674836502 0 -348.40812674836502 90.044711134520185 0 0 0 0 -31.091959979588864 -486.7379468594379 0 -486.7379468594379 497.97878169838998 0 0 0 0 33.063043594340343 -194.58235941387346 0 -194.58235941387346 194.48689898203247 0 0 0 0 33.954429332283325 -183.39409328431384 0 -183.39409328431384 329.90081099003282 0 0 0 0 68.714802692178637 -279.90952837540112 0 -279.90952837540112 121.99144547220021 0 0 0 0 37.265438423550222 -300.64065755022443 0 -300.64065755022443 277.92172810934267 0 0 0 0 81.930868128372822 -236.75259317784958 0 -236.75259317784958 219.85870698768304 0 0 0 0 83.12291746273695 -228.62586242379916 0 -228.62586242379916 129.89862051751243 0 0 0 0 117.26796838143491 -186.49245301718224 0 -186.49245301718224 180.91347957310563 0 0 0 0 116.35359906701342 -177.45674264728018 0 -177.45674264728018 99.404365263738327 0 0 0 0 -6.4309088083782058 -8.8315295277900532 0 -8.8315295277900532 -11.214033686036057 0 0 0 0 10.284940585144795 -110.10010258524289 0 -110.10010258524289 77.104487851555405 0 0 0 0 147.30255669532926 -203.46973803983246 0 -203.46973803983246 118.00567859152784 0 0 0 0 -230.20900502735458 -152.42601860802768 0 -152.42601860802768 -119.82205181634771 0 0 0 0 163.79065568262013 -117.40868534506421 0 -117.40868534506421 49.008238930647281 0 0 0 0 167.28187873700517 -147.39715384904139 0 -147.39715384904139 111.56981976296993 0 0 0 0 0.025347861168206975 -0.1027406164851925 0 -0.1027406164851925 0.054397178916183009 0 0 0 0 -27.870320264955808 -2.6003276257273455 0 -2.6003276257273455 11.244530473670238 0 0 0 0 2.9825079733619759 -16.597664038601824 0 -16.597664038601824 -23.868681802773207 0 0 0 0 4.1422904430929748 -2.590449981705568 0 -2.590449981705568 -2.8359039765854615 0 0 0 0 114.4196195442637 -93.776933160504541 0 -93.776933160504541 75.757523146426138 0 0 0 0 8.1405169384670444 -3.6030772079552662 0 -3.6030772079552662 -9.5837741512723369 0 0 0 0 40.123659206132288 -128.9277119877479 0 -128.9277119877479 151.05630406469959 0 0 0 0 134.12820837360778 -225.32487534796655 0 -225.32487534796655 242.1861425905671 0 0 0 0 123.45197131013265 35.119041192477312 0 35.119041192477312 269.77760572146622 0 0 0 0 190.86471483396599 -168.82023637628231 0 -168.82023637628231 244.68341431256889 0 0 0 0 286.35002190512023 -140.43402776076186 0 -140.43402776076186 108.34884693202895 0 0 0 0 195.8472171844187 -186.48435550747413 0 -186.48435550747413 86.327138237142663 0 0 0 0 315.27980040852708 -223.34261286172637 0 -223.34261286172637 115.24608924647737 0 0 0 0 151.16992675438632 -227.41362691655448 0 -227.41362691655448 122.72971921085764 0 0 0 0 147.09103461311315 -200.97922638863344 0 -200.97922638863344 122.2677463604673 0 0 0 0 111.73924556383281 -262.65295578615002 0 -262.65295578615002 94.347740739013148 0 0 0 0 83.479497137246653 -243.65241528992794 0 -243.65241528992794 122.75527828114656 0 0 0 0 128.75756189980893 -317.83563105843666 0 -317.83563105843666 93.022444441151094 0 0 0 0 108.88721439901565 -243.93544626290841 0 -243.93544626290841 -99.237414663370942 0 0 0 0 213.26508437830489 -348.89050852001242 0 -348.89050852001242 -417.00508423820179 0 0 0 0 3.9867548662150512 15.66596177562419 0 15.66596177562419 -72.165822927190305 0 0 0 0 75.274287370644743 -31.236408327541586 0 -31.236408327541586 -80.779875835016213 0 0 0 0 68.556502461695345 -47.450453642035697 0 -47.450453642035697 -69.959997453982851 0 0 0 0 74.669449273322243 -59.081881975847807 0 -59.081881975847807 -53.118740122309759 0 0 0 0 43.825902429307462 -99.351904825375641 0 -99.351904825375641 73.528060723788343 0 0 0 0 9.1451849942212107 -2.3128259038021497 0 -2.3128259038021497 -3.8460274218711055 0 0 0 0 41.906002331830678 -34.028648610373693 0 -34.028648610373693 -7.8458921165963602 0 0 0 0 18.299779929948272 7.2599741869582886 0 7.2599741869582886 -15.234245891331142 0 0 0 0 43.700948870056891 -11.248820521245193 0 -11.248820521245193 -16.159709228150859 0 0 0 0 15.294366425517268 3.7266597887214346 0 3.7266597887214346 -17.026289707744489 0 0 0 0 23.028847877067165 2.4689559205893374 0 2.4689559205893374 -10.59564492569325 0 0 0 0 197.73018863105972 20.22093404956297 0 20.22093404956297 -36.815584367405336 0 0 0 0 3.0817930620158336 -2.1179479694479575 0 -2.1179479694479575 1.0598322017987467 0 0 0 0 58.841032081953017 69.325375259655431 0 69.325375259655431 52.282892300889671 0 0 0 0 139.4256764476886 -225.42551631205106 0 -225.42551631205106 199.15376313527298 0 0 0 0 20.549442576186266 -101.88851944626435 0 -101.88851944626435 -4.5597864316125225 0 0 0 0 69.85917393618729 -4.6987784455386645 0 -4.6987784455386645 -49.298782331487473 0 0 0 0 50.407467985860421 4.3948610953361822 0 4.3948610953361822 -37.273368685057804 0 0 0 0 4.2643901372939581 -10.404986795522177 0 -10.404986795522177 21.562889767699062 0 0 0 0 119.45590652682586 4.2061086434466688 0 4.2061086434466688 14.866841331418073 0 0 0 0 91.077086177261663 -92.199226884995596 0 -92.199226884995596 62.379793341332515 0 0 0 0 88.024905974438298 4.121005360669642 0 4.121005360669642 -2.1991401649638647 0 0 0 0 45.819149105693214 86.741408543224225 0 86.741408543224225 173.99378876492756 0 0 0 0 41.851037594133686 -4.4947166522536008 0 -4.4947166522536008 -0.048983826226927096 0 0 0 0 79.619583952000539 40.717825573605865 0 40.717825573605865 -41.357099667219359 0 0 0 0 7.800714234030238 1.1767546751524378 0 1.1767546751524378 -2.6623393134622431 0 0 0 0 61.510014970088378 17.2076321111916 0 17.2076321111916 107.06520353258293 0 0 0 0 163.0900028423639 156.7356274809174 0 156.7356274809174 150.14165072212199 0 0 0 0 177.65401814209145 187.67547481602426 0 187.67547481602426 95.806154856718422 0 0 0 0 193.15010840372997 59.464663042413122 0 59.464663042413122 -24.827581343874499 0 0 0 0 110.28634841445455 -9.781374133447855 0 -9.781374133447855 16.248978632932904 0 0 0 0 3.5829945828200209 2.7469265338236539 0 2.7469265338236539 6.8883808008450114 0 0 0 0 92.504075295524672 -34.875190723046444 0 -34.875190723046444 42.982034504206695 0 0 0 0 87.707412523741368 -29.829612803290729 0 -29.829612803290729 41.362693704410958 0 0 0 0 103.86984795174794 -33.216777391784717 0 -33.216777391784717 34.551203321704179 0 0 0 0 97.730961798879434 -26.084152689497614 0 -26.084152689497614 30.752640489780788 0 0 0 0 -0.16553191822359281 0.74766845747544153 0 0.74766845747544153 3.2221028806478085 0 0 0 0 147.42949717218289 -67.672184177657527 0 -67.672184177657527 37.775665565715144 0 0 0 0 561.69683144826558 5.4182206565528759 0 5.4182206565528759 8.526455071475084 0 0 0 0 -78.103616709660855 179.11313885956935 0 179.11313885956935 107.98877551178384 0 0 0 0 -229.13297145243268 73.072496085523881 0 73.072496085523881 33.856743532453038 0 0 0 0 446.2880811955547 261.01967948594529 0 261.01967948594529 90.163499166108295 0 0 0 0 257.83376248359127 306.25471366690817 0 306.25471366690817 179.1090365973314 0 0 0 0 213.92458388391242 210.21051742720533 0 210.21051742720533 80.733156102930479 0 0 0 0 218.99370994741912 228.64886105230516 0 228.64886105230516 113.91133419440757 0 0 0 0 400.51849992235657 176.80493455721398 0 176.80493455721398 3.854613120933891 0 0 0 0 56.15112682817562 54.383702201465496 0 54.383702201465496 -69.759981034910197 0 0 0 0 49.47586583294833 36.59889248874606 0 36.59889248874606 -27.246213452408028 0 0 0 0 78.503186477901181 51.150676056230168 0 51.150676056230168 -59.05604984378067 0 0 0 0 104.72233678068733 56.908200223153017 0 56.908200223153017 -19.891379074369979 0 0 0 0 -6.5279057392326649 69.874671422058555 0 69.874671422058555 23.657908212240727 0 0 0 0 -37.352469068049686 20.545590514946525 0 20.545590514946525 -54.502887312141297 0 0 0 0 -1.7791593630681746 89.229972039397808 0 89.229972039397808 -55.983125710842195 0 0 0 0 -91.34005921339849 154.38374738983384 0 154.38374738983384 -60.790276132572444 0 0 0 0 15.930552169593284 68.471430904991053 0 68.471430904991053 -74.323727646839416 0 0 0 0 -0.76065433552139439 89.313786934921382 0 89.313786934921382 -60.364433971268681 0 0 0 0 -16.171443990926491 151.0721304472554 0 151.0721304472554 -90.229562542183544 0 0 0 0 -99.392781955932151 115.6939084013195 0 115.6939084013195 -59.427557151099151 0 0 0 0 -61.04858496117231 51.894299577120591 0 51.894299577120591 -67.523309739678552 0 0 0 0 -15.158210766850971 90.326509089146043 0 90.326509089146043 -66.323507834675183 0 0 0 0 -0.27705341991168098 49.911019994552667 0 49.911019994552667 -66.553615246169159 0 0 0 0 43.265418192415382 50.136950905156638 0 50.136950905156638 -77.01618487738827 0 0 0 0 11.829335425049067 65.987025626308764 0 65.987025626308764 -46.023052888291545 0 0 0 0 63.001440290950995 31.935097753898674 0 31.935097753898674 -61.296624922932551 0 0 0 0 47.370124185370514 59.292303586254107 0 59.292303586254107 -56.677228445325568 0 0 0 0 59.204971127357567 53.319348957705529 0 53.319348957705529 -90.851280576784802 0 0 0 0 33.335628413195082 39.205107862443583 0 39.205107862443583 -78.43927015962322 0 0 0 0 6.3207389370363671 75.59240423206279 0 75.59240423206279 -80.05596209023679 0 0 0 0 97.849417367877322 -31.822148253225564 0 -31.822148253225564 -47.965961665850784 0 0 0 0 -1.3637977621251594 0.047668530044646218 0 0.047668530044646218 4.1888054616429518 0 0 0 0 -2.7036728106249939 60.280755798907592 0 60.280755798907592 -94.295601249069023 0 0 0 0 10.912146699141715 -5.5359984985210531 0 -5.5359984985210531 5.410728458048828 0 0 0 0 20.313682036154205 1.811480048563709 0 1.811480048563709 2.425364592938422 0 0 0 0 15.784615355971368 6.1718352982490785 0 6.1718352982490785 3.1492521352976683 0 0 0 0 56.021204612552538 -17.696672653617014 0 -17.696672653617014 -4.3425653704274225 0 0 0 0 50.485893413786243 -1.5933668458710883 0 -1.5933668458710883 -4.6456470904009786 0 0 0 0 35.918593070004135 20.738245522970374 0 20.738245522970374 -9.3920018116187407 0 0 0 0 60.158961196968448 18.74369617810612 0 18.74369617810612 -40.758995121128919 0 0 0 0 26.002668667046237 8.0305899771605311 0 8.0305899771605311 -7.7695831893983325 0 0 0 0 19.881940304410421 4.6420536853123338 0 4.6420536853123338 -10.249005151325987 0 0 0 0 24.456156169838096 1.795825591786425 0 1.795825591786425 -2.1183630805906937 0 0 0 0 36.518846863764338 -1.8865926248997908 0 -1.8865926248997908 -8.4172647825190552 0 0 0 0 35.856784872600201 6.9479043691135161 0 6.9479043691135161 0.097058426661166652 0 0 0 0 10.481881738440507 -10.712092650484394 0 -10.712092650484394 -12.0685916022416 0 0 0 0 61.028846663146396 44.056581866108445 0 44.056581866108445 -78.675810257868534 0 0 0 0 79.828554560866905 51.587300462591202 0 51.587300462591202 -87.751486238946882 0 0 0 0 241.05851674792939 -103.86166048281211 0 -103.86166048281211 -232.2052366833791 0 0 0 0 74.297485784793651 22.346617906717377 0 22.346617906717377 4.554393207730322 0 0 0 0 73.713073948369129 54.172542898416395 0 54.172542898416395 -77.585147412192839 0 0 0 0 79.861685460171429 38.969006000931145 0 38.969006000931145 -58.493529351131656 0 0 0 0 78.919786396276322 37.204362657755951 0 37.204362657755951 -53.351265040589169 0 0 0 0 84.699021385167725 40.325340714095432 0 40.325340714095432 -76.042629969477517 0 0 0 0 90.92861975877895 30.022219678019383 0 30.022219678019383 -60.850208027662802 0 0 0 0 81.630437438703666 47.257837236321961 0 47.257837236321961 -82.768774687817768 0 0 0 0 69.483949080313323 36.822852028972719 0 36.822852028972719 -64.78156360442263 0 0 0 0 59.089707052684389 56.356158783763441 0 56.356158783763441 -74.419965588171522 0 0 0 0 81.862673050520243 40.352762806677731 0 40.352762806677731 -81.269007857696465 0 0 0 0 79.671087515744148 41.347566749864654 0 41.347566749864654 -56.375485670738271 0 0 0 0 77.457452962851676 38.629176574478436 0 38.629176574478436 -55.974441871243243 0 0 0 0 94.400114326970652 18.608489447242391 0 18.608489447242391 -46.107892660953667 0 0 0 0 93.256886518414831 31.043383110821765 0 31.043383110821765 -68.098580644403853 0 0 0 0 91.363683420175221 31.430316964900953 0 31.430316964900953 -70.742481256296514 0 0 0 0 90.970755631788052 20.183580066043532 0 20.183580066043532 -40.741328435405421 0 0 0 0 87.498173911051708 25.293571469496754 0 25.293571469496754 -36.459993381426443 0 0 0 0 100.22534918587189 19.56180033538692 0 19.56180033538692 -46.861077876131731 0 0 0 0 90.712970847496763 22.076833195307927 0 22.076833195307927 -37.349867715371147 0 0 0 0 110.04835957134492 1.8157888639948396 0 1.8157888639948396 -31.70184138353909 0 0 0 0 100.9477449721453 5.0741309526360965 0 5.0741309526360965 -20.251980644264222 0 0 0 0 100.89519364658918 3.0526931221040741 0 3.0526931221040741 -16.813675425884867 0 0 0 0 114.45020888550789 -13.845239812725595 0 -13.845239812725595 -3.5453200975734944 0 0 0 0 116.46397685198463 3.2193531862162672 0 3.2193531862162672 -22.323368155047092 0 0 0 0 120.99376118707005 14.745536713160163 0 14.745536713160163 -27.27267233148973 0 0 0 0 91.748440676259634 22.430747644856524 0 22.430747644856524 -41.840870170291055 0 0 0 0 91.779162123508286 30.896172978076265 0 30.896172978076265 -32.877391349556319 0 0 0 0 110.92067424228298 24.012973760142472 0 24.012973760142472 -46.848094881929683 0 0 0 0 100.17297511125798 -3.3730541698462275 0 -3.3730541698462275 14.425958838708539 0 0 0 0 103.17071077946457 -5.1517318156224974 0 -5.1517318156224974 5.0665817728444225 0 0 0 0 106.28664110176203 4.1533588501386234 0 4.1533588501386234 25.580779310647813 0 0 0 0 106.271697963723 0.88265468199420916 0 0.88265468199420916 14.438779835292735 0 0 0 0 101.47009865558357 -2.8603178671633032 0 -2.8603178671633032 26.993871442253749 0 0 0 0 101.1728109587566 -1.7156749025739373 0 -1.7156749025739373 23.816367602408491 0 0 0 0 99.195604215801723 -6.6418208245017922 0 -6.6418208245017922 13.117991420924227 0 0 0 0 95.574503134645056 -13.830643106252865 0 -13.830643106252865 23.963337588080321 0 0 0 0 99.317092798737576 -7.6893789935675159 0 -7.6893789935675159 21.979461001623804 0 0 0 0 101.23172596280347 -14.692713335301505 0 -14.692713335301505 10.506760570369806 0 0 0 0 95.679033013730077 -14.171011070733584 0 -14.171011070733584 24.386164537399964 0 0 0 0 99.829624969745055 -8.9673693068057219 0 -8.9673693068057219 1.6710013712645377 0 0 0 0 102.89853131072596 -1.7143862215832542 0 -1.7143862215832542 -18.279412781245355 0 0 0 0 103.0493101844695 -9.9831641663012647 0 -9.9831641663012647 -1.8544097478788899 0 0 0 0 98.745831544074463 -4.0056612405867327 0 -4.0056612405867327 3.1877421712811156 0 0 0 0 101.97792717591801 -5.4174503266490319 0 -5.4174503266490319 -4.4102612988808687 0 0 0 0 97.107670074794441 6.2569295551048754 0 6.2569295551048754 -5.2345113616968035 0 0 0 0 100.75708605060936 5.7611177046865691 0 5.7611177046865691 -23.421762885510361 0 0 0 0 96.452079067326849 10.29456904057372 0 10.29456904057372 -18.833894848373689 0 0 0 0 97.607835851842538 8.6623219284341673 0 8.6623219284341673 -23.510501072297416 0 0 0 0 98.006073607801227 18.591140597324312 0 18.591140597324312 -43.998532449342406 0 0 0 0 98.679982929184916 17.874994312135215 0 17.874994312135215 -37.358449797585877 0 0 0 0 94.97330182720907 15.071641859110741 0 15.071641859110741 -19.544107166007834 0 0 0 0 94.959962692519184 15.306543459394618 0 15.306543459394618 -15.928859218866805 0 0 0 0 103.71499026789388 4.3609637987265728 0 4.3609637987265728 -12.495256248864621 0 0 0 0 103.71599404295557 6.626541252040397 0 6.626541252040397 4.8492070016721947 0 0 0 0 103.41933911475644 1.9822236836275238 0 1.9822236836275238 -12.466020812217266 0 0 0 0 112.19380428464501 8.6885398844317514 0 8.6885398844317514 -13.27100459548523 0 0 0 0 103.07472960041196 31.298488337632193 0 31.298488337632193 -33.24607977288008 0 0 0 0 105.13900590809681 8.9880262285501971 0 8.9880262285501971 -8.8872213694912716 0 0 0 0 98.308468748655287 19.639733132830543 0 19.639733132830543 -51.825220285282057 0 0 0 0 85.439672758046072 24.988284351563379 0 24.988284351563379 -35.242064561972711 0 0 0 0 92.618046846910147 17.757938622077745 0 17.757938622077745 -36.537204984620985 0 0 0 0 87.638821933156578 37.975080596375392 0 37.975080596375392 -52.376093683420095 0 0 0 0 91.898665493121371 32.265236042143101 0 32.265236042143101 -71.809032917572949 0 0 0 0 101.93913634549972 43.069655963942751 0 43.069655963942751 -108.11970895041645 0 0 0 0 94.025325738503511 24.40323864583004 0 24.40323864583004 5.7393397827635484 0 0 0 0 70.740758809901308 34.351779565000015 0 34.351779565000015 -70.61515846222494 0 0 0 0 91.370480171914096 58.761074856935011 0 58.761074856935011 -68.487378271892567 0 0 0 0 203.81210275508056 -299.94264584776107 0 -299.94264584776107 -278.48572880680058 0 0 0 0 686.50358346290886 -24.881856051777504 0 -24.881856051777504 -147.10499343289212 0 0 0 0 381.27585734886816 193.41564583578429 0 193.41564583578429 120.83942856627618 0 0 0 0 1079.1750660483376 -723.67486121570801 0 -723.67486121570801 459.10852541074019 0 0 0 0 0.39732508111148945 1.3776393079210667 0 1.3776393079210667 -0.94498185411012425 0 0 0 0 1.6218688233124112 1.7479145829902336 0 1.7479145829902336 -1.3118809915862926 0 0 0 0 625.48533834586851 -713.04960329881214 0 -713.04960329881214 817.05708340587444 0 0 0 0 768.30246963840909 -67.563168513718892 0 -67.563168513718892 -102.03001797329489 0 0 0 0 1.233294359582942 256.64554931055409 0 256.64554931055409 -150.5149700423699 0 0 0 0 314.02911488605605 -344.64341434518155 0 -344.64341434518155 339.04070947770742 0 0 0 0 118.77179292189612 -63.668071688769317 0 -63.668071688769317 -210.45498644039344 0 0 0 0 159.05550216371194 34.583092489768205 0 34.583092489768205 -134.56069466680765 0 0 0 0 6.9585782576785391 3.1671497225301035 0 3.1671497225301035 -0.061907148999229999 0 0 0 0 231.5782561294036 -350.24727067604522 0 -350.24727067604522 24.463671568137215 0 0 0 0 5.1822325890098 9.4324472384851106 0 9.4324472384851106 -14.573144141415014 0 0 0 0 -324.99730630559498 93.684310809480394 0 93.684310809480394 226.39311330696364 0 0 0 0 491.24028175880085 -17.967762109404248 0 -17.967762109404248 -615.13259817046787 0 0 0 0 6.9514316896382979 -3.1300337042466282 0 -3.1300337042466282 -6.5045457258195869 0 0 0 0 170.18249192030635 -399.32480978670901 0 -399.32480978670901 905.6274148667278 0 0 0 0 12.461804365855642 -13.176862639728824 0 -13.176862639728824 -17.287973094345944 0 0 0 0 34.430504867486889 -1.510190600248734 0 -1.510190600248734 -23.936101807506247 0 0 0 0 34.518637703542481 0.32271273845537962 0 0.32271273845537962 -10.810428310351881 0 0 0 0 31.691785193906981 -3.2809137373751582 0 -3.2809137373751582 -13.502628021523378 0 0 0 0 28.981067232843941 -0.65296233620106747 0 -0.65296233620106747 -6.1717650581909682 0 0 0 0 22.209224105696194 -42.15273896308554 0 -42.15273896308554 -80.109546308329527 0 0 0 0 4.1125989331788446 -9.5037791118454891 0 -9.5037791118454891 -17.968727775643423 0 0 0 0 -34.990391781479047 -38.272727368321881 0 -38.272727368321881 -31.221885740398648 0 0 0 0 -20.917130278905461 -117.73769549181102 0 -117.73769549181102 -199.25074184689856 0 0 0 0 257.78888477123837 -19.997956984062625 0 -19.997956984062625 -204.96376856458028 0 0 0 0 -353.70754296629457 -240.86005234466506 0 -240.86005234466506 -77.953745269160663 0 0 0 0 -1.8098934010796199 -3.1929506672458672 0 -3.1929506672458672 -5.672866198977049 0 0 0 0 -49.861642015857797 215.01056044141654 0 215.01056044141654 -621.30805655472432 0 0 0 0 -17.72604566058726 102.14043294921089 0 102.14043294921089 -224.90974299426603 0 0 0 0 179.58026608888031 -234.89883053877213 0 -234.89883053877213 -802.53576091374907 0 0 0 0 -109.07351897479384 -767.62811870913322 0 -767.62811870913322 89.190043406288112 0 0 0 0 86.476588997378713 -381.46712495248812 0 -381.46712495248812 -740.09435914225105 0 0 0 0 16.928054158435771 531.97257702862203 0 531.97257702862203 -664.5305890745085 0 0 0 0 280.56551546580158 59.54330157575032 0 59.54330157575032 48.976637535487782 0 0 0 0 461.73020302644727 438.79152388511329 0 438.79152388511329 -278.35196506329157 0 0 0 0 336.93604351484828 346.76434544578706 0 346.76434544578706 45.023749756952384 0 0 0 0 282.03870786912739 18.130483293291945 0 18.130483293291945 -346.22688933685379 0 0 0 0 302.38731365397689 193.7168046200577 0 193.7168046200577 -106.10273220475074 0 0 0 0 244.49742142389005 248.05435198521866 0 248.05435198521866 104.26316843249242 0 0 0 0 378.55905787042866 -160.92991006400257 0 -160.92991006400257 120.39191693432622 0 0 0 0 321.75601062024361 80.505128514280386 0 80.505128514280386 -99.910620781222008 0 0 0 0 347.83617121601128 178.70949071788186 0 178.70949071788186 -107.11632536840989 0 0 0 0 213.47631733237358 10.65311497605353 0 10.65311497605353 -137.80093994208301 0 0 0 0 149.0598583770734 475.52518019097511 0 475.52518019097511 65.740595355557161 0 0 0 0 158.59513410821091 412.26555766386099 0 412.26555766386099 308.34830195906989 0 0 0 0 14.670615851326147 277.35062822130976 0 277.35062822130976 663.42713819854771 0 0 0 0 -92.903240132174687 45.968197699802658 0 45.968197699802658 166.87595784193581 0 0 0 0 202.90075620971038 254.30530808313404 0 254.30530808313404 230.43001829137478 0 0 0 0 224.82064005023858 289.66640144459154 0 289.66640144459154 106.95690383164219 0 0 0 0 165.29359559638397 323.89629819001232 0 323.89629819001232 101.66110170640786 0 0 0 0 346.33848014057503 -561.91450012297946 0 -561.91450012297946 -733.20767517537843 0 0 0 0 342.1274761370878 406.01685907440378 0 406.01685907440378 73.9146745485682 0 0 0 0 42.454227131672496 -22.542793817685805 0 -22.542793817685805 -0.50794676189918153 0 0 0 0 2221.8136828099232 1140.615908351989 0 1140.615908351989 639.67678665892731 0 0 0 0 -386.88841877525192 -1173.2503263668521 0 -1173.2503263668521 -744.55792935278441 0 0 0 0 872.966607471928 1542.2986619679789 0 1542.2986619679789 1616.1298492207543 0 0 0 0 1764.8191891704628 408.09320877543564 0 408.09320877543564 -668.77869819026819 0 0 0 0 3433.8219638161972 -681.03492538528735 0 -681.03492538528735 -1901.9963466505342 0 0 0 0 -416.20465691271238 -248.84342581613328 0 -248.84342581613328 2465.2114281504901 0 0 0 0 1500.7874920464819 -1453.218604718526 0 -1453.218604718526 903.12121815619503 0 0 0 0 798.80933882804311 3473.9995816592132 0 3473.9995816592132 2983.3808353458453 0 0 0 0 -659.45547559743864 -1428.1242678651543 0 -1428.1242678651543 -826.00221141674308 0 0 0 0 54.511347748459116 -6.1724111627039804 0 -6.1724111627039804 -1.4649877773181372 0 0 0 0 36.143018462896691 17.371420437937203 0 17.371420437937203 6.4121188872392905 0 0 0 0 2310.2072790329112 5302.3649781507829 0 5302.3649781507829 3856.1290960027127 0 0 0 0 5.2915086818102282 -160.08122688687399 0 -160.08122688687399 202.56646620051902 0 0 0 0 1016.2757934725232 -57.199182333592944 0 -57.199182333592944 -117.87999886965463 0 0 0 0 97.824810243704178 18.699332264386243 0 18.699332264386243 0.067024104652818828 0 0 0 0 68.80983852043488 -7.2613582572385198 0 -7.2613582572385198 2.5384121892703835 0 0 0 0 -82.630355587083613 68.73398781233368 0 68.73398781233368 11.233207697584021 0 0 0 0 -82.630355586996302 68.733987812322084 0 68.733987812322084 11.233207697565945 0 0 0 0 1389.7089453698136 127.27159153212961 0 127.27159153212961 -2221.5260480850175 0 0 0 0 -82.630355587112717 68.73398781231208 0 68.73398781231208 11.233207697569924 0 0 0 0 139.70510628218472 58.922515742228825 0 58.922515742228825 -1279.7472572929246 0 0 0 0 178.30516839824503 73.083996144116369 0 73.083996144116369 -43.379270296059872 0 0 0 0 63.617500800042762 9.6879249442731634 0 9.6879249442731634 -14.18335941479404 0 0 0 0 19.368024237790962 22.423905654463226 0 22.423905654463226 0.28013743239870337 0 0 0 0 14.983959804958431 132.43810003406452 0 132.43810003406452 -13.991170801203225 0 0 0 0 -1255.5262550202897 -974.79232642669922 0 -974.79232642669922 -1737.9126570913868 0 0 0 0 50.140979827475732 5.9923448530099108 0 5.9923448530099108 -8.3142113789586176 0 0 0 0 -149.46734737890074 -492.16836722149446 0 -492.16836722149446 -1304.5540084191107 0 0 0 0 -711.82832653702644 -314.44124605781849 0 -314.44124605781849 511.0184336170887 0 0 0 0 -1105.4658845030499 -919.78416077651423 0 -919.78416077651423 371.43260272358748 0 0 0 0 121.17527321178932 284.70093238302616 0 284.70093238302616 -1280.3524365481812 0 0 0 0 -152.96667108128895 13.560996226494353 0 13.560996226494353 347.33297323176976 0 0 0 0 96.36486008745851 -97.213112812640247 0 -97.213112812640247 114.80666010793232 0 0 0 0 -261.0231248595228 67.817695719165386 0 67.817695719165386 -18.624330044810449 0 0 0 0 -63.800739333048114 -264.94557153630421 0 -264.94557153630421 43.782118371036631 0 0 0 0 260.96213638517656 -78.809091685541262 0 -78.809091685541262 -373.27791120464735 0 0 0 0 -36.51227337718592 368.80172758240678 0 368.80172758240678 -388.92434861545144 0 0 0 0 147.77330437808996 28.862790990721805 0 28.862790990721805 -86.054834761214465 0 0 0 0 50.275180062633808 450.60422905814988 0 450.60422905814988 -312.28774850893933 0 0 0 0 103.09917395959928 30.188689925204432 0 30.188689925204432 3.5794329476572981 0 0 0 0 132.09337602875894 30.861125761710582 0 30.861125761710582 -53.325229727465853 0 0 0 0 89.434657317757228 16.384186990004743 0 16.384186990004743 -55.236914334573157 0 0 0 0 158.93426667580934 60.906953372866042 0 60.906953372866042 -142.97455075188918 0 0 0 0 159.1864608679607 29.083627110598627 0 29.083627110598627 -69.946899813170262 0 0 0 0 34.92515850640261 37.09763214388326 0 37.09763214388326 -27.490575020467634 0 0 0 0 96.736420032379101 77.236149025075065 0 77.236149025075065 -38.989998289037885 0 0 0 0 138.1392399516044 -10.004348090849589 0 -10.004348090849589 -4.9640782551628888 0 0 0 0 129.89585723146592 37.059787535760563 0 37.059787535760563 4.1022754666339551 0 0 0 0 136.8794490594446 16.127560403290715 0 16.127560403290715 -19.699594581488327 0 0 0 0 173.91022323640937 6.375240527344431 0 6.375240527344431 -16.966549469558686 0 0 0 0 112.00536312819986 4.4997704261030691 0 4.4997704261030691 7.2731536756232344 0 0 0 0 0.2164563235710375 234.28207240703591 0 234.28207240703591 77.19559935643872 0 0 0 0 8.3421205155393565 38.715763223396877 0 38.715763223396877 -4.1581624328936435 0 0 0 0 -116.0041670642695 151.81643649281284 0 151.81643649281284 39.891387190620208 0 0 0 0 -186.40617230335192 -38.712662787794443 0 -38.712662787794443 127.13158360380851 0 0 0 0 -35.301171685307054 76.55884998111577 0 76.55884998111577 5.2139195402733094 0 0 0 0 127.38288624024426 21.158526637098021 0 21.158526637098021 28.851242953227029 0 0 0 0 124.34484464295383 5.9662104106998868 0 5.9662104106998868 1.490221240979281 0 0 0 0 114.61128350431682 4.3828331836753023 0 4.3828331836753023 16.07680842748232 0 0 0 0 1128.2731910021757 -202.03771051194553 0 -202.03771051194553 56.624541106906804 0 0 0 0 432.56467496782716 -3.3175368964823519 0 -3.3175368964823519 143.68026479417847 0 0 0 0 -23.420899200573331 134.67681071658393 0 134.67681071658393 278.05245858068076 0 0 0 0 58.331896848489123 151.39762899824547 0 151.39762899824547 -55.921339152776909 0 0 0 0 173.71146066271467 293.72316499201816 0 293.72316499201816 116.35632136425829 0 0 0 0 225.59867601872975 -31.353196048801756 0 -31.353196048801756 399.26235597948636 0 0 0 0 148.27745166641489 -135.17039943520339 0 -135.17039943520339 -543.48482680048983 0 0 0 0 106.22507796764694 159.33627368218367 0 159.33627368218367 -55.077139711879909 0 0 0 0 177.81807691056383 54.107364420738804 0 54.107364420738804 -199.86454847589903 0 0 0 0 204.91345396330144 134.02056065735587 0 134.02056065735587 -168.70850176716976 0 0 0 0 730.66223089753476 269.11556688525138 0 269.11556688525138 148.59171476063875 0 0 0 0 1002.0286441684439 495.13757074682576 0 495.13757074682576 230.95762343591923 0 0 0 0 46.019407322789704 -18.466418569459229 0 -18.466418569459229 5.7690207657803514 0 0 0 0 513.11445570531214 1019.6901847362111 0 1019.6901847362111 253.68150034034215 0 0 0 0 -153.54818241047906 1045.5322538381051 0 1045.5322538381051 1487.1271283911842 0 0 0 0 872.91004048144532 -1743.8784035786814 0 -1743.8784035786814 912.20300370106952 0 0 0 0 21.224705609045657 -7.2782301167112351 0 -7.2782301167112351 3.6860211497665132 0 0 0 0 4554.8206543070119 514.98059950846346 0 514.98059950846346 1000.875096577792 0 0 0 0 324.18794577163499 301.18363642155566 0 301.18363642155566 -224.97660496963806 0 0 0 0 -201.34367567313893 -286.7701182740027 0 -286.7701182740027 868.52532496111667 0 0 0 0 3049.8222271586856 -2155.9602850527749 0 -2155.9602850527749 251.16918990715294 0 0 0 0 2145.6096888341854 -615.42657400525241 0 -615.42657400525241 151.2838213717265 0 0 0 0 1044.0797278254322 -385.00080004731626 0 -385.00080004731626 245.04001195488297 0 0 0 0 4501.1883485583094 -1296.6793123358509 0 -1296.6793123358509 -207.13232134062946 0 0 0 0 4317.7875874767924 -524.42367064358871 0 -524.42367064358871 1247.6267060967443 0 0 0 0 4101.9116501196841 -1615.2693755894954 0 -1615.2693755894954 843.98099092394602 0 0 0 0 2766.986496483325 -2320.905410206356 0 -2320.905410206356 1158.7983070362213 0 0 0 0 6998.5961576066184 -2199.1884799436903 0 -2199.1884799436903 432.31458532045849 0 0 0 0 5503.93318870439 1294.6520207253786 0 1294.6520207253786 3218.6945653250446 0 0 0 0 5709.8693656202113 2894.5079526154736 0 2894.5079526154736 560.40081321955722 0 0 0 0 2898.4764131972915 4180.5534813307249 0 4180.5534813307249 3616.9428815003375 0 0 0 0 43.43662436211747 -5.2686855315920411 0 -5.2686855315920411 2.1981875498677215 0 0 0 0 94.257928821549797 -16.026804020706642 0 -16.026804020706642 -0.042299717714013418 0 0 0 0 1775.7296572820633 1312.3926754655354 0 1312.3926754655354 234.18057929529931 0 0 0 0 -1249.0827287052525 -2463.853271450218 0 -2463.853271450218 3162.8108805722641 0 0 0 0 1254.3536753913504 1116.5979563326205 0 1116.5979563326205 235.79234595696335 0 0 0 0 1338.5341589801828 155.50140777447359 0 155.50140777447359 -183.2026407769772 0 0 0 0 1711.1116227066959 362.90445567287588 0 362.90445567287588 -132.71034421804143 0 0 0 0 -1399.4412932025443 -1119.7153440177674 0 -1119.7153440177674 -101.90459214415478 0 0 0 0 3182.1722830224026 1508.2188381621072 0 1508.2188381621072 -673.00639508273798 0 0 0 0 2260.6647842570092 1145.0744271316009 0 1145.0744271316009 825.0127991948159 0 0 0 0 3494.8943505347697 1928.4670401333985 0 1928.4670401333985 1206.7005170402715 0 0 0 0 3895.1879667520625 2050.0304677568074 0 2050.0304677568074 925.86932669459554 0 0 0 0 3528.2093981755897 2138.9979055307367 0 2138.9979055307367 1130.9095427725326 0 0 0 0 18.270677246039497 -8.3429579244639456 0 -8.3429579244639456 0.50845762385089799 0 0 0 0 -539.80078114003481 -845.25828830477747 0 -845.25828830477747 -446.89485440040107 0 0 0 0 3455.4624973718965 1529.7641824278587 0 1529.7641824278587 323.74472086747835 0 0 0 0 2880.5486751074277 1909.3509487280799 0 1909.3509487280799 1194.838010223307 0 0 0 0 4160.2584046932025 1753.2330511208202 0 1753.2330511208202 137.64077609729173 0 0 0 0 5495.4424462234201 2243.316580204611 0 2243.316580204611 182.62777007978804 0 0 0 0 1494.3569557461815 817.7315250516674 0 817.7315250516674 894.41622928047173 0 0 0 0 1653.358256576932 738.63459288920671 0 738.63459288920671 544.44880802040041 0 0 0 0 13.378288469964019 0.8206402854975039 0 0.8206402854975039 -2.7330496713608667 0 0 0 0 1783.1921989425537 1542.0954947962894 0 1542.0954947962894 392.46762123363573 0 0 0 0 5381.6632829754644 2708.2607968747839 0 2708.2607968747839 753.22223653376579 0 0 0 0 616.42351884146046 1524.0443423047143 0 1524.0443423047143 804.02063877132036 0 0 0 0 1336.3839269883902 724.22101602738849 0 724.22101602738849 743.78378028350471 0 0 0 0 1219.5134273964213 -167.33935700558652 0 -167.33935700558652 -217.52018809485079 0 0 0 0 763.24040262694689 -62.671938408068073 0 -62.671938408068073 358.89178936740439 0 0 0 0 589.91462475891603 -241.12700505069279 0 -241.12700505069279 105.60313526583079 0 0 0 0 1193.4875609739665 -188.38705983159832 0 -188.38705983159832 -36.98230458121634 0 0 0 0 1313.1692243905145 -133.29468621106108 0 -133.29468621106108 53.285232353329377 0 0 0 0 1923.932116713273 370.80033221280712 0 370.80033221280712 251.4384172061358 0 0 0 0 1143.6109362736606 40.571851061593676 0 40.571851061593676 234.50267007674037 0 0 0 0 2962.9050580410694 218.69248994392473 0 218.69248994392473 -6.6201254156519553 0 0 0 0 1956.7884145263815 1146.4572218028147 0 1146.4572218028147 345.56390079503808 0 0 0 0 2440.1059550071805 1601.724001870924 0 1601.724001870924 -214.1079665502869 0 0 0 0 1300.0444606612145 -500.51942872890481 0 -500.51942872890481 -27.871374452964062 0 0 0 0 1302.2241114283395 -351.77114234245221 0 -351.77114234245221 319.55697645639736 0 0 0 0 -376.92203920439351 -262.90054615519307 0 -262.90054615519307 661.02682725293494 0 0 0 0 5080.3754130410671 2206.3912135310647 0 2206.3912135310647 857.56579075393199 0 0 0 0 1681.4595908821357 -1100.2144150260056 0 -1100.2144150260056 77.624382763343476 0 0 0 0 29.661403032585923 0.2257872405523802 0 0.2257872405523802 0.30880746808190729 0 0 0 0 14.461836554126222 -3.6975065199737571 0 -3.6975065199737571 -0.68358077137409978 0 0 0 0 4549.2412829491514 -546.95694297210298 0 -546.95694297210298 -258.97568732427857 0 0 0 0 5564.9655533152109 1132.992540235151 0 1132.992540235151 3193.8316062586559 0 0 0 0 6786.476345441406 2657.5979564287113 0 2657.5979564287113 -318.30362639591704 0 0 0 0 2399.9646795787339 -144.35505869687387 0 -144.35505869687387 -230.51608314791986 0 0 0 0 4015.2789282242375 2270.5344695915878 0 2270.5344695915878 474.99140893027004 0 0 0 0 2081.5628678673238 1441.1155502264176 0 1441.1155502264176 1034.436174205902 0 0 0 0 19.844779583727401 -4.2482953494038611 0 -4.2482953494038611 -1.1540698487055472 0 0 0 0 2454.3682282857771 1800.4212212312591 0 1800.4212212312591 562.87011098224286 0 0 0 0 5499.6487962607944 -377.94455978581493 0 -377.94455978581493 -916.43752650108559 0 0 0 0 4838.7250726496459 653.83999785698995 0 653.83999785698995 -709.60258177665503 0 0 0 0 3771.089056564675 -19.273610642229045 0 -19.273610642229045 -297.7310773176705 0 0 0 0 3786.4434042468001 -1.3918857992331719 0 -1.3918857992331719 -679.95686247903927 0 0 0 0 3889.799083234866 -57.112413145082257 0 -57.112413145082257 -720.5283822785799 0 0 0 0 2854.260243478142 -441.44928439698197 0 -441.44928439698197 -333.95403633955027 0 0 0 0 3071.5297553761338 0.26919073765998291 0 0.26919073765998291 -289.52870319330168 0 0 0 0 3880.8187143948653 -90.370470702824235 0 -90.370470702824235 -741.75252232158232 0 0 0 0 1099.2634942321238 273.6141914956213 0 273.6141914956213 110.71129555981412 0 0 0 0 1636.5738755597631 123.35060438555001 0 123.35060438555001 3.0089618285719553 0 0 0 0 3408.6373376681804 1300.2349662252493 0 1300.2349662252493 -157.11604913376186 0 0 0 0 3749.0001914785898 -169.1900997960791 0 -169.1900997960791 -625.02230981962634 0 0 0 0 597.96769895689795 1134.617576949815 0 1134.617576949815 763.34878791879976 0 0 0 0 268.40511315751792 -341.42485895214179 0 -341.42485895214179 -544.2516196437515 0 0 0 0 -208.22112772276159 -311.62882466624103 0 -311.62882466624103 342.50824081911719 0 0 0 0 -8.7358058323879959 28.828043464865118 0 28.828043464865118 14.712896186909916 0 0 0 0 93.443048296336201 75.822940077200656 0 75.822940077200656 324.64593280800887 0 0 0 0 14.307508063004207 -85.455758535554253 0 -85.455758535554253 149.16047830807315 0 0 0 0 192.21606278567924 -125.07050597207228 0 -125.07050597207228 126.46308529699911 0 0 0 0 537.17739152227296 504.51181176131968 0 504.51181176131968 616.79338264049761 0 0 0 0 1039.3319824155624 88.556269763938189 0 88.556269763938189 -79.96958561736858 0 0 0 0 433.07630588219399 -227.84115684639289 0 -227.84115684639289 -90.872178266908804 0 0 0 0 -124.91241644988622 123.67432211898324 0 123.67432211898324 267.84335054215171 0 0 0 0 -35.215399960456125 -133.83553722975864 0 -133.83553722975864 119.83367920942555 0 0 0 0 -85.890193739995084 153.70328563295652 0 153.70328563295652 155.53771077548299 0 0 0 0 557.69893476375 286.11204194699638 0 286.11204194699638 137.30385518370713 0 0 0 0 303.97057941642561 122.36369984521616 0 122.36369984521616 293.36550460571766 0 0 0 0 -0.20245783670458195 -1.1013374423159021 0 -1.1013374423159021 -0.59792033326817062 0 0 0 0 21.129556288432546 41.76475536072536 0 41.76475536072536 16.75427024288086 0 0 0 0 125.9770633282169 15.32132265579412 0 15.32132265579412 22.134007367871163 0 0 0 0 112.3840742714965 34.69509125518789 0 34.69509125518789 39.671038972404858 0 0 0 0 65.75207895852509 6.7585571032122971 0 6.7585571032122971 50.902178837171959 0 0 0 0 112.00359679538087 9.8206501060826668 0 9.8206501060826668 33.149263084441372 0 0 0 0 92.788649037029245 7.8687319769128408 0 7.8687319769128408 33.000386365960367 0 0 0 0 -9.2941279730513457 0.88558256792242673 0 0.88558256792242673 3.0307732014667046 0 0 0 0 -179.85325017524156 39.239068359055807 0 39.239068359055807 64.526721130486294 0 0 0 0 -211.6442804227845 0.30388254396552838 0 0.30388254396552838 69.3683643487052 0 0 0 0 -6.536771292663957 2.0236918441693632 0 2.0236918441693632 3.4892623060654993 0 0 0 0 -118.2544164805513 -36.777936546293517 0 -36.777936546293517 47.568752026646507 0 0 0 0 -129.09115717242639 -64.178594237212778 0 -64.178594237212778 77.362566356330262 0 0 0 0 -49.822165516961832 106.68662386145081 0 106.68662386145081 -56.232040988053257 0 0 0 0 -60.47881765555212 4.6982468673484163 0 4.6982468673484163 77.322311618340336 0 0 0 0 -6.2444375412800639 1.8365348716926668 0 1.8365348716926668 3.2453850739245533 0 0 0 0 -24.945092169102281 -12.891476979695653 0 -12.891476979695653 48.763340199293452 0 0 0 0 7.9815187890344532 26.645922150789374 0 26.645922150789374 2.7362185612023495 0 0 0 0 -46.335215959064953 -4.6967013616157374 0 -4.6967013616157374 64.141863463033587 0 0 0 0 3.0124585318337189 0.4552153656966027 0 0.4552153656966027 11.076557315385996 0 0 0 0 8.4697822198433812 13.685614246707061 0 13.685614246707061 9.329099994363121 0 0 0 0 -19.806951202306664 44.841057976183038 0 44.841057976183038 -25.19588802562248 0 0 0 0 24.335175254893329 35.190701768153247 0 35.190701768153247 18.496900694740113 0 0 0 0 17.310283197280626 11.153921342609678 0 11.153921342609678 4.6340440183304841 0 0 0 0 66.147075888875406 42.29841856508574 0 42.29841856508574 53.084205290564569 0 0 0 0 80.190052678037318 14.162930516261895 0 14.162930516261895 48.604000459130475 0 0 0 0 46.596282297679863 11.768664530448746 0 11.768664530448746 48.606789546895016 0 0 0 0 49.523620273277629 41.647118186579974 0 41.647118186579974 53.536240744052066 0 0 0 0 -16.475147666837074 31.63016734416869 0 31.63016734416869 20.614263316121143 0 0 0 0 31.341222946181006 3.3224633511446768 0 3.3224633511446768 11.188910686857071 0 0 0 0 -60.870524959987961 -38.749407259943723 0 -38.749407259943723 24.600161343716024 0 0 0 0 66.555547151132487 10.404753689683105 0 10.404753689683105 11.490503684434771 0 0 0 0 -70.294695080519887 -27.56924265181982 0 -27.56924265181982 70.263832620481693 0 0 0 0 -76.660602999181719 -28.990071937641915 0 -28.990071937641915 125.73340248842311 0 0 0 0 88.744964868004899 59.122252613662972 0 59.122252613662972 -89.515229759972655 0 0 0 0 -2.1942187344830018 -116.60578227843783 0 -116.60578227843783 -98.845564192660675 0 0 0 0 63.888200460869285 -2.8646990698120476 0 -2.8646990698120476 2.9337679907906971 0 0 0 0 -107.08219587552594 -147.20356880341311 0 -147.20356880341311 34.637434288273994 0 0 0 0 23.001279963191607 7.2549776477687544 0 7.2549776477687544 6.3204624464198389 0 0 0 0 22.786828628202784 -44.083317418987207 0 -44.083317418987207 -38.64662469623164 0 0 0 0 14.811726526729274 -1.7478531761909437 0 -1.7478531761909437 11.52948175075892 0 0 0 0 96.536068179928407 45.089659065029636 0 45.089659065029636 12.049041025850045 0 0 0 0 86.431254567738506 35.897189680609614 0 35.897189680609614 -60.342297856230346 0 0 0 0 17.48707098075954 5.697920893751018 0 5.697920893751018 1.500349664401859 0 0 0 0 14.891888390070008 17.209476357806764 0 17.209476357806764 26.653617811425157 0 0 0 0 0.024607553881651256 39.604035286958833 0 39.604035286958833 97.156846854533114 0 0 0 0 52.852764649898745 65.915722654230422 0 65.915722654230422 106.47683964132244 0 0 0 0 123.66131000568203 78.220105173609682 0 78.220105173609682 63.02647582623888 0 0 0 0 11.661811282372497 19.029146085183953 0 19.029146085183953 32.396558059793506 0 0 0 0 81.595089226830169 12.966248376484543 0 12.966248376484543 10.778764159034738 0 0 0 0 -0.864664243687713 -0.033141349298048794 0 -0.033141349298048794 -0.0087688630109505894 0 0 0 0 -24.810950677478104 51.446740025649206 0 51.446740025649206 62.053831032247842 0 0 0 0 -14.357294972258387 78.080505496257274 0 78.080505496257274 125.53494181103065 0 0 0 0 15.763911810033051 73.067643082641382 0 73.067643082641382 42.039228364246412 0 0 0 0 15.936027055096929 69.244412985564736 0 69.244412985564736 34.237220153928199 0 0 0 0 67.931180094456067 41.329058834084336 0 41.329058834084336 0.31603643387082769 0 0 0 0 50.902179605094716 87.903278530657133 0 87.903278530657133 -65.496430922242894 0 0 0 0 20.173250674750307 107.32448589861355 0 107.32448589861355 5.5043289618606934 0 0 0 0 91.79411008736497 116.61583603462881 0 116.61583603462881 -480.16906369810954 0 0 0 0 -154.38545606080788 410.85838323736027 0 410.85838323736027 19.523690712668611 0 0 0 0 61.072738017425763 -3.1594358378433629 0 -3.1594358378433629 -1.5217365285076809 0 0 0 0 177.40194537431671 -109.21321190336438 0 -109.21321190336438 296.64578709746155 0 0 0 0 138.81148564688192 -159.5595352752332 0 -159.5595352752332 394.92918423299875 0 0 0 0 24.03132327075582 89.663982675949001 0 89.663982675949001 46.382379597004388 0 0 0 0 -18.278330973625998 104.61887671577745 0 104.61887671577745 196.90643250844064 0 0 0 0 -42.380802148240036 55.041127860365123 0 55.041127860365123 264.09320034817239 0 0 0 0 -1.6366328662827812 1.100310931813901 0 1.100310931813901 -1.3286737335311025 0 0 0 0 82.016610234379186 -49.106822045096621 0 -49.106822045096621 71.237039851836911 0 0 0 0 203.54938274255255 -35.631400300754422 0 -35.631400300754422 70.454781532155152 0 0 0 0 386.48338907675497 83.515687810730213 0 83.515687810730213 105.25975344882454 0 0 0 0 130.07181883908925 14.444008093825005 0 14.444008093825005 166.37976901666968 0 0 0 0 85.497439019440208 -53.739954201318369 0 -53.739954201318369 138.0224638107934 0 0 0 0 18.627002192166401 -0.59671376753021832 0 -0.59671376753021832 140.15305837464325 0 0 0 0 7.53881955343968 -4.0829795043858894 0 -4.0829795043858894 135.5249322567372 0 0 0 0 13.385020752539276 -15.547153253574891 0 -15.547153253574891 114.63907844065704 0 0 0 0 -43.930538929591421 31.466414839110257 0 31.466414839110257 94.037404231439609 0 0 0 0 -20.513106607468217 -28.622509164849816 0 -28.622509164849816 114.83672744700573 0 0 0 0 -16.929630289087072 2.9404854977900641 0 2.9404854977900641 60.081597596029496 0 0 0 0 -24.950665311647754 -10.457663274070228 0 -10.457663274070228 47.616579202498542 0 0 0 0 -5.1646642437432888 4.0372920517744895 0 4.0372920517744895 7.8376296034243413 0 0 0 0 16.644715073387488 58.881090475212432 0 58.881090475212432 106.13961032977903 0 0 0 0 -7.9822698907810263 35.003379914029054 0 35.003379914029054 14.715852884835499 0 0 0 0 -18.695270443400659 6.4373888442377805 0 6.4373888442377805 53.444245286093107 0 0 0 0 64.517629830661463 35.881313726137819 0 35.881313726137819 105.6204010663144 0 0 0 0 -67.052292150074209 27.227826967410238 0 27.227826967410238 109.4454485581399 0 0 0 0 116.78669482716941 19.304987630837331 0 19.304987630837331 26.788497519257362 0 0 0 0 86.139993307777331 -6.2141774503143097 0 -6.2141774503143097 10.671356789289462 0 0 0 0 74.477156995671976 -19.88773755869147 0 -19.88773755869147 21.688085999997384 0 0 0 0 87.214615937700728 -10.730441713179061 0 -10.730441713179061 28.142983744670346 0 0 0 0 0.63166379653492299 -10.302741510669748 0 -10.302741510669748 24.520565662594635 0 0 0 0 95.757926034879347 -29.603387188602937 0 -29.603387188602937 1.3075012274020992 0 0 0 0 126.72186095621146 -3.5244441709310195 0 -3.5244441709310195 10.13953805844335 0 0 0 0 130.33690218036645 0.92044295545838395 0 0.92044295545838395 -27.522022620296411 0 0 0 0 6.1624065572686959 47.393598296856908 0 47.393598296856908 14.771092424972267 0 0 0 0 5.0258125568725518 117.19233848473004 0 117.19233848473004 -61.414898008029468 0 0 0 0 178.4183965915654 0.73034215159577798 0 0.73034215159577798 -50.19955863673249 0 0 0 0 104.34402762644459 -5.9731537642855983 0 -5.9731537642855983 23.47830332914782 0 0 0 0 173.7340351587045 -22.670412705891977 0 -22.670412705891977 -15.930381491096796 0 0 0 0 2.70733459992395 2.8347043355012431 0 2.8347043355012431 -1.6302411507193444 0 0 0 0 6.5234280471654955 11.467777261981183 0 11.467777261981183 -7.4425100030789704 0 0 0 0 13.744659637645967 16.737127420786898 0 16.737127420786898 -1.2235994311550593 0 0 0 0 1196.5749953277336 1383.825636868811 0 1383.825636868811 445.22793526562657 0 0 0 0 -448.39861511327763 -280.30383913679907 0 -280.30383913679907 -62.192642977041487 0 0 0 0 1441.9054403966511 -1429.2291336583785 0 -1429.2291336583785 -843.25303753194726 0 0 0 0 44.31306011966953 10.032872791356269 0 10.032872791356269 -10.468519933158195 0 0 0 0 145.76746561570326 -17.079825227947367 0 -17.079825227947367 11.049802512800397 0 0 0 0 210.69561580286245 122.57754496083817 0 122.57754496083817 -277.85763287498071 0 0 0 0 161.005656352725 11.518167097776585 0 11.518167097776585 -5.2259649664905705 0 0 0 0 119.89583666002 -254.27836040566126 0 -254.27836040566126 -160.82911229054525 0 0 0 0 280.1538642039086 -225.13158436809681 0 -225.13158436809681 207.95490211242759 0 0 0 0 95.36955773342936 199.03453718522135 0 199.03453718522135 -34.193334638175656 0 0 0 0 674.6511405716883 90.046150158896126 0 90.046150158896126 -35.730343933255313 0 0 0 0 114.83469428789249 204.97924053586712 0 204.97924053586712 11.705562240356812 0 0 0 0 -48.049108273175079 66.44928367859211 0 66.44928367859211 51.350520673396204 0 0 0 0 46.628359861527855 36.526775496469028 0 36.526775496469028 16.762274292066131 0 0 0 0 78.606703452096554 8.2758036928953516 0 8.2758036928953516 36.077015653131639 0 0 0 0 -36.35140825547569 54.400940755963347 0 54.400940755963347 55.059711934296502 0 0 0 0 88.205205337173538 2.9854640850853684 0 2.9854640850853684 6.6669013728860591 0 0 0 0 87.066714514414002 0.10448284423943299 0 0.10448284423943299 0.041053674032183629 0 0 0 0 74.405401057528991 34.981501239080202 0 34.981501239080202 14.754837291033795 0 0 0 0 77.611735661179409 15.910442877398964 0 15.910442877398964 28.253248895318393 0 0 0 0 63.797125167967465 -7.2278970496724764 0 -7.2278970496724764 10.547190592446265 0 0 0 0 76.542547359509626 13.685742862473489 0 13.685742862473489 23.627367737200302 0 0 0 0 70.775369868399139 15.677703507219917 0 15.677703507219917 29.477272114709194 0 0 0 0 60.706692782201571 19.979307971924641 0 19.979307971924641 39.003529892494953 0 0 0 0 78.107508936671366 12.454790430652793 0 12.454790430652793 28.038329944717134 0 0 0 0 20.529660150059726 19.753882362502438 0 19.753882362502438 14.929713750778079 0 0 0 0 37.553053220511202 13.828570405972833 0 13.828570405972833 9.5657002104802444 0 0 0 0 31.596548061890644 27.998583724624837 0 27.998583724624837 14.305545961975554 0 0 0 0 146.42002180531563 5.9973715467167494 0 5.9973715467167494 -15.077247859098861 0 0 0 0 1.1860685499046326 12.877737881916557 0 12.877737881916557 3.0037841037233441 0 0 0 0 -1.6885488671105122 34.752228975155958 0 34.752228975155958 36.815120947342621 0 0 0 0 -50.454752279416425 58.767767296592865 0 58.767767296592865 61.26905952765992 0 0 0 0 10.842878022691366 12.023510146610775 0 12.023510146610775 8.5469957187840464 0 0 0 0 2.3412383936811239 23.554241501049546 0 23.554241501049546 37.773265256117838 0 0 0 0 3.5458701383904554 12.997910043618504 0 12.997910043618504 32.186535258505728 0 0 0 0 47.034448658174369 5.744621172011648 0 5.744621172011648 39.845472006820273 0 0 0 0 -5.9580479717842536 -12.944751893143803 0 -12.944751893143803 76.62627777365924 0 0 0 0 -1.9333689831801166 40.061660722521651 0 40.061660722521651 18.848464628405054 0 0 0 0 4.3415283531794557 27.645088683961831 0 27.645088683961831 8.2791900666743459 0 0 0 0 11.582804920704802 11.640183285954208 0 11.640183285954208 9.6930332304285116 0 0 0 0 21.381872154138989 14.458031663456524 0 14.458031663456524 -0.038236832870115478 0 0 0 0 7.1248722361342516 25.633288069715718 0 25.633288069715718 3.0310036008859242 0 0 0 0 16.830306018425404 15.818353214451605 0 15.818353214451605 5.6779053328597646 0 0 0 0 0.29151837824610993 12.892493789816399 0 12.892493789816399 -0.53244055535105872 0 0 0 0 10.713566025382164 12.575791229736751 0 12.575791229736751 7.3553916556619292 0 0 0 0 19.939875418877619 13.230384133381733 0 13.230384133381733 4.5536234081996696 0 0 0 0 54.072179729002528 23.384078023962502 0 23.384078023962502 36.487216152976544 0 0 0 0 64.523509265272878 7.2957911439607415 0 7.2957911439607415 42.345017132583962 0 0 0 0 -4.2733123035286553 13.510966826290314 0 13.510966826290314 84.346418780732165 0 0 0 0 66.232088541961275 -18.124432762455399 0 -18.124432762455399 74.358207536759437 0 0 0 0 72.087444110482465 -4.1651579459994537 0 -4.1651579459994537 56.319734270246499 0 0 0 0 45.616016694286373 5.4759364035844555 0 5.4759364035844555 53.901523465443461 0 0 0 0 77.789277496282011 -19.692135823809622 0 -19.692135823809622 70.550483442102632 0 0 0 0 78.692902431852417 -16.336146543045288 0 -16.336146543045288 55.177186045979397 0 0 0 0 2.787759162954444 1.2190031122497373 0 1.2190031122497373 0.61286329690152286 0 0 0 0 82.432000911969226 -36.81946420350323 0 -36.81946420350323 72.072052916736993 0 0 0 0 62.649893346999306 -26.641765408621723 0 -26.641765408621723 26.833288100087884 0 0 0 0 64.757613879628479 -13.951501322138938 0 -13.951501322138938 25.609158721019412 0 0 0 0 82.984762442472856 -44.353926919508012 0 -44.353926919508012 51.782132369007741 0 0 0 0 -14.375097386771813 3.74960910397931 0 3.74960910397931 14.844442000945492 0 0 0 0 -2.5081135376242401 5.3948325572827471 0 5.3948325572827471 3.9080056867514301 0 0 0 0 56.427190019167028 -8.1736555188144848 0 -8.1736555188144848 42.014744461461305 0 0 0 0 55.828364210727159 -17.17314643705231 0 -17.17314643705231 53.411424631425689 0 0 0 0 78.75317364622606 -28.971067207673968 0 -28.971067207673968 56.183184385063214 0 0 0 0 52.896782167661513 -32.724334665682534 0 -32.724334665682534 68.937622444183944 0 0 0 0 74.88009780147695 -50.025557272329934 0 -50.025557272329934 82.080494024352447 0 0 0 0 89.460068145563127 -50.822792471601133 0 -50.822792471601133 64.600402577735622 0 0 0 0 74.206473525729962 -25.408980584398705 0 -25.408980584398705 63.230632872166098 0 0 0 0 70.700081871182192 -34.853315276074682 0 -34.853315276074682 54.498519937551464 0 0 0 0 78.796838372101774 -22.17019867768613 0 -22.17019867768613 54.099886723492091 0 0 0 0 82.618898829503451 -23.227025478834548 0 -23.227025478834548 53.187491555538145 0 0 0 0 88.315197261865251 -34.190252328878159 0 -34.190252328878159 54.495876389028126 0 0 0 0 82.330199110409012 -25.757563964142264 0 -25.757563964142264 45.13303859395819 0 0 0 0 86.452186549722683 -20.926140337686775 0 -20.926140337686775 41.897929622468837 0 0 0 0 97.679032473388361 -32.876054406607182 0 -32.876054406607182 36.693442148227405 0 0 0 0 94.729405488906195 -25.149927965753704 0 -25.149927965753704 33.751130287523893 0 0 0 0 107.53342727175914 -25.387579431215272 0 -25.387579431215272 16.784744606078675 0 0 0 0 107.05498544182046 -21.854493548803475 0 -21.854493548803475 17.678760431609589 0 0 0 0 94.682803599658655 -25.011611277895099 0 -25.011611277895099 35.502157107814128 0 0 0 0 93.354733900458086 -16.831261213314065 0 -16.831261213314065 23.837628516991572 0 0 0 0 92.311015397019219 -10.973281609503829 0 -10.973281609503829 26.667414527340043 0 0 0 0 93.409414216112054 -17.706541726824184 0 -17.706541726824184 35.878180287041687 0 0 0 0 84.066689852683339 -8.0097801341144077 0 -8.0097801341144077 38.361772746806992 0 0 0 0 92.84510000375667 -7.8159815198901583 0 -7.8159815198901583 38.276259245688379 0 0 0 0 84.808903692668537 7.4274284322173116 0 7.4274284322173116 50.921726007276447 0 0 0 0 83.615103088202886 -4.1840197406318111 0 -4.1840197406318111 47.962034010626667 0 0 0 0 72.957995570555795 -7.1855959342626647 0 -7.1855959342626647 50.23251054472712 0 0 0 0 75.70446590820211 -14.536571809615452 0 -14.536571809615452 54.607334706246547 0 0 0 0 84.383148625842296 -16.782427590758743 0 -16.782427590758743 47.287930884989692 0 0 0 0 83.956654528796207 -17.998235959325029 0 -17.998235959325029 46.725638651139889 0 0 0 0 86.896795227672555 -19.521198397260832 0 -19.521198397260832 44.944086406692804 0 0 0 0 87.369552256772295 -14.950952159584631 0 -14.950952159584631 38.637829976882131 0 0 0 0 87.649883479141863 -13.340010489795532 0 -13.340010489795532 46.13519273487691 0 0 0 0 135.12757084087934 8.4842364694995922 0 8.4842364694995922 5.5210774336233044 0 0 0 0 155.13229263601534 46.694623459279001 0 46.694623459279001 -5.0388077411189443 0 0 0 0 89.407923084014328 41.512525233280712 0 41.512525233280712 -5.0700453169311004 0 0 0 0 112.77376883249963 17.396872159620216 0 17.396872159620216 -6.2816173825522128 0 0 0 0 139.17362905829214 14.593478625643002 0 14.593478625643002 -7.2250545913802853 0 0 0 0 118.4611455776103 -7.1267231061773941 0 -7.1267231061773941 -6.3920887406211477 0 0 0 0 145.12960486226439 -9.9883279690574227 0 -9.9883279690574227 -7.2908525625225593 0 0 0 0 127.6365031459718 -23.826628984893432 0 -23.826628984893432 6.9168147828161182 0 0 0 0 105.55569214125353 -11.227801328406599 0 -11.227801328406599 4.373764139972991 0 0 0 0 107.72653229941716 -26.49134396696877 0 -26.49134396696877 20.806979619841513 0 0 0 0 105.06252373147436 -43.655230727069011 0 -43.655230727069011 43.244054464548753 0 0 0 0 136.56477259268286 -38.398880747849034 0 -38.398880747849034 20.769309258235104 0 0 0 0 122.30035360847251 -17.289880394433567 0 -17.289880394433567 12.689286119382814 0 0 0 0 137.76122708854382 -19.944826126617954 0 -19.944826126617954 11.332843172159755 0 0 0 0 163.87862423220213 -29.956586698132924 0 -29.956586698132924 16.734392933312847 0 0 0 0 164.54850612377049 -31.6376724569418 0 -31.6376724569418 15.209757850067035 0 0 0 0 97.955034960024932 -44.727422953301357 0 -44.727422953301357 43.297037635173183 0 0 0 0 146.06476777954958 -79.716975517761057 0 -79.716975517761057 60.357723651071865 0 0 0 0 69.268032378546195 -60.988917381113424 0 -60.988917381113424 63.05625332026807 0 0 0 0 277.94779882367584 -54.392792858913708 0 -54.392792858913708 14.052457463686551 0 0 0 0 223.25365452705591 29.448933848910201 0 29.448933848910201 31.237213438426352 0 0 0 0 178.97267590442789 22.188878538057907 0 22.188878538057907 9.6661891933640618 0 0 0 0 185.3597332512436 11.072624159176485 0 11.072624159176485 22.680335109569569 0 0 0 0 302.54527669155141 8.6022145796796394 0 8.6022145796796394 34.058255424297386 0 0 0 0 342.20151231941418 54.325095862335729 0 54.325095862335729 65.37269463089433 0 0 0 0 246.09615344367921 -161.77593222813084 0 -161.77593222813084 110.30974122393218 0 0 0 0 57.954924335608666 -96.524357293159483 0 -96.524357293159483 90.96000433233894 0 0 0 0 179.8958921906451 -122.45919399759896 0 -122.45919399759896 73.20514125084992 0 0 0 0 -251.52220530252089 -107.5798041237249 0 -107.5798041237249 170.23514935776984 0 0 0 0 383.68936855331413 -136.43120897786321 0 -136.43120897786321 113.58385574288786 0 0 0 0 -65.618906705421978 68.459649262887069 0 68.459649262887069 59.554394843672526 0 0 0 0 53.316501107648946 370.48606183115703 0 370.48606183115703 449.8824153436799 0 0 0 0 3.2949868218512393 3.8905937942526521 0 3.8905937942526521 4.2690991763815731 0 0 0 0 326.28866819436371 199.18320179122657 0 199.18320179122657 276.44925333586798 0 0 0 0 557.38450519753678 49.343562989057318 0 49.343562989057318 61.069011985467114 0 0 0 0 286.33354781422531 -53.819085497174456 0 -53.819085497174456 360.33203138361887 0 0 0 0 223.97227959649172 93.731756201880671 0 93.731756201880671 46.556351323275521 0 0 0 0 110.56137260232936 91.164127488937993 0 91.164127488937993 135.87406743744805 0 0 0 0 100.56030321541766 -0.33470535242031474 0 -0.33470535242031474 -44.269194120519387 0 0 0 0 191.75585434310779 165.40158506407988 0 165.40158506407988 105.08359031149052 0 0 0 0 143.45796773816255 127.39734578790376 0 127.39734578790376 82.698101080643028 0 0 0 0 144.64692470992668 191.33001185757803 0 191.33001185757803 51.967906194330681 0 0 0 0 236.92854754420114 79.726549442527357 0 79.726549442527357 133.27071666811662 0 0 0 0 247.79185493972909 161.09065256142424 0 161.09065256142424 97.392914177293278 0 0 0 0 140.41839131370944 124.90526619632828 0 124.90526619632828 55.149613722555841 0 0 0 0 184.44457247277023 111.68331719036496 0 111.68331719036496 58.860953130912094 0 0 0 0 221.72616778521478 78.573965172533917 0 78.573965172533917 15.939794706137036 0 0 0 0 88.588208021392347 101.97524720206138 0 101.97524720206138 48.232277943665395 0 0 0 0 93.593965807405766 194.27888179382808 0 194.27888179382808 72.852528288563462 0 0 0 0 88.564422380090747 180.09945156591203 0 180.09945156591203 88.314213909164209 0 0 0 0 -20.460349835411762 144.80769458288432 0 144.80769458288432 76.912262248532898 0 0 0 0 66.330116300719965 106.45971297918447 0 106.45971297918447 37.895672239930718 0 0 0 0 43.508154497780197 72.414822269533488 0 72.414822269533488 23.603080708870039 0 0 0 0 108.54203748668078 59.649539028179788 0 59.649539028179788 12.780151794587482 0 0 0 0 124.14997051091632 103.42149365094474 0 103.42149365094474 35.519667561779897 0 0 0 0 192.65940367539588 38.561361841339476 0 38.561361841339476 76.332693145275243 0 0 0 0 129.29942310129445 176.49038163111766 0 176.49038163111766 239.88955498799169 0 0 0 0 258.2138141712494 217.82501449299025 0 217.82501449299025 32.012754361428051 0 0 0 0 65.297355540882563 243.66935821144898 0 243.66935821144898 123.09328861933307 0 0 0 0 84.719569385706563 142.88811625189874 0 142.88811625189874 -0.34919247845255086 0 0 0 0 109.83703253074782 118.03942996585511 0 118.03942996585511 0.38403534153985674 0 0 0 0 12.174403517965402 23.709441500067214 0 23.709441500067214 -26.612339791809973 0 0 0 0 83.388144215241482 139.58374969987426 0 139.58374969987426 4.0280533153168108 0 0 0 0 -2.1493880075139629 2.3566523658647611 0 2.3566523658647611 -0.99384889334794835 0 0 0 0 -61.835404790324901 67.98119177855142 0 67.98119177855142 -25.121318942273319 0 0 0 0 174.83985876853694 107.08201758906125 0 107.08201758906125 64.07407931175112 0 0 0 0 -98.557648520421935 97.971457733635361 0 97.971457733635361 6.7712378405926756 0 0 0 0 -0.2610733778333838 5.7280148809598757 0 5.7280148809598757 3.7356906851892866 0 0 0 0 -8.7847655846263706 32.294372114444194 0 32.294372114444194 -41.641388051999513 0 0 0 0 123.76511022675334 -0.74856618404280795 0 -0.74856618404280795 -13.540716731409184 0 0 0 0 164.72924363487982 72.655869961098688 0 72.655869961098688 -275.68088280606753 0 0 0 0 315.02304326688318 243.80392846110885 0 243.80392846110885 -223.64633690995106 0 0 0 0 100.29587645080755 -5.2749338930411795 0 -5.2749338930411795 -76.232045485764957 0 0 0 0 102.48029363746173 -21.174953231698964 0 -21.174953231698964 -94.436596983631716 0 0 0 0 16.771206176810665 140.21772753480309 0 140.21772753480309 149.03675940999165 0 0 0 0 243.06652979521095 48.046371974218573 0 48.046371974218573 -381.05187054448288 0 0 0 0 74.645918242480548 99.853288177114791 0 99.853288177114791 31.414705071116259 0 0 0 0 54.672111823713436 23.40824451801889 0 23.40824451801889 -49.09911882851749 0 0 0 0 48.737677098711373 12.30273345907051 0 12.30273345907051 -75.48325229585592 0 0 0 0 75.742137362023641 -33.345910615821595 0 -33.345910615821595 -151.25364914676175 0 0 0 0 158.91708422650117 48.702678818892309 0 48.702678818892309 -240.65776792418001 0 0 0 0 0.50667993945535272 -48.32935527720656 0 -48.32935527720656 46.855317266286875 0 0 0 0 13.275854157482058 -2.0170580553698088 0 -2.0170580553698088 -10.573258804071862 0 0 0 0 95.047192905520205 -161.91532650738736 0 -161.91532650738736 -296.45397792137646 0 0 0 0 3.1001614507538875 -1.2000596553613008 0 -1.2000596553613008 0.28908964327358433 0 0 0 0 -258.30968820341513 22.359862867635456 0 22.359862867635456 215.3625400902929 0 0 0 0 -14.639054797939025 -204.73852381916913 0 -204.73852381916913 -158.94798099039508 0 0 0 0 499.13195428912877 12.926612976771139 0 12.926612976771139 13.732521474736131 0 0 0 0 363.35817046495504 -121.06755260114005 0 -121.06755260114005 59.41552982513349 0 0 0 0 89.433633394722051 -238.94438110530993 0 -238.94438110530993 15.466204174725135 0 0 0 0 822.38930417294614 -53.255233295434664 0 -53.255233295434664 -703.47075773734832 0 0 0 0 167.78568559068424 -1.2844013069383022 0 -1.2844013069383022 -4.2419961701416922 0 0 0 0 365.96445097286778 -129.26422698881106 0 -129.26422698881106 -595.36031504452308 0 0 0 0 153.9665824854992 -24.487447756793301 0 -24.487447756793301 -301.21202116259519 0 0 0 0 169.19555295988846 6.5114634875162913 0 6.5114634875162913 -22.059047967274907 0 0 0 0 423.00105329387588 357.18095150395493 0 357.18095150395493 -136.63969705604359 0 0 0 0 22.742081878983299 -116.51631030132194 0 -116.51631030132194 49.27014427433005 0 0 0 0 334.62594363609969 321.13703331010993 0 321.13703331010993 -0.24140247729883413 0 0 0 0 284.57149048971769 341.63323675413267 0 341.63323675413267 151.00539409311932 0 0 0 0 267.59825771861324 301.95332532005614 0 301.95332532005614 108.63580833866581 0 0 0 0 298.24190701485259 98.70638311591398 0 98.70638311591398 30.845994411836728 0 0 0 0 525.77488509331306 21.485886312605544 0 21.485886312605544 -395.64954384663088 0 0 0 0 365.67067694717844 381.56589425850871 0 381.56589425850871 102.07651915872702 0 0 0 0 291.69132903401623 334.33369217711515 0 334.33369217711515 131.02315127613747 0 0 0 0 1296.1355212175208 470.41917122714153 0 470.41917122714153 -135.26668521760621 0 0 0 0 -72.38446465524612 -522.38280569496237 0 -522.38280569496237 440.46880678513389 0 0 0 0 239.88574571166828 362.32548217961539 0 362.32548217961539 417.82641519113122 0 0 0 0 24.712634558647977 0.70592811832205982 0 0.70592811832205982 1.3857196888988668 0 0 0 0 571.53409125343023 547.66283931617727 0 547.66283931617727 293.41138604424123 0 0 0 0 -418.59091733652167 -864.87703268010853 0 -864.87703268010853 222.00419103926194 0 0 0 0 -22.132379710595615 -97.53585493117302 0 -97.53585493117302 13.290748432556938 0 0 0 0 -4.5671636738843517 158.08207803472669 0 158.08207803472669 248.84258950720141 0 0 0 0 344.85352105392667 -351.09221396026913 0 -351.09221396026913 410.77373634572598 0 0 0 0 88.481309994705953 -82.108934760804914 0 -82.108934760804914 -143.14802736047784 0 0 0 0 336.79682578344364 91.13769215371758 0 91.13769215371758 -184.4388559306127 0 0 0 0 66.439911045213762 11.95613430053039 0 11.95613430053039 -7.6095483657380889 0 0 0 0 74.143009921361227 27.442959129084556 0 27.442959129084556 -160.99000575852506 0 0 0 0 45.654726697892045 5.5947419380760195 0 5.5947419380760195 -13.698670073487177 0 0 0 0 37.265227280084126 -12.674839926308607 0 -12.674839926308607 -40.620543900086986 0 0 0 0 -19.67887537842762 28.623815312254294 0 28.623815312254294 -91.976585900078135 0 0 0 0 -32.528599546072655 -178.05064820967164 0 -178.05064820967164 -192.53961024825094 0 0 0 0 -30.083214554048027 77.300520548688382 0 77.300520548688382 -122.75113083991801 0 0 0 0 45.065604913523202 8.2147442473118417 0 8.2147442473118417 -48.051527740653 0 0 0 0 51.006364070515446 6.4139370950785892 0 6.4139370950785892 -11.028451053889476 0 0 0 0 79.122322675189935 -11.882132931992373 0 -11.882132931992373 -31.745989536992056 0 0 0 0 14.639831031059963 3.2253906556472742 0 3.2253906556472742 -27.074444505904374 0 0 0 0 1.7540741536519704 8.7158949527553915 0 8.7158949527553915 -9.6052518794426263 0 0 0 0 20.075735815371445 0.31496070313073687 0 0.31496070313073687 -17.129193239214146 0 0 0 0 111.44468348557712 -46.501531501487989 0 -46.501531501487989 -10.763882717830484 0 0 0 0 619.04137467233522 -176.15612244349995 0 -176.15612244349995 -19.370935655419999 0 0 0 0 11.451237987951572 27.904590360354817 0 27.904590360354817 209.63034210223213 0 0 0 0 8.1632466723862507 -1.9789819168537726 0 -1.9789819168537726 -5.2962947680847119 0 0 0 0 35.941868887523015 -46.519985663990838 0 -46.519985663990838 157.92283066677555 0 0 0 0 -65.402715845899365 -0.37765304992308302 0 -0.37765304992308302 59.799474364477646 0 0 0 0 29.438365032954231 40.278782903121865 0 40.278782903121865 19.412287732640763 0 0 0 0 4.7050581161660716 2.3280175777442498 0 2.3280175777442498 3.7822773886490264 0 0 0 0 85.99160925025717 83.341142274594404 0 83.341142274594404 -27.519705381766471 0 0 0 0 22.601748778684851 96.236140012075509 0 96.236140012075509 40.78938712748095 0 0 0 0 103.715012994071 125.00733215176024 0 125.00733215176024 -13.767876233854111 0 0 0 0 11.990564233878104 35.339814554661132 0 35.339814554661132 -47.945031996781438 0 0 0 0 25.505620273223197 31.988430700364596 0 31.988430700364596 -7.1541017475851163 0 0 0 0 4.0099902783986181 31.070398905815409 0 31.070398905815409 2.9935079642068558 0 0 0 0 -192.84925762631974 55.360001910417026 0 55.360001910417026 104.0041777544202 0 0 0 0 -3.9333025216139106 5.9671350017572031 0 5.9671350017572031 -3.2208526929754906 0 0 0 0 -7.4561457343952497 10.419917317293141 0 10.419917317293141 47.713683091884434 0 0 0 0 -34.810220023180591 31.283059170356069 0 31.283059170356069 32.383929934911521 0 0 0 0 -29.396279604054143 -19.965009179762092 0 -19.965009179762092 -77.681756531509109 0 0 0 0 439.84539393076557 160.76275654178858 0 160.76275654178858 -12.180633096070551 0 0 0 0 313.24115617919597 129.31501666228291 0 129.31501666228291 -103.13277329697348 0 0 0 0 175.63959993224853 -62.994442804638794 0 -62.994442804638794 85.826722462535599 0 0 0 0 606.52251047646132 -30.577168493154886 0 -30.577168493154886 -62.386252276751861 0 0 0 0 436.34347530382365 -226.82993040945848 0 -226.82993040945848 155.91110467056092 0 0 0 0 355.95709390853881 -38.366882915147471 0 -38.366882915147471 26.446479993275489 0 0 0 0 643.83140525875569 -184.74273109480393 0 -184.74273109480393 60.723691044918091 0 0 0 0 -0.18718752374746828 3.7520586757250101 0 3.7520586757250101 4.1178843552625723 0 0 0 0 10.84146074986711 23.643510098760999 0 23.643510098760999 -36.160458741012008 0 0 0 0 12.408552101356349 9.5555611265093674 0 9.5555611265093674 -0.33203790551963408 0 0 0 0 389.86281015440727 -163.75529720688093 0 -163.75529720688093 255.75919384609415 0 0 0 0 647.05795645267062 -104.89991116947613 0 -104.89991116947613 16.441957019981601 0 0 0 0 -31.763371045122767 65.578360473095927 0 65.578360473095927 87.247670615195602 0 0 0 0 923.57654534415269 -184.4082842608982 0 -184.4082842608982 -37.79727384900616 0 0 0 0 7.4772365911803718 4.2345491461471028 0 4.2345491461471028 -2.4072135358818159 0 0 0 0 21.672801513481318 15.345202662269685 0 15.345202662269685 -34.489122290218802 0 0 0 0 -23.737434097671212 33.488321382029881 0 33.488321382029881 23.400689343700833 0 0 0 0 33.464284187597514 170.77618198131313 0 170.77618198131313 -36.715786795541135 0 0 0 0 40.080338971823949 42.420270936841007 0 42.420270936841007 -43.9915533549065 0 0 0 0 138.84894291270393 -22.843320912120362 0 -22.843320912120362 17.656510426556679 0 0 0 0 77.362261032864993 28.424592989724172 0 28.424592989724172 -33.101946573172462 0 0 0 0 155.83047078054369 208.62908199920821 0 208.62908199920821 117.88153745462932 0 0 0 0 547.72848506185414 -169.66328217787844 0 -169.66328217787844 -28.452928917860845 0 0 0 0 210.46878247785207 42.508110984435916 0 42.508110984435916 -130.85257036844632 0 0 0 0 563.46052915636392 163.12424469956932 0 163.12424469956932 -114.4989762134901 0 0 0 0 399.87557464149722 -18.602582610539685 0 -18.602582610539685 -179.65857815972868 0 0 0 0 160.20559360321204 -17.869174613328141 0 -17.869174613328141 -86.802518166405207 0 0 0 0 301.28542973106232 -144.08403791695673 0 -144.08403791695673 21.795631782410055 0 0 0 0 121.25490380803967 -155.76072331935575 0 -155.76072331935575 -60.288796586326498 0 0 0 0 216.70293883282284 -54.877676059017176 0 -54.877676059017176 89.544512707453578 0 0 0 0 193.76213367357377 -121.97701748727559 0 -121.97701748727559 74.742613270303991 0 0 0 0 281.42183998427936 -159.09870893572497 0 -159.09870893572497 256.22734784615932 0 0 0 0 516.80039434690843 122.6532934476927 0 122.6532934476927 237.34902816703681 0 0 0 0 126.40690468317189 10.884855548603809 0 10.884855548603809 137.83420944140744 0 0 0 0 257.99551737820002 -133.92029891284619 0 -133.92029891284619 96.741274654714289 0 0 0 0 -2.9912257139149006 -22.484616589489633 0 -22.484616589489633 142.13276404815042 0 0 0 0 12.988875171752145 10.337948454583742 0 10.337948454583742 -3.180889310274047 0 0 0 0 12.684930412873655 75.430239139265723 0 75.430239139265723 180.22992627267377 0 0 0 0 50.946285335594439 -10.03645196960133 0 -10.03645196960133 -31.256719315424562 0 0 0 0 236.59425159906277 110.51177041027705 0 110.51177041027705 -13.888010326267249 0 0 0 0 90.219870182734809 28.621208368824533 0 28.621208368824533 15.495069559456732 0 0 0 0 28.855648456989272 16.110617528621091 0 16.110617528621091 -2.2660824029437716 0 0 0 0 54.913631290874036 -69.028744681223543 0 -69.028744681223543 51.170934022021356 0 0 0 0 56.324526917676849 -25.209556086998418 0 -25.209556086998418 106.71396206914505 0 0 0 0 70.418164005852304 -73.552749341690287 0 -73.552749341690287 185.56701082146537 0 0 0 0 72.924121658274089 -2.4507575662210002 0 -2.4507575662210002 102.9753943729811 0 0 0 0 64.506747404091584 -108.98018079112444 0 -108.98018079112444 -59.168288782628224 0 0 0 0 134.74354529634002 22.511492654401081 0 22.511492654401081 102.68507800157488 0 0 0 0 215.24180198503018 -25.268791338194205 0 -25.268791338194205 -165.11033966790274 0 0 0 0 108.80251665678952 -13.685901623954123 0 -13.685901623954123 89.368021149042761 0 0 0 0 135.14725925207313 -98.313602262982386 0 -98.313602262982386 -31.505604618931102 0 0 0 0 136.29443654182978 -77.452893958823552 0 -77.452893958823552 40.440790378190286 0 0 0 0 116.78444714715806 -63.445669786036888 0 -63.445669786036888 -86.762287678793655 0 0 0 0 131.19094677566409 -10.67786270418037 0 -10.67786270418037 19.173862427480344 0 0 0 0 165.5729849511772 -39.281211938292472 0 -39.281211938292472 -74.910914468702686 0 0 0 0 116.19608674448308 1.6575547784344664 0 1.6575547784344664 -5.2350636352442947 0 0 0 0 200.95197856877348 -27.209085645783489 0 -27.209085645783489 -285.82217108834448 0 0 0 0 194.70441809793004 -16.660613885905597 0 -16.660613885905597 -8.6257361508916404 0 0 0 0 308.79890554321537 -34.055045818580766 0 -34.055045818580766 -180.08841128118002 0 0 0 0 257.02121239807457 -42.791092999479588 0 -42.791092999479588 -174.04899312662701 0 0 0 0 109.78664313955233 -183.97546559440525 0 -183.97546559440525 -278.59533068229939 0 0 0 0 45.618620039772537 12.710284960778282 0 12.710284960778282 -5.6598188576607669 0 0 0 0 120.36259813938523 54.967253077585156 0 54.967253077585156 74.116333873533222 0 0 0 0 353.84703700363934 -64.559034518310909 0 -64.559034518310909 -70.825889387007919 0 0 0 0 307.21956861388389 16.69982530192101 0 16.69982530192101 -64.394890251813194 0 0 0 0 34.944383577209152 2.2938102839810597 0 2.2938102839810597 -13.679145396967186 0 0 0 0 17.08483736787548 82.743159349571215 0 82.743159349571215 35.887508954914665 0 0 0 0 223.12540098514864 111.38680156016198 0 111.38680156016198 -38.254911520416499 0 0 0 0 -91.756597790750675 47.720484926866447 0 47.720484926866447 127.33029855304085 0 0 0 0 896.92636098020205 358.67031921176817 0 358.67031921176817 86.39788499788483 0 0 0 0 -2.2341765048130462 1.4252502639135045 0 1.4252502639135045 -9.8255837171993932 0 0 0 0 -171.2274652987835 215.05726242587798 0 215.05726242587798 -231.0387053510176 0 0 0 0 182.81122012806736 -68.484595943897148 0 -68.484595943897148 -17.762348771834695 0 0 0 0 532.3901761444904 503.24221927913868 0 503.24221927913868 -554.76121242745853 0 0 0 0 232.32768973310067 243.04608595689683 0 243.04608595689683 -668.75224720941424 0 0 0 0 -61.29874351397666 -546.27836987093906 0 -546.27836987093906 -413.92397197561741 0 0 0 0 -4.9493193930982748 -6.6845130141962343 0 -6.6845130141962343 -26.884035225414916 0 0 0 0 811.33106822448826 -70.582135060035625 0 -70.582135060035625 -646.50549567489918 0 0 0 0 145.73754654612276 20.404856105196814 0 20.404856105196814 -13.955595864230418 0 0 0 0 309.24021246394477 64.208549363305792 0 64.208549363305792 -274.26725418838396 0 0 0 0 405.31912892047876 176.27065588287951 0 176.27065588287951 -201.24484457725703 0 0 0 0 272.75821509494199 -68.577174724134238 0 -68.577174724134238 -635.8863801876023 0 0 0 0 242.98261309890222 97.358881795065827 0 97.358881795065827 -91.586718380103775 0 0 0 0 22.459473975949539 -17.320544729769857 0 -17.320544729769857 -76.116048245382814 0 0 0 0 247.10527481681493 56.167128590024731 0 56.167128590024731 -60.809764233352325 0 0 0 0 435.68241043959642 14.185956585931308 0 14.185956585931308 -125.94314518734609 0 0 0 0 199.44944233360366 110.39161032711945 0 110.39161032711945 61.438277912759077 0 0 0 0 373.20252343865286 128.0363354805595 0 128.0363354805595 -61.242989351922006 0 0 0 0 315.55629337943901 -48.534381113138807 0 -48.534381113138807 -88.30871957691852 0 0 0 0 276.16882552385141 70.854302381331763 0 70.854302381331763 -84.550979242550966 0 0 0 0 222.93450086716985 75.608980145651458 0 75.608980145651458 -58.076028808791307 0 0 0 0 217.78031664212176 55.640933928272716 0 55.640933928272716 -67.449401833233424 0 0 0 0 226.04800765293476 9.7362709016706503 0 9.7362709016706503 -84.587290217190457 0 0 0 0 108.59117071918445 134.1526379797142 0 134.1526379797142 -121.01190522825345 0 0 0 0 130.34901375192416 7.6273280598238529 0 7.6273280598238529 -15.539193722201176 0 0 0 0 34.374295543694245 -6.8880644267956086 0 -6.8880644267956086 -25.921292631000398 0 0 0 0 205.40501155093443 -33.257163486114223 0 -33.257163486114223 -68.764418414328247 0 0 0 0 91.785608794298213 9.2729977587375174 0 9.2729977587375174 -33.762252022020675 0 0 0 0 132.09149915244052 84.073757282083534 0 84.073757282083534 -14.822058453701175 0 0 0 0 134.36544164049701 61.983966536292428 0 61.983966536292428 -24.03237816618639 0 0 0 0 135.29218105269683 88.640653129215934 0 88.640653129215934 -54.397330751122354 0 0 0 0 139.9490729836325 30.575696019659517 0 30.575696019659517 -82.355739500617346 0 0 0 0 40.569854476210367 -16.114280193726202 0 -16.114280193726202 -3.9423844345274972 0 0 0 0 208.34427881572265 78.85579174418217 0 78.85579174418217 -146.9837971918314 0 0 0 0 91.856139163046464 -9.1631124426421593 0 -9.1631124426421593 -33.019196436533093 0 0 0 0 83.410464235667831 7.670057228612631 0 7.670057228612631 -35.488937081300804 0 0 0 0 137.40766183012113 9.0534154723183633 0 9.0534154723183633 -38.993589372974384 0 0 0 0 136.22204289498586 -10.464271891933095 0 -10.464271891933095 -29.224553133924019 0 0 0 0 127.10569749580959 20.626714083249951 0 20.626714083249951 -26.293830215604444 0 0 0 0 197.44344834481308 -93.459019961097511 0 -93.459019961097511 -13.304431066053439 0 0 0 0 88.741816020123224 -61.437393050564879 0 -61.437393050564879 75.855221474686005 0 0 0 0 89.223372865320357 -2.0838324821675087 0 -2.0838324821675087 -12.137325426895586 0 0 0 0 25.318616316444892 -8.2145976003910057 0 -8.2145976003910057 -16.942447917294018 0 0 0 0 56.565921604252146 -10.035153391391141 0 -10.035153391391141 -28.334929425383923 0 0 0 0 116.35860475618699 -25.59785726172575 0 -25.59785726172575 -18.467451200097457 0 0 0 0 56.872053680221825 17.379725758967322 0 17.379725758967322 -28.91757066038355 0 0 0 0 27.402998653117898 1.6628139442279815 0 1.6628139442279815 -5.2280605237919691 0 0 0 0 104.52927383299649 -4.9852493664910753 0 -4.9852493664910753 -35.300765237969244 0 0 0 0 95.256906179001817 -87.434627210631788 0 -87.434627210631788 -80.990401974335839 0 0 0 0 282.08211912784009 -53.885327923698242 0 -53.885327923698242 -84.969155050272548 0 0 0 0 279.59452076210891 -56.143380387603656 0 -56.143380387603656 -85.113295579027181 0 0 0 0 299.22765633424547 137.98866884297172 0 137.98866884297172 79.198446373456363 0 0 0 0 -3.6293367755706134 -12.591498630414069 0 -12.591498630414069 3.0571907966108056 0 0 0 0 -45.176742532275512 -3.4324905183971737 0 -3.4324905183971737 -34.853228515591979 0 0 0 0 518.69132433830964 -30.357160775281045 0 -30.357160775281045 -63.794691844214412 0 0 0 0 121.27107629777818 -8.6848933207196826 0 -8.6848933207196826 -5.8293937999444108 0 0 0 0 513.35495403100504 -8.8601116151317001 0 -8.8601116151317001 -98.520732989659336 0 0 0 0 141.05039647128021 59.027041024370476 0 59.027041024370476 39.976287158372088 0 0 0 0 119.41530984656958 -28.954626372976008 0 -28.954626372976008 -32.586337103894948 0 0 0 0 95.704235178783023 -58.544448483553253 0 -58.544448483553253 -33.511430001692716 0 0 0 0 204.75236048328225 -56.082824010138211 0 -56.082824010138211 -27.742238855666074 0 0 0 0 30.091505768914761 -54.698860508760582 0 -54.698860508760582 15.213469187031524 0 0 0 0 165.46968634129735 -37.482847571792263 0 -37.482847571792263 60.120660892419892 0 0 0 0 183.66880672136904 -100.31424476906886 0 -100.31424476906886 48.051664639366209 0 0 0 0 215.83728334337502 -43.188093795548411 0 -43.188093795548411 -138.36424420681942 0 0 0 0 237.18464777131885 -72.181295684089491 0 -72.181295684089491 -348.62222263494186 0 0 0 0 53.866256075009005 -19.388400174368144 0 -19.388400174368144 -169.46196888356803 0 0 0 0 64.998959177944926 56.483873523841794 0 56.483873523841794 -424.10295843888889 0 0 0 0 29.633404463573243 117.16237428870954 0 117.16237428870954 -513.74173663632973 0 0 0 0 23.859309195055921 -9.2715177427699444 0 -9.2715177427699444 1.1487818158235612 0 0 0 0 151.27164942738455 158.77998473053094 0 158.77998473053094 -588.2855338364875 0 0 0 0 16.967508106845344 123.97960080070698 0 123.97960080070698 -481.9534225434727 0 0 0 0 -51.136854954151204 263.29584037491304 0 263.29584037491304 -476.84448977710173 0 0 0 0 278.51350879329038 233.54074951053315 0 233.54074951053315 -771.30543749632648 0 0 0 0 -610.26049848888579 824.6281934540807 0 824.6281934540807 -770.05280168682066 0 0 0 0 -43.271415669172711 151.73778224487751 0 151.73778224487751 -152.63614193729711 0 0 0 0 -80.830739634155179 227.33592103024375 0 227.33592103024375 -263.78697345633122 0 0 0 0 357.64835914672221 -267.78711198037104 0 -267.78711198037104 -218.44699727887257 0 0 0 0 313.35756544934338 -10.895014649783548 0 -10.895014649783548 -470.95179621177715 0 0 0 0 128.84796316112988 155.09828871045647 0 155.09828871045647 -572.1073197542064 0 0 0 0 262.37667690525632 -34.659831726475431 0 -34.659831726475431 -727.48501507161654 0 0 0 0 207.81743676165024 58.665316963526493 0 58.665316963526493 -495.92858107929214 0 0 0 0 127.69368571148709 -9.4482157155707043 0 -9.4482157155707043 -1.9619672143336635 0 0 0 0 5.6511156082410707 -7.7216355402728993 0 -7.7216355402728993 -43.013079016057077 0 0 0 0 -26.472022251827184 -35.544501721342385 0 -35.544501721342385 47.500158173657383 0 0 0 0 294.69192987709175 -351.39899677072526 0 -351.39899677072526 76.609687774025701 0 0 0 0 189.10414026351282 -117.5742713728614 0 -117.5742713728614 -75.344595377044641 0 0 0 0 260.66229157951102 -32.733817595398705 0 -32.733817595398705 -80.996588261617035 0 0 0 0 15.684443141741788 -2.0286027296073197 0 -2.0286027296073197 -0.61568604240138569 0 0 0 0 61.609288995920224 -8.2119880467959092 0 -8.2119880467959092 -50.076799017500889 0 0 0 0 61.427390580190149 -23.056052494259575 0 -23.056052494259575 -60.624586327346123 0 0 0 0 37.057994466933003 -17.033537614267903 0 -17.033537614267903 9.1118399186220174 0 0 0 0 97.644012962991837 51.929078518895835 0 51.929078518895835 59.717256104746411 0 0 0 0 43.285727928379032 3.6794821780250402 0 3.6794821780250402 6.8637187651295415 0 0 0 0 110.21446067302895 4.1848883935534786 0 4.1848883935534786 19.774433357744783 0 0 0 0 82.786919871301507 -15.663554283657952 0 -15.663554283657952 -2.7887411130622013 0 0 0 0 51.710285121550299 -3.3619995441971398 0 -3.3619995441971398 -1.8073964678784291 0 0 0 0 77.800340176823738 -4.1904891476303732 0 -4.1904891476303732 -9.372451688588626 0 0 0 0 4.2226967220146037 7.646640634117464 0 7.646640634117464 -2.1789235077192721 0 0 0 0 267.40311061657849 9.6631353403918183 0 9.6631353403918183 -33.294466723022197 0 0 0 0 129.43967131138197 55.267281423774421 0 55.267281423774421 2.5099861754360973 0 0 0 0 58.724628285947887 3.0588583931515387 0 3.0588583931515387 -7.181290555915993 0 0 0 0 79.081838101975663 -18.447541944756029 0 -18.447541944756029 2.4147411609915554 0 0 0 0 155.96771192413735 -51.923590845718991 0 -51.923590845718991 -15.657509468745957 0 0 0 0 12.538297448606158 -53.074375077685886 0 -53.074375077685886 2.7712604034832111 0 0 0 0 329.86769460435789 34.377081684676796 0 34.377081684676796 -51.683465974791034 0 0 0 0 63.162170302809265 5.1622099273202409 0 5.1622099273202409 -19.567465913979706 0 0 0 0 64.12234899244919 -31.304882698040011 0 -31.304882698040011 5.0195117342570459 0 0 0 0 157.964914180091 14.920198429162156 0 14.920198429162156 -31.512960507532625 0 0 0 0 132.98503813582647 -119.76395559932189 0 -119.76395559932189 22.269368504772501 0 0 0 0 110.52758101264361 19.87392756896687 0 19.87392756896687 -26.209291572638463 0 0 0 0 133.79159436164991 -3.4861295611408423 0 -3.4861295611408423 -14.323045791779805 0 0 0 0 74.72953190006956 -6.3845510622109032 0 -6.3845510622109032 12.65588584487341 0 0 0 0 124.56825937409303 -21.195864978833015 0 -21.195864978833015 -8.8894889982118457 0 0 0 0 102.76449790716651 -7.2962980350741873 0 -7.2962980350741873 -11.628040514559416 0 0 0 0 123.66028398950584 -20.349826908281557 0 -20.349826908281557 -0.81697813894197679 0 0 0 0 39.561521007272816 -6.6717670328001759 0 -6.6717670328001759 -5.2562201330495828 0 0 0 0 34.104871655950376 -0.063041420681404503 0 -0.063041420681404503 -8.3117679017922459 0 0 0 0 24.920695239065747 -1.9431810618404128 0 -1.9431810618404128 0.33381968342997581 0 0 0 0 30.510274232285475 19.514846258356592 0 19.514846258356592 -27.356464900758688 0 0 0 0 22.717640218894349 22.588452192480901 0 22.588452192480901 -21.135727272886463 0 0 0 0 13.358568092992652 -3.7079699631579288 0 -3.7079699631579288 -1.1606669944759851 0 0 0 0 74.247309742644575 -1.4912540138186614 0 -1.4912540138186614 -11.193111289414446 0 0 0 0 105.18020849716413 -7.0690004014453507 0 -7.0690004014453507 -5.2854936339419964 0 0 0 0 71.633518642112904 7.5465258581675698 0 7.5465258581675698 -10.834823612145556 0 0 0 0 27.52656042716157 4.1257788174326606 0 4.1257788174326606 -10.190337224554536 0 0 0 0 39.839042911073193 -3.9607250489357284 0 -3.9607250489357284 -5.0611931553221439 0 0 0 0 44.038580463344431 5.0334788453260835 0 5.0334788453260835 -13.165219774179818 0 0 0 0 25.918593638284591 -3.5414263326690119 0 -3.5414263326690119 -0.77247665956332234 0 0 0 0 27.004040200214639 -2.8841729147636599 0 -2.8841729147636599 -9.8608237984396823 0 0 0 0 100.10834347859782 8.7461668957024585 0 8.7461668957024585 20.328840735263498 0 0 0 0 103.76022036567156 -136.12677165936475 0 -136.12677165936475 59.517896281049161 0 0 0 0 414.81960038773832 1.8382442185293257 0 1.8382442185293257 -36.024174640362617 0 0 0 0 27.672322913377428 20.846288890077833 0 20.846288890077833 -20.81227926339772 0 0 0 0 154.61181860789657 -124.46640701367141 0 -124.46640701367141 23.238358361877545 0 0 0 0 301.14122703448811 -47.03304819279856 0 -47.03304819279856 52.723028640877828 0 0 0 0 18.391154528283593 -6.1978311247474949 0 -6.1978311247474949 -4.3251481865142338 0 0 0 0 294.1698201019608 -98.710605736927789 0 -98.710605736927789 21.73202204183508 0 0 0 0 186.67814773796999 -89.080977635341696 0 -89.080977635341696 51.541014036125034 0 0 0 0 180.24128853018919 -4.2324409825619114 0 -4.2324409825619114 -7.9232044867358127 0 0 0 0 1.413197745502913 -2.5265612917866633 0 -2.5265612917866633 -1.1502769157831629 0 0 0 0 221.01732989639822 -37.565120563657729 0 -37.565120563657729 70.182292659331324 0 0 0 0 233.35521199530012 -2.4989035883786812 0 -2.4989035883786812 -24.524667579807783 0 0 0 0 1.9627663469332788 14.118285269114963 0 14.118285269114963 -8.0855528217137795 0 0 0 0 17.115562286322529 20.723725473993852 0 20.723725473993852 -4.2474899344495043 0 0 0 0 20.816678595940175 20.849587713369033 0 20.849587713369033 -7.743128103471463 0 0 0 0 57.291992137304987 57.043709373875402 0 57.043709373875402 -7.3543822584870213 0 0 0 0 103.86265246071707 -8.0297086311752537 0 -8.0297086311752537 -0.17015071495734446 0 0 0 0 8.0678225563118353 9.3665273941697649 0 9.3665273941697649 -3.5191833814497748 0 0 0 0 2.9436990816223023 15.3795796024515 0 15.3795796024515 -8.4776062164508836 0 0 0 0 94.652387164986067 -32.389275386420763 0 -32.389275386420763 -49.775077218979277 0 0 0 0 2.1042855521809543 12.725860797177177 0 12.725860797177177 -5.7313027010661699 0 0 0 0 -129.95022155845072 19.201505881297635 0 19.201505881297635 -5.5229340082473755 0 0 0 0 189.72127128490786 -35.637950140111641 0 -35.637950140111641 -17.567976281331084 0 0 0 0 190.17251139935979 -13.649659569662617 0 -13.649659569662617 0.82407368453004892 0 0 0 0 6.4161108783289293 4.2114526507047998 0 4.2114526507047998 -2.8132021802127394 0 0 0 0 220.33740178997687 -37.867129327214343 0 -37.867129327214343 -26.198132724952302 0 0 0 0 193.69708975342655 -8.2277147171994329 0 -8.2277147171994329 6.5654117843168933 0 0 0 0 129.04676095858304 -27.541326528297532 0 -27.541326528297532 -0.74089043271487753 0 0 0 0 129.17559560367226 -29.188375250520494 0 -29.188375250520494 -2.6070371547029936 0 0 0 0 71.469321046570258 -38.036577201623317 0 -38.036577201623317 15.721290753207825 0 0 0 0 30.065158166860783 -54.172518650065797 0 -54.172518650065797 -48.206462255481711 0 0 0 0 -2.6286085454893602 -16.291221822995709 0 -16.291221822995709 -2.3606212561656861 0 0 0 0 9.8858003526842424 -4.3617256016043484 0 -4.3617256016043484 -2.5926908403114206 0 0 0 0 16.023929469374707 -142.62078958068719 0 -142.62078958068719 3.9423904353061516 0 0 0 0 100.56340511007329 -20.715706367937401 0 -20.715706367937401 -31.139789898432355 0 0 0 0 31.823070443015851 -4.264061977027481 0 -4.264061977027481 -13.854100120686056 0 0 0 0 49.742727832184755 1.6346504654607088 0 1.6346504654607088 -12.436837062734071 0 0 0 0 38.411411738519575 -22.285346016495808 0 -22.285346016495808 -17.955899265747192 0 0 0 0 49.704336126640555 0.17847910332120875 0 0.17847910332120875 -15.863319275790644 0 0 0 0 116.8805180740892 -105.11524284028083 0 -105.11524284028083 65.032094199458527 0 0 0 0 262.97802252955444 -48.740677321159978 0 -48.740677321159978 -14.925577487626242 0 0 0 0 139.97850538434432 -46.232982340613574 0 -46.232982340613574 -6.8995570268390338 0 0 0 0 139.56600180832174 -66.735681591069408 0 -66.735681591069408 -3.0801554957812982 0 0 0 0 10.626408900192473 -85.178418111755491 0 -85.178418111755491 -39.552152243525143 0 0 0 0 -13.774156622173905 -141.00811732802094 0 -141.00811732802094 -22.758979150481537 0 0 0 0 17.384567526198225 -100.49093045893096 0 -100.49093045893096 8.4259800369816276 0 0 0 0 -13.580864237439528 -90.783473958367495 0 -90.783473958367495 5.6157100603597883 0 0 0 0 -9.6400666747867945 -54.251459494776782 0 -54.251459494776782 66.479336629727186 0 0 0 0 -20.032000999362936 -95.520557350668042 0 -95.520557350668042 160.09036031112328 0 0 0 0 -17.372840855059621 11.3322502448666 0 11.3322502448666 330.24354703041467 0 0 0 0 579.81581610033754 118.00114872056633 0 118.00114872056633 167.03432268936649 0 0 0 0 164.11101309085643 -186.108601643773 0 -186.108601643773 71.992246472633269 0 0 0 0 43.566354182861687 -165.85043358446569 0 -165.85043358446569 6.2657293209213094 0 0 0 0 -42.102098165525604 -343.8821678668171 0 -343.8821678668171 -348.34296698712615 0 0 0 0 -70.764201158170181 -24.828609305627197 0 -24.828609305627197 -34.409750515567339 0 0 0 0 381.225625389161 -596.9388122740479 0 -596.9388122740479 -1087.9739568013983 0 0 0 0 162.19993961240107 -148.02247214435749 0 -148.02247214435749 -114.97258543665407 0 0 0 0 126.84014711410885 1.2876307435411563 0 1.2876307435411563 -8.8224959485494665 0 0 0 0 136.72837167622856 -47.430163751854082 0 -47.430163751854082 -241.11464771119938 0 0 0 0 186.70966184483314 -196.47709784400598 0 -196.47709784400598 -21.99879051362268 0 0 0 0 267.9322434472906 157.16787854326321 0 157.16787854326321 -35.884552423626246 0 0 0 0 236.85402651820732 14.597947912897098 0 14.597947912897098 -218.60065157309123 0 0 0 0 130.07063619157213 -0.82153161607259317 0 -0.82153161607259317 -6.7825054924955346 0 0 0 0 124.64109377464047 15.85849432175263 0 15.85849432175263 -33.20650122741165 0 0 0 0 126.43535046012337 -3.8555092768164982 0 -3.8555092768164982 -9.9377985098619739 0 0 0 0 65.371588399255415 -139.3099661585884 0 -139.3099661585884 -158.02110552294243 0 0 0 0 105.90419739283971 51.54623093582768 0 51.54623093582768 3.4896721157369939 0 0 0 0 85.556833351245587 40.737789693511957 0 40.737789693511957 58.049300449597126 0 0 0 0 20.631356233455399 -9.7567383064581676 0 -9.7567383064581676 4.8481865870915408 0 0 0 0 54.58670493322461 -85.192384144180835 0 -85.192384144180835 -27.488042769374545 0 0 0 0 135.69743187945005 92.455678416860096 0 92.455678416860096 181.01361054191602 0 0 0 0 147.35413303097448 144.53163975320399 0 144.53163975320399 111.05436462931141 0 0 0 0 129.04311385745038 -11.114356328504501 0 -11.114356328504501 -2.7658130152201617 0 0 0 0 137.55155411245505 -216.07993253304301 0 -216.07993253304301 -290.04821897917373 0 0 0 0 214.57805120112425 -81.966516966488371 0 -81.966516966488371 -514.32457363803223 0 0 0 0 112.31217722075007 -166.00084141599052 0 -166.00084141599052 -72.636111513663764 0 0 0 0 153.36510411938434 -531.96089135809075 0 -531.96089135809075 746.07510411932253 0 0 0 0 363.20081255561672 -567.88155964115003 0 -567.88155964115003 449.08983558656382 0 0 0 0 105.70869681558906 -220.33066713585094 0 -220.33066713585094 207.42476617273269 0 0 0 0 200.26963072616127 -319.75401040764609 0 -319.75401040764609 -72.511318905133976 0 0 0 0 19.19573125068564 -261.78044704065587 0 -261.78044704065587 188.54011749743495 0 0 0 0 -130.32941103966368 -52.641757650346335 0 -52.641757650346335 275.0310934303775 0 0 0 0 154.68439755390318 -617.67800205900721 0 -617.67800205900721 587.46674639745652 0 0 0 0 -84.479208513614594 285.14126026762733 0 285.14126026762733 -472.78885456224543 0 0 0 0 2.6989310732351441 -464.57798064299209 0 -464.57798064299209 -13.774613812877192 0 0 0 0 -616.56700850156813 -695.5536926658142 0 -695.5536926658142 616.04989234908135 0 0 0 0 -536.35612267069519 22.239777066916076 0 22.239777066916076 91.991428284051381 0 0 0 0 6.5497461062210363 -2.6001356153904842 0 -2.6001356153904842 1.8186296726996245 0 0 0 0 120.30910715842954 -11.754172061674788 0 -11.754172061674788 -2.616749296190882 0 0 0 0 1421.367477261927 158.85252493603912 0 158.85252493603912 -300.58947914939915 0 0 0 0 -576.44131358925551 373.29159108106819 0 373.29159108106819 207.23714197973914 0 0 0 0 511.91556820057667 446.17828658485462 0 446.17828658485462 362.55790102041715 0 0 0 0 967.32316163399173 -168.18152021397543 0 -168.18152021397543 -87.055647283193139 0 0 0 0 69.253521172620822 -123.07436187962639 0 -123.07436187962639 46.33035725292973 0 0 0 0 -26.004833977245653 -103.95044889152769 0 -103.95044889152769 62.239640082828373 0 0 0 0 88.659699708147855 -175.94585582595266 0 -175.94585582595266 95.247390047025647 0 0 0 0 17.673554600271018 -183.79901328383437 0 -183.79901328383437 202.19566204153807 0 0 0 0 128.29438850933366 -64.416869704326018 0 -64.416869704326018 39.830693365265915 0 0 0 0 143.3803092125745 -48.48967008462364 0 -48.48967008462364 46.127205517010566 0 0 0 0 -147.9369252405304 77.363592877807832 0 77.363592877807832 -7.8168676500386027 0 0 0 0 11.549953841127717 -169.50231294085506 0 -169.50231294085506 139.68192569767803 0 0 0 0 154.38298284981283 108.24261932538684 0 108.24261932538684 67.646662506523683 0 0 0 0 4.9342005849239285 127.8711284772308 0 127.8711284772308 65.919801794765363 0 0 0 0 24.972725541720138 -8.5104860994335922 0 -8.5104860994335922 8.0229391624939126 0 0 0 0 3.6885051208999826 -1.794649137143832 0 -1.794649137143832 1.1889149599397508 0 0 0 0 28.980126078956914 -32.382043664099797 0 -32.382043664099797 14.433600624598057 0 0 0 0 567.3854610220933 376.6075880532826 0 376.6075880532826 356.18119384526335 0 0 0 0 -272.16180246766635 58.107369610401292 0 58.107369610401292 121.14145080040089 0 0 0 0 744.07971383217591 -126.37654261971329 0 -126.37654261971329 45.203587009204057 0 0 0 0 4.8389293656624162 -5.7991118811007691 0 -5.7991118811007691 0.57217380717420641 0 0 0 0 117.96325651323423 13.440976605841797 0 13.440976605841797 -157.69661695173681 0 0 0 0 88.82395265242377 -13.878377477010531 0 -13.878377477010531 -3.2458875226646504 0 0 0 0 26.001795213545847 120.62540096069279 0 120.62540096069279 -220.57384723531396 0 0 0 0 1038.6997911981889 -474.92672642147954 0 -474.92672642147954 -168.27814205490631 0 0 0 0 226.4215279710188 -361.74607743428714 0 -361.74607743428714 465.25957065582043 0 0 0 0 354.85088540584366 -520.78742112463033 0 -520.78742112463033 451.20408176605997 0 0 0 0 368.86658161022206 -375.11598539983788 0 -375.11598539983788 451.11337291217387 0 0 0 0 358.85162289216532 -451.87515099701159 0 -451.87515099701159 719.28794861680672 0 0 0 0 518.93055681511396 -633.4302729101114 0 -633.4302729101114 959.28210530206343 0 0 0 0 556.49800109216085 -714.10649212204271 0 -714.10649212204271 731.08465731770229 0 0 0 0 439.50954254084627 -548.92585759946815 0 -548.92585759946815 444.9133482922316 0 0 0 0 530.95564575464596 -341.76498144612833 0 -341.76498144612833 718.30477797370258 0 0 0 0 621.96268518944817 -469.84071506168038 0 -469.84071506168038 552.84736735331899 0 0 0 0 401.15208505970077 -298.54081187194288 0 -298.54081187194288 1012.2898446183699 0 0 0 0 -171.04961265484417 694.71567213855633 0 694.71567213855633 1022.9787142996038 0 0 0 0 499.79370361031397 -608.67882942416873 0 -608.67882942416873 1757.4013934222771 0 0 0 0 1343.6634034392523 -1690.3505435783732 0 -1690.3505435783732 1752.6646385642325 0 0 0 0 59.14404255300542 -862.39162028870078 0 -862.39162028870078 1775.3014120437037 0 0 0 0 604.96243676881568 -944.46175858566721 0 -944.46175858566721 1499.2705071822488 0 0 0 0 726.17665637185928 -970.67623863819904 0 -970.67623863819904 1236.4550392032813 0 0 0 0 1368.7082862180323 -1463.6705155510253 0 -1463.6705155510253 1079.4473585605065 0 0 0 0 1036.2240433660518 -977.21404616175664 0 -977.21404616175664 1099.153247770143 0 0 0 0 684.95210617116754 -782.4626749225863 0 -782.4626749225863 705.75861231217959 0 0 0 0 642.97973323585393 -1064.5349932839827 0 -1064.5349932839827 1131.116706588818 0 0 0 0 3138.1432370137632 -2388.1448985288034 0 -2388.1448985288034 1323.7336844170138 0 0 0 0 3081.6475697285691 -2117.6571710693347 0 -2117.6571710693347 1066.7717370149919 0 0 0 0 1208.1040399189314 -1830.5271562259422 0 -1830.5271562259422 1895.5783725915485 0 0 0 0 1463.1414460895321 -1920.7109786189594 0 -1920.7109786189594 1923.3283644899666 0 0 0 0 -924.14930454243586 31.778083634739232 0 31.778083634739232 2901.471521796363 0 0 0 0 680.49444624442913 -1906.4100894553217 0 -1906.4100894553217 3261.4041332731213 0 0 0 0 -35.071305901867163 -1439.4535774309161 0 -1439.4535774309161 4813.6832582911738 0 0 0 0 2659.4262087046095 -3462.8995164238681 0 -3462.8995164238681 3482.4421844440035 0 0 0 0 3788.6887197952874 -2554.148936591826 0 -2554.148936591826 1366.0003972803988 0 0 0 0 5489.3700849675752 -4396.4214833662454 0 -4396.4214833662454 3309.580076717662 0 0 0 0 1472.5288207565809 -2855.7134121572863 0 -2855.7134121572863 5732.3957898956096 0 0 0 0 -6.5870169975351018 -18.147009256012097 0 -18.147009256012097 113.64762845736823 0 0 0 0 -0.64500105517209594 -0.50904416158026322 0 -0.50904416158026322 4.4084317240824271 0 0 0 0 17.905712593869982 -22.807365505814431 0 -22.807365505814431 12.002308944509233 0 0 0 0 5388.5825696482352 862.34550676158369 0 862.34550676158369 47.481960259222198 0 0 0 0 5452.9589967934808 -63.997468417945861 0 -63.997468417945861 32.235778959598122 0 0 0 0 2.5021771872616512 -7.9427763882498752 0 -7.9427763882498752 13.312650685413296 0 0 0 0 222.52453103971493 -55.183543660732539 0 -55.183543660732539 76.500172131220097 0 0 0 0 41.226057332477353 -19.394592453083444 0 -19.394592453083444 3.3358100723619821 0 0 0 0 45.469262575388711 12.951528242306836 0 12.951528242306836 -28.644901628037871 0 0 0 0 77.751013429778894 18.253452355713016 0 18.253452355713016 -7.174244195826569 0 0 0 0 12.724333718226191 -4.6412673797707109 0 -4.6412673797707109 0.033336232393533949 0 0 0 0 79.664667783868936 67.998004819713628 0 67.998004819713628 75.394564722859826 0 0 0 0 100.01061018205655 59.180648753155538 0 59.180648753155538 47.605652083610607 0 0 0 0 42.711605186304951 97.779692832554701 0 97.779692832554701 51.459040302256561 0 0 0 0 117.50409794435473 43.457989099723974 0 43.457989099723974 58.400238001633852 0 0 0 0 118.78563378397848 56.17038463264916 0 56.17038463264916 143.92202128770498 0 0 0 0 5491.0273999278497 13.723861302510617 0 13.723861302510617 25.08858219385608 0 0 0 0 19.857339085869171 2.9231776009853583 0 2.9231776009853583 2.7943842277830941 0 0 0 0 9.0278445080281742 20.098415700678359 0 20.098415700678359 36.279091183128507 0 0 0 0 -116.67893867543899 159.1168265285296 0 159.1168265285296 -39.163758035039791 0 0 0 0 5258.577835410817 1393.0107251318534 0 1393.0107251318534 337.22666131782165 0 0 0 0 4.7585920645909567 12.63408979712019 0 12.63408979712019 38.958918498552265 0 0 0 0 5496.1587520990597 2139.9434526007103 0 2139.9434526007103 586.2385269357552 0 0 0 0 -64.181575955997687 229.28091470891104 0 229.28091470891104 22.440941615193879 0 0 0 0 5385.6063631399393 1379.6383933701127 0 1379.6383933701127 544.2681076959783 0 0 0 0 2.0521350983583346 1.3208237370419766 0 1.3208237370419766 11.917193997289488 0 0 0 0 5439.6847033684389 1466.6208930979578 0 1466.6208930979578 354.35131526892337 0 0 0 0 70.954263544816058 310.60689095684756 0 310.60689095684756 69.270313800272561 0 0 0 0 -675.58243177827535 85.918767412046833 0 85.918767412046833 332.43130798125333 0 0 0 0 207.40030416274021 254.96679997442243 0 254.96679997442243 -86.866758227233731 0 0 0 0 27.623993314104155 147.93801945614814 0 147.93801945614814 -156.58211673979167 0 0 0 0 144.74955135075288 197.46268199562201 0 197.46268199562201 -137.23377393114788 0 0 0 0 193.97928148632491 144.31298523023699 0 144.31298523023699 -686.09473962496213 0 0 0 0 107.91240721560825 8.631165883406112 0 8.631165883406112 -11.154332821637583 0 0 0 0 249.24300511271576 -222.18573502124013 0 -222.18573502124013 49.069061430735275 0 0 0 0 -128.02948190917596 -281.9867524757617 0 -281.9867524757617 829.82552632525721 0 0 0 0 -135.25622513212511 87.920556542144766 0 87.920556542144766 62.201964156647477 0 0 0 0 391.79523493412853 -130.45889269252905 0 -130.45889269252905 16.13333400095496 0 0 0 0 28.939933514939185 -569.05247351369394 0 -569.05247351369394 213.65592485331354 0 0 0 0 1255.0920078602721 933.84003470328207 0 933.84003470328207 -121.65386466229211 0 0 0 0 13.312724375313195 11.09908679791171 0 11.09908679791171 8.2431921055699515 0 0 0 0 -1030.4567991997428 1092.4290773182074 0 1092.4290773182074 282.05898517890853 0 0 0 0 1650.0260866881981 -223.93119324444848 0 -223.93119324444848 -595.5856946764452 0 0 0 0 1937.4341435281167 495.20573876466256 0 495.20573876466256 -136.14814563192976 0 0 0 0 355.18410157709332 524.17842093202239 0 524.17842093202239 995.9524149229519 0 0 0 0 1179.8860723102262 97.314180585753547 0 97.314180585753547 -256.45680590981556 0 0 0 0 673.62264644964307 -110.10854154967819 0 -110.10854154967819 -48.754711929814789 0 0 0 0 1478.4690892208309 -210.36975101940197 0 -210.36975101940197 -213.78373614610493 0 0 0 0 985.90433164963179 -655.55844190504081 0 -655.55844190504081 -573.38191647258827 0 0 0 0 -677.74112198237708 -62.439071578607582 0 -62.439071578607582 449.72183031549503 0 0 0 0 2686.2334236519164 -1393.8727928085841 0 -1393.8727928085841 -1284.2318734014175 0 0 0 0 4803.8161550506193 -92.995149622362192 0 -92.995149622362192 -1333.6040533226796 0 0 0 0 15.865168043532364 10.087446711120336 0 10.087446711120336 6.4061367637295001 0 0 0 0 5488.4721024822065 546.23643454629416 0 546.23643454629416 -1252.1014284376197 0 0 0 0 5502.6245034269177 1370.9901658205795 0 1370.9901658205795 496.40008924676658 0 0 0 0 3920.1684979870915 153.61757510386664 0 153.61757510386664 152.36770791216657 0 0 0 0 5426.4661218481851 1323.4168500443998 0 1323.4168500443998 618.20681740742862 0 0 0 0 -1422.0416918458814 253.005775076661 0 253.005775076661 1694.7501381527036 0 0 0 0 383.61215470409661 -289.06870069627803 0 -289.06870069627803 127.19781639740813 0 0 0 0 -208.68439051829046 46.660787275670373 0 46.660787275670373 366.93590917411211 0 0 0 0 -73.296772286565101 24.229026890468958 0 24.229026890468958 51.263617700403756 0 0 0 0 85.119551246953051 -27.65968923971775 0 -27.65968923971775 11.676427119655727 0 0 0 0 -1.6779216702615827 1.9584005511152085 0 1.9584005511152085 1.3618548826608401 0 0 0 0 -106.98241283257084 56.950513937757023 0 56.950513937757023 23.923016605532212 0 0 0 0 16.26516885496676 -63.060000964213032 0 -63.060000964213032 -76.975086510065012 0 0 0 0 3.9210840421292232 94.724909706088511 0 94.724909706088511 -185.0343358784794 0 0 0 0 32.08693420336931 -4.4613855276443246 0 -4.4613855276443246 -30.072869193110819 0 0 0 0 27.542466159896605 -1.4055620909653044 0 -1.4055620909653044 -0.28138085158701776 0 0 0 0 -109.55013336488628 250.89695134172734 0 250.89695134172734 -32.202810874171973 0 0 0 0 -89.390505163944908 -201.9463034046903 0 -201.9463034046903 80.24031430944342 0 0 0 0 -161.30366250536281 -306.17403997596068 0 -306.17403997596068 661.90734505611181 0 0 0 0 -256.0528632698406 255.75987190950082 0 255.75987190950082 193.5413949979511 0 0 0 0 -471.00032413146982 -18.05208039296167 0 -18.05208039296167 267.33541354570661 0 0 0 0 12.252460599195842 -1.0284158888357098 0 -1.0284158888357098 0.59710809781438834 0 0 0 0 630.46098447154509 151.78152548556864 0 151.78152548556864 85.731792881229012 0 0 0 0 862.91810230132251 -675.55790000839306 0 -675.55790000839306 712.67464442320716 0 0 0 0 -242.88470537745161 230.68190310245791 0 230.68190310245791 327.85764768824993 0 0 0 0 2262.3221513002063 -883.39350348522566 0 -883.39350348522566 381.21109787303567 0 0 0 0 3866.041417408298 -689.3663459799036 0 -689.3663459799036 125.54812978149585 0 0 0 0 1539.2730417526764 -84.840892882567914 0 -84.840892882567914 94.588405753607731 0 0 0 0 3362.1192319796028 -1478.5343750242098 0 -1478.5343750242098 180.04775888451331 0 0 0 0 3036.7310319046082 -414.29654908316343 0 -414.29654908316343 679.53394634689266 0 0 0 0 3037.4779564614073 -20.297724960796359 0 -20.297724960796359 -24.802807983411185 0 0 0 0 1995.1337585944711 -122.76474603250244 0 -122.76474603250244 -27.275883412572512 0 0 0 0 2214.4576803422751 -350.6262398031854 0 -350.6262398031854 102.70981305964051 0 0 0 0 364.65377504534263 -482.88441889463479 0 -482.88441889463479 428.05540401906683 0 0 0 0 972.64648855496489 -507.44331544162105 0 -507.44331544162105 270.69862296993779 0 0 0 0 996.82312462931441 -608.18095105023986 0 -608.18095105023986 347.91310016257603 0 0 0 0 646.78415031752229 -387.40708874349093 0 -387.40708874349093 267.11450234759423 0 0 0 0 1132.4798811631044 -271.42939089889649 0 -271.42939089889649 148.08678999525728 0 0 0 0 1817.8326262859046 123.48378049876703 0 123.48378049876703 275.38847102365253 0 0 0 0 1206.6608681258076 -398.40920991442954 0 -398.40920991442954 130.78499905342358 0 0 0 0 1267.0916519027014 -309.9282508971346 0 -309.9282508971346 203.37447259003784 0 0 0 0 1306.1101119088125 -228.39504831658564 0 -228.39504831658564 358.30174459939838 0 0 0 0 1174.8100124531411 -155.34159409491269 0 -155.34159409491269 -32.920247414160258 0 0 0 0 504.7423749632726 -176.22946004608178 0 -176.22946004608178 352.63520885630408 0 0 0 0 233.38771689508576 -376.78045434416561 0 -376.78045434416561 294.75421634999594 0 0 0 0 -9.3363116573746083 -72.543246106360698 0 -72.543246106360698 305.18698718913538 0 0 0 0 180.11783627038312 -175.61304411122964 0 -175.61304411122964 22.369042356752743 0 0 0 0 3.3239666002460808 -1.9872467594195413 0 -1.9872467594195413 1.2860044005137574 0 0 0 0 61.209625733841676 36.578868032886007 0 36.578868032886007 796.4108176597166 0 0 0 0 432.12968368557631 114.05106695919358 0 114.05106695919358 -532.59791482324181 0 0 0 0 198.42246929954126 -85.688058148927936 0 -85.688058148927936 176.38753655235757 0 0 0 0 28.011825793175376 -158.56937861079345 0 -158.56937861079345 313.74587512130347 0 0 0 0 -92.466030729614431 -194.16795883997898 0 -194.16795883997898 203.58582599534455 0 0 0 0 -98.451352443604264 -250.76807538653665 0 -250.76807538653665 8.2223096024907232 0 0 0 0 -333.17593303753893 -152.03896032732203 0 -152.03896032732203 82.773004828403941 0 0 0 0 -97.01141995168291 -93.654180332454644 0 -93.654180332454644 18.687812740811864 0 0 0 0 -19.165600985190395 -99.47578163034602 0 -99.47578163034602 -32.970503136161142 0 0 0 0 34.312576268173871 -126.55512369641178 0 -126.55512369641178 344.92766058378049 0 0 0 0 -6.9465018903720193 -13.119547165817949 0 -13.119547165817949 149.02388899323466 0 0 0 0 -115.5095234226319 -374.90668427780111 0 -374.90668427780111 -206.94302559929611 0 0 0 0 21.840284218924353 -61.079445240056884 0 -61.079445240056884 -225.6324437370256 0 0 0 0 -130.88445655595569 330.76079759042057 0 330.76079759042057 444.76015197742328 0 0 0 0 4.9132891057871575 -6.566221362327731 0 -6.566221362327731 4.1213395113263296 0 0 0 0 -11.086285753030097 556.00467929788397 0 556.00467929788397 4.0464328538881915 0 0 0 0 -9.8109978383290581 81.292103998011498 0 81.292103998011498 -137.98309136600346 0 0 0 0 -154.42803313287732 -113.9231885670024 0 -113.9231885670024 -34.848752652675557 0 0 0 0 0.093632761694607325 173.84471812336801 0 173.84471812336801 337.73859712128387 0 0 0 0 3.0252900347550167 -27.851501578212492 0 -27.851501578212492 125.65016064996576 0 0 0 0 177.75438618531189 102.07869760034868 0 102.07869760034868 67.964310465948984 0 0 0 0 0.69271363930384666 -0.00078562258823922093 0 -0.00078562258823922093 4.9137239362340779 0 0 0 0 -549.95405064961233 -266.83377572467043 0 -266.83377572467043 503.1481879928815 0 0 0 0 49.197976846111402 1.645415215224638 0 1.645415215224638 -5.4381846819671011 0 0 0 0 54.758396668374189 -58.069237800225892 0 -58.069237800225892 42.997589375446751 0 0 0 0 84.410546115614125 -10.304448074972797 0 -10.304448074972797 -11.446878477849879 0 0 0 0 21.594036813781713 -81.403858427425803 0 -81.403858427425803 29.696170133383703 0 0 0 0 145.53024641759112 -18.837771819046111 0 -18.837771819046111 8.7637269921734742 0 0 0 0 4.82574112995718 -12.801983178122878 0 -12.801983178122878 -3.2965008243475817 0 0 0 0 -198.54607237628079 -390.91329150427578 0 -390.91329150427578 -620.7417193073012 0 0 0 0 9.9051080598458014 0.00073526454403349817 0 0.00073526454403349817 -1.6558330196408568 0 0 0 0 -321.18009623626131 -110.76829396719654 0 -110.76829396719654 -1.53801277824941 0 0 0 0 -167.89701313158002 -305.7993948351467 0 -305.7993948351467 -422.53623658890194 0 0 0 0 -799.40127319929888 -45.899561010411389 0 -45.899561010411389 6.8123019234588469 0 0 0 0 169.11825867238804 613.08300159310807 0 613.08300159310807 -784.53457792460767 0 0 0 0 -111.20039154280676 47.849088701053915 0 47.849088701053915 -79.605442626178046 0 0 0 0 -124.70553758747337 -64.905109201684766 0 -64.905109201684766 42.611600357487077 0 0 0 0 -157.2408726064732 -876.52119839415047 0 -876.52119839415047 -47.563485750748214 0 0 0 0 9.3345909994960152 -12.023495659576305 0 -12.023495659576305 7.3383609340331502 0 0 0 0 -6.8283015974739101 -95.695233589654435 0 -95.695233589654435 -78.905497898605518 0 0 0 0 -329.00486635451671 -154.51458738807514 0 -154.51458738807514 273.05030164390996 0 0 0 0 93.575079908725456 -63.401483303068744 0 -63.401483303068744 -27.941883578724855 0 0 0 0 -2.773789759943611 -23.36439107636204 0 -23.36439107636204 -44.834815139174907 0 0 0 0 4.641214728486375 -103.97823580595326 0 -103.97823580595326 -37.845264304908028 0 0 0 0 92.689370885622338 93.865548813013277 0 93.865548813013277 -25.417502684621923 0 0 0 0 3.7996078366995789 -19.186393203426633 0 -19.186393203426633 6.1239831708153361 0 0 0 0 2.0647519483463839 -10.544759380721644 0 -10.544759380721644 3.9853051343507104 0 0 0 0 6.0911949786794821 -8.10912783738722 0 -8.10912783738722 -0.87745021114649402 0 0 0 0 -90.587364162172889 -55.059926022660648 0 -55.059926022660648 167.03548774012967 0 0 0 0 11.913485250748636 -6.9161231130194665 0 -6.9161231130194665 -16.595042737458698 0 0 0 0 -34.061748415901093 -133.54013547800264 0 -133.54013547800264 67.245780280115866 0 0 0 0 58.943612453964306 -67.654987394955583 0 -67.654987394955583 -9.2153279601906206 0 0 0 0 4.8727367296814919 -9.3649130225662702 0 -9.3649130225662702 12.558985515542417 0 0 0 0 6.4340366581600392 -16.485812714843178 0 -16.485812714843178 9.3355434326281284 0 0 0 0 11.365765349968569 -18.36991871752889 0 -18.36991871752889 -4.7286575722363295 0 0 0 0 16.450915164767764 -6.8912552759876746 0 -6.8912552759876746 1.3672535550907607 0 0 0 0 9.0159631243586773 -19.51448702153516 0 -19.51448702153516 2.6072500218333516 0 0 0 0 8.7313439269782975 -7.5962704662724718 0 -7.5962704662724718 -2.0289798781536774 0 0 0 0 4.0486624045588542 -9.1651468968730114 0 -9.1651468968730114 4.8898218591175464 0 0 0 0 14.30658491444774 -6.0326089947393484 0 -6.0326089947393484 4.6017564520564065 0 0 0 0 10.692093542194925 -7.5753180561205227 0 -7.5753180561205227 4.9931693229309531 0 0 0 0 17.193907219509128 -11.401289146987438 0 -11.401289146987438 1.8553814741217138 0 0 0 0 12.910615828477603 -12.757955865688928 0 -12.757955865688928 2.0005404106505011 0 0 0 0 17.620660515094642 -8.7983245813366011 0 -8.7983245813366011 -0.91192550083997048 0 0 0 0 17.67442121001659 -8.9682325842804858 0 -8.9682325842804858 -2.5100254848575787 0 0 0 0 17.17417940904852 -11.850674840591637 0 -11.850674840591637 -3.5518608199204209 0 0 0 0 13.861967277858639 -18.419521997114316 0 -18.419521997114316 0.25014762392856937 0 0 0 0 12.400463688914897 -12.377484869362888 0 -12.377484869362888 1.8530106141265605 0 0 0 0 11.894826261763228 -12.355680376959754 0 -12.355680376959754 2.5962433231488831 0 0 0 0 26.492530365932907 44.081918148366697 0 44.081918148366697 107.58126984694832 0 0 0 0 7.4163149848164949 -6.9881754328163632 0 -6.9881754328163632 -0.10870893814377169 0 0 0 0 18.738322148914449 -0.094891306513545715 0 -0.094891306513545715 -13.970638188803775 0 0 0 0 -66.468180724594276 62.951731105817885 0 62.951731105817885 116.27213932382892 0 0 0 0 54.86909946562082 20.779810316166731 0 20.779810316166731 -105.18727048525034 0 0 0 0 13.51400922673929 7.0415293826333709 0 7.0415293826333709 -1.7048730697383689 0 0 0 0 17.082355760714961 -5.0546189389273231 0 -5.0546189389273231 1.1785826882330621 0 0 0 0 9.853680454237292 4.6363448183373066 0 4.6363448183373066 -0.19507827595810312 0 0 0 0 8.4824246619245969 0.87563388429771294 0 0.87563388429771294 12.121842824897158 0 0 0 0 13.984948780896957 -7.6425568314662087 0 -7.6425568314662087 0.76386572485580473 0 0 0 0 32.825992885191226 -3.373098133590247 0 -3.373098133590247 -2.9999485793017584 0 0 0 0 22.566119444629294 -3.6086939723968499 0 -3.6086939723968499 2.8837827450647637 0 0 0 0 31.722124764117325 3.9329128501296964 0 3.9329128501296964 7.0876932773135195 0 0 0 0 24.589529653283535 -10.773003205060775 0 -10.773003205060775 15.329484340457839 0 0 0 0 7.7646157108101761 0.23883426815905295 0 0.23883426815905295 9.6487256121054088 0 0 0 0 20.67991957832777 -4.5416314647311715 0 -4.5416314647311715 -2.3004600778296309 0 0 0 0 17.268601372852572 0.57063932390292393 0 0.57063932390292393 -14.170435863758939 0 0 0 0 16.853118536012516 -0.208449431761494 0 -0.208449431761494 -1.699416488669967 0 0 0 0 38.263219650398241 -7.3478472183851409 0 -7.3478472183851409 -24.15091276497833 0 0 0 0 26.513943282600394 2.2244952871137365 0 2.2244952871137365 1.4148571755307513 0 0 0 0 53.677555773581844 13.530316170531137 0 13.530316170531137 -15.644568148532926 0 0 0 0 19.586897137662163 0.37779336214134673 0 0.37779336214134673 -1.0675302970669236 0 0 0 0 16.875355658862702 -2.3790268263699943 0 -2.3790268263699943 4.1097973827129035 0 0 0 0 19.017319857813504 -5.7405255233670687 0 -5.7405255233670687 -0.30643245081242654 0 0 0 0 10.853791350215033 -11.065198827273434 0 -11.065198827273434 11.43571037690208 0 0 0 0 15.383286059755164 -7.2632436173796435 0 -7.2632436173796435 4.7188844395499521 0 0 0 0 27.237730483451742 -12.332356472140873 0 -12.332356472140873 -1.8364109792479439 0 0 0 0 10.159462908137357 0.82916246257445891 0 0.82916246257445891 -3.4602031628892291 0 0 0 0 17.981732260588615 -5.6241619817653827 0 -5.6241619817653827 -16.943364051136086 0 0 0 0 27.744136810128111 9.6189799307639987 0 9.6189799307639987 -31.840037195104742 0 0 0 0 17.018122655339539 6.9762771545279065 0 6.9762771545279065 -4.2504926309379698 0 0 0 0 17.536468019505264 6.502785607945043 0 6.502785607945043 -8.4615807299701373 0 0 0 0 -2.1237965872423956 0.56193626461629265 0 0.56193626461629265 -1.5825072084740555 0 0 0 0 12.855593004642287 -3.1022336103387715 0 -3.1022336103387715 7.8990931983980772 0 0 0 0 9.00210547977548 -2.062814935727129 0 -2.062814935727129 -1.9885996909129444 0 0 0 0 18.076790989463916 4.3995867450285004 0 4.3995867450285004 -2.5443772760348793 0 0 0 0 12.123470320676631 -1.8203306930964089 0 -1.8203306930964089 -1.4356378525931373 0 0 0 0 -58.330031744546432 -146.38459685833101 0 -146.38459685833101 -129.90710824743996 0 0 0 0 55.912860562384594 -46.990003441551607 0 -46.990003441551607 -69.718515434576716 0 0 0 0 109.68821991861842 -175.69227887417821 0 -175.69227887417821 -238.84027042235425 0 0 0 0 25.394041608575208 -252.02041064415334 0 -252.02041064415334 -251.74217043368571 0 0 0 0 2.7460675916686341 -3.2018139641032235 0 -3.2018139641032235 2.6356594392427506 0 0 0 0 39.926836857768649 -91.46943315264167 0 -91.46943315264167 114.65674977623371 0 0 0 0 33.684364340093452 -12.15249944614061 0 -12.15249944614061 -26.294436412714504 0 0 0 0 3.9524153842140208 -4.9769172403056388 0 -4.9769172403056388 -2.8860887195568212 0 0 0 0 9.9115790582436603 -21.319054514603863 0 -21.319054514603863 1.1046088566627077 0 0 0 0 -19.628641620554845 -91.648578729150472 0 -91.648578729150472 -66.263737496723024 0 0 0 0 152.72474948207673 42.685506345641159 0 42.685506345641159 -429.2962700250273 0 0 0 0 226.68186442417209 114.7384145024298 0 114.7384145024298 -435.34682882144693 0 0 0 0 -72.021894014775171 204.0032162857724 0 204.0032162857724 16.325634939018045 0 0 0 0 2.2887635141298688 -1.7279895578623652 0 -1.7279895578623652 -1.2055055163847568 0 0 0 0 139.70073448106996 281.65616796881784 0 281.65616796881784 -215.1818347575126 0 0 0 0 132.54126540366815 198.76868058752916 0 198.76868058752916 60.217139304427633 0 0 0 0 177.05519818988614 152.23251538665517 0 152.23251538665517 95.558090938585565 0 0 0 0 166.60906609950325 177.37701072388845 0 177.37701072388845 72.515532269019786 0 0 0 0 174.47402786859311 165.88968334576907 0 165.88968334576907 38.905204051017449 0 0 0 0 90.255849587789271 110.34712725418876 0 110.34712725418876 106.35581643163209 0 0 0 0 223.23489549567967 231.7959411864752 0 231.7959411864752 -20.550750918996528 0 0 0 0 208.99285686838266 166.68861067452212 0 166.68861067452212 96.264244171889004 0 0 0 0 144.82025949540548 190.50235629520148 0 190.50235629520148 213.97468743695026 0 0 0 0 119.3692080238834 194.28880387236541 0 194.28880387236541 213.41520864519248 0 0 0 0 7.9761816645896033 136.96737614562454 0 136.96737614562454 -3.9129244975054291 0 0 0 0 382.35455195716349 276.97821616688179 0 276.97821616688179 160.56464548787017 0 0 0 0 130.70740571181523 211.25934015405664 0 211.25934015405664 172.73560610481928 0 0 0 0 -10.185344940764779 3.6367926396127075 0 3.6367926396127075 -0.68694791653595066 0 0 0 0 160.46294163594484 139.15693511057185 0 139.15693511057185 -46.420069032535594 0 0 0 0 82.303821218414669 85.441641353115642 0 85.441641353115642 -0.72160130095790009 0 0 0 0 -39.929908102257741 37.214374686836933 0 37.214374686836933 4.7728618137029208 0 0 0 0 48.802762581508432 128.19684642671757 0 128.19684642671757 92.339136029952897 0 0 0 0 153.70972948666895 91.917161968133115 0 91.917161968133115 -9.4631052421991626 0 0 0 0 127.55052714722115 10.532368871947938 0 10.532368871947938 -94.048584263817702 0 0 0 0 11.827030233861151 2.919562655429786 0 2.919562655429786 -3.4845597329216593 0 0 0 0 26.605814691502019 -40.212379202354668 0 -40.212379202354668 -73.060820437473922 0 0 0 0 165.37201769239618 -161.72826655933886 0 -161.72826655933886 -200.99750315917026 0 0 0 0 20.419713545605191 33.020799611417715 0 33.020799611417715 -18.370986348953693 0 0 0 0 255.59952589857858 101.19775345297194 0 101.19775345297194 -274.27085194480037 0 0 0 0 71.254966147855157 -56.924627205485194 0 -56.924627205485194 -171.29509705905116 0 0 0 0 50.133361512689817 16.769466175632189 0 16.769466175632189 5.2381663487692851 0 0 0 0 30.748090221866732 38.339832890593243 0 38.339832890593243 -0.54603747164946981 0 0 0 0 38.86792412516661 -18.958723427004088 0 -18.958723427004088 -42.230777019864945 0 0 0 0 20.523122907602001 7.6160965356896781 0 7.6160965356896781 7.7042053074493317 0 0 0 0 39.396185730831348 25.958770756782542 0 25.958770756782542 12.073772162111709 0 0 0 0 58.085629610281785 25.344077822834311 0 25.344077822834311 2.3519464664623815 0 0 0 0 53.296981777093606 51.962337327709065 0 51.962337327709065 -53.917793414386324 0 0 0 0 38.251816479110857 115.45753998910186 0 115.45753998910186 13.516587612106377 0 0 0 0 39.174121818485219 121.9152623144048 0 121.9152623144048 -108.65359059481852 0 0 0 0 44.778872472190415 50.39429114399627 0 50.39429114399627 -39.488841411093745 0 0 0 0 -13.674453109513706 78.329391868485857 0 78.329391868485857 87.885476869152626 0 0 0 0 -76.520004176156363 79.054387980907904 0 79.054387980907904 291.23897562218554 0 0 0 0 -75.867200112756109 36.229717955292472 0 36.229717955292472 86.467081489198335 0 0 0 0 10.043209541908254 0.0453920583928209 0 0.0453920583928209 3.5692475088021851 0 0 0 0 -12.695010357274441 13.26529673013556 0 13.26529673013556 20.620684089607948 0 0 0 0 20.132079250790412 10.638647333009885 0 10.638647333009885 -18.743143849174885 0 0 0 0 3.7424010130651482 1.6868369008327022 0 1.6868369008327022 0.36048452417380972 0 0 0 0 -29.300670397009526 7.8404096191407007 0 7.8404096191407007 32.428304775034121 0 0 0 0 -8.4444381702851388 34.725993338974661 0 34.725993338974661 21.562573121816968 0 0 0 0 4319.8790881397872 -1574.456137203942 0 -1574.456137203942 564.50512724236069 0 0 0 0 4.2200742358439811 -2.2702645694150618 0 -2.2702645694150618 -0.54800344216647545 0 0 0 0 113.49514256572002 -875.06076640692936 0 -875.06076640692936 288.54745589543688 0 0 0 0 203.48578705437831 39.178779444549946 0 39.178779444549946 414.33082861276853 0 0 0 0 93.109306900529191 319.64191321392354 0 319.64191321392354 267.79419057313225 0 0 0 0 -126.96359379249043 164.98447976584384 0 164.98447976584384 161.52194170911753 0 0 0 0 113.26411767542595 265.12320125468341 0 265.12320125468341 103.34347237561042 0 0 0 0 187.4854351413087 342.43717033362918 0 342.43717033362918 121.70314298302856 0 0 0 0 177.66008441340455 153.87616439482531 0 153.87616439482531 -259.63952650430474 0 0 0 0 37.777653333163471 -62.876380392414831 0 -62.876380392414831 -240.87391914439513 0 0 0 0 636.37632908379601 -217.02349393907298 0 -217.02349393907298 86.565841052653923 0 0 0 0 67.67262817005394 54.834293791084747 0 54.834293791084747 -65.220845349607771 0 0 0 0 9.3892206178300341 5.2115226672808888 0 5.2115226672808888 -1.9585432114440415 0 0 0 0 1536.6670275031793 1063.9044693306091 0 1063.9044693306091 567.18689793516387 0 0 0 0 1526.4478358508495 -250.47408554363767 0 -250.47408554363767 -548.74901149265634 0 0 0 0 1319.1003190804622 -433.15069935642475 0 -433.15069935642475 241.85747291727606 0 0 0 0 -3.0419476732344606 1.7427950860927481 0 1.7427950860927481 0.80548997891059049 0 0 0 0 19.666663530952064 11.588672875909609 0 11.588672875909609 75.883425223201755 0 0 0 0 19.008148384091328 158.27714448995957 0 158.27714448995957 152.11967768633238 0 0 0 0 158.96670308883768 151.39525066530314 0 151.39525066530314 -322.52704790570988 0 0 0 0 1352.0885969521769 -1076.2397678132722 0 -1076.2397678132722 505.33431191976706 0 0 0 0 25.189730613150857 -7.3559821080209069 0 -7.3559821080209069 3.182674036976521 0 0 0 0 -280.17840350498591 71.256490761962212 0 71.256490761962212 246.49970010634127 0 0 0 0 3375.4460102436424 -1101.7355177751856 0 -1101.7355177751856 -344.90274105567937 0 0 0 0 3519.8264616677079 11.113364594136641 0 11.113364594136641 -97.567940850379955 0 0 0 0 3623.2839329615963 -382.87034382106503 0 -382.87034382106503 -736.15709229046433 0 0 0 0 2075.6926837348583 -184.42845214554836 0 -184.42845214554836 -64.090962989017498 0 0 0 0 1970.6997313559841 -617.54517641952179 0 -617.54517641952179 -344.48249452840673 0 0 0 0 1935.3810633193571 367.36796979902431 0 367.36796979902431 1201.4128591796953 0 0 0 0 1221.411730448679 -363.67472534371382 0 -363.67472534371382 529.30501331409459 0 0 0 0 717.46504664310487 -281.77539328957079 0 -281.77539328957079 707.25527417988542 0 0 0 0 1135.4749080613692 76.210576366383066 0 76.210576366383066 417.28667049765284 0 0 0 0 470.98702754585247 -7.1971617061444704 0 -7.1971617061444704 479.68503927496329 0 0 0 0 134.64327959260117 133.87065940433831 0 133.87065940433831 335.44347924212479 0 0 0 0 794.80507597716132 -245.07638879554059 0 -245.07638879554059 221.92987911303408 0 0 0 0 627.18778461793045 126.21379704643948 0 126.21379704643948 260.0834442603018 0 0 0 0 380.63875162176555 -187.11695440310132 0 -187.11695440310132 273.31751893247474 0 0 0 0 897.10793031178036 11.622131635339144 0 11.622131635339144 -119.19803336923633 0 0 0 0 781.68293589987843 -643.64839377217527 0 -643.64839377217527 -142.46913454948481 0 0 0 0 331.05781885952456 -87.116970641358876 0 -87.116970641358876 -1188.8972532900343 0 0 0 0 -250.91001505388704 -138.14074236576107 0 -138.14074236576107 -123.13653084578391 0 0 0 0 887.78419438705896 -921.27607179897223 0 -921.27607179897223 -935.14701932759908 0 0 0 0 23.466752546203281 -1.0257638133712348 0 -1.0257638133712348 0.034943645684570868 0 0 0 0 -2088.8287448385672 3006.0613833805837 0 3006.0613833805837 1083.4091978572023 0 0 0 0 2110.9617562324856 -2950.9437487665709 0 -2950.9437487665709 1687.384381668202 0 0 0 0 4741.7144840569672 1359.3964260214989 0 1359.3964260214989 238.55643898550898 0 0 0 0 22.935471234151777 -14.050651256728287 0 -14.050651256728287 8.6728341790956875 0 0 0 0 3722.8249135448423 -478.25258274898988 0 -478.25258274898988 -139.83897263293147 0 0 0 0 5665.4587335060933 -336.58466568887798 0 -336.58466568887798 -196.54839703787411 0 0 0 0 1460.68599145794 -1277.1030870123511 0 -1277.1030870123511 -426.45117641440811 0 0 0 0 3079.0948767651134 -1195.351207326067 0 -1195.351207326067 -649.81856885715752 0 0 0 0 1595.2213046771649 -466.52084234847916 0 -466.52084234847916 -647.23614695746892 0 0 0 0 -7.599448841996491 100.82700185671138 0 100.82700185671138 -46.654586283514618 0 0 0 0 8.2100325914871064 1.7086647158776032 0 1.7086647158776032 43.775901492260346 0 0 0 0 2.4162818791810423 22.197898852382423 0 22.197898852382423 -28.682192770429538 0 0 0 0 -2.2709818448056467 79.140060653931073 0 79.140060653931073 -7.7822533218877652 0 0 0 0 -5.4931604432370307 11.562983810623109 0 11.562983810623109 -25.068484512573917 0 0 0 0 128.22741963472799 124.99708980502146 0 124.99708980502146 -43.575375674739917 0 0 0 0 134.93349743006547 91.716795499124771 0 91.716795499124771 21.60302078982204 0 0 0 0 78.348849716945551 178.59232958859866 0 178.59232958859866 128.8920034595676 0 0 0 0 143.97385324721108 98.104029808225505 0 98.104029808225505 4.6294945069948881 0 0 0 0 -41.799173617968336 67.002757921249213 0 67.002757921249213 35.643820506066731 0 0 0 0 6.3715779534215073 -3.1302044562001186 0 -3.1302044562001186 -6.0076426146649222 0 0 0 0 -29.748486391850747 50.774518003073581 0 50.774518003073581 48.08676030528477 0 0 0 0 -17.738438304048032 56.930698959080132 0 56.930698959080132 -15.931036603409211 0 0 0 0 -21.533531765744556 -32.057301544435632 0 -32.057301544435632 -39.979634440671816 0 0 0 0 13.186338817846263 108.26994463136211 0 108.26994463136211 87.588415929614854 0 0 0 0 8.3462394097296055 67.417668347901326 0 67.417668347901326 29.642062639426968 0 0 0 0 48.047014653187944 -76.438636752690854 0 -76.438636752690854 -329.10201226882532 0 0 0 0 -9.3181926373799797 22.804432958977486 0 22.804432958977486 -23.007133309747928 0 0 0 0 -18.059884712885832 102.08562375987367 0 102.08562375987367 28.381962411472387 0 0 0 0 245.91025491539767 284.39452785126286 0 284.39452785126286 178.04978322620309 0 0 0 0 231.0038382486091 209.05234532668078 0 209.05234532668078 -168.77957780813301 0 0 0 0 144.9948686411517 81.481617765432702 0 81.481617765432702 23.543931824752235 0 0 0 0 333.05103557181428 84.856558647486395 0 84.856558647486395 99.668952206226891 0 0 0 0 150.8843703182938 137.24227148964462 0 137.24227148964462 188.76272439610852 0 0 0 0 340.63618873410451 93.894989854528376 0 93.894989854528376 136.40182117910422 0 0 0 0 411.05953156479518 160.56973446064694 0 160.56973446064694 185.77858394574491 0 0 0 0 345.23655656762276 17.396883268774879 0 17.396883268774879 339.37891167051737 0 0 0 0 277.56805976951728 307.76162156572605 0 307.76162156572605 126.23257271146042 0 0 0 0 350.00252799289592 48.938899806435074 0 48.938899806435074 -89.695827586916948 0 0 0 0 -63.252022256259806 218.83901871675471 0 218.83901871675471 -159.43922153752192 0 0 0 0 367.13425156802987 -128.91509834669387 0 -128.91509834669387 -1059.4735078505237 0 0 0 0 103.04699359140068 644.93359094024242 0 644.93359094024242 647.53652581865936 0 0 0 0 1.063303847777604 -1.1397751184516949 0 -1.1397751184516949 2.1762161707704166 0 0 0 0 -53.630640458810376 221.34615941645552 0 221.34615941645552 -141.2067785672516 0 0 0 0 358.38984565500868 38.294998731132637 0 38.294998731132637 -67.274326085289431 0 0 0 0 108.67630193514924 -4.0032463750981151 0 -4.0032463750981151 -27.439598932890476 0 0 0 0 127.04188059724402 430.47264931794143 0 430.47264931794143 282.08028482966256 0 0 0 0 70.598729263154382 21.511085142623187 0 21.511085142623187 -108.90262976135728 0 0 0 0 11.388106805619771 -1.1083861126986676 0 -1.1083861126986676 -6.7256157243054719 0 0 0 0 -6.854282275376022 22.88770047588082 0 22.88770047588082 -43.250627101410871 0 0 0 0 75.812198515021009 -27.402674293703058 0 -27.402674293703058 -61.870532564395774 0 0 0 0 74.149715151652345 -34.170728810803666 0 -34.170728810803666 -62.039897485518111 0 0 0 0 81.826194655455765 -33.058223989211342 0 -33.058223989211342 -62.090094595137998 0 0 0 0 83.802574239089154 -25.9841491441166 0 -25.9841491441166 -61.742804243163732 0 0 0 0 110.9857654912384 -7.2022628194637832 0 -7.2022628194637832 -0.43551876203966877 0 0 0 0 74.945110179833136 -102.32068264102145 0 -102.32068264102145 -175.02979606248687 0 0 0 0 362.87910460369312 -1.9197862894852733 0 -1.9197862894852733 -732.3865601425905 0 0 0 0 18.289296805960475 -28.990811895836032 0 -28.990811895836032 39.545190473707407 0 0 0 0 7.4031206932631903 -101.22474250173354 0 -101.22474250173354 -16.630974442563456 0 0 0 0 34.782953523710603 -57.660746658928474 0 -57.660746658928474 -26.049112526905674 0 0 0 0 -68.48395495128625 -55.246345970797279 0 -55.246345970797279 53.235997022880838 0 0 0 0 -61.272085558710387 3.7832306090731436 0 3.7832306090731436 201.67657975703878 0 0 0 0 97.064649327949155 -197.00219030978087 0 -197.00219030978087 -453.61497019553372 0 0 0 0 95.061475076093359 -4.7203404882714537 0 -4.7203404882714537 -2.7120101060575443 0 0 0 0 -32.963404537309543 -335.6934506614034 0 -335.6934506614034 90.099715354202999 0 0 0 0 92.193307884432215 243.87491600566193 0 243.87491600566193 -168.96914910576561 0 0 0 0 45.924567382433452 -65.152181022956938 0 -65.152181022956938 39.58100134359961 0 0 0 0 337.97433851108508 -3.3528039242705745 0 -3.3528039242705745 221.78463166370966 0 0 0 0 197.57988903138903 -277.70866215389651 0 -277.70866215389651 334.18952571973205 0 0 0 0 336.80132049009262 -233.77217283525306 0 -233.77217283525306 426.45760160776445 0 0 0 0 2968.0831793036195 202.95627476830032 0 202.95627476830032 -253.48282528511663 0 0 0 0 3.5848665467250953 -0.79293884225369737 0 -0.79293884225369737 0.33180583125117469 0 0 0 0 43.201176881652714 1.4692074581137753 0 1.4692074581137753 1.1341909885826658 0 0 0 0 3496.2021243872878 1445.2021847438682 0 1445.2021847438682 -792.58716286308118 0 0 0 0 -73.389725004439242 65.38093320601638 0 65.38093320601638 342.12295057540973 0 0 0 0 -51.77732546102925 97.728363462385914 0 97.728363462385914 116.76821310890773 0 0 0 0 -596.52615335174232 -436.39325567579021 0 -436.39325567579021 -32.314003029384367 0 0 0 0 169.20616429898655 -24.661711852970257 0 -24.661711852970257 -86.142886469790483 0 0 0 0 26.625633481741545 5.1152014957246763 0 5.1152014957246763 -1.1913898868312209 0 0 0 0 150.35088713941514 140.89990794224695 0 140.89990794224695 -58.5820725401868 0 0 0 0 31.988308718806366 14.806723182665337 0 14.806723182665337 -0.59701029225288949 0 0 0 0 143.34907537126855 223.46935333325291 0 223.46935333325291 270.46208557945886 0 0 0 0 98.031705493802178 -12.374973655132894 0 -12.374973655132894 162.18284589811356 0 0 0 0 96.375515141160577 128.79422019489607 0 128.79422019489607 179.63051087290137 0 0 0 0 -124.21888323415624 171.65789689812345 0 171.65789689812345 175.90895360819832 0 0 0 0 -0.13136809575371444 249.96850996941157 0 249.96850996941157 94.224740539470986 0 0 0 0 -23.367416892811889 -95.489282141774538 0 -95.489282141774538 -10.17778985170753 0 0 0 0 80.701258586865151 47.254213344840537 0 47.254213344840537 -53.376681490232841 0 0 0 0 -8.0436183644051198 66.864141427795403 0 66.864141427795403 73.348960039639678 0 0 0 0 11.765223924319514 7.6351824200964131 0 7.6351824200964131 -2.6628229297443733 0 0 0 0 -730.73161703179358 77.596345926606034 0 77.596345926606034 -14.124647919521522 0 0 0 0 60.316164838068744 10.57522615221596 0 10.57522615221596 -1.5060753546394854 0 0 0 0 76.555435053087422 11.979738022029778 0 11.979738022029778 59.12921952776378 0 0 0 0 49.006031367970451 15.254384107692815 0 15.254384107692815 -8.5107963002881206 0 0 0 0 45.138958730807644 14.127309508239932 0 14.127309508239932 -79.563658507055379 0 0 0 0 40.049441446846004 -5.7954083257990732 0 -5.7954083257990732 -2.0754479968590842 0 0 0 0 23.062152650763892 -47.699191504386135 0 -47.699191504386135 52.526587826922878 0 0 0 0 396.55362902249908 406.84466171160329 0 406.84466171160329 -355.11399201694758 0 0 0 0 -15.485232352526509 64.070733983456307 0 64.070733983456307 169.16183676222045 0 0 0 0 189.91879119662917 -155.54505575542453 0 -155.54505575542453 -60.700222146199849 0 0 0 0 10.010044088979555 2.9540117630402314 0 2.9540117630402314 -0.96024562600425023 0 0 0 0 151.94980965385912 -118.19688741700065 0 -118.19688741700065 -16.245105583044733 0 0 0 0 -175.46744846913498 -332.36754186093549 0 -332.36754186093549 1373.8704536502737 0 0 0 0 38.12916539303842 -0.68476715145720846 0 -0.68476715145720846 -30.522657941847001 0 0 0 0 417.43178784025076 138.66992230690539 0 138.66992230690539 -37.994727728177622 0 0 0 0 -101.55437178067223 -286.04266977310954 0 -286.04266977310954 74.760695741796553 0 0 0 0 55.180262012814637 296.06741480542223 0 296.06741480542223 199.64976861358872 0 0 0 0 1410.567324833668 722.57620485936104 0 722.57620485936104 -22.257574919899525 0 0 0 0 1855.4482763664419 472.64632412239962 0 472.64632412239962 -432.24540971081069 0 0 0 0 2643.544985160057 367.18526117156125 0 367.18526117156125 -102.54144683823776 0 0 0 0 1984.5755075066991 718.02216729688735 0 718.02216729688735 -114.69292705872067 0 0 0 0 3091.3214394230163 436.20664980880474 0 436.20664980880474 -272.29724894348692 0 0 0 0 2448.3782319626916 1458.4777498873991 0 1458.4777498873991 406.08231098360739 0 0 0 0 2890.3221670317216 364.59890945784252 0 364.59890945784252 -107.12333713487351 0 0 0 0 4113.4030894988973 -166.41344200853655 0 -166.41344200853655 106.29533711985277 0 0 0 0 1969.4400442866609 626.68452640432679 0 626.68452640432679 6.9998046588152647 0 0 0 0 3903.505935486879 920.63058178598567 0 920.63058178598567 -43.973236343543249 0 0 0 0 -23.78797650280103 580.38674233585789 0 580.38674233585789 515.06096986275406 0 0 0 0 438.82420689001265 -869.35441198848685 0 -869.35441198848685 -733.01949470780983 0 0 0 0 1228.8854331013281 1543.6216374253827 0 1543.6216374253827 479.28430824055363 0 0 0 0 583.95545783275156 164.07454603541282 0 164.07454603541282 41.468474963836115 0 0 0 0 40.076527899155479 -26.508546566799751 0 -26.508546566799751 12.067127197734351 0 0 0 0 859.45014500310936 161.34173733017542 0 161.34173733017542 -584.73913458888865 0 0 0 0 588.40021566548967 176.30372886182158 0 176.30372886182158 -139.3370135503319 0 0 0 0 66.259060938370169 -1.9198215977003343 0 -1.9198215977003343 -2.5560503714348366 0 0 0 0 1092.6103852180531 -196.05971853525443 0 -196.05971853525443 10.719782177939123 0 0 0 0 763.54950865885621 544.80827856977885 0 544.80827856977885 353.01051686047322 0 0 0 0 2004.3339507605997 931.21789759935746 0 931.21789759935746 332.52399969185541 0 0 0 0 1440.09428223953 -302.81042784593228 0 -302.81042784593228 184.7395170762984 0 0 0 0 1991.5640261383815 52.316256098725717 0 52.316256098725717 -1218.8080907411072 0 0 0 0 -1072.0872722997719 -149.5925261014811 0 -149.5925261014811 29.838987892372643 0 0 0 0 -446.4356701963552 -1131.3148161295239 0 -1131.3148161295239 537.34133674685518 0 0 0 0 2610.7617552156589 -936.34977365943814 0 -936.34977365943814 91.765511166371198 0 0 0 0 101.86326369890594 289.92784962732549 0 289.92784962732549 1642.6094927633328 0 0 0 0 32.458295888776433 0.035579227422719129 0 0.035579227422719129 0.74915542090783038 0 0 0 0 -1427.0515648152214 -371.22644018337996 0 -371.22644018337996 -50.799585100580771 0 0 0 0 -730.50562183767033 -1287.7882386655447 0 -1287.7882386655447 445.68885207427047 0 0 0 0 16.490580430135935 -11.263489964089985 0 -11.263489964089985 6.3256400385358198 0 0 0 0 1621.8615037074196 871.48191389973181 0 871.48191389973181 666.82914839380646 0 0 0 0 -137.37512796663214 -144.12803780700233 0 -144.12803780700233 224.52452055440244 0 0 0 0 -191.07794352277415 -106.46245013074258 0 -106.46245013074258 211.05526523458684 0 0 0 0 -269.33849950262811 31.972617583803185 0 31.972617583803185 127.93181471295247 0 0 0 0 2.9472098956130139 -12.837678315238662 0 -12.837678315238662 -2.4539932412506529 0 0 0 0 -95.076788664067863 34.083168965979894 0 34.083168965979894 -593.55586950463839 0 0 0 0 -12.404957874619868 -65.305556644692842 0 -65.305556644692842 160.50386010055809 0 0 0 0 -355.03068990970496 201.91696075658729 0 201.91696075658729 838.417044797372 0 0 0 0 -142.52020108955912 279.2923739987009 0 279.2923739987009 544.79650928047249 0 0 0 0 -292.33351139487058 12.557564573692844 0 12.557564573692844 652.05084156411431 0 0 0 0 -304.59486177272629 -149.05066177757908 0 -149.05066177757908 123.53028232681936 0 0 0 0 67.85021318148938 625.08757503496099 0 625.08757503496099 829.49010109177186 0 0 0 0 203.26016501226695 87.420121318048814 0 87.420121318048814 351.01465329064649 0 0 0 0 100.0293268561154 123.71243208229653 0 123.71243208229653 343.00026935754067 0 0 0 0 902.50173984999128 1002.8213623067315 0 1002.8213623067315 1368.9506410888685 0 0 0 0 2276.7013441767995 1162.5285016545281 0 1162.5285016545281 626.70439909976403 0 0 0 0 988.896961801016 766.60932120936673 0 766.60932120936673 560.88771076785099 0 0 0 0 1823.6477678820011 -347.51659615218148 0 -347.51659615218148 1806.2555514472351 0 0 0 0 2891.5757547919929 262.19333914393337 0 262.19333914393337 217.34708810643446 0 0 0 0 2265.2800241130462 1766.9149868129707 0 1766.9149868129707 1621.2971892461317 0 0 0 0 1914.1789947697544 721.00757889806926 0 721.00757889806926 -69.808808515196688 0 0 0 0 1813.6401568842812 758.22625672996674 0 758.22625672996674 658.19458202444457 0 0 0 0 1652.5863210264943 379.37209846776204 0 379.37209846776204 -101.75495055771131 0 0 0 0 1133.2177208773501 21.412093117961149 0 21.412093117961149 919.22144760780498 0 0 0 0 1605.1138300464881 217.91792069579932 0 217.91792069579932 496.89847716244026 0 0 0 0 681.47249113905127 116.63744827847472 0 116.63744827847472 505.44989911495622 0 0 0 0 244.69032515519211 982.92791856577833 0 982.92791856577833 -1239.8432234664831 0 0 0 0 8.1765360738675099 3.7177508786707136 0 3.7177508786707136 -1.4084273775245677 0 0 0 0 -1391.8177467264468 1472.2421045263004 0 1472.2421045263004 51.52919454674543 0 0 0 0 3661.5139101877285 -1340.3540447123653 0 -1340.3540447123653 224.10960778809385 0 0 0 0 1786.9842028948697 315.07738531902271 0 315.07738531902271 -256.37901875992327 0 0 0 0 1668.9888217397965 285.48275877220863 0 285.48275877220863 219.60661968132212 0 0 0 0 1310.5472277221998 643.43811881377474 0 643.43811881377474 455.26374633619935 0 0 0 0 1854.5591688565364 549.42935415412865 0 549.42935415412865 340.69239323644399 0 0 0 0 353.35186665249603 363.69103603837289 0 363.69103603837289 411.18631911495777 0 0 0 0 324.00954287110653 436.7758324194117 0 436.7758324194117 618.92024758004106 0 0 0 0 945.66199139556466 452.55575955287696 0 452.55575955287696 453.88658168676056 0 0 0 0 1271.7424438853341 334.34171380904922 0 334.34171380904922 430.64771537104161 0 0 0 0 238.09471082521486 217.95884481870553 0 217.95884481870553 581.30899298106988 0 0 0 0 1262.3127118907132 289.58285736684661 0 289.58285736684661 -7.0613495927918848 0 0 0 0 3123.3179395958014 414.42121715343012 0 414.42121715343012 10.167654820095322 0 0 0 0 1234.9715046881902 132.13907433957047 0 132.13907433957047 266.8294762221808 0 0 0 0 1336.4071688054973 -55.446439637243998 0 -55.446439637243998 -292.00548371365585 0 0 0 0 2372.0267871746764 -56.207767865738788 0 -56.207767865738788 -314.87747941783527 0 0 0 0 1404.7051537899097 50.647560524047549 0 50.647560524047549 -409.30408943538805 0 0 0 0 409.01345076214784 107.78903798443901 0 107.78903798443901 -603.86282328907419 0 0 0 0 385.88974170622532 169.24883942376982 0 169.24883942376982 85.746388120324355 0 0 0 0 63.673502415396797 58.67771581472789 0 58.67771581472789 -176.29251351617495 0 0 0 0 64.18624461490981 774.56118410097815 0 774.56118410097815 -457.7856506779907 0 0 0 0 1703.7080849152117 87.418370849022722 0 87.418370849022722 -450.3549219133447 0 0 0 0 1633.2770188329741 -332.87970609903232 0 -332.87970609903232 -158.04721806895327 0 0 0 0 1685.4654749182082 -101.11185600473254 0 -101.11185600473254 -558.44202332588429 0 0 0 0 1218.5544204362814 -191.97350572511004 0 -191.97350572511004 -201.77748831171766 0 0 0 0 18.918703784495221 9.558700994821848 0 9.558700994821848 -8.3988579713130598 0 0 0 0 1338.6731487344878 -271.88385744514108 0 -271.88385744514108 -113.94038466063103 0 0 0 0 1774.3604321067105 -696.45388357292813 0 -696.45388357292813 299.15486378719618 0 0 0 0 117.88483787031873 148.09389520933397 0 148.09389520933397 56.85946495247282 0 0 0 0 185.99491111774114 53.421717862181481 0 53.421717862181481 20.336461994928868 0 0 0 0 140.62220652683754 96.961141873835004 0 96.961141873835004 47.730151412545638 0 0 0 0 157.09458071117115 87.062120402474875 0 87.062120402474875 -0.18443334006951773 0 0 0 0 37.251502273858932 12.246601500861061 0 12.246601500861061 13.600136416761643 0 0 0 0 -60.364058843031671 4.1520981506234875 0 4.1520981506234875 -61.096688818162875 0 0 0 0 107.72005071067542 60.613717835587067 0 60.613717835587067 -134.90687607069822 0 0 0 0 1.9091999303909688 125.56734982128641 0 125.56734982128641 112.49325574478843 0 0 0 0 54.616790984335239 -41.246168509447557 0 -41.246168509447557 -30.789482264233357 0 0 0 0 219.38092733411031 -223.59989609558556 0 -223.59989609558556 57.3042544908634 0 0 0 0 507.1354252241872 -178.18942019908553 0 -178.18942019908553 18.89089054588959 0 0 0 0 526.28412731988647 266.81318140971871 0 266.81318140971871 55.070948961738566 0 0 0 0 -886.19180849261465 -15.23490331920425 0 -15.23490331920425 814.155074096416 0 0 0 0 -0.2342328494388175 -2.9021729712687119 0 -2.9021729712687119 -0.99383937246581677 0 0 0 0 -419.10882780479733 848.7936299515452 0 848.7936299515452 318.03471082715964 0 0 0 0 899.13324657599878 631.58487663842527 0 631.58487663842527 313.2280655579907 0 0 0 0 86.236733258680033 318.86445002502194 0 318.86445002502194 193.58962466384952 0 0 0 0 140.14921527598926 268.04470894652422 0 268.04470894652422 228.26739148782417 0 0 0 0 445.67453606719209 49.936911094740367 0 49.936911094740367 17.647592123756567 0 0 0 0 29.712075044284575 179.2420766167786 0 179.2420766167786 156.87016285560583 0 0 0 0 99.208305255131563 361.07803189774245 0 361.07803189774245 309.92331140156682 0 0 0 0 -0.68614154955139384 236.22493578642144 0 236.22493578642144 348.70152594607862 0 0 0 0 56.441541942753247 195.9742228415937 0 195.9742228415937 515.15355362432138 0 0 0 0 93.333917038631625 328.28926989786839 0 328.28926989786839 605.74987262242121 0 0 0 0 251.71207884270211 501.66104872368851 0 501.66104872368851 475.27364945038789 0 0 0 0 -523.9906924767929 147.29891131976819 0 147.29891131976819 403.63732284687831 0 0 0 0 13.495669768646735 15.237258374571596 0 15.237258374571596 13.612988357461438 0 0 0 0 -380.96579663188459 775.69716141144784 0 775.69716141144784 130.43233463110039 0 0 0 0 1365.0858333980214 -87.203373010264499 0 -87.203373010264499 -643.4021381348341 0 0 0 0 1165.8390147042519 -270.99222066411176 0 -270.99222066411176 63.142822365731945 0 0 0 0 1334.8200262377577 143.08518470874571 0 143.08518470874571 -561.40156713483816 0 0 0 0 6.4336393505976162 7.6933118469005848 0 7.6933118469005848 7.726394035785078 0 0 0 0 30.619457789953181 11.72323749771023 0 11.72323749771023 -8.4020081528184285 0 0 0 0 200.40951601846382 151.74915646545733 0 151.74915646545733 19.599806526543944 0 0 0 0 1293.0960827701847 674.61461249656668 0 674.61461249656668 -221.91657924876267 0 0 0 0 -170.81168813421391 220.08450059956465 0 220.08450059956465 -107.36711446522872 0 0 0 0 29.919835252706413 88.953032378501973 0 88.953032378501973 65.057848934154592 0 0 0 0 -212.76940657447994 312.19829127656158 0 312.19829127656158 261.73313617659369 0 0 0 0 -5.9967304562856327 12.756428836695527 0 12.756428836695527 14.24484214792971 0 0 0 0 -83.040062795698759 62.984650835653838 0 62.984650835653838 274.03452100893946 0 0 0 0 717.51728373063497 137.97114961933767 0 137.97114961933767 -64.553041209201183 0 0 0 0 514.52306630373278 38.575283778849553 0 38.575283778849553 -50.374538995158218 0 0 0 0 11.896951684303264 -27.204177104382232 0 -27.204177104382232 -0.82480568475126859 0 0 0 0 89.737645572127803 96.447807726739484 0 96.447807726739484 37.877971994152176 0 0 0 0 646.28789268668322 196.74590156888007 0 196.74590156888007 19.621783319937094 0 0 0 0 176.85063701542094 126.10474788118427 0 126.10474788118427 -7.3116675718029001 0 0 0 0 286.447402037958 142.92637618669141 0 142.92637618669141 -77.441881879716675 0 0 0 0 21.248750880252462 -25.244532368456824 0 -25.244532368456824 -13.087241921356565 0 0 0 0 138.61417546258699 84.002135018259821 0 84.002135018259821 35.955102837153817 0 0 0 0 -22.40750824414863 90.244116899942696 0 90.244116899942696 7.6820783392613521 0 0 0 0 1975.9157616285365 212.34076173854373 0 212.34076173854373 -434.63690322873299 0 0 0 0 14.889458976927806 6.3695768280515281 0 6.3695768280515281 30.873649281166394 0 0 0 0 320.154916829939 -248.59429927409474 0 -248.59429927409474 -146.21445650064561 0 0 0 0 491.49013582300199 227.95944692933335 0 227.95944692933335 740.54403243208799 0 0 0 0 546.91850751283903 712.64443948278404 0 712.64443948278404 -507.65073095505068 0 0 0 0 848.70900424187278 139.98745065956791 0 139.98745065956791 -163.98982801031525 0 0 0 0 1451.9534544667722 807.11088472849224 0 807.11088472849224 -148.52389992237659 0 0 0 0 1374.8755167120689 -210.72471938160447 0 -210.72471938160447 77.886429296631832 0 0 0 0 1044.0197274534553 -254.73697903817083 0 -254.73697903817083 -54.105294761189725 0 0 0 0 752.58648583108641 354.38787528066223 0 354.38787528066223 226.69765003318753 0 0 0 0 -2.4453874549300711 -5.2140852692099102 0 -5.2140852692099102 6.4715954766460442 0 0 0 0 652.73473108590724 81.442730316630332 0 81.442730316630332 526.29318674524256 0 0 0 0 1569.8718624848416 373.60664970903599 0 373.60664970903599 918.44554604768928 0 0 0 0 1039.2901019452038 -218.12754131212569 0 -218.12754131212569 379.33372069956386 0 0 0 0 238.38836905745961 195.73460756601708 0 195.73460756601708 335.23995446821937 0 0 0 0 457.70292165328038 380.20661857007508 0 380.20661857007508 274.10973121665302 0 0 0 0 871.21561296285699 77.759697171763037 0 77.759697171763037 121.78829646127997 0 0 0 0 316.04716781993034 -13.652467485769876 0 -13.652467485769876 -51.311635727892281 0 0 0 0 323.83756744203572 178.62915327953306 0 178.62915327953306 178.32910640593036 0 0 0 0 1413.8744402237755 232.5664723682371 0 232.5664723682371 -295.63360984972678 0 0 0 0 -602.36421920124121 105.24088514852701 0 105.24088514852701 262.67063011785649 0 0 0 0 160.94923704199539 431.5492929722086 0 431.5492929722086 -0.5159449831044185 0 0 0 0 -183.00810313202192 153.4942950216431 0 153.4942950216431 282.92506569949455 0 0 0 0 -522.47513623201826 0.77618826796970097 0 0.77618826796970097 116.98544214454887 0 0 0 0 19.865155158158274 91.888303666291037 0 91.888303666291037 83.530144488022316 0 0 0 0 -727.34598228060077 851.75744537935861 0 851.75744537935861 -563.41480751697236 0 0 0 0 -38.512772312735365 -4.4806092285582722 0 -4.4806092285582722 17.512662343423258 0 0 0 0 621.92376822156075 -1.3982872680712717 0 -1.3982872680712717 -26.088799190624286 0 0 0 0 778.65421407904796 335.36638457083063 0 335.36638457083063 382.02897130108477 0 0 0 0 747.07531800456491 267.32395907097066 0 267.32395907097066 -52.576288113031069 0 0 0 0 980.60770430893172 -119.32525503462955 0 -119.32525503462955 64.507963627128447 0 0 0 0 1008.6414783910623 -144.2649867719324 0 -144.2649867719324 -197.8087148726546 0 0 0 0 1522.2448333160291 -434.00593819034674 0 -434.00593819034674 -170.14101382270383 0 0 0 0 1602.4560866789343 253.79120354699972 0 253.79120354699972 -94.723443297705671 0 0 0 0 6.0049876340221005 5.1545919069985615 0 5.1545919069985615 3.875903164080281 0 0 0 0 1316.454471433608 -535.87774227603313 0 -535.87774227603313 59.952824234014656 0 0 0 0 667.50379970677022 340.34390203315684 0 340.34390203315684 150.26667189833461 0 0 0 0 823.42635210490698 -189.32055376515927 0 -189.32055376515927 -52.422747330705761 0 0 0 0 178.91094760148644 338.22798911718837 0 338.22798911718837 -165.12358189280349 0 0 0 0 -1243.0366722596916 206.00441805028026 0 206.00441805028026 880.2347603716189 0 0 0 0 54.590331721222142 86.612877237549711 0 86.612877237549711 90.732494553277007 0 0 0 0 17.794857284276478 8.0192928458408979 0 8.0192928458408979 -20.324452559705158 0 0 0 0 73.437445648452126 -530.75979092911803 0 -530.75979092911803 -78.171693280692125 0 0 0 0 576.18948654067481 -132.06839762376262 0 -132.06839762376262 -148.104943907543 0 0 0 0 773.90599926128448 418.54051361298707 0 418.54051361298707 86.908975227851442 0 0 0 0 484.39619200647485 -322.12056755259619 0 -322.12056755259619 -381.93802593491046 0 0 0 0 1167.9427688679179 903.97790174597685 0 903.97790174597685 80.366138003751985 0 0 0 0 2537.1641661077992 -379.44156933830618 0 -379.44156933830618 -447.35000461378786 0 0 0 0 -312.50102948090046 964.6514851897573 0 964.6514851897573 604.23130137505541 0 0 0 0 0.80276948222243805 -1.7260090933482504 0 -1.7260090933482504 8.3596559378288191 0 0 0 0 1353.8235207258258 401.07404328202711 0 401.07404328202711 867.68812364381711 0 0 0 0 1529.5881215907066 242.50260889964056 0 242.50260889964056 943.32944606139063 0 0 0 0 1345.5150785551232 -677.81705841366147 0 -677.81705841366147 262.51141366580077 0 0 0 0 56.468296372549958 -379.43158613234391 0 -379.43158613234391 823.41248011481275 0 0 0 0 1792.2407884514832 534.8426756987883 0 534.8426756987883 128.48700291724617 0 0 0 0 6.6145900754106606 -3.5217394645500164 0 -3.5217394645500164 2.728993633746942 0 0 0 0 380.5347085404278 300.81882602494204 0 300.81882602494204 168.54434827504792 0 0 0 0 1631.1188669842668 71.25362748188445 0 71.25362748188445 -132.07588447651142 0 0 0 0 1963.2471835938359 -135.08267072672231 0 -135.08267072672231 -98.987427258518437 0 0 0 0 1238.7354753979926 -382.13706555260183 0 -382.13706555260183 -319.20632724546067 0 0 0 0 1681.5535958526816 49.373072396154839 0 49.373072396154839 -209.44148689832582 0 0 0 0 6.3873425956684002 6.9116559154831663 0 6.9116559154831663 7.4656469636097995 0 0 0 0 -758.15017831156001 831.11825587265957 0 831.11825587265957 350.81394653166456 0 0 0 0 -639.19771082841908 420.81151315897432 0 420.81151315897432 304.15322318400831 0 0 0 0 -640.02974695612579 325.92043505816719 0 325.92043505816719 462.07117450954411 0 0 0 0 942.88242432271363 1206.3815626350374 0 1206.3815626350374 499.79627020037083 0 0 0 0 -591.17695403453399 78.480130661660496 0 78.480130661660496 -272.95427946242762 0 0 0 0 13.982739684341738 10.413990168058561 0 10.413990168058561 3.8724557381969156 0 0 0 0 600.527678531329 -398.18123255232581 0 -398.18123255232581 -1.0704489549716527 0 0 0 0 631.707775910083 328.95585025629316 0 328.95585025629316 -751.10928656805481 0 0 0 0 437.36575058702147 1085.7617464002797 0 1085.7617464002797 -585.45148770493574 0 0 0 0 486.64249506687611 188.52819451995876 0 188.52819451995876 -263.64792100042087 0 0 0 0 822.86492523389461 103.48511052710273 0 103.48511052710273 -382.40682795469002 0 0 0 0 552.76918767108873 -67.294441780109992 0 -67.294441780109992 -304.82141294144549 0 0 0 0 1251.13125333072 -423.25817260869161 0 -423.25817260869161 81.876629370012779 0 0 0 0 872.38876972449361 248.72115550497165 0 248.72115550497165 -286.40814732157924 0 0 0 0 400.7292784088495 -364.55838826295985 0 -364.55838826295985 171.97409207432429 0 0 0 0 1229.3525605147224 -339.95950947667461 0 -339.95950947667461 -260.13909196358691 0 0 0 0 386.3453722322447 -63.504892723395642 0 -63.504892723395642 -400.29018856813764 0 0 0 0 527.2205347926465 -198.09421935217279 0 -198.09421935217279 -275.08864526464458 0 0 0 0 493.07205896517917 -300.23527562197876 0 -300.23527562197876 -365.85919513964291 0 0 0 0 649.69110850703146 -252.22994042558457 0 -252.22994042558457 -679.56969632866731 0 0 0 0 341.3090802861625 -298.60149974864021 0 -298.60149974864021 -87.325709153253229 0 0 0 0 354.1470638630708 -189.23159675745183 0 -189.23159675745183 -268.59501198696989 0 0 0 0 328.53939272859134 -105.86195167110986 0 -105.86195167110986 -227.08447605313631 0 0 0 0 78.936280342313694 -17.705052356493525 0 -17.705052356493525 -63.887749567732726 0 0 0 0 158.31522802029212 -198.53610772980414 0 -198.53610772980414 104.93663358166032 0 0 0 0 227.05975122978271 -206.67757288063467 0 -206.67757288063467 -69.414039465626843 0 0 0 0 400.2182008279924 -399.79172131302505 0 -399.79172131302505 142.9152418495778 0 0 0 0 259.1366330009696 318.6440516300454 0 318.6440516300454 217.57093069703262 0 0 0 0 340.04805032850163 438.13533815983749 0 438.13533815983749 -206.61115927117407 0 0 0 0 211.21988537935249 76.365858249430858 0 76.365858249430858 -172.40684011043322 0 0 0 0 321.73440072774247 -42.342903510499355 0 -42.342903510499355 -64.70866325327961 0 0 0 0 -2.0713476183117621 -1.0154801296786076 0 -1.0154801296786076 -2.3226540895238887 0 0 0 0 579.63298326316726 -234.74214779602062 0 -234.74214779602062 -55.951392112606754 0 0 0 0 154.31494169897269 13.028394530680544 0 13.028394530680544 110.77974080461036 0 0 0 0 471.32057076592901 -230.043223964763 0 -230.043223964763 56.683276277480218 0 0 0 0 37.428445902682142 -98.303910977027954 0 -98.303910977027954 136.65585272450608 0 0 0 0 237.2972929100215 -251.31738574146857 0 -251.31738574146857 100.20892976228907 0 0 0 0 539.91781361707763 -119.81472712932691 0 -119.81472712932691 229.49681183237226 0 0 0 0 1284.5172777239786 -646.34144575027199 0 -646.34144575027199 145.42192625247208 0 0 0 0 80.098359415679624 19.953554019355607 0 19.953554019355607 104.90506404538064 0 0 0 0 99.592575006914558 -80.810508311671356 0 -80.810508311671356 -10.633907176715184 0 0 0 0 63.456966535086394 -165.60861257357192 0 -165.60861257357192 367.5786177493269 0 0 0 0 20.77580850659615 32.304877167290897 0 32.304877167290897 16.905014018509974 0 0 0 0 30.509535943863739 26.282526349497857 0 26.282526349497857 32.252610446466178 0 0 0 0 3.9788564477631212 -10.345681494188284 0 -10.345681494188284 -5.6568380508115226 0 0 0 0 69.814986824312655 -85.702525249843802 0 -85.702525249843802 -29.833740474804472 0 0 0 0 19.767348072310909 -8.4446314353031084 0 -8.4446314353031084 -0.89352980644298441 0 0 0 0 28.621419807367715 1.5018609716252342 0 1.5018609716252342 -15.384173543877047 0 0 0 0 -124.48705808289378 566.25711603064224 0 566.25711603064224 -846.01975055163643 0 0 0 0 404.66146531958657 9.8296115365837693 0 9.8296115365837693 -9.0546175225217667 0 0 0 0 1496.3595650655116 -132.71691982214315 0 -132.71691982214315 -826.57800572713563 0 0 0 0 790.10105478072364 -359.20106907798299 0 -359.20106907798299 -1110.1709209250623 0 0 0 0 1438.6290028628355 -1574.1054977305241 0 -1574.1054977305241 1142.365328910772 0 0 0 0 46.714340170415312 -25.422189048007937 0 -25.422189048007937 7.3685865704429911 0 0 0 0 371.539538356099 -384.3346570784895 0 -384.3346570784895 -1094.0598672982003 0 0 0 0 157.96357160258776 -101.8349997461255 0 -101.8349997461255 -37.227297892390993 0 0 0 0 576.67012278375842 -108.47522387818742 0 -108.47522387818742 -224.91570058281877 0 0 0 0 2629.5036761283991 42.259287418903341 0 42.259287418903341 -216.70459032231588 0 0 0 0 817.63010955532809 -2583.8258270825713 0 -2583.8258270825713 776.13058242564557 0 0 0 0 3632.4545857918274 -86.87297988942646 0 -86.87297988942646 586.03847801673692 0 0 0 0 59.275213283171723 5.987848543560645 0 5.987848543560645 -3.8697187612080568 0 0 0 0 -201.00498981965939 -1209.2817670735981 0 -1209.2817670735981 930.87734785708517 0 0 0 0 17.14294054325461 -11.000402393725146 0 -11.000402393725146 7.5758819020036547 0 0 0 0 -431.88763118805218 -986.60218240755637 0 -986.60218240755637 1817.8450502717201 0 0 0 0 14.748440610985199 629.16024794831503 0 629.16024794831503 -772.8660223373696 0 0 0 0 368.90801960101817 -332.48450716718526 0 -332.48450716718526 -521.0645100785066 0 0 0 0 295.25538581475848 146.11003139676933 0 146.11003139676933 -877.93522035170258 0 0 0 0 281.9640049140653 -306.09351426368983 0 -306.09351426368983 -259.43986803021244 0 0 0 0 188.54506601449975 -119.20240700939388 0 -119.20240700939388 -94.623265682651265 0 0 0 0 127.19543167592201 -411.76935730254911 0 -411.76935730254911 546.81060739042732 0 0 0 0 487.0603364784838 -359.39281786451153 0 -359.39281786451153 -58.445835735649666 0 0 0 0 155.02557202384924 -12.510004198072266 0 -12.510004198072266 336.63608145927429 0 0 0 0 1481.3184691482966 -470.09676975330524 0 -470.09676975330524 -51.463493518079162 0 0 0 0 1072.9799086586281 13.874156148825818 0 13.874156148825818 -527.7602658758492 0 0 0 0 172.64680705665523 483.58148295414748 0 483.58148295414748 724.08187334026115 0 0 0 0 1268.6900405657798 -934.72165653648392 0 -934.72165653648392 286.5394120597557 0 0 0 0 584.42127155432536 -521.25722950292538 0 -521.25722950292538 448.27174204441292 0 0 0 0 322.00779786946077 -2054.5088378912064 0 -2054.5088378912064 2314.2573823814996 0 0 0 0 22.796529203830801 0.52976565846309143 0 0.52976565846309143 -1.141926872521335 0 0 0 0 84.44334710205294 -33.43959472205313 0 -33.43959472205313 14.383975644638213 0 0 0 0 17.402679674117735 -34.781370741924832 0 -34.781370741924832 3.8597099862958242 0 0 0 0 -65.548066320232465 -160.86507236411182 0 -160.86507236411182 -60.077572581252184 0 0 0 0 90.753021107826498 26.454778036015938 0 26.454778036015938 10.865011693250537 0 0 0 0 50.764855499561236 -3.8236282536167439 0 -3.8236282536167439 8.1089299511652939 0 0 0 0 88.448236566338892 -3.5484871119122374 0 -3.5484871119122374 -11.234476240674439 0 0 0 0 -319.5799986604834 -146.7053155208892 0 -146.7053155208892 76.588188172328046 0 0 0 0 19.752293640741264 -31.229794143469988 0 -31.229794143469988 -1.1080148564851842 0 0 0 0 104.69066601026134 -17.409770132628964 0 -17.409770132628964 0.16802190682028595 0 0 0 0 -219.31675452062336 -93.605385344504811 0 -93.605385344504811 -57.923002015112161 0 0 0 0 -71.64409710803011 -240.15069805640587 0 -240.15069805640587 44.003399147060556 0 0 0 0 32.140374866605271 -218.18993057227394 0 -218.18993057227394 33.057256635801878 0 0 0 0 -70.830679831255111 -250.90056293244481 0 -250.90056293244481 116.94625276517661 0 0 0 0 44.997646609568619 -220.8143412036336 0 -220.8143412036336 -46.854549808452589 0 0 0 0 188.00310594163602 -199.6548494789447 0 -199.6548494789447 45.456397019455096 0 0 0 0 99.924475857638754 -317.04992449922838 0 -317.04992449922838 106.19071052811464 0 0 0 0 110.43835424765712 -307.87116077143145 0 -307.87116077143145 2.4734466334786873 0 0 0 0 -15.906824453792069 -20.697433691324022 0 -20.697433691324022 -268.27099096489684 0 0 0 0 182.82840227530687 -106.69666750255885 0 -106.69666750255885 -394.04428304355798 0 0 0 0 116.3828377390455 -201.76759490284371 0 -201.76759490284371 -169.07266092504392 0 0 0 0 101.9256227122678 -201.48023230968397 0 -201.48023230968397 -167.29864785323724 0 0 0 0 103.65337672416354 -180.137339893827 0 -180.137339893827 -223.57295969226072 0 0 0 0 57.433004239894217 -115.782669903694 0 -115.782669903694 -205.04981158376117 0 0 0 0 -19.944947489537299 -203.23047244790905 0 -203.23047244790905 -23.543614636254432 0 0 0 0 91.677604184136726 -272.20804743984434 0 -272.20804743984434 -75.121771711499918 0 0 0 0 36.320753657259047 -212.79314296377487 0 -212.79314296377487 -118.7793007621197 0 0 0 0 -1.4845404342631809 -175.85766351789206 0 -175.85766351789206 -115.74375138131177 0 0 0 0 2.7673869936261326 -92.764307060562516 0 -92.764307060562516 -31.324609709048104 0 0 0 0 81.155252223252319 -22.900394665641556 0 -22.900394665641556 -204.36812305982667 0 0 0 0 69.843412195669202 8.9377824713028176 0 8.9377824713028176 -3.8433296697499078 0 0 0 0 -61.080217130132951 71.083933129243405 0 71.083933129243405 -85.983177105054438 0 0 0 0 64.323605825353297 -113.57982873524443 0 -113.57982873524443 -215.50934076004501 0 0 0 0 48.166813233314315 -123.39551058299293 0 -123.39551058299293 -141.910634490771 0 0 0 0 111.33279627743468 37.249388832890702 0 37.249388832890702 -110.30798368345091 0 0 0 0 62.654289101716131 -116.86369843623811 0 -116.86369843623811 -219.26462889547986 0 0 0 0 54.642804856688599 -120.71417438268054 0 -120.71417438268054 -213.09151995308116 0 0 0 0 -727.85211139950843 -277.61956429518511 0 -277.61956429518511 162.81397030508788 0 0 0 0 90.140789517419762 -468.98486921588892 0 -468.98486921588892 207.54725884849745 0 0 0 0 52.665764887424302 97.693512507172727 0 97.693512507172727 -98.406193256467418 0 0 0 0 19.795069332364719 -2.5865304853512754 0 -2.5865304853512754 -2.8449463058594446 0 0 0 0 240.90386351965572 97.839784099694327 0 97.839784099694327 -192.38615629709511 0 0 0 0 58.297542023079586 6.9198313508918545 0 6.9198313508918545 -169.90444828998614 0 0 0 0 26.547593714567483 13.008233880737862 0 13.008233880737862 0.4575595456371957 0 0 0 0 27.53696446423055 -62.79532639202705 0 -62.79532639202705 -34.639755920194148 0 0 0 0 187.14467967029486 -46.039992276960902 0 -46.039992276960902 -15.32168711928739 0 0 0 0 21.448247419226391 -34.656576384875763 0 -34.656576384875763 8.1124504668396469 0 0 0 0 53.584244903657236 -15.203372550931817 0 -15.203372550931817 2.4869719781022468 0 0 0 0 22.533728099879227 -58.526566129068556 0 -58.526566129068556 56.651441354184499 0 0 0 0 -45.580478475267228 -90.30935951032103 0 -90.30935951032103 -43.864264572929187 0 0 0 0 197.87937056177179 40.535486986149181 0 40.535486986149181 -2.0539410029348346 0 0 0 0 1.0248640165204108 -1.4260146707639905 0 -1.4260146707639905 0.3482454308795484 0 0 0 0 25.718502569448901 -132.57416794232904 0 -132.57416794232904 -33.09467309268598 0 0 0 0 143.77970400815684 -108.99371838186369 0 -108.99371838186369 -160.53336010840485 0 0 0 0 11.70676028370508 -1.2783823389347617 0 -1.2783823389347617 -210.85229646340235 0 0 0 0 17.380126581003424 -83.436007907361954 0 -83.436007907361954 -108.71347628571749 0 0 0 0 80.243771491856023 -44.32524846227443 0 -44.32524846227443 -410.88706904980836 0 0 0 0 17.748051085457348 -3.3367225429770713 0 -3.3367225429770713 -0.87380096674577779 0 0 0 0 -136.77417552989209 -35.514402431348572 0 -35.514402431348572 -176.53894491832671 0 0 0 0 146.64649050420849 -110.93241038227779 0 -110.93241038227779 401.17934326841987 0 0 0 0 -150.7502449545791 94.881924066191914 0 94.881924066191914 259.34494700480036 0 0 0 0 59.728405753019615 -264.5717794107527 0 -264.5717794107527 -120.44749511015107 0 0 0 0 1353.899726265081 -662.79889168074214 0 -662.79889168074214 -238.48009077772576 0 0 0 0 7.0198104372519765 -0.8056999350682581 0 -0.8056999350682581 -0.067417386610572727 0 0 0 0 -40.490664905679296 134.50432169326996 0 134.50432169326996 -196.73875937498065 0 0 0 0 374.53138730703358 17.829383056694951 0 17.829383056694951 -625.16152115629166 0 0 0 0 804.19541708822362 -741.22982504760876 0 -741.22982504760876 828.25882000017248 0 0 0 0 164.67482948546785 -91.976061094427223 0 -91.976061094427223 169.12441580433733 0 0 0 0 1199.8558357823858 -475.18475786290583 0 -475.18475786290583 108.45520752724588 0 0 0 0 878.49234443315072 -672.63847367206381 0 -672.63847367206381 679.24362432719772 0 0 0 0 539.81451544015545 -260.33892420758218 0 -260.33892420758218 177.34598796246246 0 0 0 0 974.76919343748159 -594.83668759319789 0 -594.83668759319789 129.07656787924395 0 0 0 0 -68.002971026471641 -1096.6805452938343 0 -1096.6805452938343 845.77342002599357 0 0 0 0 238.37305381643819 351.16822406186157 0 351.16822406186157 908.01597577520397 0 0 0 0 576.59035273539121 -102.88028823201671 0 -102.88028823201671 -439.51850220505821 0 0 0 0 15.408471022006211 -11.269089952508784 0 -11.269089952508784 7.478589590824317 0 0 0 0 -517.68860544179188 526.25433526763163 0 526.25433526763163 2393.3069119844668 0 0 0 0 603.56692143946566 -338.16812983034288 0 -338.16812983034288 529.74126630943874 0 0 0 0 -657.9297810093849 30.473893057282453 0 30.473893057282453 444.77847999137157 0 0 0 0 95.618385631732323 -52.349831083004666 0 -52.349831083004666 22.424265525642213 0 0 0 0 604.96327729065524 -1151.0247063433342 0 -1151.0247063433342 -1706.3139652493539 0 0 0 0 -33.049441845490037 -327.27988416078779 0 -327.27988416078779 -276.92185645950121 0 0 0 0 23.304742305654145 -229.63535282672899 0 -229.63535282672899 -202.31123868028888 0 0 0 0 -132.69252391397822 -244.49186107181686 0 -244.49186107181686 -44.222446111883983 0 0 0 0 1130.3575473267847 490.80427022133262 0 490.80427022133262 -735.49676238634731 0 0 0 0 64.017189061418463 -34.079505676924015 0 -34.079505676924015 14.585382646654036 0 0 0 0 -103.33498855544167 -297.4147113437084 0 -297.4147113437084 74.929986786375139 0 0 0 0 303.37117465548363 -518.0155894391703 0 -518.0155894391703 -1384.1400150629224 0 0 0 0 266.62984557006712 -286.28153520781592 0 -286.28153520781592 -1194.9435999397283 0 0 0 0 100.71617501697861 -22.615635432605998 0 -22.615635432605998 2.0373232863300901 0 0 0 0 76.309325124100653 -19.899800833315727 0 -19.899800833315727 2.9043146430333673 0 0 0 0 248.72988253948469 -15.917607557874135 0 -15.917607557874135 -576.59208534323193 0 0 0 0 43.300769335202858 -254.23894074854729 0 -254.23894074854729 -500.41957915389253 0 0 0 0 36.96169093091612 122.9739175836371 0 122.9739175836371 -20.212076753697147 0 0 0 0 208.51850908904817 -93.824266747021738 0 -93.824266747021738 -195.39784219273361 0 0 0 0 165.45397301317917 30.436178919036138 0 30.436178919036138 -845.3639228374966 0 0 0 0 -80.186543576242912 29.249875414369285 0 29.249875414369285 -245.65542473871824 0 0 0 0 -50.708132859877423 -190.78568920889603 0 -190.78568920889603 -148.23224049413443 0 0 0 0 46.099316647725978 -15.310001503878937 0 -15.310001503878937 2.9610344575747636 0 0 0 0 171.9758000000129 66.387732910121031 0 66.387732910121031 -303.73457848355133 0 0 0 0 90.539439878863391 -92.240563727265226 0 -92.240563727265226 -311.1977525821253 0 0 0 0 65.726992632788992 158.28788340067945 0 158.28788340067945 -108.92997074026289 0 0 0 0 79.641121298708242 32.059131732452101 0 32.059131732452101 65.738419989944305 0 0 0 0 87.416282330992544 57.271528662062792 0 57.271528662062792 -147.54656196113535 0 0 0 0 180.70306188739414 74.769482203858217 0 74.769482203858217 -147.34695020266861 0 0 0 0 170.54903912274642 248.85302261476454 0 248.85302261476454 114.66700451973384 0 0 0 0 5.2481753391787436 -5.5618034681947792 0 -5.5618034681947792 5.2846365544878786 0 0 0 0 -49.330447907080497 -137.61342602461752 0 -137.61342602461752 -317.11241475651514 0 0 0 0 -3.0428568535262457 106.52570175346955 0 106.52570175346955 -269.19503776801685 0 0 0 0 -52.422939737847628 -38.704353120587257 0 -38.704353120587257 133.00057359070342 0 0 0 0 87.590961737445468 -557.12115155839183 0 -557.12115155839183 -92.045841553619539 0 0 0 0 438.15840876162929 380.26457342507274 0 380.26457342507274 338.40778614343162 0 0 0 0 -1.1993956001577244 -3.3351086811203459 0 -3.3351086811203459 5.5119726061702607 0 0 0 0 553.56271754102909 -410.49208608533263 0 -410.49208608533263 -54.34724438817193 0 0 0 0 -155.55585743452866 -379.4674417615206 0 -379.4674417615206 -41.335412158551662 0 0 0 0 360.47475231904082 102.49170820755899 0 102.49170820755899 19.571022113352228 0 0 0 0 -196.01337995484482 51.884659796934102 0 51.884659796934102 15.090277636303199 0 0 0 0 286.44729760749942 323.38546590862279 0 323.38546590862279 367.74267024135497 0 0 0 0 86.556542635313122 98.400239084499844 0 98.400239084499844 257.54890521894959 0 0 0 0 317.8417698698604 57.386394799134905 0 57.386394799134905 -5.959707683871784 0 0 0 0 122.17908111184261 88.103125895418088 0 88.103125895418088 144.77128788509071 0 0 0 0 48.046389140445172 143.95481950146041 0 143.95481950146041 10.282229140012532 0 0 0 0 178.66002247042707 -107.67275161575526 0 -107.67275161575526 197.62607667957127 0 0 0 0 380.7234234684729 -52.720299301799969 0 -52.720299301799969 -145.8640028788559 0 0 0 0 -37.471280731852858 -110.94987174606649 0 -110.94987174606649 453.69388504095696 0 0 0 0 -20.885308983377399 -99.199658541284634 0 -99.199658541284634 245.79270991962403 0 0 0 0 39.764559927369774 -13.690891760584961 0 -13.690891760584961 1.7850935252330409 0 0 0 0 226.71215926178775 361.33343834189509 0 361.33343834189509 448.18948523296967 0 0 0 0 349.56169933833826 -175.24151645067559 0 -175.24151645067559 171.45181744720685 0 0 0 0 676.51199444613758 144.05730111357116 0 144.05730111357116 161.99889223084142 0 0 0 0 340.1605477719761 29.244362157326236 0 29.244362157326236 145.13298375569502 0 0 0 0 -69.060273874840277 -369.66342127941971 0 -369.66342127941971 -44.852160409216594 0 0 0 0 112.09600184626106 -454.08442856452166 0 -454.08442856452166 -111.82629600910695 0 0 0 0 -400.85400399341597 -608.80113267676199 0 -608.80113267676199 481.79017339329698 0 0 0 0 -251.49557076086057 -145.24643618644905 0 -145.24643618644905 247.35752514345313 0 0 0 0 -1038.4341246609765 150.66032185095963 0 150.66032185095963 393.93958833720376 0 0 0 0 -240.11529492629052 -146.41279916465157 0 -146.41279916465157 229.82909457884898 0 0 0 0 2771.2005225369649 535.71025293673222 0 535.71025293673222 -774.30259099463535 0 0 0 0 209.55835494363239 -8.1859747174410487 0 -8.1859747174410487 -14.723531953940176 0 0 0 0 628.25729714384943 -911.81069025995237 0 -911.81069025995237 374.84364870139825 0 0 0 0 1275.2074221213279 483.55517381023691 0 483.55517381023691 15.293107161634452 0 0 0 0 1564.3953652020136 -500.54694342803054 0 -500.54694342803054 -180.86817040922051 0 0 0 0 740.21128781154403 -247.14132180429715 0 -247.14132180429715 -99.494038723872109 0 0 0 0 435.00298026819655 -194.35539539575348 0 -194.35539539575348 -94.244884954973656 0 0 0 0 56.076647745008813 -250.66327295870087 0 -250.66327295870087 181.05591548766324 0 0 0 0 -240.06214937646291 -157.86956712114068 0 -157.86956712114068 243.21135987090338 0 0 0 0 -249.68991344222741 -157.98577854936775 0 -157.98577854936775 263.80966675082618 0 0 0 0 -267.49623252781748 -476.80673026406953 0 -476.80673026406953 335.78647062219397 0 0 0 0 459.61652966719703 -643.52186870378364 0 -643.52186870378364 255.8778001847586 0 0 0 0 28.644004332236364 -338.51711780719893 0 -338.51711780719893 100.86655480793524 0 0 0 0 407.83808175114973 -330.03950433010868 0 -330.03950433010868 57.510445920188431 0 0 0 0 -40.1957754229079 -201.08726565156576 0 -201.08726565156576 169.43157470151709 0 0 0 0 -47.06025548724574 -37.180362000972309 0 -37.180362000972309 104.51139804278409 0 0 0 0 -370.70512757080724 191.81055618313212 0 191.81055618313212 48.400378696930829 0 0 0 0 2.817417569909594 6.6298198580818735 0 6.6298198580818735 136.05587976454785 0 0 0 0 102.20823097982793 28.714035938531197 0 28.714035938531197 -8.278135429972167 0 0 0 0 -5.7334929512726376 36.975431894801773 0 36.975431894801773 28.542399986332384 0 0 0 0 60.632178805200965 -15.428282533111542 0 -15.428282533111542 67.987219122246643 0 0 0 0 85.703614081659907 -30.177809261599123 0 -30.177809261599123 24.562724613650062 0 0 0 0 114.27243708537708 -20.005903584054991 0 -20.005903584054991 -5.4671584294655986 0 0 0 0 65.743586951974066 -10.062401197068084 0 -10.062401197068084 8.8495398420468518 0 0 0 0 109.11089735105634 -14.922545439530495 0 -14.922545439530495 7.8103462798948158 0 0 0 0 87.302151170898696 28.076726251176829 0 28.076726251176829 45.313238194554287 0 0 0 0 80.883883938960651 -47.20129016515456 0 -47.20129016515456 34.203852145820818 0 0 0 0 -51.955886095318874 0.061754505634553425 0 0.061754505634553425 134.30230225266314 0 0 0 0 61.690329863303333 -7.4673886319770375 0 -7.4673886319770375 24.461162793405748 0 0 0 0 163.39243833030923 -3.1005803242592833 0 -3.1005803242592833 56.608502184559313 0 0 0 0 19.894117136988807 -2.6557449768071493 0 -2.6557449768071493 -0.067770557411991561 0 0 0 0 163.50042749335375 -27.876817236679734 0 -27.876817236679734 42.932624504360319 0 0 0 0 493.21454520878069 171.80448884929501 0 171.80448884929501 -164.18879821956034 0 0 0 0 -67.36860827057626 -27.79132873744129 0 -27.79132873744129 559.42534838770734 0 0 0 0 -382.51820193191816 509.38091784874075 0 509.38091784874075 -286.61576173538731 0 0 0 0 172.8276055669327 0.22607960643513536 0 0.22607960643513536 -12.957421769343378 0 0 0 0 114.07702492262615 -509.7264874999928 0 -509.7264874999928 59.6696441262593 0 0 0 0 -1.8628712911429002 21.846657860747914 0 21.846657860747914 -3.3691885240877921 0 0 0 0 302.64388831377892 -577.73412169731273 0 -577.73412169731273 -37.94156206882144 0 0 0 0 81.388153291816707 69.908770738470025 0 69.908770738470025 -256.07112756926063 0 0 0 0 44.575158220755412 14.765019368088595 0 14.765019368088595 -27.339088949468337 0 0 0 0 39.591245655115927 445.55884283986734 0 445.55884283986734 299.42402993270139 0 0 0 0 -73.337848233188197 252.47636206836106 0 252.47636206836106 -153.00875281343724 0 0 0 0 -204.30798188052722 157.97308058056615 0 157.97308058056615 -142.60536354392809 0 0 0 0 -90.797106525973504 163.39737601086216 0 163.39737601086216 -142.76281722251042 0 0 0 0 -163.40697181769065 248.27919690692488 0 248.27919690692488 -152.99663310962603 0 0 0 0 211.98795196560968 68.550517360169806 0 68.550517360169806 -727.14522266864878 0 0 0 0 204.64949884242378 116.56992158534467 0 116.56992158534467 -529.85620681849105 0 0 0 0 343.22470945729583 174.15981035130346 0 174.15981035130346 -278.38101242068387 0 0 0 0 213.03046607389115 287.33062413563016 0 287.33062413563016 -317.71929347455989 0 0 0 0 268.94312143958086 194.39832256618899 0 194.39832256618899 -505.57456998481575 0 0 0 0 78.689148288132856 191.82102431427893 0 191.82102431427893 -110.31761041111122 0 0 0 0 35.90113272520648 238.17575960028609 0 238.17575960028609 -495.63838081910853 0 0 0 0 44.519327803194756 408.41371275864503 0 408.41371275864503 -420.71125864995702 0 0 0 0 17.869078472795081 319.876971242357 0 319.876971242357 -51.747093895103689 0 0 0 0 -13.404525928195653 241.15954393689591 0 241.15954393689591 13.362086685527629 0 0 0 0 33.16497392749443 144.4983023320419 0 144.4983023320419 499.92395658081068 0 0 0 0 30.513171704675187 45.843746616725184 0 45.843746616725184 55.46959547273309 0 0 0 0 227.07398740507051 297.00559795117169 0 297.00559795117169 376.1316977990823 0 0 0 0 -0.55205739236587803 -2.5831030096212828 0 -2.5831030096212828 4.3687599191616435 0 0 0 0 -194.30918046433362 -52.724105202275041 0 -52.724105202275041 142.92954578084209 0 0 0 0 -175.46481493449755 66.733246563057207 0 66.733246563057207 146.13791939188604 0 0 0 0 -182.4585389783897 51.318684088279042 0 51.318684088279042 333.25909456212332 0 0 0 0 -25.162041825373308 113.47610666885794 0 113.47610666885794 120.7014394090138 0 0 0 0 -78.933338652044768 53.137744642045845 0 53.137744642045845 92.217568554922195 0 0 0 0 181.64729585302121 149.52759104070128 0 149.52759104070128 34.491696511420741 0 0 0 0 -77.911484715237748 75.989670366648625 0 75.989670366648625 134.85690682590217 0 0 0 0 -11.414214072465256 162.39028241791391 0 162.39028241791391 184.19934890113836 0 0 0 0 477.3927591356769 165.97948785674089 0 165.97948785674089 -27.710249194654693 0 0 0 0 217.432696561169 202.07462088485136 0 202.07462088485136 41.356917834164051 0 0 0 0 484.01631812874984 282.43972371521727 0 282.43972371521727 64.897725986057594 0 0 0 0 57.18502316006925 295.65682976753317 0 295.65682976753317 314.22141263326648 0 0 0 0 442.94502843507507 150.68231733820767 0 150.68231733820767 -24.077141319762177 0 0 0 0 278.84666720803216 386.37703243162946 0 386.37703243162946 384.1443779347594 0 0 0 0 20.502934000217607 3.5252155608942175 0 3.5252155608942175 1.627148394674057 0 0 0 0 -2205.4904952396319 -1009.2907145013224 0 -1009.2907145013224 1159.7203975836167 0 0 0 0 -92.19158672352205 32.608293462890032 0 32.608293462890032 184.98486563792733 0 0 0 0 19.440969335832051 234.03011032339373 0 234.03011032339373 -352.39838821398644 0 0 0 0 -125.36084899072011 108.89579917293167 0 108.89579917293167 179.62802773469775 0 0 0 0 -110.84707488266577 131.86813160813938 0 131.86813160813938 68.616668926525335 0 0 0 0 -26.832858406254672 -39.997276259898456 0 -39.997276259898456 -217.11037776591775 0 0 0 0 1369.0036224710784 19.305748450658029 0 19.305748450658029 -65.342680820305759 0 0 0 0 250.81446384939878 -23.020426143755824 0 -23.020426143755824 -10.222357998963865 0 0 0 0 62.84209975251693 17.966145709956947 0 17.966145709956947 3.567589481285891 0 0 0 0 -622.71367312403163 -140.9897550562755 0 -140.9897550562755 281.72716211560737 0 0 0 0 584.50300590629195 -290.92212421400018 0 -290.92212421400018 -772.11082452895062 0 0 0 0 -220.20278358883661 -384.7824873471618 0 -384.7824873471618 23.820394957301005 0 0 0 0 670.17934443368722 390.01265891825096 0 390.01265891825096 158.60415205439858 0 0 0 0 -272.29874976620704 -679.78925387156232 0 -679.78925387156232 434.74399081819138 0 0 0 0 8.7997664144438303 0.15008942017470517 0 0.15008942017470517 -1.8147080918986838 0 0 0 0 -45.04723247307038 -150.87668344080316 0 -150.87668344080316 171.27842552591846 0 0 0 0 570.17938913851322 75.274936224112025 0 75.274936224112025 252.00202951981055 0 0 0 0 284.7510989140319 -675.7519250540654 0 -675.7519250540654 128.51845185429363 0 0 0 0 -19.845528160723916 -510.68532084718345 0 -510.68532084718345 328.27972915775968 0 0 0 0 90.22498390295732 21.611160182173307 0 21.611160182173307 -77.796221009331475 0 0 0 0 527.53108024403627 -597.73274520302766 0 -597.73274520302766 36.485347293154973 0 0 0 0 973.78060567398643 -353.01649337892241 0 -353.01649337892241 74.651909332416835 0 0 0 0 93.79090246760461 -236.62929773744963 0 -236.62929773744963 59.258617396506452 0 0 0 0 116.83491463121754 -634.26819582994631 0 -634.26819582994631 328.08322015360136 0 0 0 0 130.98192762815597 -688.41185562644478 0 -688.41185562644478 263.25968315795217 0 0 0 0 143.68338151854186 -489.33838958679576 0 -489.33838958679576 146.21809794509772 0 0 0 0 498.84732819807687 -921.78390573754677 0 -921.78390573754677 543.77320004518879 0 0 0 0 127.28556489908806 -404.54280088149198 0 -404.54280088149198 624.8440023485291 0 0 0 0 2442.0563870681435 -283.06599354798527 0 -283.06599354798527 190.92079514659258 0 0 0 0 443.73526605996085 581.81599585677259 0 581.81599585677259 681.4759211022465 0 0 0 0 12.587872445319334 -13.741889606037979 0 -13.741889606037979 8.4318743093761874 0 0 0 0 1271.0328888985387 980.64668926004106 0 980.64668926004106 826.07232127389966 0 0 0 0 296.21126880939119 226.95613255314402 0 226.95613255314402 -1.0799993581413219 0 0 0 0 690.05089191546722 -184.89411777251553 0 -184.89411777251553 207.41772885558748 0 0 0 0 1260.0719566444532 224.45307202419644 0 224.45307202419644 -177.17619511487646 0 0 0 0 350.48656170636241 376.72218916227757 0 376.72218916227757 -191.20984753719972 0 0 0 0 540.33898305096955 16.424217628276438 0 16.424217628276438 12.372091410935809 0 0 0 0 -434.14237582628994 449.99755416449807 0 449.99755416449807 -297.33976834494752 0 0 0 0 824.09811936902406 320.11548536379087 0 320.11548536379087 -1296.2176914961674 0 0 0 0 377.37803480085859 797.96571506173132 0 797.96571506173132 -925.95154365626149 0 0 0 0 646.74958215819788 13.98631937594655 0 13.98631937594655 -158.18024160885398 0 0 0 0 241.18905191766146 7.513259556634857 0 7.513259556634857 -9.2242749778303459 0 0 0 0 324.20084725902416 231.90080854551525 0 231.90080854551525 -837.92598033444165 0 0 0 0 799.51609993133752 417.59386545001871 0 417.59386545001871 -725.87002873359597 0 0 0 0 643.93254381992301 490.4061014050767 0 490.4061014050767 -268.90264535458118 0 0 0 0 239.04080403078115 365.4486750929691 0 365.4486750929691 -817.43003187252771 0 0 0 0 127.48115783007509 -0.76097903400899725 0 -0.76097903400899725 7.1617496553068509 0 0 0 0 -158.94185820285929 321.32987828775731 0 321.32987828775731 -657.03694661888471 0 0 0 0 -257.4104778173496 111.57334498328578 0 111.57334498328578 -728.16099404092165 0 0 0 0 53.598087070102338 187.65408799446323 0 187.65408799446323 -748.5233678381901 0 0 0 0 -45.495263997305301 400.16903987816272 0 400.16903987816272 -640.80455031076053 0 0 0 0 186.93492086490733 265.49892345825447 0 265.49892345825447 -567.69674172834766 0 0 0 0 141.0501839548233 352.40993829103263 0 352.40993829103263 -503.3424442540753 0 0 0 0 304.00920822369517 369.35250135126353 0 369.35250135126353 -697.86097770260267 0 0 0 0 733.34412825523759 -470.96935063265846 0 -470.96935063265846 -1218.8966285217175 0 0 0 0 598.47930825479853 205.75580267830992 0 205.75580267830992 -1076.9304487437494 0 0 0 0 363.0080731782582 -48.66698722106139 0 -48.66698722106139 -155.38277591139922 0 0 0 0 218.03062528124428 -227.08258382787972 0 -227.08258382787972 -368.28726359600842 0 0 0 0 -84.728390817763284 -98.055258746704567 0 -98.055258746704567 1001.5344912067158 0 0 0 0 346.99228321982082 -1303.4677315706722 0 -1303.4677315706722 -850.94901056697745 0 0 0 0 -433.19333436604938 -1762.1101659935157 0 -1762.1101659935157 665.09615369897801 0 0 0 0 -655.84814901383197 685.94966699676684 0 685.94966699676684 2055.1768488617745 0 0 0 0 351.49403933306894 -1776.8786326488944 0 -1776.8786326488944 -1357.3831956882386 0 0 0 0 266.75616447685752 213.20286495192795 0 213.20286495192795 121.32217138067244 0 0 0 0 144.97901881195139 -68.472079275206852 0 -68.472079275206852 -169.81791935165529 0 0 0 0 334.11799839266678 106.08651288861847 0 106.08651288861847 56.047504740816294 0 0 0 0 34.494808257050579 19.442432321532593 0 19.442432321532593 -6.9416000294711679 0 0 0 0 448.32781104286551 203.93463771511415 0 203.93463771511415 138.27512404866684 0 0 0 0 295.12487401050748 241.81712543309914 0 241.81712543309914 -8.9730491754471586 0 0 0 0 343.59310705002281 140.98688748216955 0 140.98688748216955 -174.40317205861493 0 0 0 0 46.576382840632292 -32.077140948547544 0 -32.077140948547544 -12.21999153359463 0 0 0 0 609.96857260020624 1510.7859609225718 0 1510.7859609225718 497.81608747977305 0 0 0 0 -568.91400869165955 -1384.7392913954614 0 -1384.7392913954614 381.15670284422276 0 0 0 0 -772.27278619812932 -956.11699561625733 0 -956.11699561625733 542.51521829192984 0 0 0 0 42.659258201199918 -12.783740650617819 0 -12.783740650617819 2.8149998022668323 0 0 0 0 2156.0502493258973 1771.3029050032449 0 1771.3029050032449 -552.19222518410174 0 0 0 0 -878.64116321614529 -1008.4350668884889 0 -1008.4350668884889 1569.4086758016019 0 0 0 0 -883.70004213469656 -1837.1361343779922 0 -1837.1361343779922 1274.6705392423974 0 0 0 0 1808.3459198307482 2139.0079842992636 0 2139.0079842992636 606.10447629753708 0 0 0 0 -243.9812471382902 806.5806501460911 0 806.5806501460911 96.996761287948175 0 0 0 0 281.09629999306344 -161.33807918524099 0 -161.33807918524099 688.46526317930125 0 0 0 0 -16.864280457397399 699.3165710438609 0 699.3165710438609 -156.82751567782407 0 0 0 0 250.60572878525272 337.80494606838772 0 337.80494606838772 -99.347874329138449 0 0 0 0 -1047.0308245672131 -4.0043751235971285 0 -4.0043751235971285 -74.228127186365782 0 0 0 0 359.41162544720282 297.43842089614782 0 297.43842089614782 -67.096851548177938 0 0 0 0 240.27235504084092 -50.786314758483968 0 -50.786314758483968 -646.92105223063118 0 0 0 0 987.42240459835739 183.66579039606222 0 183.66579039606222 -574.19136810067903 0 0 0 0 722.28664979687528 556.80645043692243 0 556.80645043692243 -1042.05827695173 0 0 0 0 808.61967644360266 955.0760758594663 0 955.0760758594663 -147.11251855989144 0 0 0 0 -408.10888548363801 213.00126089608784 0 213.00126089608784 -28.928056216933442 0 0 0 0 99.395388410516844 -19.958247952022383 0 -19.958247952022383 0.1015024425248694 0 0 0 0 1184.9212413854475 -66.345723333818569 0 -66.345723333818569 -1730.420543327406 0 0 0 0 1518.1512187320186 -553.3321490473013 0 -553.3321490473013 -2482.6578986926474 0 0 0 0 -406.31727715865685 -402.53952449330416 0 -402.53952449330416 156.8212936432742 0 0 0 0 799.90634708330253 -1118.8915558322467 0 -1118.8915558322467 1297.2745108960107 0 0 0 0 112.03709743377112 691.35856217186256 0 691.35856217186256 621.65247494460482 0 0 0 0 2625.7061550484359 598.47104697113264 0 598.47104697113264 -1957.5799524011086 0 0 0 0 -880.77430978071061 -166.90507503141521 0 -166.90507503141521 835.82884153039049 0 0 0 0 20.558973579963777 -12.489316301316187 0 -12.489316301316187 6.4945391209795842 0 0 0 0 226.14694701278495 516.84347687476884 0 516.84347687476884 -308.39111778106098 0 0 0 0 814.91692873544525 386.8473474298753 0 386.8473474298753 -549.59642485663676 0 0 0 0 1184.6816299769271 52.134642552320656 0 52.134642552320656 -350.53927347014633 0 0 0 0 1064.3499292157412 -346.78928282504359 0 -346.78928282504359 -111.83355161403051 0 0 0 0 572.21527392444841 -98.29527064878971 0 -98.29527064878971 -169.92269219683112 0 0 0 0 596.15280467589764 352.20001518255185 0 352.20001518255185 -447.17804495741507 0 0 0 0 812.26768795276439 80.760388639455641 0 80.760388639455641 -277.92745181143164 0 0 0 0 507.63220542020525 93.391379268188828 0 93.391379268188828 -229.44781418587445 0 0 0 0 551.94285522171413 335.19727422480628 0 335.19727422480628 -226.61411781683091 0 0 0 0 333.97997361025773 -6.3693317086513161 0 -6.3693317086513161 -420.81318671401732 0 0 0 0 177.62956012554787 -5.1790404038288216 0 -5.1790404038288216 -302.25109641727886 0 0 0 0 198.4756473376201 76.058861233138373 0 76.058861233138373 -343.31849753802271 0 0 0 0 431.25729143336503 220.71191858745851 0 220.71191858745851 -314.37014220788842 0 0 0 0 249.29746957981843 198.14630577414027 0 198.14630577414027 -156.38043122601175 0 0 0 0 359.27675343248484 86.710668642423798 0 86.710668642423798 -92.039449089026675 0 0 0 0 446.40765569258656 -108.00855785897329 0 -108.00855785897329 -297.62113518767046 0 0 0 0 501.01909661336686 -20.081267969779219 0 -20.081267969779219 -214.06588491823095 0 0 0 0 509.46710443121907 -115.89634725423528 0 -115.89634725423528 -285.49817384668859 0 0 0 0 402.69513281829859 -195.75856410024244 0 -195.75856410024244 -321.67510689831124 0 0 0 0 379.48308052816719 -7.8462250287152528 0 -7.8462250287152528 -425.09894203875956 0 0 0 0 334.41674804508511 -61.696170069217715 0 -61.696170069217715 -489.30866453522253 0 0 0 0 -428.79291785821988 577.65170910625011 0 577.65170910625011 -502.22375219866626 0 0 0 0 339.77965192362899 -61.478285762192172 0 -61.478285762192172 -495.50381942557397 0 0 0 0 239.91904398559564 345.89101237089631 0 345.89101237089631 -1114.134941741233 0 0 0 0 -10.490658777518547 335.7214804908881 0 335.7214804908881 -663.12977583056181 0 0 0 0 -198.31790801905299 162.9332898529633 0 162.9332898529633 -167.16290258514709 0 0 0 0 -80.424446081378846 119.61269332266102 0 119.61269332266102 -277.41682258398578 0 0 0 0 -140.79606941359816 63.357141161735626 0 63.357141161735626 -42.021625229895108 0 0 0 0 1537.0231091623282 994.27420650753174 0 994.27420650753174 821.50415999446159 0 0 0 0 993.3066665933693 313.9991592440997 0 313.9991592440997 -200.39536965329717 0 0 0 0 0.02790756544186479 -1.840413153251788 0 -1.840413153251788 -11.278877346215946 0 0 0 0 1140.52370509514 210.08333696649788 0 210.08333696649788 -607.05373735179683 0 0 0 0 6.0329681390809071 4.6430250101608976 0 4.6430250101608976 2.8436892048870703 0 0 0 0 1891.4251998718828 -1231.6190099178357 0 -1231.6190099178357 -1393.3350021679944 0 0 0 0 -17.071618852583924 1165.2812631718421 0 1165.2812631718421 -552.96769220393708 0 0 0 0 247.89326013684331 -450.46037017219032 0 -450.46037017219032 164.09556443841302 0 0 0 0 1591.4887580781142 -1125.2139194753872 0 -1125.2139194753872 485.11006991340128 0 0 0 0 1373.1318879365499 -54.439557101379705 0 -54.439557101379705 -138.77457690054507 0 0 0 0 1312.1907807708558 373.86615422014347 0 373.86615422014347 -265.11995621470851 0 0 0 0 1249.7413653589238 -576.69100396146882 0 -576.69100396146882 836.48580537203452 0 0 0 0 3538.4251368772675 -1528.248409089254 0 -1528.248409089254 291.36896631369564 0 0 0 0 7.4151430560514484 8.589288439504017 0 8.589288439504017 14.166993521403896 0 0 0 0 -931.45655360160163 1260.1228919519071 0 1260.1228919519071 -521.22380842968778 0 0 0 0 2663.3786530193356 633.51541464500042 0 633.51541464500042 -54.810154428378155 0 0 0 0 1842.3247840019394 -345.54953904093509 0 -345.54953904093509 57.333016519150988 0 0 0 0 1005.7405700463714 400.97109284238832 0 400.97109284238832 859.1410041446652 0 0 0 0 1002.384045098559 -314.97535697544663 0 -314.97535697544663 -73.930889897779707 0 0 0 0 722.79653225485526 200.45097127157533 0 200.45097127157533 524.15332635492996 0 0 0 0 30.452527648129035 -23.031778662247234 0 -23.031778662247234 444.49522394628002 0 0 0 0 608.95478359430854 -214.25248398872645 0 -214.25248398872645 -46.379873624748143 0 0 0 0 61.205340222644736 -157.99029683411936 0 -157.99029683411936 176.76803240459049 0 0 0 0 -121.4203292329039 -127.3153079663789 0 -127.3153079663789 -213.54972750361048 0 0 0 0 44.554835462360643 -267.81951093471071 0 -267.81951093471071 -140.38075795765326 0 0 0 0 16.728364139593396 -18.835601438168524 0 -18.835601438168524 -98.930026968805123 0 0 0 0 -281.46205379530147 -232.00201440717137 0 -232.00201440717137 -4.9438302980634035 0 0 0 0 -312.89137285509059 -92.106449821720162 0 -92.106449821720162 -184.03428494354011 0 0 0 0 278.28752912669006 2247.0492230368482 0 2247.0492230368482 3413.7961512016154 0 0 0 0 3735.3083835262951 -44.454287975743682 0 -44.454287975743682 -3250.6736404737289 0 0 0 0 53.541801568717347 85.770471029032706 0 85.770471029032706 -269.60757650141477 0 0 0 0 -192.34958192046906 -311.29951037382853 0 -311.29951037382853 10.105123590350559 0 0 0 0 -764.39512720781568 -328.87177590396288 0 -328.87177590396288 -286.98855048903715 0 0 0 0 -5.5610579274621585 -10.051449604146796 0 -10.051449604146796 -36.10503130221862 0 0 0 0 -483.79579126209137 250.26272856482774 0 250.26272856482774 238.81403670164946 0 0 0 0 -23.251917500965646 -1153.7842431346066 0 -1153.7842431346066 -1472.6733698624948 0 0 0 0 -21.815040692003095 -328.13926434401947 0 -328.13926434401947 -214.54182263100301 0 0 0 0 773.76443836393082 250.96040643592369 0 250.96040643592369 -49.816010232851113 0 0 0 0 803.5143884656427 38.126493839452451 0 38.126493839452451 558.90765187736542 0 0 0 0 170.4309945010782 418.12034164827617 0 418.12034164827617 -590.11138118892882 0 0 0 0 628.15514749611475 588.62942768339849 0 588.62942768339849 -536.08997151317658 0 0 0 0 -3.0822727012690665 -8.3306280212960218 0 -8.3306280212960218 -4.0541100206699632 0 0 0 0 364.33861460050957 123.30553920295097 0 123.30553920295097 -868.44581229445976 0 0 0 0 -1341.9357181531268 479.21597355918857 0 479.21597355918857 107.6334962334613 0 0 0 0 -209.75835437436672 363.52720342873226 0 363.52720342873226 -403.39349768880766 0 0 0 0 -179.64009791144872 405.6963364569034 0 405.6963364569034 -348.12817364614784 0 0 0 0 -380.39688259829927 483.43835776654396 0 483.43835776654396 -349.78983936370787 0 0 0 0 55.689424096999929 59.359525074473332 0 59.359525074473332 56.930505339202028 0 0 0 0 -11.202944635339009 457.41515706423343 0 457.41515706423343 -350.07025216830561 0 0 0 0 1270.2972166779 -85.007048418665363 0 -85.007048418665363 -225.67820915556422 0 0 0 0 -523.20002144077807 764.15898265590295 0 764.15898265590295 -571.15064591797363 0 0 0 0 31.469915433369593 33.890080059284728 0 33.890080059284728 31.610631006983997 0 0 0 0 -309.10140346423759 381.93193159356224 0 381.93193159356224 -581.24019998431686 0 0 0 0 -754.57279348406155 446.52413065969085 0 446.52413065969085 -245.03485278452354 0 0 0 0 -178.92734335043133 532.56586702767436 0 532.56586702767436 -473.51020956750972 0 0 0 0 136.74819964381459 100.39916411032027 0 100.39916411032027 -197.33081827735987 0 0 0 0 -31.236313077877639 487.94760898506684 0 487.94760898506684 -481.92233845046576 0 0 0 0 28.815415836039847 226.95463092819364 0 226.95463092819364 -303.41569188606627 0 0 0 0 118.8960090879109 296.27903509238149 0 296.27903509238149 -438.79456261646646 0 0 0 0 102.01800723832275 358.68008747092745 0 358.68008747092745 -167.9400831444309 0 0 0 0 167.46957440822007 185.55514825361752 0 185.55514825361752 -225.81946266368323 0 0 0 0 84.512536823369373 320.27777895105828 0 320.27777895105828 -163.2184425873711 0 0 0 0 335.59643014331687 71.602368768781162 0 71.602368768781162 -130.18826426587293 0 0 0 0 262.67787398257042 203.33346341393917 0 203.33346341393917 -160.44211423604048 0 0 0 0 86.166745762940081 151.34994525011052 0 151.34994525011052 -52.892437845970562 0 0 0 0 3.6269635348935481 174.73189298319085 0 174.73189298319085 75.367058652228025 0 0 0 0 178.2459386660762 -91.591946390875819 0 -91.591946390875819 158.6368755388612 0 0 0 0 36.58281061056914 -769.12836751337579 0 -769.12836751337579 945.01890427032617 0 0 0 0 -132.12327781366184 -358.43559546949683 0 -358.43559546949683 1365.3863391576638 0 0 0 0 120.62691031101602 61.313699014414354 0 61.313699014414354 38.080746354409115 0 0 0 0 51.657326206361176 237.88887349230254 0 237.88887349230254 2.6706788446363134 0 0 0 0 343.22750369062487 -379.4374024024545 0 -379.4374024024545 1360.1631106772388 0 0 0 0 23.963269041164097 14.490925646399301 0 14.490925646399301 18.724518964958733 0 0 0 0 31.178307954767661 -609.47006229558883 0 -609.47006229558883 2147.265066103103 0 0 0 0 140.23326572452788 -280.71214966790671 0 -280.71214966790671 1506.8876256439926 0 0 0 0 258.73861879355536 -743.36049369488649 0 -743.36049369488649 2000.7588241574588 0 0 0 0 44.130310700655343 -24.988111046673421 0 -24.988111046673421 -28.292772193865481 0 0 0 0 469.00387536762719 -264.02004690695327 0 -264.02004690695327 -312.21305406132524 0 0 0 0 -2.4885950918105664 -271.74129607352461 0 -271.74129607352461 835.44716909602221 0 0 0 0 497.44124401277804 -179.19232153276982 0 -179.19232153276982 849.33896199854985 0 0 0 0 254.92324475706846 -724.55211631379188 0 -724.55211631379188 864.3624075068592 0 0 0 0 6.3209388975083129 -674.87453034087321 0 -674.87453034087321 780.94319820890837 0 0 0 0 482.54472397120639 -628.91568017462555 0 -628.91568017462555 785.33255666627838 0 0 0 0 241.18550634849115 61.043837609989112 0 61.043837609989112 19.142062117403384 0 0 0 0 346.62343542921008 172.74788858563898 0 172.74788858563898 701.86631911615223 0 0 0 0 22.356031074743441 129.17427675962062 0 129.17427675962062 132.32272087669844 0 0 0 0 345.93320920574303 73.666135714270155 0 73.666135714270155 13.087361186973036 0 0 0 0 -65.710382504735207 687.27169569385433 0 687.27169569385433 -574.83470909964672 0 0 0 0 969.55887833991437 -221.68306924256831 0 -221.68306924256831 -608.86798112606084 0 0 0 0 28.015932917722239 -400.2486703472058 0 -400.2486703472058 578.00638144186405 0 0 0 0 670.92580949632975 -685.82203453000807 0 -685.82203453000807 606.67429101602625 0 0 0 0 782.29263396406895 -1121.5903984309816 0 -1121.5903984309816 1553.8073111922711 0 0 0 0 522.9518173441611 -604.7158184179516 0 -604.7158184179516 1282.0131056246714 0 0 0 0 6.5594988037185971 -5.9054804462860204 0 -5.9054804462860204 0.71069742046345574 0 0 0 0 863.48705230743508 -1061.0290821757762 0 -1061.0290821757762 1506.5852995809701 0 0 0 0 1040.6090335029439 -1123.8941214756842 0 -1123.8941214756842 1479.8699028883184 0 0 0 0 618.81692605771241 -1046.5726601361189 0 -1046.5726601361189 1578.3093173715124 0 0 0 0 23.144017257926492 -74.427109832679804 0 -74.427109832679804 11.594946037913086 0 0 0 0 144.25132961437339 -231.70242023828337 0 -231.70242023828337 -609.61108632028208 0 0 0 0 -495.07124586022655 112.42379682840357 0 112.42379682840357 145.67109748456915 0 0 0 0 42.697195432221633 -99.677654781067474 0 -99.677654781067474 -109.22583992109708 0 0 0 0 -22.189759333952679 -178.07718041217549 0 -178.07718041217549 17.254620193006076 0 0 0 0 -64.033913215516804 399.98012546860264 0 399.98012546860264 183.75206689604784 0 0 0 0 -167.21927391620557 197.02663964178373 0 197.02663964178373 -215.12194511475627 0 0 0 0 -525.6600908160035 -116.47483230844318 0 -116.47483230844318 -36.68019374049436 0 0 0 0 -56.082809694446041 56.018674900821679 0 56.018674900821679 234.40851812655774 0 0 0 0 196.18621061820886 -813.02077247600005 0 -813.02077247600005 848.23643497160674 0 0 0 0 -30.256799703388367 -23.795605572581543 0 -23.795605572581543 1.3355223186723322 0 0 0 0 8.054086351060505 -8.4750719369599778 0 -8.4750719369599778 796.5496383869795 0 0 0 0 448.37269272344565 57.870274798329433 0 57.870274798329433 -537.15106725727446 0 0 0 0 -9.7837775979921275 -3.775139483964427 0 -3.775139483964427 -2.9127811629047136 0 0 0 0 430.93640696090733 -245.65979823827183 0 -245.65979823827183 -253.26761811679989 0 0 0 0 469.91668280525482 -132.13063526686074 0 -132.13063526686074 8.3349321224886808 0 0 0 0 741.54231951458132 -512.57121516396694 0 -512.57121516396694 11.726631977638135 0 0 0 0 520.47706877386372 -627.19738821297778 0 -627.19738821297778 337.19697887303732 0 0 0 0 724.4869078636475 -810.9621255051004 0 -810.9621255051004 154.79297701024097 0 0 0 0 50.816148151068774 -104.26092706936424 0 -104.26092706936424 -54.954074540194398 0 0 0 0 344.77910412555866 -757.0493103690751 0 -757.0493103690751 -193.72964253416512 0 0 0 0 436.7216284252936 464.37421978949897 0 464.37421978949897 -1339.9173438093676 0 0 0 0 172.54348559112987 496.89896595337882 0 496.89896595337882 -1263.5837234508836 0 0 0 0 327.98684049332201 148.95813938750587 0 148.95813938750587 -70.408338960970468 0 0 0 0 48.205841980188154 60.369860749803415 0 60.369860749803415 0.89768730761960214 0 0 0 0 666.62114497486618 -505.80322955613849 0 -505.80322955613849 -2378.3471259740213 0 0 0 0 -105.00963024071825 86.040165589123717 0 86.040165589123717 -1085.775836155347 0 0 0 0 474.84448746786802 89.990640824731145 0 89.990640824731145 -1254.2651559031081 0 0 0 0 392.35268991123303 320.79514572703351 0 320.79514572703351 -1217.737081668266 0 0 0 0 463.5962296101934 554.98183689997882 0 554.98183689997882 -694.39418863749097 0 0 0 0 625.84801250285818 560.85002576363104 0 560.85002576363104 -1119.4972341388261 0 0 0 0 510.90987078908074 521.99869523071766 0 521.99869523071766 -1019.070350335458 0 0 0 0 187.36017494110598 -36.877326987846587 0 -36.877326987846587 -19.601259976839515 0 0 0 0 216.97878291644781 25.802115730388216 0 25.802115730388216 -13.266627537390425 0 0 0 0 147.45810613560025 54.835164231976705 0 54.835164231976705 -357.13196282252466 0 0 0 0 547.49667527817655 355.35282894175907 0 355.35282894175907 -1407.9516826139757 0 0 0 0 0.49568965600337833 454.19455585571268 0 454.19455585571268 -396.95259132717729 0 0 0 0 379.60923277740949 409.83906655546889 0 409.83906655546889 -707.99867337473916 0 0 0 0 553.74783943354851 365.80637996201403 0 365.80637996201403 -1243.7552953103168 0 0 0 0 500.33955845746095 517.31302327015305 0 517.31302327015305 -1221.9212601292511 0 0 0 0 489.81645205843961 412.16609861299094 0 412.16609861299094 -1058.2836995915727 0 0 0 0 316.54663358314428 274.60419858658054 0 274.60419858658054 -914.63166849730806 0 0 0 0 6.5459444498992525 285.75553977726941 0 285.75553977726941 -510.65756263394496 0 0 0 0 418.78576391038951 495.34414210057275 0 495.34414210057275 -693.58375759870751 0 0 0 0 307.42623295023805 217.61394819644374 0 217.61394819644374 -921.95504329036521 0 0 0 0 520.30239361466374 385.59793353234818 0 385.59793353234818 -1041.6862780145052 0 0 0 0 24.799009589594789 -54.958475426271434 0 -54.958475426271434 -1041.2694244240993 0 0 0 0 383.62554201902822 112.10479211467873 0 112.10479211467873 -1384.6893071171035 0 0 0 0 -175.5569877026719 609.82207094016849 0 609.82207094016849 -42.388757850298134 0 0 0 0 585.06647133227671 475.21315530743323 0 475.21315530743323 -1340.8853310601962 0 0 0 0 48.753109838973614 183.40258782337696 0 183.40258782337696 -389.68233704093973 0 0 0 0 100.87363932772132 -322.89551906363522 0 -322.89551906363522 -505.88370448125352 0 0 0 0 112.79966766574096 66.73427311427524 0 66.73427311427524 -52.173707411065493 0 0 0 0 139.45856005136739 11.914134323085818 0 11.914134323085818 -88.135231423856112 0 0 0 0 -77.11069386624149 -160.16509336981835 0 -160.16509336981835 -468.53304368103272 0 0 0 0 55.363881972691161 -338.55117392008106 0 -338.55117392008106 -246.75998724698002 0 0 0 0 134.57636776931759 -245.93749835942799 0 -245.93749835942799 -443.77110400365927 0 0 0 0 324.35164548495959 -455.78790494640634 0 -455.78790494640634 -228.87040585070645 0 0 0 0 143.17016613710439 -284.95708511996054 0 -284.95708511996054 -1021.9342610975764 0 0 0 0 -28.218888630828587 -413.59240922149911 0 -413.59240922149911 -456.38884755007894 0 0 0 0 30.425724595713291 227.43404672843849 0 227.43404672843849 -964.97844159466331 0 0 0 0 1138.0006506094942 -549.45852001917956 0 -549.45852001917956 -518.31564505517235 0 0 0 0 475.99419438119003 -49.843662437684543 0 -49.843662437684543 -132.5255405858843 0 0 0 0 1276.1633727209264 209.20630016061841 0 209.20630016061841 -1696.8344935463574 0 0 0 0 1686.1349626872325 -704.94826377744903 0 -704.94826377744903 -777.79930110960777 0 0 0 0 1424.9385624677634 10.246814067114883 0 10.246814067114883 -1621.7835195592161 0 0 0 0 -141.18024175955361 725.50265666914493 0 725.50265666914493 -592.26123874064433 0 0 0 0 347.55112366246613 1055.3478311608305 0 1055.3478311608305 -488.45121492367252 0 0 0 0 1094.4898838388181 -804.97707717493074 0 -804.97707717493074 76.701917853150576 0 0 0 0 813.47673794167349 -445.87423690229093 0 -445.87423690229093 388.31322369417694 0 0 0 0 434.05847785574468 67.110625696751924 0 67.110625696751924 -3.1337182781779576 0 0 0 0 640.83153133912128 487.69948887973806 0 487.69948887973806 -622.73304201105725 0 0 0 0 318.54746158176567 1318.2705720096726 0 1318.2705720096726 897.01064168679613 0 0 0 0 -3.8767737111068072 -7.0492635432549022 0 -7.0492635432549022 6.9365165324323019 0 0 0 0 563.19545245257905 -2009.8572599208371 0 -2009.8572599208371 -1749.3404130475387 0 0 0 0 -207.21210626130051 511.20791621650051 0 511.20791621650051 -1150.7099991496298 0 0 0 0 776.03318803054572 -510.70038205278217 0 -510.70038205278217 -389.30134956611244 0 0 0 0 1454.7377987509881 -2138.9995461549042 0 -2138.9995461549042 927.95227828744646 0 0 0 0 1741.6338836117066 -860.67376816675585 0 -860.67376816675585 979.99913054514741 0 0 0 0 1089.5262368995172 241.77259097345026 0 241.77259097345026 157.19199032566303 0 0 0 0 691.09751417217194 -1136.2304656987153 0 -1136.2304656987153 1545.7606139439131 0 0 0 0 942.52459269452083 -1002.6741808231295 0 -1002.6741808231295 1025.0550005772704 0 0 0 0 1171.7205904416041 -459.61749529326858 0 -459.61749529326858 -707.22947861822149 0 0 0 0 629.3098141800001 -730.49543522344447 0 -730.49543522344447 2299.0500951082477 0 0 0 0 863.5722000952519 -1158.7161110260831 0 -1158.7161110260831 1342.4369267850193 0 0 0 0 646.66699717292795 -871.55233089623289 0 -871.55233089623289 1208.0965580803054 0 0 0 0 76.00798899968899 -7.0986634601436975 0 -7.0986634601436975 -7.2106172409221214 0 0 0 0 -485.43727532275079 -496.20973796879207 0 -496.20973796879207 711.43206175867283 0 0 0 0 -143.97939528591814 -627.00630858656564 0 -627.00630858656564 -246.44794680535892 0 0 0 0 16.379882377907052 -11.238618213738391 0 -11.238618213738391 358.70669620484455 0 0 0 0 1102.9486480033083 852.37080947875825 0 852.37080947875825 -877.08648734747487 0 0 0 0 1377.3879762042488 -2853.7303772601822 0 -2853.7303772601822 4055.3718348133543 0 0 0 0 23.557965907134133 2.6571639571971559 0 2.6571639571971559 2.3257329069281982 0 0 0 0 4661.397165449438 -658.42263191096276 0 -658.42263191096276 755.78982819404519 0 0 0 0 1920.3727288564551 352.61318970146249 0 352.61318970146249 -638.90766273152258 0 0 0 0 3290.3718223485193 -1035.0597065923687 0 -1035.0597065923687 457.14348872893788 0 0 0 0 1595.9041291834292 -870.22104763932418 0 -870.22104763932418 2212.8391781878368 0 0 0 0 790.52050503832288 -143.09033908749416 0 -143.09033908749416 1525.8333203159148 0 0 0 0 576.51309830963146 391.16721047385442 0 391.16721047385442 783.16078215156699 0 0 0 0 1685.5587113832007 612.70262710310817 0 612.70262710310817 2131.8912489548802 0 0 0 0 1254.5594414162624 969.07902083918816 0 969.07902083918816 915.57594726227808 0 0 0 0 778.73573956327164 332.14998015629976 0 332.14998015629976 113.0209973055853 0 0 0 0 472.19854840221524 784.83505798451586 0 784.83505798451586 588.05408991004299 0 0 0 0 441.45612221132615 487.26387128902934 0 487.26387128902934 130.40449128603808 0 0 0 0 593.14493690901145 743.09023074569086 0 743.09023074569086 -367.15788334072658 0 0 0 0 922.94615560826969 745.21235123053702 0 745.21235123053702 -802.43627147760435 0 0 0 0 136.7461037824105 484.79880779839323 0 484.79880779839323 -184.23351052372163 0 0 0 0 179.58556187943032 301.08657408341134 0 301.08657408341134 -494.60944612428375 0 0 0 0 492.64823745348258 578.67097129877357 0 578.67097129877357 -603.75777632142626 0 0 0 0 219.12321567937033 478.07677781578946 0 478.07677781578946 -131.15371127549997 0 0 0 0 435.67855939947185 450.61259379268131 0 450.61259379268131 -642.88584737074575 0 0 0 0 265.34926113148686 462.84505374222783 0 462.84505374222783 -139.18922941729315 0 0 0 0 212.15948282647878 437.00505453602705 0 437.00505453602705 255.04627033191622 0 0 0 0 -29.70974481018493 432.45576842456751 0 432.45576842456751 434.26375493926702 0 0 0 0 45.197862817483838 170.81528100843229 0 170.81528100843229 902.82224253941206 0 0 0 0 -46.767150056562969 70.566958560507828 0 70.566958560507828 645.90725629990584 0 0 0 0 -59.242270162518253 53.441915538738613 0 53.441915538738613 784.83967644496192 0 0 0 0 58.174277741287369 284.35731232738772 0 284.35731232738772 370.75123957527688 0 0 0 0 151.98867067182437 220.07974353140889 0 220.07974353140889 822.59313254904202 0 0 0 0 56.081330760571291 397.93333886572026 0 397.93333886572026 779.62683235671079 0 0 0 0 -1.5876157158478179 1.2204176368478414 0 1.2204176368478414 3.0884037168195517 0 0 0 0 -46.430179353614221 -243.30912846243609 0 -243.30912846243609 333.78076526240557 0 0 0 0 556.9381470784574 -477.63442555290476 0 -477.63442555290476 350.05084513657812 0 0 0 0 247.88121515549574 -163.96237637912964 0 -163.96237637912964 -191.33703017906828 0 0 0 0 1728.9187274559154 -803.25823618336244 0 -803.25823618336244 839.73474133014338 0 0 0 0 3929.4000545973831 -1944.4003012432995 0 -1944.4003012432995 170.86719949764665 0 0 0 0 9.0184098887667119 3.9840942864352087 0 3.9840942864352087 1.7133335055747203 0 0 0 0 46.537214653507363 914.51628509167131 0 914.51628509167131 -456.57921683745644 0 0 0 0 757.53199016884901 139.31604132009966 0 139.31604132009966 1022.0515116260094 0 0 0 0 2418.2127819712186 8.8608074110866255 0 8.8608074110866255 -767.12235714070357 0 0 0 0 3297.6154020484246 -898.70849188507668 0 -898.70849188507668 238.56554152130138 0 0 0 0 1819.77301809036 -615.65849081520037 0 -615.65849081520037 133.37401142142789 0 0 0 0 3429.8988597415155 600.86732048457998 0 600.86732048457998 -223.90553738849826 0 0 0 0 692.52505716151791 239.46234698167518 0 239.46234698167518 -31.276034670007959 0 0 0 0 556.73612673118623 -985.23563645450554 0 -985.23563645450554 -94.414767223090621 0 0 0 0 6.0750950648072717 0.75707013553225977 0 0.75707013553225977 -3.783433961971284 0 0 0 0 -328.48719794189674 160.79952730635591 0 160.79952730635591 979.54784805308589 0 0 0 0 -269.82460362403572 -18.831280738526885 0 -18.831280738526885 357.64667689777343 0 0 0 0 518.97092003936996 302.49874152567281 0 302.49874152567281 94.121107926820969 0 0 0 0 76.691087969767977 -51.183232121647961 0 -51.183232121647961 -8.0376411237903085 0 0 0 0 566.31705753877759 -103.82251108399578 0 -103.82251108399578 519.78760694419179 0 0 0 0 695.5343215327739 -46.569632592475955 0 -46.569632592475955 190.74815646475236 0 0 0 0 1824.4885739131769 -15.889543986653962 0 -15.889543986653962 -301.69412853956965 0 0 0 0 0.81389281492596943 -1.4586642763281077 0 -1.4586642763281077 -3.8123646261902024 0 0 0 0 206.57826084312546 -17.263408944930461 0 -17.263408944930461 -91.938411587248993 0 0 0 0 19.467544650513446 39.336997743843312 0 39.336997743843312 -18.363626185691828 0 0 0 0 -24.834534519584849 -35.230317470528462 0 -35.230317470528462 16.882464128535503 0 0 0 0 1096.2043672429427 77.978586728845585 0 77.978586728845585 -87.05972043627844 0 0 0 0 1293.3023316451945 -233.62016938157603 0 -233.62016938157603 -45.886067103901951 0 0 0 0 1154.0063307158271 -341.65200531961636 0 -341.65200531961636 171.96277203211139 0 0 0 0 1548.927164564433 -342.4987595079001 0 -342.4987595079001 72.861252855343992 0 0 0 0 1148.8097037147672 -517.52680697487176 0 -517.52680697487176 287.99908208213583 0 0 0 0 1293.4237479335861 -755.92409099876568 0 -755.92409099876568 604.62707109775147 0 0 0 0 25.737429558864477 14.91768761769859 0 14.91768761769859 1.4916516065296292 0 0 0 0 1840.2681802442821 -1053.9438897821997 0 -1053.9438897821997 479.31777223527934 0 0 0 0 -30.869092867491418 73.218677645378193 0 73.218677645378193 -71.585082156899261 0 0 0 0 1849.7511122643336 -657.95052149018466 0 -657.95052149018466 208.98327725289164 0 0 0 0 141.55550693226905 46.365651223612737 0 46.365651223612737 27.658706012876308 0 0 0 0 378.73646930362884 369.27847882655095 0 369.27847882655095 -88.371210684993684 0 0 0 0 755.04123581304884 1016.4262218707813 0 1016.4262218707813 945.8009436871962 0 0 0 0 19.109492122495993 0.37754026842318344 0 0.37754026842318344 0.31699864993457627 0 0 0 0 298.17799083918362 -443.73018847330241 0 -443.73018847330241 440.36817123021729 0 0 0 0 719.74203881052381 -973.9308144155591 0 -973.9308144155591 937.07117654491867 0 0 0 0 1844.2970112057737 -280.84904818206815 0 -280.84904818206815 22.480505479181886 0 0 0 0 968.45295030179841 925.97550615834234 0 925.97550615834234 859.8934906346567 0 0 0 0 -347.59671599310968 -635.52437635167144 0 -635.52437635167144 2056.4893502896648 0 0 0 0 760.37002487533755 -582.62342503059949 0 -582.62342503059949 -1246.7975167773357 0 0 0 0 -475.93530598910365 -1555.739696051141 0 -1555.739696051141 628.2299414229301 0 0 0 0 2450.3683170865697 -539.16464054219568 0 -539.16464054219568 -336.19084753404604 0 0 0 0 55.011770512748626 452.75459129455169 0 452.75459129455169 -686.98504002135076 0 0 0 0 19.161261489701019 -18.06289010336431 0 -18.06289010336431 11.500324970649665 0 0 0 0 62.883016782805498 -14.155311608600641 0 -14.155311608600641 -82.651534876677033 0 0 0 0 124.60511985045741 -19.809329817061553 0 -19.809329817061553 -70.950635142610736 0 0 0 0 -967.01199099545192 -622.67616096438633 0 -622.67616096438633 -71.784463479524675 0 0 0 0 68.175425745404056 -90.809482491079422 0 -90.809482491079422 15.064361642624917 0 0 0 0 -172.49415816759574 -1286.9946334702431 0 -1286.9946334702431 -1182.2294490153063 0 0 0 0 63.700994220516009 -53.085793489986997 0 -53.085793489986997 35.863695274370642 0 0 0 0 -248.1885955917096 -148.64166345820013 0 -148.64166345820013 -48.546315009401042 0 0 0 0 -609.28017826036375 -491.52165613673174 0 -491.52165613673174 565.52888457777317 0 0 0 0 -401.15364610268443 215.0192965950273 0 215.0192965950273 609.16898823670181 0 0 0 0 -609.36960609014204 -275.83969970072758 0 -275.83969970072758 -21.776291505680092 0 0 0 0 -103.97931938324473 -96.810004076678069 0 -96.810004076678069 159.46493889228759 0 0 0 0 39.66595144701062 -85.455179820128876 0 -85.455179820128876 19.223766283546954 0 0 0 0 -811.13935096842033 -280.82108222796296 0 -280.82108222796296 365.54534939389259 0 0 0 0 -285.21201117675582 -353.80881489235912 0 -353.80881489235912 -147.40460308578349 0 0 0 0 -13.097638596560103 -15.610750934013936 0 -15.610750934013936 3.2612593754359924 0 0 0 0 -114.75347034339211 42.870702922601595 0 42.870702922601595 121.21358076636534 0 0 0 0 17.114792588523834 -29.215875597902993 0 -29.215875597902993 -35.723884308341781 0 0 0 0 -232.27624346773518 -66.894287761455871 0 -66.894287761455871 68.840119379450698 0 0 0 0 -29.20172271679985 -69.459342994337987 0 -69.459342994337987 -99.693794420598351 0 0 0 0 5.7767869267918286 -1.1742689873644849 0 -1.1742689873644849 -121.68830149100359 0 0 0 0 -42.532128568156622 -86.315388904707106 0 -86.315388904707106 17.298099507332154 0 0 0 0 21.260780033335323 -230.07864382707521 0 -230.07864382707521 46.130450534283682 0 0 0 0 -169.1493890868951 65.573847813533803 0 65.573847813533803 -10.881323411978883 0 0 0 0 0.11636509533005324 -15.642491581539105 0 -15.642491581539105 -50.44391690785973 0 0 0 0 4.1636620367248014 -14.104750435854783 0 -14.104750435854783 25.776350251151712 0 0 0 0 336.89428159453382 309.69519297187708 0 309.69519297187708 -413.07755786256894 0 0 0 0 -319.89477558185899 -516.51630884087399 0 -516.51630884087399 403.47558461127119 0 0 0 0 -3.8368837931165842 -15.178853816546649 0 -15.178853816546649 26.559880438600132 0 0 0 0 -25.779795438604197 -343.03232173118249 0 -343.03232173118249 132.1355081712245 0 0 0 0 58.866698416613843 -31.989836301284257 0 -31.989836301284257 15.532125303785342 0 0 0 0 167.39042316016821 -66.805570893195636 0 -66.805570893195636 -135.24751317009213 0 0 0 0 102.23205165836043 -158.66615043375486 0 -158.66615043375486 -133.6492771568046 0 0 0 0 120.30869580559374 33.747136729038175 0 33.747136729038175 36.098003928314938 0 0 0 0 21.196034933986084 -73.839252300239423 0 -73.839252300239423 10.172082781435165 0 0 0 0 199.5930749119143 17.847381626438619 0 17.847381626438619 29.234608863157518 0 0 0 0 176.73663943773136 6.3050520565277566 0 6.3050520565277566 44.610351890663878 0 0 0 0 -9.6025999832054367 -2.4758013471437152 0 -2.4758013471437152 58.017647240229053 0 0 0 0 255.52387332210492 -225.69464686682113 0 -225.69464686682113 221.4113453962409 0 0 0 0 562.25532100974669 -48.490917148854805 0 -48.490917148854805 79.689143147619234 0 0 0 0 563.80705730043394 -249.60533051425546 0 -249.60533051425546 -19.294140515536128 0 0 0 0 465.82467567009007 -259.50661067618466 0 -259.50661067618466 82.421223462040871 0 0 0 0 440.04596340600983 -364.03850081318421 0 -364.03850081318421 -259.31974773210277 0 0 0 0 574.77103411720236 -60.266266180970888 0 -60.266266180970888 53.17969411654849 0 0 0 0 3.9548858316166928 -11.317458599843576 0 -11.317458599843576 25.779066942255838 0 0 0 0 497.14975597759621 -193.71946148573738 0 -193.71946148573738 -73.208990510575859 0 0 0 0 -0.70300098085824914 2.0911682706938279 0 2.0911682706938279 4.2328458898371579 0 0 0 0 1262.7318788337579 -30.013280945859151 0 -30.013280945859151 -718.32871848919604 0 0 0 0 -745.44262782858277 -513.73243022720908 0 -513.73243022720908 573.32755724854724 0 0 0 0 -1296.5017658598008 -498.86589444762649 0 -498.86589444762649 295.91419432542716 0 0 0 0 1.3659988301833934 -3.4084612547903532 0 -3.4084612547903532 13.108196754041735 0 0 0 0 831.67450786649715 271.89273397760917 0 271.89273397760917 -728.51808309899934 0 0 0 0 -517.99079228869959 -179.57683995760999 0 -179.57683995760999 49.442421467130771 0 0 0 0 -159.28304893910536 -358.06312724435338 0 -358.06312724435338 -345.8803637099154 0 0 0 0 323.68884149258156 -155.82042183223257 0 -155.82042183223257 -390.11522586054343 0 0 0 0 0.64167768068806197 -2.6856063676436577 0 -2.6856063676436577 -21.967119035653056 0 0 0 0 -133.81068892926851 113.13089451539054 0 113.13089451539054 30.648572899146529 0 0 0 0 239.11407091129513 37.59255303674945 0 37.59255303674945 -189.00591304647969 0 0 0 0 -235.92262169942842 183.08524708785262 0 183.08524708785262 154.40776168923639 0 0 0 0 246.95005890280299 -115.23606783563991 0 -115.23606783563991 -306.72006961620536 0 0 0 0 252.97190989315277 -311.97445869440344 0 -311.97445869440344 -453.14499897162841 0 0 0 0 143.03545607154956 -116.14951613459834 0 -116.14951613459834 -277.57760348787269 0 0 0 0 1037.7879943115986 -1091.0434185525157 0 -1091.0434185525157 -631.09842803112565 0 0 0 0 156.66197941501741 147.73695244809642 0 147.73695244809642 1023.0263814791142 0 0 0 0 914.59617463705945 663.7909226392494 0 663.7909226392494 466.93126993700389 0 0 0 0 242.10513911223825 -1230.2360843316396 0 -1230.2360843316396 320.94536874878213 0 0 0 0 1284.1313924832866 435.58037875942637 0 435.58037875942637 -548.91073510312344 0 0 0 0 7.2446565778786862 -5.2412914667839061 0 -5.2412914667839061 2.9019157624241601 0 0 0 0 1747.0045286440582 56.275992636615229 0 56.275992636615229 -924.17731120435565 0 0 0 0 1030.4130834692041 20.990966972771275 0 20.990966972771275 -688.38436849646587 0 0 0 0 979.4181369173748 23.065936767861785 0 23.065936767861785 -654.63986205754918 0 0 0 0 857.76138380155317 284.08173418572824 0 284.08173418572824 -429.8889385574148 0 0 0 0 -491.268030804109 95.959707704347693 0 95.959707704347693 315.72645590713 0 0 0 0 -378.01799403443874 -646.60238654952218 0 -646.60238654952218 161.17686692307632 0 0 0 0 8.4981901881776025 -10.243378993250673 0 -10.243378993250673 9.2983425613640911 0 0 0 0 1556.5410961262787 -135.11622898107441 0 -135.11622898107441 -85.356519106069754 0 0 0 0 -1009.2953660273379 103.12202056992271 0 103.12202056992271 -288.72114276475304 0 0 0 0 -1190.280070145076 -190.67600786423429 0 -190.67600786423429 929.10132134060291 0 0 0 0 0.20023782091122655 -1.5329341079325616 0 -1.5329341079325616 12.669289792928437 0 0 0 0 547.47003880247939 -1116.3624446924157 0 -1116.3624446924157 -319.56154496004115 0 0 0 0 2250.9648241182731 -1131.8901371417087 0 -1131.8901371417087 -435.80249302386113 0 0 0 0 33.65888413387384 -23.366437400700391 0 -23.366437400700391 14.307525412434877 0 0 0 0 275.32406903522497 -230.46431038531455 0 -230.46431038531455 -707.81920673656714 0 0 0 0 -213.86526551336283 -216.57073180940279 0 -216.57073180940279 350.06531231121608 0 0 0 0 -613.59859123422939 -323.1811401740249 0 -323.1811401740249 326.90397019210843 0 0 0 0 -208.17494275020726 299.53037366898536 0 299.53037366898536 -275.82031397428671 0 0 0 0 150.22716851222503 -11.119104583092849 0 -11.119104583092849 119.26619204551025 0 0 0 0 472.68976455235679 -671.3152656281045 0 -671.3152656281045 404.66069841986513 0 0 0 0 1011.8401164318202 -239.98620965437658 0 -239.98620965437658 52.559222631545708 0 0 0 0 892.92428151844069 -103.65359220317077 0 -103.65359220317077 -12.50568079749246 0 0 0 0 865.99136279855156 -147.52757424603715 0 -147.52757424603715 51.529052907520963 0 0 0 0 799.78029534997768 -46.92953837017194 0 -46.92953837017194 -11.824082671581436 0 0 0 0 842.80728763411753 -167.86676956650444 0 -167.86676956650444 34.681684547681243 0 0 0 0 906.87909460358787 -303.34186731790123 0 -303.34186731790123 85.629327518468926 0 0 0 0 850.71849512829795 -349.20290106016682 0 -349.20290106016682 113.09850798974185 0 0 0 0 963.98396227003832 -396.61243960107049 0 -396.61243960107049 125.80389578946415 0 0 0 0 922.43218516835623 -311.5929294115258 0 -311.5929294115258 59.359206387296581 0 0 0 0 1076.5416103338939 -367.90191391084227 0 -367.90191391084227 74.507045107313388 0 0 0 0 986.85335049607238 -250.84422683062166 0 -250.84422683062166 52.29894749214327 0 0 0 0 986.62585465010488 -438.01080161350046 0 -438.01080161350046 144.92615137230496 0 0 0 0 1075.285754889177 -458.90461274692825 0 -458.90461274692825 129.4013557276885 0 0 0 0 1114.0687951896398 -540.49545130830757 0 -540.49545130830757 273.47528047390551 0 0 0 0 1020.5832830466679 -300.44662303914993 0 -300.44662303914993 85.801629030558615 0 0 0 0 1306.3699262169321 -324.08236276981324 0 -324.08236276981324 27.334386472824917 0 0 0 0 1125.3420854699507 -174.53220193737343 0 -174.53220193737343 -23.444346353127912 0 0 0 0 930.85254975961288 -86.973925679438253 0 -86.973925679438253 8.3911189536088386 0 0 0 0 967.99292592397251 -43.31153948676365 0 -43.31153948676365 -52.601041087236808 0 0 0 0 679.56307792614098 128.00237625277987 0 128.00237625277987 17.104186422861858 0 0 0 0 731.40604426930076 -24.984821035401183 0 -24.984821035401183 -9.8652120157530589 0 0 0 0 0.69537469376984617 -1.9403238794756135 0 -1.9403238794756135 -11.646724375075991 0 0 0 0 63.161816135107074 139.50906832365763 0 139.50906832365763 -72.998811272003877 0 0 0 0 213.74601783364778 31.649600742271105 0 31.649600742271105 -106.22767677691809 0 0 0 0 529.17303448417078 4.0446980043352596 0 4.0446980043352596 64.418737818401496 0 0 0 0 730.9466925902525 -38.529761016280645 0 -38.529761016280645 -99.144052428673604 0 0 0 0 -52.325472933804122 -145.43290760796799 0 -145.43290760796799 52.70369305658096 0 0 0 0 3.2325824096333253 -0.21885019971799125 0 -0.21885019971799125 -19.386558878318926 0 0 0 0 502.44879648373171 23.150258951664455 0 23.150258951664455 51.861150361000909 0 0 0 0 67.09149125078693 112.18715049656112 0 112.18715049656112 -50.264409332135301 0 0 0 0 698.94496016023913 71.276971407275596 0 71.276971407275596 -115.28057215721151 0 0 0 0 868.63151883489627 -106.27971498467468 0 -106.27971498467468 7.2701978431850875 0 0 0 0 847.36149893276161 2.1777764424605266 0 2.1777764424605266 -71.36493996021818 0 0 0 0 705.6628160544733 3.5671674377651925 0 3.5671674377651925 -10.408875388902743 0 0 0 0 768.4071633956919 7.9595762490225752 0 7.9595762490225752 -29.242283109824712 0 0 0 0 779.76502326167611 -43.030663557708294 0 -43.030663557708294 19.617495923055685 0 0 0 0 732.59623919523438 11.464243360997898 0 11.464243360997898 18.759492509940173 0 0 0 0 724.47010276876972 0.43332584919289729 0 0.43332584919289729 20.97364483835554 0 0 0 0 681.03889171266928 44.537143363010728 0 44.537143363010728 1.5028489005972006 0 0 0 0 750.06179015827365 26.306694150073326 0 26.306694150073326 23.142950687330085 0 0 0 0 717.12683609550004 -9.3432067032290433 0 -9.3432067032290433 28.397042050179152 0 0 0 0 685.78845669458678 60.857752718108259 0 60.857752718108259 26.413606988702668 0 0 0 0 5.0802647943157666 9.4634999758690697 0 9.4634999758690697 5.2388102238844567 0 0 0 0 -137.48968933672222 643.88643518885965 0 643.88643518885965 587.61211117308267 0 0 0 0 527.23551224726543 711.29476679314803 0 711.29476679314803 158.60253430206649 0 0 0 0 639.55940729819849 -79.73852720048319 0 -79.73852720048319 48.925135696943471 0 0 0 0 866.45901814373792 -142.55964163825956 0 -142.55964163825956 29.658024492212462 0 0 0 0 790.06008035154082 -114.4097867120845 0 -114.4097867120845 51.27699307738294 0 0 0 0 1188.0211059466528 -1409.4255420607215 0 -1409.4255420607215 -372.57401164570933 0 0 0 0 3.0408822630919587 3.7409366907413357 0 3.7409366907413357 -1.4273558671373081 0 0 0 0 1131.4851716220146 -99.75359902890159 0 -99.75359902890159 -134.2527272476882 0 0 0 0 -302.08446608061331 235.84701560202276 0 235.84701560202276 -150.24084198857963 0 0 0 0 -487.05478532136294 -385.799587943961 0 -385.799587943961 -199.61048342181311 0 0 0 0 3.1742286021831099 3.6238215887691467 0 3.6238215887691467 -0.19976762526204794 0 0 0 0 88.607592907181242 409.83354486948974 0 409.83354486948974 -408.82533911650717 0 0 0 0 979.23313839163166 -66.740743373826263 0 -66.740743373826263 -541.9073357177549 0 0 0 0 1121.6770136285922 112.3625160756078 0 112.3625160756078 -189.09265729027084 0 0 0 0 414.11375029767805 152.81111604425405 0 152.81111604425405 53.936534107843727 0 0 0 0 756.54499143749126 52.66002343383343 0 52.66002343383343 12.648754400930557 0 0 0 0 769.98301080527017 77.160398333324338 0 77.160398333324338 -38.809129195267815 0 0 0 0 921.22265013615834 -24.789754355031619 0 -24.789754355031619 0.51735982511036127 0 0 0 0 428.15219869121211 -114.82237469378333 0 -114.82237469378333 0.8551056254436844 0 0 0 0 458.39967167830036 -29.00626645381999 0 -29.00626645381999 86.336819876260961 0 0 0 0 605.51976523037592 -14.26436770797909 0 -14.26436770797909 68.452491824975368 0 0 0 0 665.22490723436931 -97.734288869261491 0 -97.734288869261491 108.45461906833589 0 0 0 0 736.70301141838718 -113.63203281421283 0 -113.63203281421283 67.618699771843239 0 0 0 0 714.9753151978075 -97.1757919594329 0 -97.1757919594329 56.214066637296128 0 0 0 0 765.60691663925536 -48.024885291895771 0 -48.024885291895771 67.225281937685281 0 0 0 0 788.06720857307664 -273.62309698054059 0 -273.62309698054059 83.543764553389337 0 0 0 0 892.42540262109833 -291.70819774593292 0 -291.70819774593292 77.503774731340854 0 0 0 0 699.16298927541357 -270.43095012566755 0 -270.43095012566755 119.70572117065421 0 0 0 0 576.84172863702042 -308.46082403764922 0 -308.46082403764922 121.67265113478788 0 0 0 0 264.04197135494906 -195.95068352224916 0 -195.95068352224916 85.161534161371037 0 0 0 0 988.54986361513147 -450.27389190546819 0 -450.27389190546819 229.33985460065151 0 0 0 0 985.19179170993448 -409.22837782954957 0 -409.22837782954957 16.824296723382076 0 0 0 0 781.18944219536206 -334.88249137380853 0 -334.88249137380853 51.795826298191969 0 0 0 0 1343.0340866309998 -180.30727701588648 0 -180.30727701588648 -48.218808941468524 0 0 0 0 1387.8009652933106 -288.30449948752857 0 -288.30449948752857 -123.7448802683025 0 0 0 0 28.660561125550885 -110.76847694054686 0 -110.76847694054686 245.55591325377645 0 0 0 0 6.6732090829692794 4.1425318590069367 0 4.1425318590069367 7.7195447828356656 0 0 0 0 54.308317764392996 30.752499489804222 0 30.752499489804222 -12.12174253325793 0 0 0 0 1317.8300222649996 -343.93382728795495 0 -343.93382728795495 18.538887356140549 0 0 0 0 781.95768266949108 -353.70607044191013 0 -353.70607044191013 143.46268988147312 0 0 0 0 942.20241329987766 -435.37102423718443 0 -435.37102423718443 135.33855324427964 0 0 0 0 1008.9393158023013 -390.09874956733984 0 -390.09874956733984 98.985168989744125 0 0 0 0 939.33500620807172 -390.64636866259389 0 -390.64636866259389 126.16850765866184 0 0 0 0 941.09281075604667 -406.93830887226886 0 -406.93830887226886 123.85102310266848 0 0 0 0 986.89742675454363 -246.38289728777534 0 -246.38289728777534 135.33359906630176 0 0 0 0 54.471488108475114 25.426932088325643 0 25.426932088325643 14.634087187616117 0 0 0 0 28.645574712512655 -64.05018964845226 0 -64.05018964845226 67.421291893653176 0 0 0 0 753.27026417358138 -228.72391498270554 0 -228.72391498270554 157.03008732285662 0 0 0 0 220.25832481354155 115.08188057611915 0 115.08188057611915 -59.191487924192188 0 0 0 0 92.506862712260045 -125.79029170744025 0 -125.79029170744025 121.90003388728292 0 0 0 0 729.71690212331669 -414.57559905432618 0 -414.57559905432618 248.54482109207311 0 0 0 0 884.79492371965898 -562.20527702531308 0 -562.20527702531308 371.28385401716196 0 0 0 0 232.36745922033151 54.79407957035437 0 54.79407957035437 -105.57024939383547 0 0 0 0 188.17350248314324 148.43903974365821 0 148.43903974365821 -104.06554203352459 0 0 0 0 47.585239359710613 142.70408962335136 0 142.70408962335136 113.93480695222388 0 0 0 0 174.58382702553354 -93.174567191685128 0 -93.174567191685128 108.82856768678175 0 0 0 0 112.24121945265188 27.816160307383839 0 27.816160307383839 -21.688063050449983 0 0 0 0 121.25320292651304 -154.61535856608134 0 -154.61535856608134 46.451635699891085 0 0 0 0 250.18342664882948 -87.058759931167515 0 -87.058759931167515 69.859492379884614 0 0 0 0 -6.0114951176148281 -11.472843992648805 0 -11.472843992648805 38.372060287290893 0 0 0 0 250.68092059940682 -78.604142763615073 0 -78.604142763615073 -8.1190659237436194 0 0 0 0 139.87890742560046 62.540879841658409 0 62.540879841658409 -8.096107994018567 0 0 0 0 442.1852211279911 82.827720493667584 0 82.827720493667584 -64.82337578224724 0 0 0 0 51.99250163204573 12.677271159036906 0 12.677271159036906 -14.06039688597788 0 0 0 0 1106.7035098519736 482.25330608764989 0 482.25330608764989 -392.05134054903465 0 0 0 0 730.35693636946962 -780.34420208261145 0 -780.34420208261145 128.64939895739008 0 0 0 0 379.24793254071847 -236.98349592443265 0 -236.98349592443265 -345.06801969408843 0 0 0 0 -43.817912854690803 -77.789698633492662 0 -77.789698633492662 616.11025805353597 0 0 0 0 954.94168227295449 446.81456609151792 0 446.81456609151792 -195.61196189996554 0 0 0 0 199.02020111016463 -467.10051332143757 0 -467.10051332143757 662.06345694719494 0 0 0 0 -9.3094068708685427 -1.8176464197622977 0 -1.8176464197622977 14.156865913780287 0 0 0 0 1318.6265709051222 -314.65337595580604 0 -314.65337595580604 865.7312773352096 0 0 0 0 89.470107669912977 -204.79312764758561 0 -204.79312764758561 64.300272968379431 0 0 0 0 322.00470604439761 -277.51064287077952 0 -277.51064287077952 80.22164317015995 0 0 0 0 -15.499650591635145 35.444702221810076 0 35.444702221810076 273.2764864993751 0 0 0 0 -19.658788309890497 -13.77197584764113 0 -13.77197584764113 29.218798847482596 0 0 0 0 192.56346046151884 -288.59933131033631 0 -288.59933131033631 153.06068608987312 0 0 0 0 -45.790015380836849 84.928152391635876 0 84.928152391635876 -0.8617433015115239 0 0 0 0 34.058790605977379 -39.016126673948577 0 -39.016126673948577 34.413413536988124 0 0 0 0 -31.182218934278353 -130.86398461698127 0 -130.86398461698127 -114.59105908743186 0 0 0 0 581.71978767862311 -500.47024166606752 0 -500.47024166606752 96.091484841796046 0 0 0 0 1061.0759686916717 -98.04560654584202 0 -98.04560654584202 -49.29767927442299 0 0 0 0 762.20906826580176 -283.31936014149687 0 -283.31936014149687 -122.00248234470018 0 0 0 0 854.64519137247407 208.23636310529673 0 208.23636310529673 234.02576518611022 0 0 0 0 8.9733290192856998 -5.8904372510095016 0 -5.8904372510095016 3.5200391840514058 0 0 0 0 465.03903859812999 26.584834181885526 0 26.584834181885526 220.7916075503872 0 0 0 0 449.94688752212096 -140.36529598223206 0 -140.36529598223206 -187.34272342122676 0 0 0 0 285.65989425854059 -174.1040147623753 0 -174.1040147623753 -165.88333171970226 0 0 0 0 447.39823117548576 -361.24550913289966 0 -361.24550913289966 -37.629693769820733 0 0 0 0 293.51541296188952 -240.97035988554126 0 -240.97035988554126 -131.16500869166339 0 0 0 0 312.36450115166372 -227.51372922684459 0 -227.51372922684459 -5.6086401218944957 0 0 0 0 201.84617472920218 -281.33726272705644 0 -281.33726272705644 104.07522648249869 0 0 0 0 161.99121938779717 -114.05775909518707 0 -114.05775909518707 -212.25786432575478 0 0 0 0 304.27195812016726 -193.79325933893597 0 -193.79325933893597 -98.037930126622086 0 0 0 0 75.478830363033921 -78.323445905170956 0 -78.323445905170956 -53.403749874782079 0 0 0 0 194.70555648946902 72.639022958619535 0 72.639022958619535 -73.419544392541866 0 0 0 0 150.2898112697585 -226.13437104843615 0 -226.13437104843615 -63.527057635430538 0 0 0 0 69.424080559809227 -49.418759344434875 0 -49.418759344434875 10.158193529921846 0 0 0 0 74.633050802513026 -98.884856261132882 0 -98.884856261132882 -42.941287608555285 0 0 0 0 13.421031570177831 -7.42843054644419 0 -7.42843054644419 -3.9408457314762941 0 0 0 0 10.349860942816292 2.7419254427026374 0 2.7419254427026374 -0.32023504476779863 0 0 0 0 -11.563627451600041 14.455136073884205 0 14.455136073884205 -27.50158261722936 0 0 0 0 88.86940535120084 -207.9928457603346 0 -207.9928457603346 142.50889878755424 0 0 0 0 35.74666332162451 113.57277280155904 0 113.57277280155904 -170.3229777857855 0 0 0 0 303.58836899004382 61.170373974509403 0 61.170373974509403 -17.888393883575191 0 0 0 0 304.39884822265958 95.620432481373427 0 95.620432481373427 -12.086939331315079 0 0 0 0 305.16289806811255 52.067702791664487 0 52.067702791664487 -69.300524903283076 0 0 0 0 285.17476908015669 60.16131454376773 0 60.16131454376773 -139.646339427979 0 0 0 0 279.14889771223534 44.728714878070605 0 44.728714878070605 -54.028510637068393 0 0 0 0 335.79035844648024 90.326400008863857 0 90.326400008863857 -76.331547594610129 0 0 0 0 201.08891504476196 -48.46577919298943 0 -48.46577919298943 5.9024463849200401 0 0 0 0 244.61423460344668 -42.755008990083297 0 -42.755008990083297 -156.33002780002562 0 0 0 0 282.69725591436145 30.456819956923937 0 30.456819956923937 -18.656239078707586 0 0 0 0 83.746703526229169 62.410078683563782 0 62.410078683563782 -8.5772654740394216 0 0 0 0 210.85827557836274 17.427681271371341 0 17.427681271371341 9.7880920886091189 0 0 0 0 345.51502047508257 9.0912747584770841 0 9.0912747584770841 -34.046292805680423 0 0 0 0 46.194593706337002 -2.2883919056775426 0 -2.2883919056775426 -0.0099064960539294589 0 0 0 0 274.99480694538943 9.7693565958352337 0 9.7693565958352337 -46.532563620417932 0 0 0 0 213.8559335180189 35.433700113386635 0 35.433700113386635 -42.068535789467205 0 0 0 0 26.644053404305744 -4.1900990950264543 0 -4.1900990950264543 -8.4947654476891472 0 0 0 0 63.539800093105185 59.803765483576143 0 59.803765483576143 -13.971069448463211 0 0 0 0 272.59243545992649 -63.626131174760303 0 -63.626131174760303 -16.406992705693483 0 0 0 0 172.50882333879417 -13.731538551730409 0 -13.731538551730409 23.630325217862264 0 0 0 0 208.91047515942046 -33.535951071580712 0 -33.535951071580712 -11.682137698204315 0 0 0 0 70.143763946528736 42.312535670288355 0 42.312535670288355 -26.508005620339027 0 0 0 0 174.84098373600864 -77.379138867103393 0 -77.379138867103393 18.899271264116123 0 0 0 0 105.28479735022665 105.80230805708641 0 105.80230805708641 29.320593750646367 0 0 0 0 117.27066993016342 21.089730807487513 0 21.089730807487513 72.020343007443444 0 0 0 0 253.02132106834324 -37.874535442540946 0 -37.874535442540946 33.464781373044389 0 0 0 0 64.720530218419469 -35.001107177250674 0 -35.001107177250674 6.1532220893868086 0 0 0 0 111.08562752787159 -44.58113790398302 0 -44.58113790398302 -23.143745259138484 0 0 0 0 92.867577928249375 -35.863071571799992 0 -35.863071571799992 -18.026738190235847 0 0 0 0 173.16026114768465 -12.451254269841229 0 -12.451254269841229 -343.58031715048855 0 0 0 0 103.8951089245686 0.28631719488629415 0 0.28631719488629415 -12.011151053066534 0 0 0 0 67.726189307199093 -57.396644678319717 0 -57.396644678319717 10.98918400724574 0 0 0 0 67.929140324878972 -56.163000778173227 0 -56.163000778173227 18.396163310719203 0 0 0 0 51.341782378105563 -112.67889994412417 0 -112.67889994412417 -33.627446422382491 0 0 0 0 79.875579942329693 -53.607412701051601 0 -53.607412701051601 17.287806026720233 0 0 0 0 10.166257497912738 -71.958337266491071 0 -71.958337266491071 68.360525040254288 0 0 0 0 143.55186293221777 -31.038507620718519 0 -31.038507620718519 -35.35796902247057 0 0 0 0 223.13986892392995 -49.584355503719735 0 -49.584355503719735 -240.64812278941099 0 0 0 0 621.82439052745758 175.49787084935087 0 175.49787084935087 -367.98411138359825 0 0 0 0 298.72416794435412 336.80095995287411 0 336.80095995287411 117.36399824801993 0 0 0 0 596.63677383827599 197.31344308308417 0 197.31344308308417 -85.99559969287975 0 0 0 0 -60.727133087431866 -540.70159164620691 0 -540.70159164620691 337.87637935741623 0 0 0 0 168.19208540936233 22.43900589817531 0 22.43900589817531 -60.901507215288802 0 0 0 0 90.449361841187127 -55.518665399056658 0 -55.518665399056658 -16.498391011297834 0 0 0 0 -78.932941583392676 -103.95274046045233 0 -103.95274046045233 -25.900922366941813 0 0 0 0 210.67955933039775 -69.480087128177729 0 -69.480087128177729 -247.39363439075532 0 0 0 0 107.590891052183 50.2541123341407 0 50.2541123341407 -42.440115055416754 0 0 0 0 45.234209246766113 -91.768362307203915 0 -91.768362307203915 -41.7188210341792 0 0 0 0 506.12086155193447 -264.2079027098265 0 -264.2079027098265 80.448693295398698 0 0 0 0 -5.5917879765975833 -4.1973534048657939 0 -4.1973534048657939 1.2075391384253393 0 0 0 0 332.56530387455859 -1.9555155266593829 0 -1.9555155266593829 -46.779611961621413 0 0 0 0 46.314492816158236 137.53164310299158 0 137.53164310299158 22.138022653944063 0 0 0 0 280.43903221909386 54.3799348772298 0 54.3799348772298 -68.495236139238841 0 0 0 0 25.021737071992476 5.154263139793045 0 5.154263139793045 -9.7086157840594218 0 0 0 0 278.72838279875577 25.446115664028184 0 25.446115664028184 -24.200259694211127 0 0 0 0 212.03369826633207 63.301464760987074 0 63.301464760987074 -40.940553095308132 0 0 0 0 -41.325934311680612 -97.695009277893405 0 -97.695009277893405 -222.26842273022703 0 0 0 0 15.360126053851957 -2.0288499240066074 0 -2.0288499240066074 -2.8393147333079725 0 0 0 0 -79.894615947647253 -154.00185735867581 0 -154.00185735867581 110.3643283346064 0 0 0 0 -10.712263098736003 -181.13703719825526 0 -181.13703719825526 -18.913120230459754 0 0 0 0 143.63353919996007 -57.705025891673358 0 -57.705025891673358 -132.57841242971699 0 0 0 0 90.455482729506912 25.680402747290827 0 25.680402747290827 53.42145885030709 0 0 0 0 94.325414793040679 -56.172329796504357 0 -56.172329796504357 -14.41431806778715 0 0 0 0 141.87593400352489 -24.45781308981941 0 -24.45781308981941 62.892196046705067 0 0 0 0 215.39547307003522 -26.916503303311401 0 -26.916503303311401 27.05043551394192 0 0 0 0 24.29313352761104 -5.8235602870068135 0 -5.8235602870068135 9.9554530650918132 0 0 0 0 84.657704792700855 -59.336506417356063 0 -59.336506417356063 -10.218662369065104 0 0 0 0 -394.94780902250659 205.92551669623805 0 205.92551669623805 329.75671393668381 0 0 0 0 62.244638213585404 -103.80181865145943 0 -103.80181865145943 -4.9840304873832793 0 0 0 0 65.806885131070885 -73.786205603324106 0 -73.786205603324106 26.772241036944251 0 0 0 0 46.253512246097671 -36.741498199316084 0 -36.741498199316084 50.714693146061109 0 0 0 0 32.81045624591934 -74.202940684520286 0 -74.202940684520286 103.86840679424859 0 0 0 0 129.20789344972582 -85.587105653114577 0 -85.587105653114577 24.045681209943268 0 0 0 0 41.322118376833387 -26.834261045592299 0 -26.834261045592299 3.4908220507184282 0 0 0 0 68.211752388415334 -46.142175866727939 0 -46.142175866727939 28.837396589287891 0 0 0 0 412.02475963690813 -17.455651548811147 0 -17.455651548811147 -136.70344223444044 0 0 0 0 357.51662294629568 54.960024120936396 0 54.960024120936396 -67.955644798807043 0 0 0 0 412.74244324251049 -32.474918108076963 0 -32.474918108076963 -131.353668454949 0 0 0 0 164.76379924357752 -40.417852132937696 0 -40.417852132937696 -31.867022752943058 0 0 0 0 165.57763220864581 -38.673520230382564 0 -38.673520230382564 -56.026563609322693 0 0 0 0 355.38419096000143 -75.140474758724849 0 -75.140474758724849 -49.081282487594081 0 0 0 0 152.34332407829606 -154.99879245731722 0 -154.99879245731722 43.606188314483006 0 0 0 0 187.26766550383763 -179.71111255584538 0 -179.71111255584538 52.673729025324974 0 0 0 0 352.76013556870748 -58.905122458956157 0 -58.905122458956157 -119.5679524477182 0 0 0 0 687.51143667455472 -94.379145379607507 0 -94.379145379607507 -115.88381873861454 0 0 0 0 440.13338575186935 118.43915455395836 0 118.43915455395836 -45.64959884761447 0 0 0 0 230.91925165547582 53.466368873821921 0 53.466368873821921 -59.799197965166968 0 0 0 0 385.08013052449314 56.006452581679923 0 56.006452581679923 -104.8137227173047 0 0 0 0 164.18275148615066 23.614217121582442 0 23.614217121582442 -74.650108085565989 0 0 0 0 353.54581091273576 -47.071761577814868 0 -47.071761577814868 -84.165986868061736 0 0 0 0 167.64207687713497 33.284372492898001 0 33.284372492898001 -118.86844630932683 0 0 0 0 6.1042212337910513 1.6832931435255176 0 1.6832931435255176 0.052022976748375527 0 0 0 0 -76.815752145339502 69.25353985426591 0 69.25353985426591 -34.456571716882536 0 0 0 0 -23.79589169914243 71.62559630959251 0 71.62559630959251 -1.4869398176724644 0 0 0 0 -24.595446308660485 98.22048593264725 0 98.22048593264725 -34.542668516067351 0 0 0 0 153.62143274096888 154.61499899735554 0 154.61499899735554 40.275786755423724 0 0 0 0 5.6633683749023476 65.649988371769723 0 65.649988371769723 -27.414053361437254 0 0 0 0 97.029728172739851 69.110402110203722 0 69.110402110203722 -4.8719501651685277 0 0 0 0 -7.1406022174924146 44.109015843860107 0 44.109015843860107 4.6546781412846485 0 0 0 0 3.9712477471791772 -2.6620813095271814 0 -2.6620813095271814 11.01634221531933 0 0 0 0 -61.345000095374417 109.48146537186676 0 109.48146537186676 28.08816889595073 0 0 0 0 -56.296332873869687 49.241904346858973 0 49.241904346858973 -10.931958831738484 0 0 0 0 -118.90969792177384 60.915078269907212 0 60.915078269907212 -0.98947233982107718 0 0 0 0 1.7724660902220251 0.0007359454864399595 0 0.0007359454864399595 5.6068835166408153 0 0 0 0 16.221386584205902 8.9853722149041459 0 8.9853722149041459 79.017381680008157 0 0 0 0 193.79250609133305 -211.3304191727766 0 -211.3304191727766 162.35688204043527 0 0 0 0 18.530411156297816 9.3980523507202776 0 9.3980523507202776 3.3987247826569309 0 0 0 0 -21.464459396491293 96.327741838498696 0 96.327741838498696 -42.365890300748106 0 0 0 0 15.583321071462706 38.693418802222368 0 38.693418802222368 -71.522349459838551 0 0 0 0 61.552216247335309 -22.74555726863673 0 -22.74555726863673 16.645634342355152 0 0 0 0 45.440097646263894 -10.997300809402134 0 -10.997300809402134 9.1245163118819619 0 0 0 0 296.81899850037371 19.909662450193082 0 19.909662450193082 18.943762243667152 0 0 0 0 0.39399269410867177 -9.948523604201597 0 -9.948523604201597 14.843214090926249 0 0 0 0 0.19628279429312556 -1.5907844685443848 0 -1.5907844685443848 3.8638432443490629 0 0 0 0 320.55384124984994 -105.37637604344854 0 -105.37637604344854 -66.878063792598368 0 0 0 0 200.56524158814864 -102.96279447056077 0 -102.96279447056077 78.989993769409921 0 0 0 0 275.32870262741926 76.179876019505173 0 76.179876019505173 70.146012247937961 0 0 0 0 195.13612227399426 -130.51016384237482 0 -130.51016384237482 -45.767637543343881 0 0 0 0 252.26242598713725 9.8626181389572594 0 9.8626181389572594 -102.27759709118163 0 0 0 0 35.226898872736342 25.557484363348138 0 25.557484363348138 5.580700977619852 0 0 0 0 1131.0038339403327 -646.65669405093831 0 -646.65669405093831 326.95461128954776 0 0 0 0 14.854344978928566 163.06995281381387 0 163.06995281381387 68.106048868630751 0 0 0 0 -20.20810742233698 -163.07774391573776 0 -163.07774391573776 207.10918498889077 0 0 0 0 -21.756888204645293 13.488071474492244 0 13.488071474492244 -4.3602038832541439 0 0 0 0 -1.5574868625634544 0.39553930182469799 0 0.39553930182469799 2.2850012585166937 0 0 0 0 644.64983008093986 -240.4679251992402 0 -240.4679251992402 -57.176418383685814 0 0 0 0 12.228729108947192 -15.758001978736928 0 -15.758001978736928 25.326007567321803 0 0 0 0 434.66452292524627 -14.848020532388546 0 -14.848020532388546 30.370833818240499 0 0 0 0 534.55169168309658 -133.99943137890841 0 -133.99943137890841 122.29677401025765 0 0 0 0 245.43821326561738 -404.53204076468865 0 -404.53204076468865 146.96293725380565 0 0 0 0 24.835059613338672 9.1450938884481729 0 9.1450938884481729 -6.832939062420337 0 0 0 0 27.055864351452328 5.0202408608483893 0 5.0202408608483893 -33.747090529057459 0 0 0 0 41.112340980951558 89.797128507185334 0 89.797128507185334 -8.5929472060488479 0 0 0 0 37.544247077777982 153.69358650765753 0 153.69358650765753 256.71908327963411 0 0 0 0 1.0221728512041182 5.0737465032398319 0 5.0737465032398319 6.7966319261662633 0 0 0 0 -15.031768805536558 19.186812734201339 0 19.186812734201339 55.148095163445305 0 0 0 0 135.8988693710271 -31.659668330103159 0 -31.659668330103159 -61.460287379222791 0 0 0 0 22.157403313305416 -3.3999430957893537 0 -3.3999430957893537 -5.3984022350096268 0 0 0 0 165.59717643141994 22.116424453746731 0 22.116424453746731 -27.152136001473991 0 0 0 0 33.515513578458922 19.138487236767105 0 19.138487236767105 -44.070618189598463 0 0 0 0 30.594200043029559 17.986224484015111 0 17.986224484015111 -28.843989211586631 0 0 0 0 10.695718408668711 11.471632127288046 0 11.471632127288046 10.814701521339806 0 0 0 0 -648.95191829430951 42.380550569801528 0 42.380550569801528 -293.36035058635059 0 0 0 0 497.37674098259959 -510.77632126252394 0 -510.77632126252394 -1567.5535471095145 0 0 0 0 24.55241401400076 7.6017800974491898 0 7.6017800974491898 0.570092558173528 0 0 0 0 12.53630263427938 -3.4111075354762583 0 -3.4111075354762583 -3.2616695520655945 0 0 0 0 -20.240487774601206 141.37029516990151 0 141.37029516990151 -52.193783942782318 0 0 0 0 612.09253430589524 2380.0181055903477 0 2380.0181055903477 -415.94941692177264 0 0 0 0 5444.9488345919526 -1559.6447358907344 0 -1559.6447358907344 -220.75184017902384 0 0 0 0 1746.5938232555654 -887.68270152625269 0 -887.68270152625269 -921.05574798518433 0 0 0 0 5490.1239409524533 -2811.0500490716904 0 -2811.0500490716904 -422.68823071497343 0 0 0 0 1262.3430324853653 318.18045499328832 0 318.18045499328832 -1685.4737955724688 0 0 0 0 264.49416550098067 -220.15097879291682 0 -220.15097879291682 22.207899514707606 0 0 0 0 9.708935832370571 -0.24247866056909118 0 -0.24247866056909118 -3.3376680819811977 0 0 0 0 2315.4434178212978 754.92582189641371 0 754.92582189641371 -2840.0995877816763 0 0 0 0 1879.1514446811198 -481.25281294363435 0 -481.25281294363435 -2295.557476022118 0 0 0 0 55.048357731973873 17.746538400856274 0 17.746538400856274 -1.0773128405315153 0 0 0 0 2620.8766994436592 -333.01348243577922 0 -333.01348243577922 -2481.0323860994522 0 0 0 0 -1709.9903576069628 -1590.8570127572825 0 -1590.8570127572825 -397.97919650138533 0 0 0 0 -382.17286806837365 331.44655073327993 0 331.44655073327993 -280.08158501418097 0 0 0 0 27.611242650851366 11.407254208176337 0 11.407254208176337 2.6216822956377417 0 0 0 0 2599.4536174022651 -1669.0662683925968 0 -1669.0662683925968 414.76760685245125 0 0 0 0 -2415.3484817818389 1674.7230306652334 0 1674.7230306652334 217.26881700424838 0 0 0 0 748.48663681693142 -935.69506823455686 0 -935.69506823455686 609.51051785409584 0 0 0 0 -85.966206035802315 -485.55500948056556 0 -485.55500948056556 368.04026561761634 0 0 0 0 2402.3589673590759 -630.88147912487989 0 -630.88147912487989 -311.548603453135 0 0 0 0 1195.2463245588779 -433.89445192261564 0 -433.89445192261564 -331.01024256896881 0 0 0 0 1559.0137943453847 -436.86311705392063 0 -436.86311705392063 -578.78082989261043 0 0 0 0 1203.5740206553537 -467.69732515298188 0 -467.69732515298188 -507.67286683462316 0 0 0 0 582.66976898539724 -445.48866621342199 0 -445.48866621342199 -397.81955047069755 0 0 0 0 1077.7640089648066 -590.66065524927808 0 -590.66065524927808 -736.45955625503166 0 0 0 0 1105.8870411749176 -478.61408529090727 0 -478.61408529090727 -297.36303404442015 0 0 0 0 334.67787753314042 700.74856785973691 0 700.74856785973691 -1679.3214561084412 0 0 0 0 671.53212023472588 -131.3613959850552 0 -131.3613959850552 -1095.8644757469356 0 0 0 0 605.41980879896619 -602.23216406712447 0 -602.23216406712447 -785.17793781208366 0 0 0 0 691.73937761748675 -413.23441850029508 0 -413.23441850029508 -435.21231514361432 0 0 0 0 424.97926371081303 -306.76082669924961 0 -306.76082669924961 -424.59617072245373 0 0 0 0 851.64102967315193 -303.47700187494308 0 -303.47700187494308 -509.11532211097881 0 0 0 0 877.98974476189687 -497.89290267166291 0 -497.89290267166291 -233.1485501806568 0 0 0 0 1051.156807912208 -695.33909922264309 0 -695.33909922264309 -435.02180208874722 0 0 0 0 1149.2136633354203 -638.762495165563 0 -638.762495165563 -453.63264630449589 0 0 0 0 958.37347156262331 -701.15064240767038 0 -701.15064240767038 -52.691737531632953 0 0 0 0 1382.5225026638491 -792.03134349973925 0 -792.03134349973925 -468.18411445612946 0 0 0 0 1289.6191979713185 -854.00267228622818 0 -854.00267228622818 -230.87372744082325 0 0 0 0 1589.3668214296358 -181.9033431569303 0 -181.9033431569303 -98.839282877995288 0 0 0 0 2219.5108756273012 -414.38342986492074 0 -414.38342986492074 -363.38678480378644 0 0 0 0 3204.8959578902504 759.3101884495959 0 759.3101884495959 -472.87779835298193 0 0 0 0 1503.5869704059132 624.97698900036232 0 624.97698900036232 -157.2782118548289 0 0 0 0 1637.9103579023176 623.03885565618725 0 623.03885565618725 -454.2744881427609 0 0 0 0 3269.9612464726706 2599.8282048526958 0 2599.8282048526958 -607.57856352847011 0 0 0 0 5487.9802413777534 1510.39082560518 0 1510.39082560518 -1389.7997345050999 0 0 0 0 3290.1711484244643 780.08552190160412 0 780.08552190160412 -1327.3279258678613 0 0 0 0 5500.9589325934448 167.55766594898557 0 167.55766594898557 -1285.0544649308474 0 0 0 0 3105.8960034681313 -728.16740526233207 0 -728.16740526233207 -336.4004981774242 0 0 0 0 3528.6028288609064 -748.05746220776916 0 -748.05746220776916 -376.54202617937995 0 0 0 0 3653.8636036269045 -403.72225037919742 0 -403.72225037919742 -1037.4213241843208 0 0 0 0 5497.8348392738544 -911.64862889977235 0 -911.64862889977235 -917.78324461609941 0 0 0 0 4045.2894611950378 -1516.7122497487385 0 -1516.7122497487385 -276.46001905390892 0 0 0 0 2067.8036872339726 -1761.7741778696266 0 -1761.7741778696266 987.03205016061065 0 0 0 0 3318.0480812613732 -2020.1334805565355 0 -2020.1334805565355 513.38343534443379 0 0 0 0 3722.59079282108 -1532.7533666547552 0 -1532.7533666547552 -266.72543198575966 0 0 0 0 5501.4317208229195 -2452.101072257914 0 -2452.101072257914 143.34071647139424 0 0 0 0 1489.5039931124611 -1181.8803774799071 0 -1181.8803774799071 650.41697245555429 0 0 0 0 672.52280675079419 -902.18974943628029 0 -902.18974943628029 863.56530134314949 0 0 0 0 1464.2652364619862 -1402.307779266597 0 -1402.307779266597 824.47918982712281 0 0 0 0 1866.0657266886301 -1216.1370244268471 0 -1216.1370244268471 786.51766317862075 0 0 0 0 2376.9045122902126 -1181.9059412752194 0 -1181.9059412752194 251.0912560619297 0 0 0 0 2252.9975624272938 -1218.1697958854616 0 -1218.1697958854616 244.18225100765679 0 0 0 0 784.70590662632458 -910.01568394707851 0 -910.01568394707851 631.9256413601081 0 0 0 0 1220.5161285671329 -1076.0950452940829 0 -1076.0950452940829 465.51871055517029 0 0 0 0 1591.338887718126 -647.03902231581139 0 -647.03902231581139 202.37878711127223 0 0 0 0 2205.0360147520114 -171.95113040152762 0 -171.95113040152762 -286.09487484387546 0 0 0 0 1884.690057322814 -894.06993350689856 0 -894.06993350689856 63.508466599713472 0 0 0 0 742.36106467743775 -1048.2533636659107 0 -1048.2533636659107 185.89449666281803 0 0 0 0 1025.4000443900413 -343.69384994631633 0 -343.69384994631633 -109.41720987299482 0 0 0 0 756.46936905065922 -864.86812636271463 0 -864.86812636271463 -303.08783320732618 0 0 0 0 435.2671268069862 -859.40325549985414 0 -859.40325549985414 296.84297642586034 0 0 0 0 597.35265432449614 -1047.3590730706519 0 -1047.3590730706519 358.68265451347906 0 0 0 0 674.15348061323311 -772.51895931950412 0 -772.51895931950412 359.21001407578399 0 0 0 0 612.38457792512418 -1017.7045761497502 0 -1017.7045761497502 387.09623125770418 0 0 0 0 713.72515040694452 -1023.5021852012012 0 -1023.5021852012012 571.03623022859074 0 0 0 0 470.11506286451913 -871.50789783870982 0 -871.50789783870982 549.73569460703993 0 0 0 0 517.30359945006785 -847.23696412319487 0 -847.23696412319487 340.50036221117421 0 0 0 0 388.04310879076729 -627.53307756354866 0 -627.53307756354866 302.19994375275587 0 0 0 0 282.12486019074822 -708.48680033373137 0 -708.48680033373137 700.51657953134816 0 0 0 0 676.85157074491872 -937.3744129923773 0 -937.3744129923773 711.52139834060381 0 0 0 0 404.71476445269946 -412.11408971690412 0 -412.11408971690412 -132.57538031178473 0 0 0 0 264.19793362058408 -621.45286078526908 0 -621.45286078526908 442.63529034407247 0 0 0 0 260.62037182435961 -396.14192992037374 0 -396.14192992037374 98.658943436588515 0 0 0 0 435.43035860190594 -457.57195838628957 0 -457.57195838628957 183.14430659318612 0 0 0 0 556.38655364915758 -700.4876278602502 0 -700.4876278602502 241.88031036614277 0 0 0 0 443.63092988873177 -754.30769881599804 0 -754.30769881599804 297.39742247158534 0 0 0 0 728.86293544402361 -851.47713372601356 0 -851.47713372601356 327.39120016652413 0 0 0 0 715.33306311711203 -828.51928463331933 0 -828.51928463331933 365.10578685160658 0 0 0 0 747.18574574481909 -522.52595073182169 0 -522.52595073182169 312.28305844260456 0 0 0 0 983.93558750667216 -675.75816548793989 0 -675.75816548793989 389.94798725869441 0 0 0 0 2161.6732726888476 -735.85082008763879 0 -735.85082008763879 372.08357969460417 0 0 0 0 997.26963746883484 -1256.8310758623315 0 -1256.8310758623315 1124.3581669741388 0 0 0 0 -81.010508364437555 26.495938462089725 0 26.495938462089725 829.19111946568728 0 0 0 0 675.49043749838347 -564.08431326829214 0 -564.08431326829214 244.64750561470191 0 0 0 0 757.93221390165854 -911.02152363290361 0 -911.02152363290361 540.64103459011085 0 0 0 0 1090.8051186653229 -855.77450684024325 0 -855.77450684024325 321.78505698316485 0 0 0 0 738.96704566267363 -856.00465676966837 0 -856.00465676966837 383.55203597672414 0 0 0 0 0.79951844500877911 0.29266882802571814 0 0.29266882802571814 -0.45056465384187483 0 0 0 0 70.330745261020638 -125.04840470239606 0 -125.04840470239606 -403.12310608350555 0 0 0 0 2.4666604749336543 -1.5635737587720371 0 -1.5635737587720371 -8.282366087863771 0 0 0 0 1111.4331918356947 -578.87336036506827 0 -578.87336036506827 305.0357769042713 0 0 0 0 1295.1412767796385 -1069.2199580402607 0 -1069.2199580402607 35.902913560299794 0 0 0 0 -34.94972891242287 4.4922029977158218 0 4.4922029977158218 9.4497538126188374 0 0 0 0 6.6051634838487274 -6.4383505286275451 0 -6.4383505286275451 -16.575505066100085 0 0 0 0 23.60970863593684 -50.670192405524176 0 -50.670192405524176 38.110459509745169 0 0 0 0 918.97390634647309 9.0953950084401072 0 9.0953950084401072 -37.997278415718029 0 0 0 0 1001.1270126298186 -213.7362515754146 0 -213.7362515754146 -188.09328344007395 0 0 0 0 1558.2320430902728 -71.303608773539281 0 -71.303608773539281 -299.32928476372854 0 0 0 0 2529.2483448880157 194.15740536688963 0 194.15740536688963 -530.53580295077199 0 0 0 0 1453.0845416832963 87.733377214995016 0 87.733377214995016 -467.25838151288235 0 0 0 0 1293.0810239859456 425.52351725663925 0 425.52351725663925 -41.424950268909015 0 0 0 0 235.95771541619615 445.67711872151813 0 445.67711872151813 -27.207845170192968 0 0 0 0 -389.90318547885545 1346.2834214465797 0 1346.2834214465797 -155.89368723048051 0 0 0 0 1732.0088280938653 1084.1869687947114 0 1084.1869687947114 -156.17769277194293 0 0 0 0 4749.3973304663014 -811.38586339650283 0 -811.38586339650283 -1118.3996292202012 0 0 0 0 2063.5758182571699 -245.85521358160713 0 -245.85521358160713 -508.72629517075984 0 0 0 0 28.281940788096108 -51.641671913991104 0 -51.641671913991104 35.868520267398708 0 0 0 0 601.27634766936717 -62.012909048701204 0 -62.012909048701204 -16.18937305649888 0 0 0 0 20.491174568690383 -10.589924444871773 0 -10.589924444871773 1.2760761494470543 0 0 0 0 32.079119453548628 -34.685016593906624 0 -34.685016593906624 -7.2216024023601619 0 0 0 0 5.9747176167329599 -4.0464002187375225 0 -4.0464002187375225 88.654440994804176 0 0 0 0 763.9614721379221 2.9574479758045982 0 2.9574479758045982 -12.837840515900552 0 0 0 0 22.900782272663491 -15.642106658680859 0 -15.642106658680859 -1.8644503979810452 0 0 0 0 26.788309697752993 -17.646785299461953 0 -17.646785299461953 -2.7419279724063017 0 0 0 0 8.4180981861214619 -12.88862731332533 0 -12.88862731332533 -9.5428317224784518 0 0 0 0 8.8305244904272016 -6.3298934129042692 0 -6.3298934129042692 -2.8157342882354506 0 0 0 0 16.89419635711711 -17.933775828234488 0 -17.933775828234488 5.4347674346638932 0 0 0 0 23.486147140574758 -18.704629637088146 0 -18.704629637088146 -3.079111382385463 0 0 0 0 26.633691110924701 -14.317256018853186 0 -14.317256018853186 -1.4121625671127731 0 0 0 0 325.97871904538079 -616.9948926402883 0 -616.9948926402883 490.77488420584086 0 0 0 0 2804.0615467945463 87.821291570904123 0 87.821291570904123 268.50157777368258 0 0 0 0 -307.58114550399114 527.81361049672341 0 527.81361049672341 152.41167013356608 0 0 0 0 8.5534296463472259 -6.3492989563608973 0 -6.3492989563608973 2.9078260134173775 0 0 0 0 3.7584596394971044 -6.6459251553431962 0 -6.6459251553431962 6.5846074883684116 0 0 0 0 1339.53169646887 -259.17133269668818 0 -259.17133269668818 -59.033458634677118 0 0 0 0 2004.4797862881169 -1436.3768103467407 0 -1436.3768103467407 330.98629527037065 0 0 0 0 126.0038111467984 -481.07574715880583 0 -481.07574715880583 1269.9816306467656 0 0 0 0 19.800817186753648 -18.475924108637344 0 -18.475924108637344 11.424977395961832 0 0 0 0 3.3997902475467185 -4.0344713775800116 0 -4.0344713775800116 -0.40649450391541464 0 0 0 0 1889.1942540132623 121.89468504851743 0 121.89468504851743 329.00803051764342 0 0 0 0 1797.5052778808931 96.547850036474529 0 96.547850036474529 864.58374283383512 0 0 0 0 2705.0521001363795 -645.92671553668833 0 -645.92671553668833 814.12883820605202 0 0 0 0 2876.5652814137429 -424.73866520273896 0 -424.73866520273896 898.74662589939226 0 0 0 0 3180.6452928022445 -508.40323770180328 0 -508.40323770180328 172.35549339591034 0 0 0 0 3855.6451019480446 43.012532301246665 0 43.012532301246665 -174.11524583237838 0 0 0 0 1941.1534279729458 19.246641266780898 0 19.246641266780898 879.04544185782288 0 0 0 0 1919.4925371424324 -342.59650005670846 0 -342.59650005670846 9.4121655276117053 0 0 0 0 4.2554774846457661 1.0085504668832748 0 1.0085504668832748 0.098308494521205603 0 0 0 0 219.42832717815509 221.01292954917778 0 221.01292954917778 -504.00690061290106 0 0 0 0 3.4885048375759879 0.054142879636195573 0 0.054142879636195573 -1.3008121803134727 0 0 0 0 867.51794429479924 1009.1512364387427 0 1009.1512364387427 328.89772915402841 0 0 0 0 -69.970145348921506 145.43902670667683 0 145.43902670667683 454.11567318736388 0 0 0 0 937.89230178108483 472.26394932369396 0 472.26394932369396 612.29955146722637 0 0 0 0 420.96554050897248 580.65066408630332 0 580.65066408630332 700.79454442813847 0 0 0 0 32.455233861124725 213.8620745737534 0 213.8620745737534 720.97528665183609 0 0 0 0 529.2664218114578 374.78053931583565 0 374.78053931583565 698.41064579228055 0 0 0 0 440.99247925588134 319.1363319042926 0 319.1363319042926 806.3555389900846 0 0 0 0 515.4715688668548 398.78332559256324 0 398.78332559256324 794.02417288204674 0 0 0 0 1550.0918651249158 -43.35274624656131 0 -43.35274624656131 499.90262907921283 0 0 0 0 887.86543546603116 350.06507918109656 0 350.06507918109656 754.75897828544885 0 0 0 0 1489.9815136584948 -24.03435254607075 0 -24.03435254607075 591.83035689445103 0 0 0 0 978.97090876773655 -24.798302767309366 0 -24.798302767309366 504.65297132311423 0 0 0 0 1246.3651843573425 -570.07351370322453 0 -570.07351370322453 295.49680071080121 0 0 0 0 700.24163881883942 -174.02971603155723 0 -174.02971603155723 455.97353565597911 0 0 0 0 607.2550186569606 -190.38778513874865 0 -190.38778513874865 482.76419507713945 0 0 0 0 417.42789171083859 -450.71422541104721 0 -450.71422541104721 186.41746164186384 0 0 0 0 694.98866836770685 -590.00558930616717 0 -590.00558930616717 236.70452900515966 0 0 0 0 525.80497746606125 -508.42483370341267 0 -508.42483370341267 -13.931111810738685 0 0 0 0 395.18010045404844 -262.40810769839015 0 -262.40810769839015 76.228311963162923 0 0 0 0 436.63151673590255 -422.43119380476617 0 -422.43119380476617 -229.55743366389584 0 0 0 0 316.34318424556659 -14.705410790685562 0 -14.705410790685562 -482.04062041584166 0 0 0 0 291.32006175129391 -241.03251310528714 0 -241.03251310528714 -95.740731161190979 0 0 0 0 523.29586145798658 -187.79016491700722 0 -187.79016491700722 -1968.9238274198658 0 0 0 0 284.85404181296212 518.55859413570761 0 518.55859413570761 -1820.0650495692116 0 0 0 0 606.49357868750667 -536.74768891438885 0 -536.74768891438885 -923.90667198658457 0 0 0 0 266.81434506226424 269.17947347003502 0 269.17947347003502 -819.22358859306246 0 0 0 0 387.61585884611941 -258.77378810700702 0 -258.77378810700702 -216.03193717634281 0 0 0 0 45.025094830249145 -633.34361693257347 0 -633.34361693257347 88.775456006538889 0 0 0 0 -118.65148778056755 -1396.9033538118229 0 -1396.9033538118229 -580.49821384830022 0 0 0 0 -42.643526917641339 -185.32468624186174 0 -185.32468624186174 1360.3504404054181 0 0 0 0 466.82846623604564 290.98794162481727 0 290.98794162481727 960.82695770878672 0 0 0 0 307.17699779254235 -138.24655534292143 0 -138.24655534292143 730.38394121196075 0 0 0 0 402.29533620932489 6.3744083996069492 0 6.3744083996069492 604.91270886230052 0 0 0 0 719.62896585380508 211.36362966582865 0 211.36362966582865 737.30802655057346 0 0 0 0 448.62833110368229 371.13803576900449 0 371.13803576900449 1002.1257037280975 0 0 0 0 313.23983441937798 220.22544409152215 0 220.22544409152215 971.30767157586911 0 0 0 0 1824.0502995742172 67.433036290175096 0 67.433036290175096 853.13612986353451 0 0 0 0 2028.8520594988004 -818.6736921710658 0 -818.6736921710658 748.43975770485258 0 0 0 0 24.892016061941263 15.073899211863287 0 15.073899211863287 11.579156456248278 0 0 0 0 2534.716597181985 1494.0492202576634 0 1494.0492202576634 1793.5764079311475 0 0 0 0 453.12833533716548 237.93124857990233 0 237.93124857990233 1173.8108193906039 0 0 0 0 -457.96568470669445 -847.80922505197395 0 -847.80922505197395 1910.2895216792979 0 0 0 0 1903.3529099993898 1438.0230301491965 0 1438.0230301491965 -1119.8896456649231 0 0 0 0 573.72952164471099 456.16933911476616 0 456.16933911476616 -1731.4349074910551 0 0 0 0 2134.8311956471944 505.51433553010196 0 505.51433553010196 -2405.5189913197032 0 0 0 0 510.30477726744721 -759.58984298855432 0 -759.58984298855432 -2122.9427275905077 0 0 0 0 -0.094445919111526777 -3.0239842212751356 0 -3.0239842212751356 -2.8354085830404436 0 0 0 0 -1333.4675870381843 1120.9229441942707 0 1120.9229441942707 -100.84661127433799 0 0 0 0 2180.5277501775254 -139.257271814408 0 -139.257271814408 -857.38595495128072 0 0 0 0 177.51959680053551 624.21437584309388 0 624.21437584309388 -760.14411676718009 0 0 0 0 208.99435730942423 922.53480190068467 0 922.53480190068467 1860.1111499551171 0 0 0 0 -62.711358766431658 446.10901196762234 0 446.10901196762234 175.86407425382913 0 0 0 0 534.80832348437252 -764.93028023282193 0 -764.93028023282193 774.69270153372531 0 0 0 0 334.44507631534543 -679.61258736427283 0 -679.61258736427283 1269.3178211620225 0 0 0 0 1202.396925010893 -290.12553294789473 0 -290.12553294789473 1.4774001861023862 0 0 0 0 69.573797722705137 45.232526573506917 0 45.232526573506917 29.746763317349981 0 0 0 0 130.15614945208017 -21.66475000927494 0 -21.66475000927494 271.51952263700514 0 0 0 0 -322.43954620084332 112.20957914606061 0 112.20957914606061 695.78724503915055 0 0 0 0 1385.7011452942315 -549.2797155097353 0 -549.2797155097353 1051.5497538555201 0 0 0 0 10.417525787686287 -6.4197876726878969 0 -6.4197876726878969 0.63493653879073531 0 0 0 0 249.03992546636437 -871.96358606724357 0 -871.96358606724357 2930.454714825908 0 0 0 0 412.18762266649719 -240.5858691228251 0 -240.5858691228251 1145.7513053945356 0 0 0 0 685.46583560599538 43.196360945788015 0 43.196360945788015 25.105263949350935 0 0 0 0 329.97885524475714 54.423074084507505 0 54.423074084507505 926.16506672234698 0 0 0 0 248.6472401212086 -319.62381665322482 0 -319.62381665322482 413.89879158358445 0 0 0 0 849.12407976386021 -191.11643616040033 0 -191.11643616040033 439.74486770975574 0 0 0 0 758.34057589892109 -289.62739512332462 0 -289.62739512332462 915.41145614636969 0 0 0 0 498.15057525775046 -251.90412086570234 0 -251.90412086570234 1445.4827829017263 0 0 0 0 433.75121663288883 27.624359234381473 0 27.624359234381473 872.28538505820813 0 0 0 0 555.26508500396085 467.45526381346701 0 467.45526381346701 832.62580096582542 0 0 0 0 508.24813956957951 9.0093609786210607 0 9.0093609786210607 768.13205026501464 0 0 0 0 181.29261156948633 -1.8310754311046367 0 -1.8310754311046367 478.72359317619987 0 0 0 0 197.83293788712763 38.81678569138694 0 38.81678569138694 476.77970187443111 0 0 0 0 330.63591588812415 203.65175901324994 0 203.65175901324994 634.95363013312999 0 0 0 0 433.85764798244782 -130.89621794690748 0 -130.89621794690748 557.58099873531887 0 0 0 0 379.27386351679525 42.645845617953 0 42.645845617953 35.745944520095236 0 0 0 0 11.675779452918505 -60.697669444501116 0 -60.697669444501116 51.137141309583967 0 0 0 0 316.12699631426585 224.24440415495087 0 224.24440415495087 168.26367269446837 0 0 0 0 -10.176046758602752 80.018380907211167 0 80.018380907211167 132.3959877820169 0 0 0 0 170.56754938483209 -74.991854285840191 0 -74.991854285840191 -325.66968782020103 0 0 0 0 81.307750381714868 -11.292170039357643 0 -11.292170039357643 -305.91836181103417 0 0 0 0 -13.09528901198064 -183.00205898520335 0 -183.00205898520335 -366.15261155825158 0 0 0 0 -232.8824786261066 -390.89161352993892 0 -390.89161352993892 -93.696543894751812 0 0 0 0 381.49198667440214 78.54894280462031 0 78.54894280462031 -47.531562940228241 0 0 0 0 -71.257535872631706 -723.72348935836794 0 -723.72348935836794 -351.63997292134445 0 0 0 0 -2.0287600277684703 0.40451658733216078 0 0.40451658733216078 1.078391975472929 0 0 0 0 -9.6103015097760363 103.94073622136875 0 103.94073622136875 -10.197877437100942 0 0 0 0 1189.5050697436236 -410.75297274548666 0 -410.75297274548666 134.61880597392656 0 0 0 0 -0.42004152299571729 1.2664793989115566 0 1.2664793989115566 3.648523170486806 0 0 0 0 303.30005544805317 -609.76414441933593 0 -609.76414441933593 142.92578355580736 0 0 0 0 -345.55850031961018 -362.2729680738687 0 -362.2729680738687 180.08078067900169 0 0 0 0 690.13617995174718 -539.06230592435872 0 -539.06230592435872 -403.73522925004272 0 0 0 0 758.71970319924003 -768.82080643291113 0 -768.82080643291113 -81.673445906953475 0 0 0 0 780.32717011205386 -391.3581509545877 0 -391.3581509545877 107.60913503815777 0 0 0 0 249.23890931465576 -532.51555827810671 0 -532.51555827810671 -111.07697349970022 0 0 0 0 854.92679243188104 -255.13567842881133 0 -255.13567842881133 -2.5911634325095747 0 0 0 0 483.09198607979852 -216.717036804244 0 -216.717036804244 109.56539445007229 0 0 0 0 181.91348962836491 -91.726961535264309 0 -91.726961535264309 63.988329406477078 0 0 0 0 439.29469232872361 -468.66688136773678 0 -468.66688136773678 -363.77253136063609 0 0 0 0 -124.93401346673636 -65.631156207532968 0 -65.631156207532968 16.007880537493293 0 0 0 0 -37.201555483268749 -65.199264099897732 0 -65.199264099897732 -16.235322702379108 0 0 0 0 -14.812615519170549 -32.323232500696207 0 -32.323232500696207 -2.0000077987172373 0 0 0 0 17.750224752540817 -28.518086077113594 0 -28.518086077113594 -9.0792363982264987 0 0 0 0 -2.0370472648755822 -16.892771357176798 0 -16.892771357176798 -5.4897954632479014 0 0 0 0 -36.234276316077739 -8.0691945178723472 0 -8.0691945178723472 7.6753509105574267 0 0 0 0 -75.795176212894148 -29.922564116787726 0 -29.922564116787726 0.28073521908424937 0 0 0 0 -64.942235380502098 -79.003458790698005 0 -79.003458790698005 -11.020870247523817 0 0 0 0 14.312818283719281 -11.076796680744025 0 -11.076796680744025 -4.481019789629288 0 0 0 0 65.334214897622587 95.179256788407201 0 95.179256788407201 60.919013725430659 0 0 0 0 610.18730969647004 97.590309109436021 0 97.590309109436021 -76.614917193577639 0 0 0 0 361.95923674527148 -86.147008700899733 0 -86.147008700899733 44.928954483484631 0 0 0 0 -184.99044040447916 -119.3761969674506 0 -119.3761969674506 77.812580713010448 0 0 0 0 29.233451850340685 -31.074619749192166 0 -31.074619749192166 -8.0651964881504945 0 0 0 0 373.29796612664359 113.27999656288739 0 113.27999656288739 35.754873762023635 0 0 0 0 50.294696954366543 -10.585192211526762 0 -10.585192211526762 -2.1310584977377172 0 0 0 0 171.18677719425614 -105.47788962354934 0 -105.47788962354934 68.03942248567364 0 0 0 0 424.63343731361419 -26.600190854662742 0 -26.600190854662742 -44.748179599002469 0 0 0 0 -20.770164480811218 -74.39425581754017 0 -74.39425581754017 -39.092724540860218 0 0 0 0 12.786848353099806 -4.0254765007306759 0 -4.0254765007306759 3.3073608158870691 0 0 0 0 4.1017166192577861 -25.716099044962448 0 -25.716099044962448 -25.713502097976743 0 0 0 0 57.445902520883465 -6.4136368407707778 0 -6.4136368407707778 -35.895134812316428 0 0 0 0 32.659510250101448 -52.328878277435251 0 -52.328878277435251 -81.502297359437307 0 0 0 0 13.284155885499018 -27.233436919926319 0 -27.233436919926319 -2.3073885378107457 0 0 0 0 15.488238070320222 -42.436099691654817 0 -42.436099691654817 -10.988087062956765 0 0 0 0 -2.3414830172607566 -0.64081170309609803 0 -0.64081170309609803 -6.0863915929786288 0 0 0 0 3.0763506926523405 -9.0691471402008119 0 -9.0691471402008119 -11.423996749067101 0 0 0 0 46.390259432609128 26.084049578540601 0 26.084049578540601 -392.90047754779243 0 0 0 0 9.5604609463009638 -7.7189756949237207 0 -7.7189756949237207 -11.192920462821087 0 0 0 0 -0.72868573336799614 -14.486511406466903 0 -14.486511406466903 -5.6259838371111446 0 0 0 0 -6.1536045192283666 -7.2726637662934834 0 -7.2726637662934834 -6.10760787724635 0 0 0 0 -5.2391342076298315 -8.8575145511457691 0 -8.8575145511457691 -21.507715653951685 0 0 0 0 -106.64981832082412 -31.32288148702537 0 -31.32288148702537 -11.370570167317737 0 0 0 0 14.064885557383604 -5.7945119638615381 0 -5.7945119638615381 -1.9087771969043388 0 0 0 0 14.808824726697395 -3.0502352178540129 0 -3.0502352178540129 -1.0033133206250104 0 0 0 0 -6.2585051726855454 40.614813938739985 0 40.614813938739985 -64.104246969343876 0 0 0 0 -40.36880909348838 -115.62501317508764 0 -115.62501317508764 -126.11872918806102 0 0 0 0 3.4744530363151398 0.26162487379475152 0 0.26162487379475152 -4.1183779605863542 0 0 0 0 -1.9807620143683664 -6.6073343376638487 0 -6.6073343376638487 -2.3478554838346684 0 0 0 0 17.595432331341726 9.726697381762051 0 9.726697381762051 2.8268451874237144 0 0 0 0 -30.555998254778387 -2.0585362672442216 0 -2.0585362672442216 12.811010399191673 0 0 0 0 -33.500937641816563 -10.959149966925906 0 -10.959149966925906 8.103509476977024 0 0 0 0 -58.771622498024954 2.3979175149502225 0 2.3979175149502225 24.183139006193869 0 0 0 0 -141.6869644029066 -34.214573121604644 0 -34.214573121604644 88.999779240998123 0 0 0 0 -17.068474681194857 -4.2393401663546229 0 -4.2393401663546229 17.033091465815232 0 0 0 0 20.08860826356613 -95.851305078533585 0 -95.851305078533585 280.40158128365329 0 0 0 0 53.335933143862349 40.536690181675112 0 40.536690181675112 22.391224229334057 0 0 0 0 -14.334408428123425 19.918818864426612 0 19.918818864426612 146.34570676106159 0 0 0 0 167.44416197728424 -64.269210993336856 0 -64.269210993336856 31.906269266723029 0 0 0 0 268.6851969758186 -92.122232570237543 0 -92.122232570237543 119.35951606936669 0 0 0 0 272.62177183047606 -131.51912270298635 0 -131.51912270298635 37.945682005431081 0 0 0 0 81.781242709432263 -146.9480481077544 0 -146.9480481077544 180.33160553135713 0 0 0 0 -65.907631397334626 -88.805202154499511 0 -88.805202154499511 39.827468995635172 0 0 0 0 -57.00831069938431 -46.295761735626456 0 -46.295761735626456 142.19327866929234 0 0 0 0 -161.20879878003325 -27.239723095667159 0 -27.239723095667159 35.973207632918275 0 0 0 0 28.961721339634366 -55.650947232742951 0 -55.650947232742951 9.0969946713239871 0 0 0 0 -252.90645486477297 -116.12301376441951 0 -116.12301376441951 68.788233698956901 0 0 0 0 -1186.6686657204846 -1211.0655312814392 0 -1211.0655312814392 2330.3972152253627 0 0 0 0 28.007063094390759 -55.778930644776821 0 -55.778930644776821 -5.1465752279737167 0 0 0 0 -119.21575094768923 -98.115307812519063 0 -98.115307812519063 -34.231047613630835 0 0 0 0 -91.247093833866529 -34.942270774695317 0 -34.942270774695317 13.590999573044428 0 0 0 0 -96.197381187565043 -23.473870648277853 0 -23.473870648277853 -10.58587257642921 0 0 0 0 -144.25082793858019 -386.722842213067 0 -386.722842213067 -336.55873668818822 0 0 0 0 1040.6461207744433 1041.6662924453294 0 1041.6662924453294 -134.79903627292924 0 0 0 0 697.47304776926467 365.29375474386552 0 365.29375474386552 -165.73366566507684 0 0 0 0 887.79654861075687 225.49708263255252 0 225.49708263255252 -548.8435020669549 0 0 0 0 494.21250188042177 -326.29195729283492 0 -326.29195729283492 -1034.9921333985058 0 0 0 0 1621.1615978752961 535.47858684509356 0 535.47858684509356 -1198.6001696475869 0 0 0 0 22.613039571858991 -10.323982422688132 0 -10.323982422688132 5.0476231728612824 0 0 0 0 68.62215015939455 -355.72091627353132 0 -355.72091627353132 557.04244056905736 0 0 0 0 695.21738022243517 -722.25329087790851 0 -722.25329087790851 211.32968330864151 0 0 0 0 35.018207078967258 -50.086955586850777 0 -50.086955586850777 2.374929504331508 0 0 0 0 -239.79913180773292 147.32417944897588 0 147.32417944897588 -176.60854711212596 0 0 0 0 1182.51855595284 389.54784719533745 0 389.54784719533745 -781.3973863285064 0 0 0 0 -8.4232919740497039 -11.099841889968353 0 -11.099841889968353 -1.0640440764886234 0 0 0 0 124.65064687149061 -16.094102543326699 0 -16.094102543326699 -51.145119532102399 0 0 0 0 -16.577865493367426 -14.409306666010707 0 -14.409306666010707 49.658098284374319 0 0 0 0 224.49168469315191 -150.78081926942832 0 -150.78081926942832 90.994116137042511 0 0 0 0 327.28205425385386 -78.785788364899418 0 -78.785788364899418 -133.02649548929639 0 0 0 0 80.86332561688323 0.58589765126907878 0 0.58589765126907878 35.406529659176726 0 0 0 0 169.4943686508559 -192.46160503406963 0 -192.46160503406963 300.59077880453879 0 0 0 0 58.792613900739525 -5.5411127044167188 0 -5.5411127044167188 61.648624663427654 0 0 0 0 34.282710986775783 38.752129201500907 0 38.752129201500907 -10.684324614815523 0 0 0 0 23.286385636005434 76.741779524949806 0 76.741779524949806 15.359695471173922 0 0 0 0 57.678048340203532 64.937187904072374 0 64.937187904072374 -142.9382102288352 0 0 0 0 22.897500601764477 148.28422281028162 0 148.28422281028162 -200.93588615390206 0 0 0 0 -26.79691154093598 -23.122367028301824 0 -23.122367028301824 172.20026613802423 0 0 0 0 1137.1751371127175 -551.71896341588217 0 -551.71896341588217 114.76571484396027 0 0 0 0 57.207571448991075 94.253064941808589 0 94.253064941808589 -271.30539705332558 0 0 0 0 103.89345073344884 -28.143696439027281 0 -28.143696439027281 -92.809892540088185 0 0 0 0 3.8454357620692576 0.98407597080361597 0 0.98407597080361597 -1.6727322900756789 0 0 0 0 55.653314195122221 44.995568116873528 0 44.995568116873528 -19.277888528250969 0 0 0 0 -67.241032007772446 -64.762524368984487 0 -64.762524368984487 121.04437312887603 0 0 0 0 54.891844214565936 37.382411627940499 0 37.382411627940499 -10.428632517433357 0 0 0 0 3.8825278362105493 -3.6127203448309473 0 -3.6127203448309473 -29.384791289933169 0 0 0 0 24.399749766933382 100.42118283679156 0 100.42118283679156 -54.089580090050731 0 0 0 0 -108.59265586027686 -41.807319833217662 0 -41.807319833217662 404.11403774464452 0 0 0 0 127.47564387911552 -264.6050325699839 0 -264.6050325699839 -200.87080560537606 0 0 0 0 15.062218878909668 -6.3279547907121412 0 -6.3279547907121412 -29.246639746454939 0 0 0 0 36.250087631837232 17.159076517909853 0 17.159076517909853 -155.77042511770742 0 0 0 0 54.276381976267004 -23.180516879325008 0 -23.180516879325008 -0.19768190416399278 0 0 0 0 -126.35605110708639 -208.88905466454071 0 -208.88905466454071 3.5673501136026289 0 0 0 0 -67.350439526948321 -116.895552792226 0 -116.895552792226 79.47674590999668 0 0 0 0 1068.0331290901522 -45.15144827242375 0 -45.15144827242375 -16.715009956557424 0 0 0 0 78.72671009577698 34.045452239912152 0 34.045452239912152 143.5873705206559 0 0 0 0 1111.6668817477184 -208.24400512720422 0 -208.24400512720422 -172.72941148810605 0 0 0 0 1662.5661744956888 -131.39825777069518 0 -131.39825777069518 -472.25547931109259 0 0 0 0 1761.7491677588041 -288.38122588745819 0 -288.38122588745819 -358.12538366194894 0 0 0 0 2379.0838297518058 -248.52738883881102 0 -248.52738883881102 -454.51611601653713 0 0 0 0 23.663794784191396 -4.4014813989096737 0 -4.4014813989096737 2.380293250569876 0 0 0 0 1419.9740160623514 608.46604790689116 0 608.46604790689116 -114.82738175543545 0 0 0 0 686.00218191656313 -823.78083014431604 0 -823.78083014431604 855.26656683689544 0 0 0 0 1999.2848910649554 -1181.8138226208166 0 -1181.8138226208166 170.03098207947551 0 0 0 0 2477.1089023487075 -431.1139264725266 0 -431.1139264725266 -375.17469153289312 0 0 0 0 1355.6007828490256 -196.5622989247604 0 -196.5622989247604 -330.16025705071615 0 0 0 0 1745.6885381354514 -589.05128087773119 0 -589.05128087773119 -74.33396958687058 0 0 0 0 1096.4998045133398 -655.96180525595446 0 -655.96180525595446 -81.214607844693091 0 0 0 0 21.335560746570991 52.746683248298041 0 52.746683248298041 -15.729970674926221 0 0 0 0 329.54467408916389 564.07282503558918 0 564.07282503558918 -99.802426953236477 0 0 0 0 1063.5496021734871 434.29440191860658 0 434.29440191860658 1142.2184111226197 0 0 0 0 402.24944882175623 -458.41189742869119 0 -458.41189742869119 171.33970722550771 0 0 0 0 -62.843578513282409 520.41400284126803 0 520.41400284126803 -106.22499702044661 0 0 0 0 168.10800907368684 40.589989958382148 0 40.589989958382148 -28.90606316528374 0 0 0 0 7.2943793429964359 11.560714925532054 0 11.560714925532054 15.628910697811165 0 0 0 0 -212.69438765865198 -371.09664501810948 0 -371.09664501810948 462.89273095788167 0 0 0 0 843.68030971926783 -110.26254719976487 0 -110.26254719976487 162.05081924720889 0 0 0 0 1845.6428114935879 -879.81595820455459 0 -879.81595820455459 156.49759168785567 0 0 0 0 783.24646002184454 -339.94031485999949 0 -339.94031485999949 -36.538468859320346 0 0 0 0 1715.696195931665 -306.45214830467103 0 -306.45214830467103 -194.14353895853856 0 0 0 0 1169.8667727858556 -181.8137355789504 0 -181.8137355789504 -214.22265237263036 0 0 0 0 -32.53526865405729 353.96961911886228 0 353.96961911886228 -1.6529503521232982 0 0 0 0 601.72808497297228 97.791122557577182 0 97.791122557577182 -17.22813890218498 0 0 0 0 -78.460041301781899 53.031839436819084 0 53.031839436819084 -6.5797932444191236 0 0 0 0 332.98436520632094 -2.3964209288646998 0 -2.3964209288646998 -26.869725655711591 0 0 0 0 846.70690581129747 180.71178344342025 0 180.71178344342025 -36.812054067577265 0 0 0 0 971.85594712352031 303.96956866743176 0 303.96956866743176 -41.709739326632189 0 0 0 0 79.076178728268133 107.49690165552829 0 107.49690165552829 448.38826455287017 0 0 0 0 152.61931347983045 805.67906264948078 0 805.67906264948078 558.4956651213397 0 0 0 0 139.1528400051908 8.9750113341406923 0 8.9750113341406923 -6.0624691930081172 0 0 0 0 1147.8361762711647 -34.683248632511095 0 -34.683248632511095 -2246.386586427875 0 0 0 0 -846.10679335525492 -1865.6464283109024 0 -1865.6464283109024 -1695.3615898618636 0 0 0 0 1695.1566228225856 -1189.3257982315004 0 -1189.3257982315004 -1550.5856341778219 0 0 0 0 1312.4600841702486 -314.25970288692133 0 -314.25970288692133 -1437.4788770377761 0 0 0 0 123.88184272528088 106.62283572057072 0 106.62283572057072 -1483.0668669375027 0 0 0 0 2252.5409898316648 -629.97722914382689 0 -629.97722914382689 -1034.7911231039393 0 0 0 0 3409.3103364449926 395.78308482064676 0 395.78308482064676 15.671118007656332 0 0 0 0 31.716226991543451 10.024242680560981 0 10.024242680560981 -11.640749218886716 0 0 0 0 3406.4332636705603 419.48796277886146 0 419.48796277886146 -147.46867596509765 0 0 0 0 4.2242134976002035 26.56069730925363 0 26.56069730925363 -2.2845882051197481 0 0 0 0 1454.4998193809588 1655.6322665187172 0 1655.6322665187172 674.49655933668669 0 0 0 0 2067.100320374986 -108.5454017509428 0 -108.5454017509428 582.76299784455205 0 0 0 0 3186.9049864037224 82.682587259883803 0 82.682587259883803 -284.66113701625181 0 0 0 0 1674.2881507410202 75.33424275708694 0 75.33424275708694 -246.34169744391556 0 0 0 0 1641.9767627948895 750.27682343059496 0 750.27682343059496 91.699262475071009 0 0 0 0 1946.4194261944558 22.794089581441114 0 22.794089581441114 -288.10536989037791 0 0 0 0 1918.133918537344 -303.69380588090178 0 -303.69380588090178 -362.14038130587505 0 0 0 0 1556.2590203525906 -265.05317503643982 0 -265.05317503643982 -34.696903608962202 0 0 0 0 1554.2437537508449 -247.22389183739529 0 -247.22389183739529 -181.35113833951038 0 0 0 0 870.56748686372885 -273.20904683138315 0 -273.20904683138315 106.69144844166203 0 0 0 0 951.30119901495527 -457.77417202352393 0 -457.77417202352393 102.08393617675029 0 0 0 0 940.01522908260449 -307.25427787584772 0 -307.25427787584772 124.04453200106218 0 0 0 0 624.65182444921084 -560.27969960956989 0 -560.27969960956989 261.96239241746184 0 0 0 0 0.91485802714795739 -0.19191506304284189 0 -0.19191506304284189 -0.74175444824624037 0 0 0 0 1935.0242325762765 -356.58114246894331 0 -356.58114246894331 -50.004550922322323 0 0 0 0 1878.9192539514697 -796.29614044113578 0 -796.29614044113578 130.76116244381501 0 0 0 0 2121.9621416897799 -353.06974752079634 0 -353.06974752079634 -172.48596449573597 0 0 0 0 2274.1265217050313 -206.19679795227967 0 -206.19679795227967 -132.41597491692471 0 0 0 0 1657.3817531320456 -961.93248889769029 0 -961.93248889769029 288.88774306076914 0 0 0 0 1761.7047670001921 -889.61207239630789 0 -889.61207239630789 304.99218602644078 0 0 0 0 -168.12452798213053 84.197556989053282 0 84.197556989053282 213.74213041771279 0 0 0 0 6.8239302523229242 -0.20963657995877583 0 -0.20963657995877583 0.084184315282595068 0 0 0 0 789.69794710462156 -683.61630792014694 0 -683.61630792014694 707.67600394866975 0 0 0 0 758.77314537640632 71.436964961891817 0 71.436964961891817 -318.56994159868088 0 0 0 0 -102.37473809797348 4.6647088920261695 0 4.6647088920261695 212.78579459800108 0 0 0 0 292.49467818436096 209.72978025955149 0 209.72978025955149 -39.974784662296429 0 0 0 0 -125.38075455491708 -202.31547309615161 0 -202.31547309615161 134.2071834615241 0 0 0 0 250.6637541098055 -424.33602007865449 0 -424.33602007865449 537.83357448922243 0 0 0 0 1818.569481651939 -717.46085552445265 0 -717.46085552445265 82.840757177790636 0 0 0 0 3087.1336734885117 390.47185337689461 0 390.47185337689461 919.84640547399204 0 0 0 0 1772.5495475297212 -873.03997180382601 0 -873.03997180382601 1508.7583711089314 0 0 0 0 1841.581829553128 -615.26785097882225 0 -615.26785097882225 499.10184721432904 0 0 0 0 3380.5754694275465 1133.9138741518166 0 1133.9138741518166 831.00475065460455 0 0 0 0 3119.6839607916481 -932.23723524335946 0 -932.23723524335946 564.33418282113121 0 0 0 0 1431.101445072869 -612.85294292612389 0 -612.85294292612389 512.25685606791785 0 0 0 0 995.33121335210308 459.99280370374004 0 459.99280370374004 704.05559120240491 0 0 0 0 510.06775060990185 -175.67546294624003 0 -175.67546294624003 -275.00099951088259 0 0 0 0 2388.5128065728495 -326.27772872086734 0 -326.27772872086734 -272.56833060176405 0 0 0 0 1689.0869594596588 -729.85404212904086 0 -729.85404212904086 -175.77452196125478 0 0 0 0 1978.0184899655687 -1112.9765868053603 0 -1112.9765868053603 -334.65682082559033 0 0 0 0 1794.455468735694 -975.10622345078866 0 -975.10622345078866 491.72024391523928 0 0 0 0 436.99361690717342 543.71404620770636 0 543.71404620770636 542.33566155690824 0 0 0 0 76.04708017304074 602.67096243418746 0 602.67096243418746 1153.8585230555436 0 0 0 0 359.32379652802774 736.06473472103744 0 736.06473472103744 -178.08693987769493 0 0 0 0 299.19328277159366 303.33470401828208 0 303.33470401828208 408.14365607653326 0 0 0 0 109.45276250133611 573.0988935173973 0 573.0988935173973 1904.0215320599077 0 0 0 0 769.44978539377007 601.59947672935459 0 601.59947672935459 47.04002577825031 0 0 0 0 1561.683743610527 685.7572099715137 0 685.7572099715137 50.167040412102189 0 0 0 0 2.6398451808927348 -67.645868325917036 0 -67.645868325917036 -81.150410397207565 0 0 0 0 1028.3499234233823 1556.4791988048455 0 1556.4791988048455 2380.4464339743936 0 0 0 0 99.596114799045608 40.600105940269714 0 40.600105940269714 -225.83476598856646 0 0 0 0 29.153411568757832 -0.22843189433177002 0 -0.22843189433177002 -1.8352886359675011 0 0 0 0 2729.0606919186866 -760.36973730518548 0 -760.36973730518548 -180.68136894062582 0 0 0 0 -586.12418566228007 575.67558199671066 0 575.67558199671066 239.79676503863178 0 0 0 0 40.091496089713473 -21.588667368834649 0 -21.588667368834649 -73.338542794432215 0 0 0 0 6.503000112796272 -3.09404677501837 0 -3.09404677501837 -1.4051301807830523 0 0 0 0 7.936216564514325 8.0605739371339951 0 8.0605739371339951 -18.474724504283586 0 0 0 0 17.36234419299808 -10.002183155098248 0 -10.002183155098248 -0.84726408584848034 0 0 0 0 45.765472889032992 -8.0692531190283177 0 -8.0692531190283177 -6.1298713350461806 0 0 0 0 -46.424378454714315 -42.819370394597172 0 -42.819370394597172 -7.9773857637394485 0 0 0 0 35.262705488697975 1.8506097217622113 0 1.8506097217622113 -17.629220474745154 0 0 0 0 54.916261293305098 2.8729063645669832 0 2.8729063645669832 -10.138978776785548 0 0 0 0 57.993860175234687 -3.5101771186609128 0 -3.5101771186609128 -10.166867165996955 0 0 0 0 -80.336730788520072 -116.33281949774593 0 -116.33281949774593 94.601532708801756 0 0 0 0 39.447396982170176 -59.246376793144464 0 -59.246376793144464 -20.596617102788287 0 0 0 0 52.165555123770901 -166.59007526402047 0 -166.59007526402047 -225.12130510401994 0 0 0 0 35.346098179834371 -68.335016292028513 0 -68.335016292028513 -24.650618605272484 0 0 0 0 -55.20845086067493 236.24824466490543 0 236.24824466490543 40.837840674246308 0 0 0 0 16.912289874439679 -4.5292303390672508 0 -4.5292303390672508 -0.30585571267220835 0 0 0 0 3193.1794630453223 -247.26912275734458 0 -247.26912275734458 2229.2497032288511 0 0 0 0 5377.0237851665543 3323.2007632221253 0 3323.2007632221253 -2040.534060295844 0 0 0 0 233.85448127693962 -92.794655975026103 0 -92.794655975026103 19.905250307969254 0 0 0 0 -386.91689504023816 -187.27251876141872 0 -187.27251876141872 -56.34966079338767 0 0 0 0 -23.264898576429914 -13.067141752923789 0 -13.067141752923789 -0.16458011570284725 0 0 0 0 119.92693702704855 208.92006672101252 0 208.92006672101252 37.88474224609763 0 0 0 0 91.218767421669327 29.296221296771591 0 29.296221296771591 -47.853193193783056 0 0 0 0 -382.99988159164099 297.41598391471916 0 297.41598391471916 219.82671011472576 0 0 0 0 70.223350958428455 -80.89678120099606 0 -80.89678120099606 18.456296821520027 0 0 0 0 -23.990619914446143 -220.48241105634656 0 -220.48241105634656 -245.38665983745136 0 0 0 0 63.673718780675571 -10.390935171221983 0 -10.390935171221983 -6.6963290626588021 0 0 0 0 333.1729450093917 517.93831689878141 0 517.93831689878141 -205.82845508707305 0 0 0 0 65.635234473957425 -14.641477980973807 0 -14.641477980973807 -3.357391240958135 0 0 0 0 465.36419594736071 206.17896868283788 0 206.17896868283788 436.01322910771887 0 0 0 0 257.13467155593571 429.94684649698081 0 429.94684649698081 -281.26128779672581 0 0 0 0 334.62036660750891 623.0334166217317 0 623.0334166217317 -227.07196706361083 0 0 0 0 -1092.359202995096 1087.5270712490537 0 1087.5270712490537 1223.6018722535364 0 0 0 0 33.9052825900296 4.6134125027444135 0 4.6134125027444135 0.2459031486349772 0 0 0 0 1323.5095966184163 -851.5153904313056 0 -851.5153904313056 -324.89062807124907 0 0 0 0 2851.2971840885584 -471.2590634868161 0 -471.2590634868161 -1248.7575237440833 0 0 0 0 1572.2291192447592 -149.06563488407664 0 -149.06563488407664 -558.22225804858044 0 0 0 0 1507.6917787730563 86.063516902352831 0 86.063516902352831 -1409.7842034546975 0 0 0 0 350.41997118054132 -491.63243867043911 0 -491.63243867043911 -354.59032606166056 0 0 0 0 4.5740942284537596 354.74505690244268 0 354.74505690244268 -141.26777386913727 0 0 0 0 325.37754677924386 180.34886313775087 0 180.34886313775087 -875.61957071104916 0 0 0 0 152.80870771588525 184.62476061030975 0 184.62476061030975 -266.36801929787862 0 0 0 0 184.36333725322038 -69.819359815003736 0 -69.819359815003736 -172.9685942016531 0 0 0 0 627.66958763288858 644.79004429529141 0 644.79004429529141 -1210.6548737796202 0 0 0 0 95.58294347644599 5.506831227565824 0 5.506831227565824 -1.445021535501376 0 0 0 0 165.69179022484605 983.69203006781845 0 983.69203006781845 -249.38861157745123 0 0 0 0 47.077208639355376 -397.50758718192264 0 -397.50758718192264 -1011.8874905471175 0 0 0 0 333.81037983567512 251.72192427427217 0 251.72192427427217 -111.46230222953545 0 0 0 0 45.385029675671831 323.62002057714471 0 323.62002057714471 -119.90903582270354 0 0 0 0 46.203388969282969 127.84588901616098 0 127.84588901616098 269.36430608461887 0 0 0 0 421.01405004502158 431.35266551148652 0 431.35266551148652 -554.87242061423603 0 0 0 0 -938.5873837084655 1371.6867332202619 0 1371.6867332202619 208.48613861205831 0 0 0 0 -120.24489404758424 367.79759544993749 0 367.79759544993749 790.86359918774542 0 0 0 0 161.98620804752318 168.13296364920325 0 168.13296364920325 -24.963695015127087 0 0 0 0 103.25663432672445 476.25304448878524 0 476.25304448878524 362.61408199177731 0 0 0 0 -35.948653725848999 405.37585843243414 0 405.37585843243414 434.58153907316228 0 0 0 0 388.11405430274317 -373.50950600150281 0 -373.50950600150281 1092.5586239451404 0 0 0 0 -87.407563057776002 38.160721108457793 0 38.160721108457793 10.21181363947538 0 0 0 0 119.33457962016109 426.48630021435565 0 426.48630021435565 144.1444606905352 0 0 0 0 562.98700641495088 298.30491813426943 0 298.30491813426943 -104.7603260654223 0 0 0 0 133.85901487689625 416.83176509261978 0 416.83176509261978 268.90829760163797 0 0 0 0 699.81674024758104 -109.70525936654622 0 -109.70525936654622 -21.596565242374709 0 0 0 0 2.3677286565393985 4.0789758078241221 0 4.0789758078241221 7.2496040426914981 0 0 0 0 -535.4868656914914 206.73197689319977 0 206.73197689319977 729.60267006384856 0 0 0 0 149.44081760273548 59.546955188850461 0 59.546955188850461 -17.699170655933514 0 0 0 0 -6.4469465578877134 274.73734955244799 0 274.73734955244799 26.849029612517825 0 0 0 0 252.21682169871201 183.97020038114078 0 183.97020038114078 -41.196815269934632 0 0 0 0 29.761353461202816 142.23691169617177 0 142.23691169617177 -42.588178910298893 0 0 0 0 5026.7608832381375 2601.2212903591471 0 2601.2212903591471 839.4704652510743 0 0 0 0 47.266053083043573 -17.055251703058417 0 -17.055251703058417 9.9352905891834951 0 0 0 0 210.76071809009591 -655.26410331940497 0 -655.26410331940497 993.26732125819763 0 0 0 0 139.01734996572577 422.91545887209861 0 422.91545887209861 179.74519870040967 0 0 0 0 7.9914210340575664 194.88310379253403 0 194.88310379253403 3.9452338992577438 0 0 0 0 123.84069803125522 71.884982968359139 0 71.884982968359139 -24.62009139923417 0 0 0 0 -36.278157561179796 167.95496692627995 0 167.95496692627995 11.383412695112384 0 0 0 0 -64.34420762834776 42.020729069108555 0 42.020729069108555 8.05138857847294 0 0 0 0 435.13776623101148 82.263099204462378 0 82.263099204462378 482.31116109845289 0 0 0 0 239.39517435399466 540.56686433206551 0 540.56686433206551 1471.9068194945639 0 0 0 0 1069.7400886182149 1569.1031215900362 0 1569.1031215900362 -444.90514347736826 0 0 0 0 477.42278302248451 1362.291960655346 0 1362.291960655346 1815.6222302948363 0 0 0 0 -6.4691784339389926 -8.1055505798324816 0 -8.1055505798324816 2.8109388480642004 0 0 0 0 4793.5080777369258 -206.74634144095671 0 -206.74634144095671 -1013.9359955976615 0 0 0 0 3953.5435643082892 280.31150924603708 0 280.31150924603708 630.83761901674677 0 0 0 0 4879.6052080095105 -655.40605661156872 0 -655.40605661156872 -491.68739685744185 0 0 0 0 3653.3603109903634 2932.4075888371717 0 2932.4075888371717 3610.4626581100256 0 0 0 0 957.09868174983421 306.06922015279451 0 306.06922015279451 5232.5447746039245 0 0 0 0 5503.1869878069556 459.83789734150605 0 459.83789734150605 -9.8840589547889977 0 0 0 0 2562.1434610206052 -432.25349990006725 0 -432.25349990006725 -279.47228667772379 0 0 0 0 2405.5471306129912 717.1361836022536 0 717.1361836022536 515.76447879703301 0 0 0 0 1935.9158673660495 848.30787633069963 0 848.30787633069963 160.18056097815406 0 0 0 0 1995.0629080995277 1065.4656891552959 0 1065.4656891552959 796.65253564040313 0 0 0 0 1909.8279295909451 390.91465359780705 0 390.91465359780705 -440.67752435084003 0 0 0 0 1256.8995512980619 775.82608672320384 0 775.82608672320384 216.8981654772565 0 0 0 0 2058.645457644885 -364.20995498112939 0 -364.20995498112939 -288.93838945138486 0 0 0 0 1768.6293602355872 319.9959555535479 0 319.9959555535479 -248.95319845704489 0 0 0 0 3150.4159300109895 456.65740676449968 0 456.65740676449968 -235.45111130627993 0 0 0 0 609.06503949486068 763.04592916003503 0 763.04592916003503 464.53121644811927 0 0 0 0 1178.5894836615334 593.46100737260849 0 593.46100737260849 0.13287426194983709 0 0 0 0 688.02183058425726 458.15411017121914 0 458.15411017121914 134.84033668218308 0 0 0 0 679.05845745860643 418.00963491334778 0 418.00963491334778 -42.578820284163157 0 0 0 0 1106.7354545396956 -172.83830750350626 0 -172.83830750350626 -324.96769446613234 0 0 0 0 1690.1555266428622 -10.088837401439378 0 -10.088837401439378 -701.77440662895424 0 0 0 0 1448.3510143988242 327.25726203148133 0 327.25726203148133 -429.20771485526257 0 0 0 0 1317.5415125331056 152.71359439775415 0 152.71359439775415 -647.92632285052969 0 0 0 0 1029.0554433314537 284.72485166906972 0 284.72485166906972 -820.16296977260026 0 0 0 0 888.84436945291236 -205.03367073982008 0 -205.03367073982008 -584.29427343868042 0 0 0 0 843.96643305037287 -151.87160470020808 0 -151.87160470020808 -552.72671019462359 0 0 0 0 -385.9217823659601 -529.82263624919153 0 -529.82263624919153 559.622590332865 0 0 0 0 961.11826327894232 -133.30459579727494 0 -133.30459579727494 -584.11176826053338 0 0 0 0 972.54839032192831 -30.377626567829793 0 -30.377626567829793 -451.32762874156924 0 0 0 0 -268.00047131385509 -860.44448404515765 0 -860.44448404515765 1004.6649617874787 0 0 0 0 -700.27959765394917 187.99948321151101 0 187.99948321151101 -229.07002240725058 0 0 0 0 494.19144397358468 -763.62838642159841 0 -763.62838642159841 902.39216366778805 0 0 0 0 2277.3245813800168 -263.46977100147569 0 -263.46977100147569 -243.09409008649527 0 0 0 0 679.50775012679514 -1152.5225742653258 0 -1152.5225742653258 923.26232550825102 0 0 0 0 773.18805537711887 -1341.1346799455987 0 -1341.1346799455987 575.00196862575194 0 0 0 0 3509.9788399005192 -1680.6674513180672 0 -1680.6674513180672 328.48148866037309 0 0 0 0 -884.01770966128242 -1248.2803329317096 0 -1248.2803329317096 1162.922251191907 0 0 0 0 5286.2474798292824 -114.4707941179131 0 -114.4707941179131 -2082.5337137163278 0 0 0 0 37.710698183312161 -19.533949591487016 0 -19.533949591487016 7.7212220030190224 0 0 0 0 487.13524707785109 -2142.135791295173 0 -2142.135791295173 466.56253266042791 0 0 0 0 -850.13753240418532 -353.71657782276043 0 -353.71657782276043 821.06627991895311 0 0 0 0 -113.70984786725603 -555.91377680791993 0 -555.91377680791993 3022.4404300365513 0 0 0 0 683.63840118101507 -1613.5710941689426 0 -1613.5710941689426 -1435.8010748571992 0 0 0 0 69.492993958606291 -40.085196440974023 0 -40.085196440974023 18.760351000825501 0 0 0 0 5664.863188731164 1873.799828163108 0 1873.799828163108 -2439.935353566606 0 0 0 0 5634.3236056039314 2193.4568298312306 0 2193.4568298312306 -806.08356178789586 0 0 0 0 5489.6408565129823 1812.9862424324094 0 1812.9862424324094 -1255.0108440426034 0 0 0 0 1276.5808579540753 -1113.3530655594327 0 -1113.3530655594327 -1801.0465014748195 0 0 0 0 1214.7776579403399 -1109.7273611330838 0 -1109.7273611330838 -177.91626865240778 0 0 0 0 5501.8570122425881 236.3588439227085 0 236.3588439227085 -625.95746858382802 0 0 0 0 3603.1597110883376 1427.1942255674462 0 1427.1942255674462 -1018.8952995588052 0 0 0 0 5253.334739876449 1147.3284305191867 0 1147.3284305191867 2084.3276931344972 0 0 0 0 1002.7182033964782 -2284.9731348176524 0 -2284.9731348176524 1545.4947463343233 0 0 0 0 5703.2037415961531 -353.06780816913465 0 -353.06780816913465 -254.61401852927975 0 0 0 0 28.909238367817522 -16.002030209020617 0 -16.002030209020617 11.149389535121582 0 0 0 0 6531.4138948078908 1943.3182058600037 0 1943.3182058600037 393.74764702577897 0 0 0 0 -223.55746096203802 -1405.5341491161359 0 -1405.5341491161359 1614.8617087364426 0 0 0 0 5500.0594653531953 673.70138558464055 0 673.70138558464055 973.42109050266879 0 0 0 0 6653.4516608582926 -779.49559669580162 0 -779.49559669580162 2803.6150831165382 0 0 0 0 5357.4849842296317 215.42044801446843 0 215.42044801446843 475.8119447755027 0 0 0 0 5498.9290806122081 585.47367800812845 0 585.47367800812845 -84.399479494065147 0 0 0 0 4110.038185239021 24.586915589042473 0 24.586915589042473 -135.1581663235412 0 0 0 0 3818.0864760594413 1406.9548452505292 0 1406.9548452505292 463.49923061806936 0 0 0 0 4254.2316513555088 649.9312350732514 0 649.9312350732514 1623.4874267295684 0 0 0 0 4484.8365299450379 2267.1642922634792 0 2267.1642922634792 369.9644114438932 0 0 0 0 1586.2015396747738 317.69175136120123 0 317.69175136120123 337.42611262160017 0 0 0 0 1760.3968309576812 -264.50389204995099 0 -264.50389204995099 -60.165869254125568 0 0 0 0 68.050036121721547 -41.382546839721627 0 -41.382546839721627 20.81156456495221 0 0 0 0 -703.42123986569641 -1291.360830563618 0 -1291.360830563618 -972.86132759649172 0 0 0 0 -1420.138188094701 503.62775257665908 0 503.62775257665908 -342.34792834100426 0 0 0 0 1566.0531845126316 1697.3821953771544 0 1697.3821953771544 -1793.9136315186988 0 0 0 0 73.554751976571708 -40.617380406533805 0 -40.617380406533805 12.959811804915658 0 0 0 0 3179.767822212023 -2760.3900733981582 0 -2760.3900733981582 -77.437782786408206 0 0 0 0 -225.50937535901903 -82.594270461855672 0 -82.594270461855672 19.711873848772939 0 0 0 0 -78.498807096388191 288.54533177869553 0 288.54533177869553 168.40247054597057 0 0 0 0 -289.13952314139897 -93.045921535689189 0 -93.045921535689189 452.96155554598647 0 0 0 0 320.40250507491874 294.04933605353 0 294.04933605353 160.95216606408167 0 0 0 0 2500.8492358723815 -373.18532879409179 0 -373.18532879409179 -146.67665895231721 0 0 0 0 546.5050225267114 -449.61318010119078 0 -449.61318010119078 121.1177734877017 0 0 0 0 22.277322234251869 1.3068995441012028 0 1.3068995441012028 0.53051464724589659 0 0 0 0 1492.0703792140994 2452.6049998816916 0 2452.6049998816916 3043.9607569260515 0 0 0 0 935.55075673840474 1858.7461418198395 0 1858.7461418198395 1701.4275473453595 0 0 0 0 -88.642807182288379 1278.5736241458737 0 1278.5736241458737 2290.8375686725549 0 0 0 0 3972.0567644444964 1856.5970230062937 0 1856.5970230062937 1055.9551101771167 0 0 0 0 1843.5745637216969 768.89421891378549 0 768.89421891378549 532.63462997604483 0 0 0 0 54.180013079624672 -1.2073018107746698 0 -1.2073018107746698 -1.6789566753641987 0 0 0 0 -55.761259584731306 87.314013321127391 0 87.314013321127391 -188.45202229108691 0 0 0 0 1022.575093600346 173.65561515990294 0 173.65561515990294 -186.07781792424885 0 0 0 0 -315.31458385639417 826.69189203026531 0 826.69189203026531 1738.8063278721163 0 0 0 0 2195.7485485444486 -234.0779475078748 0 -234.0779475078748 -137.97459817145818 0 0 0 0 -136.24321680302091 2966.6126680674815 0 2966.6126680674815 -904.55660042164254 0 0 0 0 1627.7572032290191 2134.4963951182231 0 2134.4963951182231 -772.03981673862904 0 0 0 0 262.24657251260942 1020.0708384323822 0 1020.0708384323822 1723.4131604874062 0 0 0 0 -57.359964511721046 1828.012025149128 0 1828.012025149128 228.50777165365378 0 0 0 0 1600.2847486372225 938.24206215382014 0 938.24206215382014 408.44951250419683 0 0 0 0 392.28572071460803 1410.7991536099046 0 1410.7991536099046 112.41015063547729 0 0 0 0 1287.3687350755936 2622.5562843616076 0 2622.5562843616076 -1033.2632786144598 0 0 0 0 1711.2584365356379 1009.1919220161431 0 1009.1919220161431 347.34234082067366 0 0 0 0 333.27611223487474 1110.2742359264055 0 1110.2742359264055 842.73725652996131 0 0 0 0 -80.600984307151521 1327.9707974433809 0 1327.9707974433809 784.99421929996151 0 0 0 0 790.96476212805283 126.82445246706777 0 126.82445246706777 -499.50377572339721 0 0 0 0 877.67142302166758 152.48271306894065 0 152.48271306894065 -517.40633725328053 0 0 0 0 2040.8908271602559 341.49059009782729 0 341.49059009782729 -853.18871644593378 0 0 0 0 2842.3713802358252 -149.61966871957091 0 -149.61966871957091 -767.56310123053549 0 0 0 0 2524.0874654572763 92.638454548398443 0 92.638454548398443 386.10713525727738 0 0 0 0 3342.1323544636398 -438.94539221552691 0 -438.94539221552691 -1583.0889999967098 0 0 0 0 2032.1446738166997 -1266.7971893140202 0 -1266.7971893140202 -717.0188560366812 0 0 0 0 4226.4501272042107 -1363.5582008864351 0 -1363.5582008864351 -765.50738829483271 0 0 0 0 5500.9490442766437 -386.99091641354318 0 -386.99091641354318 -175.23908324378419 0 0 0 0 3961.861019339427 -300.06472201796413 0 -300.06472201796413 492.73623392518095 0 0 0 0 5499.9786012695768 -833.00442171313944 0 -833.00442171313944 -658.54284259896224 0 0 0 0 4478.7470845633143 -1154.5677781202282 0 -1154.5677781202282 -320.87688347473119 0 0 0 0 3601.569286317419 -442.94595450174063 0 -442.94595450174063 -300.81703996749513 0 0 0 0 3675.5623574576894 -521.44903889990292 0 -521.44903889990292 -253.93816832733989 0 0 0 0 3627.6689059939854 -347.10037991251937 0 -347.10037991251937 -393.3410892350671 0 0 0 0 2998.9294669107258 -1375.3594364688076 0 -1375.3594364688076 669.37393391946864 0 0 0 0 5500.8214460787131 -2002.6837539572457 0 -2002.6837539572457 -33.692202760770158 0 0 0 0 4185.4595276194595 -1186.8584409775385 0 -1186.8584409775385 -318.8152269787816 0 0 0 0 3527.193493354338 -2013.1624041838963 0 -2013.1624041838963 966.15147577843834 0 0 0 0 3100.0969651753912 -2199.1419669394404 0 -2199.1419669394404 1090.4415176674588 0 0 0 0 5489.9183551931201 -4229.6447987317069 0 -4229.6447987317069 2277.3120891092599 0 0 0 0 1907.4748746981786 -1858.5870569658732 0 -1858.5870569658732 3456.1220028649914 0 0 0 0 -755.9762483788254 15.568378349604586 0 15.568378349604586 2308.3075637430038 0 0 0 0 32.685347118484685 -18.983591193355473 0 -18.983591193355473 14.061382050793082 0 0 0 0 195.09394938027253 -3112.6878240974515 0 -3112.6878240974515 4981.9973934366626 0 0 0 0 3064.5762595588312 902.64111717412425 0 902.64111717412425 1692.6760314567628 0 0 0 0 1298.5645326703088 -215.79005124692515 0 -215.79005124692515 1220.7021933359506 0 0 0 0 3632.0864811559804 -319.12175800664824 0 -319.12175800664824 458.3198928845004 0 0 0 0 3274.6546118484985 -1283.3680293067496 0 -1283.3680293067496 574.38631134499178 0 0 0 0 2532.5501074759159 -803.23707717787363 0 -803.23707717787363 1499.2045328431957 0 0 0 0 2422.9179775381526 -1178.3223790332136 0 -1178.3223790332136 273.64985024700127 0 0 0 0 1821.9596078283066 -1149.3556826667195 0 -1149.3556826667195 729.40530358932392 0 0 0 0 1345.0225210773933 -1135.0270220001391 0 -1135.0270220001391 352.1962032462543 0 0 0 0 1703.6299171858118 -710.58564737791812 0 -710.58564737791812 783.5050599543132 0 0 0 0 418.81409762166732 -438.47556276037722 0 -438.47556276037722 715.69020887940133 0 0 0 0 1480.4625122307216 -550.44813624560231 0 -550.44813624560231 -49.85423399685169 0 0 0 0 1619.3960467982979 -1634.4374716187685 0 -1634.4374716187685 751.52802400334258 0 0 0 0 79.730429894099871 148.68998597055503 0 148.68998597055503 -89.911275772134104 0 0 0 0 -3.5673459485333296 167.6240641270972 0 167.6240641270972 -84.71906754431194 0 0 0 0 383.13612360429761 217.70161942545408 0 217.70161942545408 -5.147733248426448 0 0 0 0 137.73751292179708 84.511856292817995 0 84.511856292817995 -14.229277773545828 0 0 0 0 -6.1287037698493805 165.73054926424174 0 165.73054926424174 -70.349839555349263 0 0 0 0 171.26582651836907 685.13227313966831 0 685.13227313966831 -49.555829941159573 0 0 0 0 138.75548269193331 88.51530761476026 0 88.51530761476026 -6.1829187754771873 0 0 0 0 598.67937809592695 -718.75623826869855 0 -718.75623826869855 26.294775068633541 0 0 0 0 1115.8902494535705 -305.88110502843193 0 -305.88110502843193 306.24676714076531 0 0 0 0 1204.2877938688616 -1175.0970354678484 0 -1175.0970354678484 724.98380645211432 0 0 0 0 1715.6351373167527 33.604267730094477 0 33.604267730094477 -503.59819653911291 0 0 0 0 1800.7690590139391 -538.00506529205984 0 -538.00506529205984 1009.2469678567036 0 0 0 0 1471.1520810235434 -1534.2055693563946 0 -1534.2055693563946 1818.1815768185761 0 0 0 0 1366.8149083586322 -654.78009306531339 0 -654.78009306531339 1047.8645504360111 0 0 0 0 1413.3335089109023 -573.11527433400329 0 -573.11527433400329 1360.6407774212842 0 0 0 0 2727.6014265605681 -641.22577556574277 0 -641.22577556574277 462.69505851243042 0 0 0 0 1411.4210832440367 -632.10544735432188 0 -632.10544735432188 1075.1111758764428 0 0 0 0 2013.6155180995411 -462.87207462760966 0 -462.87207462760966 420.74430160754383 0 0 0 0 1358.2977420407551 -340.10992553108224 0 -340.10992553108224 1000.4110186922152 0 0 0 0 1986.8284298421504 -274.16510430089801 0 -274.16510430089801 459.6872131889765 0 0 0 0 3707.0379825423443 -420.96817017110538 0 -420.96817017110538 -372.74670905942605 0 0 0 0 1849.9896303992136 -312.98350886980768 0 -312.98350886980768 -647.67559365103011 0 0 0 0 1042.0013147298596 80.934254689196308 0 80.934254689196308 336.29401818446314 0 0 0 0 1043.5559475940681 -617.36812993041326 0 -617.36812993041326 182.643795058688 0 0 0 0 408.38106936520489 -1113.7979914444475 0 -1113.7979914444475 -576.12032068866529 0 0 0 0 227.8093785502424 -38.61735193935192 0 -38.61735193935192 -227.19237192345372 0 0 0 0 684.16276874395771 -1133.7390283125567 0 -1133.7390283125567 1051.4090882877858 0 0 0 0 948.6576108385816 -231.66497588754626 0 -231.66497588754626 667.67406026206118 0 0 0 0 763.49716177146183 -1367.8215937587809 0 -1367.8215937587809 733.84343869517716 0 0 0 0 1375.9301818700333 -1147.3994268585077 0 -1147.3994268585077 678.87991103644868 0 0 0 0 711.86085250228643 -1595.5630865429309 0 -1595.5630865429309 379.85347418372567 0 0 0 0 850.62446643682051 -1085.5131003513702 0 -1085.5131003513702 903.60321765470917 0 0 0 0 290.13743913607323 -1257.3843888376309 0 -1257.3843888376309 852.42251380493042 0 0 0 0 795.30593213856628 -988.03294999833315 0 -988.03294999833315 356.76540945254362 0 0 0 0 -163.1412999247259 -836.28686166906618 0 -836.28686166906618 376.97826966567436 0 0 0 0 121.1149227283895 -1132.9051113209446 0 -1132.9051113209446 -523.0919259765833 0 0 0 0 -948.86257169996679 -2068.6442180835497 0 -2068.6442180835497 450.62332227104525 0 0 0 0 1911.4720445017447 -1665.0818060502243 0 -1665.0818060502243 310.19276549558094 0 0 0 0 1714.4798901745016 -1273.4789166345631 0 -1273.4789166345631 552.667392620187 0 0 0 0 4400.4411122720921 -2218.1294602441972 0 -2218.1294602441972 322.74058854250109 0 0 0 0 3836.5370715624304 157.91805446376202 0 157.91805446376202 -145.38302604185174 0 0 0 0 269.14414508652408 -349.43013627754249 0 -349.43013627754249 823.98821631635656 0 0 0 0 1870.585238404019 -637.5630652924167 0 -637.5630652924167 -168.90854506146343 0 0 0 0 1796.9592198506507 308.4831696052421 0 308.4831696052421 -411.17409217488876 0 0 0 0 2397.2845155482064 -933.52913502004947 0 -933.52913502004947 -7.7436803161510852 0 0 0 0 466.87988754900289 238.63809762470913 0 238.63809762470913 -68.010242992437725 0 0 0 0 354.12464708904736 -18.771904203877966 0 -18.771904203877966 -591.96286899409142 0 0 0 0 -55.767549394862726 70.085681883662346 0 70.085681883662346 -160.39194790604233 0 0 0 0 286.7448963583156 213.42430725009785 0 213.42430725009785 -170.76956399861228 0 0 0 0 -1.8813244961414171 35.297634449304162 0 35.297634449304162 -1.5840578862821146 0 0 0 0 404.66857643367257 77.008684733340488 0 77.008684733340488 -113.33682069485928 0 0 0 0 397.78159460719326 33.022124196872824 0 33.022124196872824 2.2422699829994599 0 0 0 0 246.40138782866416 -22.786927189639755 0 -22.786927189639755 -124.61179055084722 0 0 0 0 254.39117762732741 60.734942237351831 0 60.734942237351831 -20.366021632311622 0 0 0 0 384.73462069878587 -27.744967241113955 0 -27.744967241113955 -197.08738106367673 0 0 0 0 156.95858336891979 -120.81544257988844 0 -120.81544257988844 -38.786341003455163 0 0 0 0 719.3749201282335 434.01909702904413 0 434.01909702904413 137.44715974484825 0 0 0 0 803.55155744720832 -667.99204384413497 0 -667.99204384413497 286.98157963338383 0 0 0 0 -28.347168656085387 99.588200021517423 0 99.588200021517423 37.731788045651577 0 0 0 0 119.20670867497392 16.164078549193164 0 16.164078549193164 -123.89403492876318 0 0 0 0 118.55194549497901 425.04530979691947 0 425.04530979691947 -338.89829771394011 0 0 0 0 -35.430626039160416 174.49281572816199 0 174.49281572816199 -113.15027895288586 0 0 0 0 138.29001155795351 66.654627238610473 0 66.654627238610473 -25.281108033931531 0 0 0 0 -10.32406162328698 197.86410108359587 0 197.86410108359587 -143.05059378219266 0 0 0 0 309.14912782936881 227.63523693558932 0 227.63523693558932 -380.217242290694 0 0 0 0 396.54560831628623 176.58153052326361 0 176.58153052326361 -356.1736310419883 0 0 0 0 394.81351080246895 374.82278161172746 0 374.82278161172746 -505.88147566197244 0 0 0 0 486.29224243777571 -214.9432356238915 0 -214.9432356238915 -35.380237423698418 0 0 0 0 411.72162996469797 -44.283645004766896 0 -44.283645004766896 -231.19750824644689 0 0 0 0 272.07046213030117 70.075786530896494 0 70.075786530896494 -228.75859467317241 0 0 0 0 401.09996736187168 -68.334991257408092 0 -68.334991257408092 -281.9956939698136 0 0 0 0 915.35180154751379 -167.84564145912313 0 -167.84564145912313 -490.00937188503508 0 0 0 0 587.52405659166106 -215.75333205758625 0 -215.75333205758625 -373.061376940652 0 0 0 0 997.84188327555603 421.13526953893103 0 421.13526953893103 -382.97167225581757 0 0 0 0 478.72969707382435 153.59861132365759 0 153.59861132365759 -403.98481736918075 0 0 0 0 -274.25086983266374 226.05873804617113 0 226.05873804617113 57.432233442797042 0 0 0 0 494.69999195774562 304.59218559940496 0 304.59218559940496 -511.34921174910596 0 0 0 0 46.709620343566144 26.121370818452633 0 26.121370818452633 2.0623441486164253 0 0 0 0 881.81913285405608 -1243.5279690264197 0 -1243.5279690264197 785.94610484913915 0 0 0 0 -187.2892611487332 129.18213909629412 0 129.18213909629412 87.41036204926786 0 0 0 0 626.67452117374341 -763.20638817141662 0 -763.20638817141662 1475.9368526744527 0 0 0 0 1126.1676851283119 -973.70111531537395 0 -973.70111531537395 886.31890879307707 0 0 0 0 18.997874750026313 3.2906547181551389 0 3.2906547181551389 2.3617852467239757 0 0 0 0 131.80630305303598 85.583179150282433 0 85.583179150282433 -10.404004540777803 0 0 0 0 -71.162890645238804 387.08439229940814 0 387.08439229940814 -206.95759990152601 0 0 0 0 -296.5275367116119 55.971033648027287 0 55.971033648027287 485.12550041477107 0 0 0 0 -127.12002508548176 101.94817172629951 0 101.94817172629951 -67.32040265153816 0 0 0 0 -314.08123527625867 522.93559884573733 0 522.93559884573733 -24.184832898847162 0 0 0 0 -127.20359171287419 108.99243016106436 0 108.99243016106436 -43.739836398343868 0 0 0 0 -174.89559107547393 184.41684306911316 0 184.41684306911316 -65.448493423269156 0 0 0 0 -99.292052681816131 94.65019976912015 0 94.65019976912015 -26.807297757627566 0 0 0 0 523.05221717176028 34.146665482225671 0 34.146665482225671 8.1672256659394407 0 0 0 0 -93.024538647157897 93.817286846060028 0 93.817286846060028 -46.4114249292561 0 0 0 0 9.0606944805222867 11.692580032163022 0 11.692580032163022 12.166254494011529 0 0 0 0 1000.359201865831 -405.77033905486815 0 -405.77033905486815 -104.69147536811579 0 0 0 0 9.5267562078105783 13.954598698487516 0 13.954598698487516 16.616203774629131 0 0 0 0 -11.316432654602977 83.058266351811199 0 83.058266351811199 -30.615160551598819 0 0 0 0 1995.0502382847153 -991.85210913042647 0 -991.85210913042647 180.037479415505 0 0 0 0 1594.0408599443517 -545.26041348818171 0 -545.26041348818171 9.3597098438622197 0 0 0 0 1510.0939528684976 -579.83706701936626 0 -579.83706701936626 -1.1913742296555938 0 0 0 0 1135.2142363105013 -227.63419594562674 0 -227.63419594562674 -309.62158384642407 0 0 0 0 1667.9463571037995 -683.21229604976725 0 -683.21229604976725 -143.28316134268425 0 0 0 0 1169.0861873476024 -444.34801138785679 0 -444.34801138785679 7.2202329522938271 0 0 0 0 800.69348562486266 -336.37029359378903 0 -336.37029359378903 121.78547864250027 0 0 0 0 1357.410579487334 -523.04410841164156 0 -523.04410841164156 152.68480351066137 0 0 0 0 1600.6745033800034 -586.88052206860357 0 -586.88052206860357 -43.867582672804929 0 0 0 0 1859.0780286461668 -659.87728887525918 0 -659.87728887525918 45.541024179944088 0 0 0 0 1456.1317811423178 -349.33293103630217 0 -349.33293103630217 214.9023982009403 0 0 0 0 1097.3216193632397 -238.86267852556648 0 -238.86267852556648 1127.9868277739315 0 0 0 0 1378.7658221768143 40.138884501549114 0 40.138884501549114 241.72328673679391 0 0 0 0 5.2370749659046112 5.2807101330474921 0 5.2807101330474921 3.6697018211877435 0 0 0 0 232.20827044294856 701.51384201910662 0 701.51384201910662 388.35470662989974 0 0 0 0 -164.78216459833493 87.874232985767492 0 87.874232985767492 323.00808556458901 0 0 0 0 1193.6688573578795 67.03207398821246 0 67.03207398821246 591.90839142484401 0 0 0 0 749.32818542286986 434.69352385848646 0 434.69352385848646 363.04014096812057 0 0 0 0 1549.9766584814352 -640.9317652286104 0 -640.9317652286104 209.99215279427517 0 0 0 0 265.5695191683044 -235.6002706785286 0 -235.6002706785286 643.6014257283847 0 0 0 0 727.4965483371052 -991.61596076450019 0 -991.61596076450019 75.511071602699815 0 0 0 0 997.36836388195661 16.289834322481511 0 16.289834322481511 1331.91623485114 0 0 0 0 1096.7913677300821 65.845209516582145 0 65.845209516582145 670.05558168157222 0 0 0 0 576.06197228666133 -784.57370936763459 0 -784.57370936763459 395.30131106755925 0 0 0 0 653.26435505492555 -674.09871396157655 0 -674.09871396157655 270.06398653473309 0 0 0 0 726.79131637581304 -1151.3763565000036 0 -1151.3763565000036 1039.7231233217444 0 0 0 0 59.411769432936126 -213.30130863076533 0 -213.30130863076533 798.5691684997455 0 0 0 0 144.73081174171966 -546.17335179375289 0 -546.17335179375289 1440.9061742721942 0 0 0 0 -1.0724256363257041 -11.122358713051071 0 -11.122358713051071 0.17608946140757986 0 0 0 0 1771.6918191415025 -857.42772890272681 0 -857.42772890272681 292.72409812065234 0 0 0 0 1142.9911478554568 -343.65087539487558 0 -343.65087539487558 868.3827171379271 0 0 0 0 1461.6388584389933 -796.65616379930361 0 -796.65616379930361 1506.0700319839411 0 0 0 0 1866.1669355891354 -807.74402555247889 0 -807.74402555247889 698.48547005675687 0 0 0 0 3.3775238163066206 -4.9516628069591064 0 -4.9516628069591064 1.6965499528785095 0 0 0 0 2401.1888256320963 -390.61350128624235 0 -390.61350128624235 7.6018006941594649 0 0 0 0 1756.7268798427394 -164.88535060259073 0 -164.88535060259073 43.464278777339132 0 0 0 0 -5.1089511156314984 -58.879818869941118 0 -58.879818869941118 3.1216494175528169 0 0 0 0 41.150797479429457 -53.969958390791533 0 -53.969958390791533 -50.98678729181097 0 0 0 0 13.544475840193243 -15.772035761394946 0 -15.772035761394946 -38.044614744082729 0 0 0 0 97.08493316880049 -4.4961539453169479 0 -4.4961539453169479 -85.4908096250021 0 0 0 0 6.8832246704166451 -6.5638039329259783 0 -6.5638039329259783 -34.452567498027726 0 0 0 0 69.602787644209457 -3.0282738594944476 0 -3.0282738594944476 -64.89778789142224 0 0 0 0 36.550011261177133 -8.3229949314131773 0 -8.3229949314131773 -95.181237902550492 0 0 0 0 1322.3853249073873 -185.67541894416445 0 -185.67541894416445 47.59920888733177 0 0 0 0 13.550932791859651 4.9128475998603989 0 4.9128475998603989 -8.5771329838809649 0 0 0 0 59.606885986369889 -59.898182897172774 0 -59.898182897172774 -581.97679612281661 0 0 0 0 271.14997006568592 -417.56988102796004 0 -417.56988102796004 -537.64519508780597 0 0 0 0 47.61846662737554 -29.781292564124385 0 -29.781292564124385 18.449407553468106 0 0 0 0 11.399367664467718 -81.937409152592409 0 -81.937409152592409 -177.77894457254001 0 0 0 0 35.796486845625623 -26.020204189542142 0 -26.020204189542142 -88.531009642515073 0 0 0 0 52.773536057327874 -36.290847719393696 0 -36.290847719393696 -93.063160127535866 0 0 0 0 51.785838515352225 -61.063874015609997 0 -61.063874015609997 -111.61556165590264 0 0 0 0 45.515993334960541 -36.033956407555081 0 -36.033956407555081 14.828242619659065 0 0 0 0 -313.09897258227284 -344.83092909939364 0 -344.83092909939364 -72.728874690831617 0 0 0 0 -332.17149274772964 -348.77965061656619 0 -348.77965061656619 531.72892822893846 0 0 0 0 611.23321240316727 -223.25931670116461 0 -223.25931670116461 -568.11848656059738 0 0 0 0 -187.18242992986052 101.95783071495657 0 101.95783071495657 264.91274666321488 0 0 0 0 131.24619038153469 -194.62304314940087 0 -194.62304314940087 63.422557188816199 0 0 0 0 -8.5850242213584238 -23.745317746043412 0 -23.745317746043412 -15.212399052166347 0 0 0 0 -322.98668959880888 23.487348294354888 0 23.487348294354888 39.770094879685274 0 0 0 0 -281.09453510031744 -32.795881457614996 0 -32.795881457614996 78.190576443880218 0 0 0 0 -9.3930788342230187 -10.658982834654623 0 -10.658982834654623 -11.472837584974005 0 0 0 0 -517.9303617853293 312.48131889522551 0 312.48131889522551 -74.485162963593325 0 0 0 0 -467.94908658211443 -53.678163134919359 0 -53.678163134919359 154.91093670247051 0 0 0 0 -982.34899406314071 397.73248648874647 0 397.73248648874647 -36.849768975953339 0 0 0 0 694.78785157444145 -936.65967609670497 0 -936.65967609670497 507.93963243393046 0 0 0 0 0.24965170324298924 -2.6198095272738158 0 -2.6198095272738158 -6.914068280264642 0 0 0 0 629.35185498140345 -314.00163910700076 0 -314.00163910700076 125.12934395554839 0 0 0 0 728.91454021913523 -820.10811805466301 0 -820.10811805466301 468.95449348817726 0 0 0 0 576.65624567242048 -458.53000762626141 0 -458.53000762626141 474.90547667910846 0 0 0 0 746.1608594235222 -633.37803338185131 0 -633.37803338185131 275.81749869070245 0 0 0 0 696.47702501396998 -266.45974861022705 0 -266.45974861022705 -684.21750684870995 0 0 0 0 619.98955507759092 -280.22836740506204 0 -280.22836740506204 -245.8729035188444 0 0 0 0 168.83503251133152 78.878843166883371 0 78.878843166883371 -92.169440829953601 0 0 0 0 -3.6605770409042933 2.5482767415280847 0 2.5482767415280847 -10.861588286233252 0 0 0 0 373.36305940929742 -47.535011158318412 0 -47.535011158318412 -73.131293787064351 0 0 0 0 351.99002735690738 -116.08582115957142 0 -116.08582115957142 150.13532679437685 0 0 0 0 588.82640078006852 -263.62469890697605 0 -263.62469890697605 -157.47721550126334 0 0 0 0 356.70768628364749 -41.239053514120315 0 -41.239053514120315 -32.783444936872911 0 0 0 0 61.400255974262599 -5.5430810464248026 0 -5.5430810464248026 -28.589932740957813 0 0 0 0 246.74783570245927 -11.300226957675477 0 -11.300226957675477 21.545034024218694 0 0 0 0 570.99994513027923 21.863425447515965 0 21.863425447515965 -93.689414758053317 0 0 0 0 76.896181121622377 -17.3827929071592 0 -17.3827929071592 -35.82330277530869 0 0 0 0 245.83965856337454 492.06559126502879 0 492.06559126502879 301.15844362949429 0 0 0 0 311.82854275817954 -12.15026594467281 0 -12.15026594467281 10.208805013371602 0 0 0 0 272.32667362897826 8.6925339702057567 0 8.6925339702057567 -28.804422423864509 0 0 0 0 162.58877582394052 -378.83870581373867 0 -378.83870581373867 -67.774671858623208 0 0 0 0 37.283390894310742 -23.057562228676062 0 -23.057562228676062 -9.5284908024699408 0 0 0 0 80.980669254437089 422.55039496098243 0 422.55039496098243 -243.32100048291613 0 0 0 0 9.3579080903728027 -88.726791289305766 0 -88.726791289305766 37.014533474255586 0 0 0 0 329.31885734401294 -50.07967587029998 0 -50.07967587029998 -29.337092475087047 0 0 0 0 568.73482689779485 -63.771455961408719 0 -63.771455961408719 -257.86663623663912 0 0 0 0 225.45503936861215 -5.5292194096116241 0 -5.5292194096116241 -10.820058642626677 0 0 0 0 328.7018761006766 690.2209030048889 0 690.2209030048889 743.74944668475291 0 0 0 0 343.57055842193154 -116.38263054739417 0 -116.38263054739417 86.287020428419055 0 0 0 0 1570.8343989629066 341.94597412904568 0 341.94597412904568 614.22467637600312 0 0 0 0 133.09758667160338 2.6782646957919951 0 2.6782646957919951 1.9572205275528476 0 0 0 0 560.7379403142404 676.37388478639878 0 676.37388478639878 654.7406809031927 0 0 0 0 -415.81272393232211 -557.64665228835111 0 -557.64665228835111 639.90049898905636 0 0 0 0 167.52299893424788 -198.51407897817717 0 -198.51407897817717 264.34350886313155 0 0 0 0 17.781657050989452 -48.103959879227659 0 -48.103959879227659 665.67215469161056 0 0 0 0 258.85165019926717 -287.87185965136473 0 -287.87185965136473 349.30006719307858 0 0 0 0 103.60634921544261 -259.70949044790598 0 -259.70949044790598 -878.17485619358501 0 0 0 0 -147.48680938614416 166.79908741742986 0 166.79908741742986 -709.03096124698459 0 0 0 0 69.418324046285193 -17.868396941808584 0 -17.868396941808584 -4.2732262859634709 0 0 0 0 -18.573981402143545 -198.54690451629114 0 -198.54690451629114 -394.94402371955857 0 0 0 0 179.72003980918089 19.337065266562718 0 19.337065266562718 -273.39171480002625 0 0 0 0 726.40074443183767 438.5022160761938 0 438.5022160761938 613.84755491763644 0 0 0 0 764.00232951735961 582.52437859932161 0 582.52437859932161 673.5136052012258 0 0 0 0 1014.1304230404639 1237.054734608693 0 1237.054734608693 1126.0036658629222 0 0 0 0 1639.94443396508 582.46118483620194 0 582.46118483620194 247.76671626231825 0 0 0 0 599.73083072187728 476.5593009317887 0 476.5593009317887 441.67999014746016 0 0 0 0 817.7625209755206 527.10707589705271 0 527.10707589705271 553.38217939398055 0 0 0 0 858.37703061092452 -177.80536972974951 0 -177.80536972974951 -219.9349074434158 0 0 0 0 242.89843207821832 189.96583122146171 0 189.96583122146171 -249.80095221066131 0 0 0 0 482.37606826104457 377.01985489339495 0 377.01985489339495 -238.8971340286547 0 0 0 0 363.67831258205115 545.20361341423904 0 545.20361341423904 -477.0637176789387 0 0 0 0 737.71937983250245 125.68031504421856 0 125.68031504421856 -601.24135556712736 0 0 0 0 775.10270072121966 -238.17630739121296 0 -238.17630739121296 -96.174119139269806 0 0 0 0 -924.20734391306178 672.71362397336225 0 672.71362397336225 255.32309560999914 0 0 0 0 1512.4073454034351 1590.6273013042273 0 1590.6273013042273 511.0867841704154 0 0 0 0 -185.23358412686503 2599.9463593323399 0 2599.9463593323399 2533.6579728861166 0 0 0 0 -2.9227605100954719 -6.1770166891833469 0 -6.1770166891833469 -8.2906866753650306 0 0 0 0 1093.2595348649047 -282.45575586204347 0 -282.45575586204347 1523.3665953717179 0 0 0 0 -691.54141759396589 -416.78439367819476 0 -416.78439367819476 -458.1067010712145 0 0 0 0 292.93923241151788 -1242.2535675838917 0 -1242.2535675838917 -1091.5282808421398 0 0 0 0 22.224440051962688 -3.5256453015143165 0 -3.5256453015143165 -2.4215181766420004 0 0 0 0 171.45939204495517 -605.34682357220652 0 -605.34682357220652 -612.32883706358734 0 0 0 0 463.30713628578815 -274.21097627930226 0 -274.21097627930226 -533.06943418544165 0 0 0 0 2590.7616520065931 1609.2203251131355 0 1609.2203251131355 321.34964639233385 0 0 0 0 1264.3374204440624 -1006.6358726296933 0 -1006.6358726296933 -1161.2350754507627 0 0 0 0 1971.0528121456446 -313.48114100248057 0 -313.48114100248057 -327.83328279502803 0 0 0 0 1623.9283778108074 -826.16006147563292 0 -826.16006147563292 -1081.1967678225919 0 0 0 0 536.09735612405348 -136.58289591029586 0 -136.58289591029586 -53.40794832957954 0 0 0 0 1430.4454466582392 -136.24364792566962 0 -136.24364792566962 -68.551017041154466 0 0 0 0 1322.1722585112439 -208.55489002171461 0 -208.55489002171461 -506.5479808139512 0 0 0 0 274.74733711979206 343.43015228756371 0 343.43015228756371 33.057835685716327 0 0 0 0 187.41455024757306 211.07173661410616 0 211.07173661410616 165.97565972456812 0 0 0 0 756.05538294483267 67.714813893802443 0 67.714813893802443 -197.86031981398878 0 0 0 0 -65.784916106349556 -107.37423016502805 0 -107.37423016502805 -232.92519128543171 0 0 0 0 302.5356899240287 230.31574322991787 0 230.31574322991787 -402.44082339164129 0 0 0 0 42.684020729029726 -53.554379587332193 0 -53.554379587332193 -485.25677656911921 0 0 0 0 216.20686006703181 192.45643710293621 0 192.45643710293621 -272.01269619577943 0 0 0 0 137.49598948875791 225.75077439119048 0 225.75077439119048 -285.69303923979578 0 0 0 0 129.93982596210844 302.74763839874214 0 302.74763839874214 62.657914765008854 0 0 0 0 85.252688966444111 203.00790798096955 0 203.00790798096955 -7.7002527751153593 0 0 0 0 140.19823311408982 262.76057736121038 0 262.76057736121038 188.63587828768664 0 0 0 0 107.14917156453885 308.15412067327759 0 308.15412067327759 216.10352361205082 0 0 0 0 219.39065253653098 265.73811152470728 0 265.73811152470728 187.9361507768665 0 0 0 0 155.94551117555238 316.18855807830255 0 316.18855807830255 211.45218326036502 0 0 0 0 186.30786669277586 282.70542919928567 0 282.70542919928567 333.64584302762887 0 0 0 0 61.312230782379629 193.30512448959837 0 193.30512448959837 284.98657432039494 0 0 0 0 88.452022216501064 202.28105823967508 0 202.28105823967508 175.07576136736111 0 0 0 0 570.97607396382955 221.82864459331336 0 221.82864459331336 158.63802210776947 0 0 0 0 257.45690926564566 347.60892136508903 0 347.60892136508903 362.38184068719329 0 0 0 0 356.57954952289583 182.91676943802327 0 182.91676943802327 341.53587881732676 0 0 0 0 573.53913021093467 420.35217959034884 0 420.35217959034884 454.99534075328961 0 0 0 0 355.16295251980773 273.16469311736972 0 273.16469311736972 300.35371031933369 0 0 0 0 354.95952283865336 205.1431242389865 0 205.1431242389865 525.3642030355727 0 0 0 0 353.30689511118544 230.44753623940565 0 230.44753623940565 341.38602097758678 0 0 0 0 -52.83704943198245 90.732572469239599 0 90.732572469239599 377.39086812439706 0 0 0 0 713.92922272451688 117.52608506538206 0 117.52608506538206 317.74048896722149 0 0 0 0 95.389957806532038 133.0325106692575 0 133.0325106692575 165.03995610402933 0 0 0 0 43.811235273402417 -72.075219296857085 0 -72.075219296857085 81.688813496980174 0 0 0 0 31.882744597011595 -3.4611188160495203 0 -3.4611188160495203 -2.0414399636429312 0 0 0 0 31.865124446689151 106.94367099826366 0 106.94367099826366 349.01299911274356 0 0 0 0 -15.78501757333288 -100.29303823374698 0 -100.29303823374698 0.42593761824741705 0 0 0 0 2.8793426139600342 41.345544217009717 0 41.345544217009717 -137.42577279338886 0 0 0 0 0.35548711103172081 -7.1943330683495716 0 -7.1943330683495716 -1.2593322576386998 0 0 0 0 10.573635947323055 31.837881200230335 0 31.837881200230335 -193.90872037962689 0 0 0 0 -56.04565561178606 -103.84756679803706 0 -103.84756679803706 -1.013817123116155 0 0 0 0 27.32885760832562 -5.0763599038944562 0 -5.0763599038944562 -1.4637471728491631 0 0 0 0 0.3112766389896251 -4.7236958325320089 0 -4.7236958325320089 -0.48419475527568606 0 0 0 0 79.545941702614073 6.0223253281064615 0 6.0223253281064615 -492.30854071693381 0 0 0 0 52.220955408003647 213.46107023839863 0 213.46107023839863 -241.76398853080761 0 0 0 0 -51.578114133619238 -44.578429608324832 0 -44.578429608324832 230.89208416172974 0 0 0 0 39.747488622632773 -27.743435499770374 0 -27.743435499770374 26.893255808374249 0 0 0 0 37.057696303970715 83.245365836061708 0 83.245365836061708 -121.47000006050639 0 0 0 0 -46.323378741421038 53.680052670513597 0 53.680052670513597 0.064669094715797903 0 0 0 0 2566.3812890726031 457.99146428269478 0 457.99146428269478 356.39717922138226 0 0 0 0 781.81977530568838 -36.511566908594617 0 -36.511566908594617 0.049754522313924153 0 0 0 0 2510.6506178631389 -396.65631370643587 0 -396.65631370643587 -418.46406855624713 0 0 0 0 -17.726549374463502 202.10802861110176 0 202.10802861110176 66.213718846020299 0 0 0 0 12.288759360400718 -1.1062019453651715 0 -1.1062019453651715 -0.12551244101103187 0 0 0 0 641.16677336789144 -780.5699725732951 0 -780.5699725732951 -136.59365612234359 0 0 0 0 1684.9371028203459 1151.0786461525681 0 1151.0786461525681 989.91695128762126 0 0 0 0 12.408434843207942 635.04879760620372 0 635.04879760620372 893.25191295259788 0 0 0 0 2728.3975629589404 934.69633963419381 0 934.69633963419381 320.72551014326939 0 0 0 0 1601.3301980817923 573.67934691480502 0 573.67934691480502 344.33988634950742 0 0 0 0 2105.6507347922161 -250.16424682396672 0 -250.16424682396672 558.03883407057072 0 0 0 0 3074.3757903466903 100.79366532726036 0 100.79366532726036 -43.145791921514046 0 0 0 0 2025.9299990386789 172.77698596000806 0 172.77698596000806 -124.39685780868149 0 0 0 0 2099.6296429086651 89.621540978230314 0 89.621540978230314 -42.698850952306664 0 0 0 0 1979.6016461222753 49.88119350743932 0 49.88119350743932 451.00753712829078 0 0 0 0 972.07586048246594 720.89201061901565 0 720.89201061901565 344.46300967214069 0 0 0 0 2246.4137766428539 437.40038261313191 0 437.40038261313191 -105.31033745602372 0 0 0 0 1280.1826009404031 589.89764848915911 0 589.89764848915911 432.7843928225949 0 0 0 0 1078.4512277445465 150.48799789453744 0 150.48799789453744 299.96119880531933 0 0 0 0 627.12953639072657 325.9087988328593 0 325.9087988328593 322.29005449615033 0 0 0 0 6.8808460605288246 4.9078084091590881 0 4.9078084091590881 3.4725089254517139 0 0 0 0 2737.5026176504798 -889.4120014424916 0 -889.4120014424916 -429.03956476491976 0 0 0 0 545.08015313342912 313.93432456218261 0 313.93432456218261 32.32460267644592 0 0 0 0 1583.1146084002976 -240.36906214983924 0 -240.36906214983924 -78.731459564121906 0 0 0 0 1748.1432403198851 -47.86283842241869 0 -47.86283842241869 19.770582029357456 0 0 0 0 1498.2394724838086 -268.12752383549685 0 -268.12752383549685 2.5778115691746848 0 0 0 0 1472.5752279766166 -87.555035580339222 0 -87.555035580339222 222.98543871400796 0 0 0 0 1610.8340073796717 -190.2240370710816 0 -190.2240370710816 190.06306877848567 0 0 0 0 1927.6789960320166 63.420757581220698 0 63.420757581220698 177.27571615720777 0 0 0 0 1449.4998716727132 -133.89873528650782 0 -133.89873528650782 236.40305222962712 0 0 0 0 1387.7534603474342 -125.80955367322522 0 -125.80955367322522 0.099262561039306307 0 0 0 0 2071.112389070171 37.068384742329172 0 37.068384742329172 -0.15304853345101596 0 0 0 0 1760.4231492445397 181.0704519242706 0 181.0704519242706 208.43211496943363 0 0 0 0 1013.8564237569954 -68.51460352696418 0 -68.51460352696418 241.5632053544162 0 0 0 0 1.9339165431701169 -0.11113098040152636 0 -0.11113098040152636 -0.90685265188968411 0 0 0 0 1443.586030951883 -27.829558512925594 0 -27.829558512925594 -107.58204055768635 0 0 0 0 1014.2169504926878 -594.376157467197 0 -594.376157467197 146.98624194141598 0 0 0 0 808.9159044950502 98.892050727941182 0 98.892050727941182 230.11465799721111 0 0 0 0 1642.8620778575278 -171.62855078610039 0 -171.62855078610039 -3.8897233501720621 0 0 0 0 49.7777084954987 -286.62704644591417 0 -286.62704644591417 297.13169115912433 0 0 0 0 1.600719286852641 2.9461805400924277 0 2.9461805400924277 -8.3333834542710807 0 0 0 0 708.80310640326934 93.546552877131717 0 93.546552877131717 -113.96504814710147 0 0 0 0 7.5678010292840554 27.084236752943525 0 27.084236752943525 139.70414947486552 0 0 0 0 179.72746394044952 167.44483563949711 0 167.44483563949711 -21.601231368659455 0 0 0 0 108.78475817848812 41.243545038004413 0 41.243545038004413 -92.591930124553073 0 0 0 0 0.19184403294453389 11.291952008422754 0 11.291952008422754 -23.571223806888128 0 0 0 0 2400.2148795881385 -174.41536403637619 0 -174.41536403637619 -230.18986671803486 0 0 0 0 1282.6040882494999 -498.58947531034767 0 -498.58947531034767 -49.388022210439885 0 0 0 0 1069.420986644167 -37.158772168898324 0 -37.158772168898324 1175.7091069619139 0 0 0 0 2931.6713132849691 -292.4357158852502 0 -292.4357158852502 85.082837418988618 0 0 0 0 1670.3233633608907 -128.22237812608432 0 -128.22237812608432 -27.873473382266091 0 0 0 0 11.55686300400609 9.9238897485485893 0 9.9238897485485893 7.3949295366913983 0 0 0 0 1779.5861492449185 -323.1841083476254 0 -323.1841083476254 127.7459295042554 0 0 0 0 3373.2001144725582 -555.9428296932133 0 -555.9428296932133 -1.67642762740752 0 0 0 0 4023.9759809017996 -604.16356926777644 0 -604.16356926777644 -165.28408935358038 0 0 0 0 680.75908831405104 -292.07963324814648 0 -292.07963324814648 -99.951605230093264 0 0 0 0 1250.3486346589325 -593.65084864864173 0 -593.65084864864173 59.492008662906755 0 0 0 0 906.41452728897275 -508.17649269784494 0 -508.17649269784494 10.448922518307427 0 0 0 0 387.50828365486814 44.825954094430926 0 44.825954094430926 -170.89520499320008 0 0 0 0 191.84883869024634 -152.90317543867843 0 -152.90317543867843 311.33052057988971 0 0 0 0 910.82336082202801 -608.8824162030977 0 -608.8824162030977 344.79840905566562 0 0 0 0 3985.0509746928583 -316.99550435945821 0 -316.99550435945821 522.96612213326353 0 0 0 0 7.5649837559341506 4.05972614779688 0 4.05972614779688 4.1736783463410632 0 0 0 0 1599.6164236820478 225.8800692623081 0 225.8800692623081 616.20805087201143 0 0 0 0 14.213430682342725 -9.9264945817085959 0 -9.9264945817085959 5.7184482977225866 0 0 0 0 6052.282712341359 -1112.3368616371522 0 -1112.3368616371522 191.82060609644213 0 0 0 0 -1933.690047928103 -1316.8046860592308 0 -1316.8046860592308 53.316196331057654 0 0 0 0 5922.8418589644134 -1507.9930291039832 0 -1507.9930291039832 -291.71604311161809 0 0 0 0 4597.6907402434445 1221.2196978814648 0 1221.2196978814648 -539.46238198796163 0 0 0 0 3.806521228452084 1.1434999753064687 0 1.1434999753064687 -4.4851271306032245 0 0 0 0 -1292.2059009945951 -847.34407800735744 0 -847.34407800735744 -556.4135013534933 0 0 0 0 75.240875310279989 -43.807693302212158 0 -43.807693302212158 15.128558982402478 0 0 0 0 -510.65560497051047 -742.52683748312279 0 -742.52683748312279 -704.07091341585601 0 0 0 0 -215.28955649319687 -1057.5199132598441 0 -1057.5199132598441 -1270.6663416401771 0 0 0 0 140.38601992279291 18.469021613812401 0 18.469021613812401 -198.09185828811223 0 0 0 0 163.51152349345648 57.426212249226637 0 57.426212249226637 -154.45641811180576 0 0 0 0 2975.2566051607137 -127.58971534975876 0 -127.58971534975876 156.03098473584487 0 0 0 0 102.73080790974745 21.875297690534012 0 21.875297690534012 -136.307089290156 0 0 0 0 9.4422689031294951 16.005030601812678 0 16.005030601812678 -40.308007442702092 0 0 0 0 70.534520345270096 -31.499723562256904 0 -31.499723562256904 10.422674597107907 0 0 0 0 134.93907218932418 -180.00876700029758 0 -180.00876700029758 -368.89708843818516 0 0 0 0 230.32482579167117 -1047.4962018153667 0 -1047.4962018153667 -2339.3865923413969 0 0 0 0 80.016856070265533 -41.347513025865645 0 -41.347513025865645 15.810427271723206 0 0 0 0 -258.44831904773309 -966.99216160221647 0 -966.99216160221647 -710.33817742443944 0 0 0 0 605.44298248266205 347.06293839016001 0 347.06293839016001 -836.27729854228642 0 0 0 0 4939.9174347066 -400.29067894099126 0 -400.29067894099126 -1256.1000653983497 0 0 0 0 2067.9812341131947 543.83038465604034 0 543.83038465604034 -464.90328600915473 0 0 0 0 1977.2538710430708 1589.594785599701 0 1589.594785599701 -1014.4035203771169 0 0 0 0 797.77301027893554 -1280.9228245304664 0 -1280.9228245304664 -2178.0114168713853 0 0 0 0 310.96083184083545 -268.52465799962988 0 -268.52465799962988 604.99704764212129 0 0 0 0 946.11911261691421 -2375.7654720722985 0 -2375.7654720722985 3074.0284775948521 0 0 0 0 29.801664185412051 -12.483365473094167 0 -12.483365473094167 5.7386225222384004 0 0 0 0 4908.6030179067566 -1881.3152457567046 0 -1881.3152457567046 615.20415172586399 0 0 0 0 772.1512195639807 -480.23285508373482 0 -480.23285508373482 194.07708370807805 0 0 0 0 611.58065201959107 -1232.2010238599432 0 -1232.2010238599432 1445.6587359038697 0 0 0 0 454.11866467478103 -592.05845274978378 0 -592.05845274978378 -230.96847211805994 0 0 0 0 350.66518557595555 -9.696879250762322 0 -9.696879250762322 -274.48194816592286 0 0 0 0 54.013019362821069 -63.206523576603615 0 -63.206523576603615 322.67858581710971 0 0 0 0 2589.7558017300616 -1009.5544181956326 0 -1009.5544181956326 -1.0318468778851435 0 0 0 0 520.89399622950077 -453.95083678603538 0 -453.95083678603538 355.86848285374049 0 0 0 0 1421.2442499206154 -1190.5669145498941 0 -1190.5669145498941 73.650384237385964 0 0 0 0 1839.9413724296319 -836.24333756413557 0 -836.24333756413557 90.106626564205428 0 0 0 0 1745.7387937097228 -32.505967278411902 0 -32.505967278411902 491.04907245589527 0 0 0 0 2345.1647852112656 -1457.749814882947 0 -1457.749814882947 -66.903648290052502 0 0 0 0 4086.2738862654078 -1902.8537478474561 0 -1902.8537478474561 -2.5990326375829227 0 0 0 0 -289.82434562005801 127.09775431540072 0 127.09775431540072 -364.42489989052496 0 0 0 0 1304.3910630268801 -374.10431346584033 0 -374.10431346584033 -2469.9553490291837 0 0 0 0 1142.95877573709 -231.02678678134114 0 -231.02678678134114 -574.61963722890937 0 0 0 0 43.473511214096334 -3.0596940839634219 0 -3.0596940839634219 -2.2884383096874625 0 0 0 0 1371.7419996360841 -2382.4200844123475 0 -2382.4200844123475 1461.0537878230894 0 0 0 0 20.617671430431415 -5.1869328791048233 0 -5.1869328791048233 0.37651311780646313 0 0 0 0 39.95055943200714 -1631.9647515946656 0 -1631.9647515946656 1057.3365554956758 0 0 0 0 2060.2627944095002 -2265.290395964058 0 -2265.290395964058 427.85642444133947 0 0 0 0 -315.78941847296664 -121.48461625767018 0 -121.48461625767018 3.8660772477589944 0 0 0 0 1438.1778478531924 -1145.2910114176029 0 -1145.2910114176029 64.348218878273968 0 0 0 0 1117.4848111329193 -1087.5788079740114 0 -1087.5788079740114 361.74099631089746 0 0 0 0 1424.1972351020231 -922.55904527812845 0 -922.55904527812845 449.10723360593323 0 0 0 0 856.72846782144916 -1607.3214723191988 0 -1607.3214723191988 263.1508983982016 0 0 0 0 1986.2942733833916 -1669.6464388720067 0 -1669.6464388720067 264.08138348092575 0 0 0 0 1879.9752864983166 -1505.3625155166835 0 -1505.3625155166835 511.26073868733164 0 0 0 0 1790.0366255368281 -1648.645155685035 0 -1648.645155685035 578.64513558481849 0 0 0 0 3382.7944206717075 -1087.4846913953254 0 -1087.4846913953254 349.33697334056649 0 0 0 0 1921.6079786505434 -1623.6769868488409 0 -1623.6769868488409 643.06535096690288 0 0 0 0 5496.106618662885 440.1497564859385 0 440.1497564859385 -442.07693200507117 0 0 0 0 4214.4950361637166 707.293809404635 0 707.293809404635 -43.381432956973271 0 0 0 0 2902.0369622338949 -205.60771905409533 0 -205.60771905409533 676.27957525010117 0 0 0 0 5544.8800376636209 169.9956473956972 0 169.9956473956972 -0.60419982431743713 0 0 0 0 1944.8605537713156 842.18954952234594 0 842.18954952234594 -42.230776587170965 0 0 0 0 -328.66894509951817 -89.025422039403466 0 -89.025422039403466 164.34377187047829 0 0 0 0 2280.0730460876221 574.77266628186783 0 574.77266628186783 64.838384212470032 0 0 0 0 -437.13145661365706 -581.10128883861387 0 -581.10128883861387 -26.296877231590901 0 0 0 0 5432.5387337266584 1989.2074663857361 0 1989.2074663857361 -748.97103728775346 0 0 0 0 22.853476241145017 2.5859794703396979 0 2.5859794703396979 -0.10467126367832223 0 0 0 0 1778.9838631871826 2589.2430295236563 0 2589.2430295236563 234.30641549884859 0 0 0 0 6369.718242260642 -474.69871854633823 0 -474.69871854633823 398.36544919102346 0 0 0 0 4302.3618205861421 -394.74937481025739 0 -394.74937481025739 -20.15420864722633 0 0 0 0 4810.8453838744244 -49.750635471941976 0 -49.750635471941976 204.16005796812502 0 0 0 0 4522.8714129230939 269.32335023651638 0 269.32335023651638 814.8187509773544 0 0 0 0 4303.3477314513439 -331.88531206358158 0 -331.88531206358158 1629.9185453168241 0 0 0 0 4466.285477093712 -1346.6104560979038 0 -1346.6104560979038 492.72508849815097 0 0 0 0 4676.8191703941993 -826.96129337311334 0 -826.96129337311334 -711.75210371370451 0 0 0 0 4687.1872162046056 -712.12181327493386 0 -712.12181327493386 67.364082371492742 0 0 0 0 210.55941114394227 -296.15723682827149 0 -296.15723682827149 237.49902213326982 0 0 0 0 208.82658206539054 -300.10021306925182 0 -300.10021306925182 257.30848596840053 0 0 0 0 228.71479681762867 -202.91359040799352 0 -202.91359040799352 111.55020990625906 0 0 0 0 247.61227266346395 -300.34126647792812 0 -300.34126647792812 151.1188722217305 0 0 0 0 204.72121608315501 -232.72880231190584 0 -232.72880231190584 236.44979424547523 0 0 0 0 208.69173890960519 -247.60807096220549 0 -247.60807096220549 281.69830489047627 0 0 0 0 201.99862428854976 -235.61845285571076 0 -235.61845285571076 332.07360607253133 0 0 0 0 208.81552960915724 -309.40592018207929 0 -309.40592018207929 334.82442908872827 0 0 0 0 204.12316523803747 -292.68771873909918 0 -292.68771873909918 278.48306357779256 0 0 0 0 197.84034063250874 -347.85685775564343 0 -347.85685775564343 320.68759482757378 0 0 0 0 197.62154675649799 -340.00279602382045 0 -340.00279602382045 330.78797686146299 0 0 0 0 193.72455625380098 -340.52491364696516 0 -340.52491364696516 364.18131873877428 0 0 0 0 142.89363086680532 -337.84303824941344 0 -337.84303824941344 336.18500410727074 0 0 0 0 162.11590969344252 -375.42107364255935 0 -375.42107364255935 374.89846635673166 0 0 0 0 197.7641198085912 -351.29304448495941 0 -351.29304448495941 231.0607710022058 0 0 0 0 219.95142483458039 -392.88901128158977 0 -392.88901128158977 290.68368426895995 0 0 0 0 179.45848062026198 -405.51502007404042 0 -405.51502007404042 289.20434882088284 0 0 0 0 237.67786381670157 -493.21531927729211 0 -493.21531927729211 388.4197918524369 0 0 0 0 310.5367225028167 -478.29803006256839 0 -478.29803006256839 256.58925167239772 0 0 0 0 257.64341776422225 -459.54731967494445 0 -459.54731967494445 265.73093542737047 0 0 0 0 269.48601613289793 -387.10587992103831 0 -387.10587992103831 108.65414979775051 0 0 0 0 319.66504922551394 -142.99228656633431 0 -142.99228656633431 163.21916444528233 0 0 0 0 568.52326395464479 -236.79888832549386 0 -236.79888832549386 188.3590639964691 0 0 0 0 601.39369194743631 -358.91217119709484 0 -358.91217119709484 -102.49188601214701 0 0 0 0 238.21352949293214 -437.56034408610412 0 -437.56034408610412 -238.01234140586735 0 0 0 0 48.809932187623019 16.925462302700652 0 16.925462302700652 0.46534052974224682 0 0 0 0 506.5011557675607 -101.13086272591784 0 -101.13086272591784 -490.21139167216052 0 0 0 0 192.94939733478896 164.88392216639119 0 164.88392216639119 -357.50102447105678 0 0 0 0 1253.4994725338765 -1328.252069974614 0 -1328.252069974614 1389.7204931540521 0 0 0 0 182.48068399744807 -184.00329140323799 0 -184.00329140323799 -46.93637385730699 0 0 0 0 233.52618137048557 -281.72730181244657 0 -281.72730181244657 127.87256434256153 0 0 0 0 352.15555618629151 -234.31253106594983 0 -234.31253106594983 -91.329649338632692 0 0 0 0 55.957264856086113 -132.64070649043742 0 -132.64070649043742 46.654437376762871 0 0 0 0 138.11689391464461 -52.734556346946192 0 -52.734556346946192 157.96607886772108 0 0 0 0 1309.0910262827092 -782.40134920446235 0 -782.40134920446235 586.51148374630975 0 0 0 0 226.97342097663204 -182.12603978780226 0 -182.12603978780226 44.859869670042826 0 0 0 0 60.446181807173275 28.468481037939227 0 28.468481037939227 2.7437904775471118 0 0 0 0 213.27498120989185 -99.802619816710376 0 -99.802619816710376 63.315164819599886 0 0 0 0 1203.1316787305113 -1298.0519259726634 0 -1298.0519259726634 1400.079342809925 0 0 0 0 841.17402960215986 -1214.4697693171197 0 -1214.4697693171197 1576.9233254522123 0 0 0 0 60.479519401105449 -6.3658755020616482 0 -6.3658755020616482 -5.4713764413939785 0 0 0 0 45.537131114120712 -11.694413497789355 0 -11.694413497789355 17.712136362057208 0 0 0 0 31.087251622392387 0.35112649613995472 0 0.35112649613995472 -4.5856135137638638 0 0 0 0 1175.5166828522633 -1509.557304203543 0 -1509.557304203543 1437.5660867754368 0 0 0 0 2204.8490773399535 -1725.7757686598343 0 -1725.7757686598343 329.65848101208394 0 0 0 0 1203.0539433537924 -1262.6485556925848 0 -1262.6485556925848 1721.727134089826 0 0 0 0 1602.95119141537 -2711.6843614258323 0 -2711.6843614258323 3850.7457941458179 0 0 0 0 -268.01965756969003 -1023.2729148438802 0 -1023.2729148438802 2373.6987453067632 0 0 0 0 156.25887422065716 -20.808725747545395 0 -20.808725747545395 43.09868006951001 0 0 0 0 838.04852745617973 -2363.8396104276835 0 -2363.8396104276835 1302.0878780630974 0 0 0 0 2762.1923295251327 -1889.9421566065193 0 -1889.9421566065193 1322.6880398997437 0 0 0 0 199.07431781974446 -150.3845654531342 0 -150.3845654531342 132.92585599570702 0 0 0 0 193.53576237418747 -143.59184448155474 0 -143.59184448155474 173.97479988241321 0 0 0 0 -14.493621132669489 5.0299951238055201 0 5.0299951238055201 9.6565671349412447 0 0 0 0 195.41410164302215 -146.69626147857525 0 -146.69626147857525 175.91628210459839 0 0 0 0 179.73772255599033 -140.72413458193978 0 -140.72413458193978 219.81818118215415 0 0 0 0 19.993783302595034 -2.1619035910995308 0 -2.1619035910995308 -10.499163794306725 0 0 0 0 199.71509786476963 -165.16184508687184 0 -165.16184508687184 237.10152048058262 0 0 0 0 213.26067177197547 -98.466997485529191 0 -98.466997485529191 231.13399711062283 0 0 0 0 206.96454185957555 -138.96156216555812 0 -138.96156216555812 150.5733073543779 0 0 0 0 207.32562888786197 -144.13032411027871 0 -144.13032411027871 221.68739446165182 0 0 0 0 184.98682351666503 -134.6433343985027 0 -134.6433343985027 221.46173561750038 0 0 0 0 199.98635869642021 -167.90776978544761 0 -167.90776978544761 188.13498890875098 0 0 0 0 232.30005359904317 -223.31116488844472 0 -223.31116488844472 225.21378207179805 0 0 0 0 222.40426616749028 -165.93561043528098 0 -165.93561043528098 159.85078518059572 0 0 0 0 218.20493331752368 -224.55298349095511 0 -224.55298349095511 296.99093286601135 0 0 0 0 209.27466562553309 -226.02517531603667 0 -226.02517531603667 303.570900376586 0 0 0 0 187.75236876105191 -196.22301001534606 0 -196.22301001534606 265.34134359733594 0 0 0 0 206.37636887886038 -187.57272723880851 0 -187.57272723880851 248.2219490968937 0 0 0 0 192.71240318514174 -158.74058927513079 0 -158.74058927513079 228.86331418960435 0 0 0 0 175.98600052046822 -151.97768215024553 0 -151.97768215024553 240.11704002655097 0 0 0 0 169.14537246669352 -163.9021641012863 0 -163.9021641012863 291.26072337006235 0 0 0 0 152.7618555277586 -135.60609217143792 0 -135.60609217143792 287.0441439812621 0 0 0 0 175.1697061592422 -114.56484670532791 0 -114.56484670532791 180.34752806972028 0 0 0 0 156.89657602476655 -130.04373643205145 0 -130.04373643205145 235.01195810134027 0 0 0 0 185.47146455882466 -120.834543294387 0 -120.834543294387 159.5379570562709 0 0 0 0 190.77153749618446 -68.753300090962512 0 -68.753300090962512 91.178874501712926 0 0 0 0 171.22235784039367 -100.85189121101394 0 -100.85189121101394 189.98681832242073 0 0 0 0 125.48527155688498 -80.599256122679435 0 -80.599256122679435 205.30881329855129 0 0 0 0 229.48723216090002 -167.01429658329766 0 -167.01429658329766 288.67194994922488 0 0 0 0 159.02357690618373 -92.576152877266395 0 -92.576152877266395 214.03626845038616 0 0 0 0 155.81856540773879 -157.73631888911677 0 -157.73631888911677 334.76879624722096 0 0 0 0 223.60080799322168 -301.85136208651579 0 -301.85136208651579 473.76966583371967 0 0 0 0 399.59146417728334 -255.60819112356319 0 -255.60819112356319 359.89312116126598 0 0 0 0 226.54282036254881 -276.18311557670665 0 -276.18311557670665 367.08947008404448 0 0 0 0 182.54251213598764 -182.75137702206712 0 -182.75137702206712 372.44346360542886 0 0 0 0 199.40991491626482 -174.63100435903107 0 -174.63100435903107 263.57234919119924 0 0 0 0 374.03098278093239 -514.52899215722243 0 -514.52899215722243 639.4255400570928 0 0 0 0 414.12758239883988 -291.08045338373358 0 -291.08045338373358 402.6253569673022 0 0 0 0 469.16819169135124 -474.39301284315781 0 -474.39301284315781 539.89583321003238 0 0 0 0 712.2231490091217 -426.75214167492032 0 -426.75214167492032 286.97900116246603 0 0 0 0 966.18911572815705 -749.49514042351632 0 -749.49514042351632 451.62646320771682 0 0 0 0 1232.7429687596969 -735.5111805310986 0 -735.5111805310986 339.37102011469142 0 0 0 0 720.17117824783782 -405.43784134087173 0 -405.43784134087173 278.21642092248328 0 0 0 0 547.69864569626225 -100.9179308701473 0 -100.9179308701473 554.7659802442945 0 0 0 0 1283.364332267709 -182.25392036377343 0 -182.25392036377343 210.39858148860048 0 0 0 0 238.28651396505302 -329.72598724901309 0 -329.72598724901309 414.2176126217837 0 0 0 0 301.63039583148202 -232.42306844335701 0 -232.42306844335701 376.0313157508424 0 0 0 0 225.13950949805439 -297.71449161172086 0 -297.71449161172086 340.71605342844623 0 0 0 0 336.06951321806991 -329.33321422248116 0 -329.33321422248116 416.71066131686041 0 0 0 0 650.31925179827158 -220.69268533350836 0 -220.69268533350836 382.65417198630712 0 0 0 0 330.39800294395536 -270.56238862372993 0 -270.56238862372993 493.72966538461469 0 0 0 0 370.87590671135695 -409.12240437831724 0 -409.12240437831724 382.54410949119301 0 0 0 0 262.32273457688279 -353.80802004116504 0 -353.80802004116504 377.54522956207029 0 0 0 0 338.19561798278664 -330.13417232587574 0 -330.13417232587574 352.67827443327496 0 0 0 0 260.59760965417081 -340.79403950914411 0 -340.79403950914411 305.03754294177452 0 0 0 0 326.56917079896084 -332.0855244035256 0 -332.0855244035256 237.29712315151573 0 0 0 0 212.96236409844278 -315.56919459767971 0 -315.56919459767971 291.88545879448066 0 0 0 0 373.57956672774162 -372.26239709886158 0 -372.26239709886158 227.54583792021458 0 0 0 0 329.38108173303772 -314.38953311321802 0 -314.38953311321802 185.07331567321944 0 0 0 0 580.77818876458332 -411.15206678844606 0 -411.15206678844606 77.604452826889883 0 0 0 0 407.64864650285017 -236.82043193535969 0 -236.82043193535969 -94.706201060265812 0 0 0 0 412.78695526113734 -258.38802656459211 0 -258.38802656459211 -54.285065378113359 0 0 0 0 286.08382272701419 -262.40203644143821 0 -262.40203644143821 153.10401001001992 0 0 0 0 252.53153909236426 -253.53266243295002 0 -253.53266243295002 153.95367128285034 0 0 0 0 503.42717382857882 545.0081883424964 0 545.0081883424964 14.294840424538052 0 0 0 0 910.0726255284244 -691.89062852083725 0 -691.89062852083725 -135.59081774000788 0 0 0 0 -0.79653472562091565 -0.2293509669477487 0 -0.2293509669477487 0.51772930701525866 0 0 0 0 -379.5873544960341 -544.46420188317325 0 -544.46420188317325 -141.11949988898505 0 0 0 0 796.88027618275373 84.887077264249001 0 84.887077264249001 -20.652351201165402 0 0 0 0 471.01202842436032 43.681702875659084 0 43.681702875659084 -489.90416667922364 0 0 0 0 86.607235710660461 -228.42665624313668 0 -228.42665624313668 -426.31483480212046 0 0 0 0 -366.73042079521838 -206.09826357857219 0 -206.09826357857219 -350.88806897701397 0 0 0 0 25.392185111806612 -755.3449361846092 0 -755.3449361846092 -1315.952318706748 0 0 0 0 1.3523023761195532 -0.31254446477763054 0 -0.31254446477763054 -2.3686470729102425 0 0 0 0 -4.4186828231008803 1.8849707410138024 0 1.8849707410138024 -1.00102266115357 0 0 0 0 569.79576212816755 88.232268394905986 0 88.232268394905986 -428.30039073989064 0 0 0 0 -168.05636008553847 -442.46601422452113 0 -442.46601422452113 -141.83496946842934 0 0 0 0 444.39904757198383 194.32539040325946 0 194.32539040325946 -253.02931180019004 0 0 0 0 388.5780525013397 107.66839599833474 0 107.66839599833474 -36.623719103554322 0 0 0 0 336.9857801287535 46.179703307097441 0 46.179703307097441 -100.41837338761979 0 0 0 0 297.93745406670496 120.49210276332815 0 120.49210276332815 57.897481930511276 0 0 0 0 338.69219232088653 127.73862217617898 0 127.73862217617898 -11.70855759888218 0 0 0 0 496.80664586124476 339.02467584842225 0 339.02467584842225 45.982021623953187 0 0 0 0 302.81251510273432 92.314867818016864 0 92.314867818016864 3.8351510327738652 0 0 0 0 22.148558129560229 14.728427286838297 0 14.728427286838297 -10.585511368920692 0 0 0 0 332.06029603202478 -200.98819703814479 0 -200.98819703814479 -116.91112822251307 0 0 0 0 341.37600025895517 -161.11578252676554 0 -161.11578252676554 -113.45982478049336 0 0 0 0 391.07799492421327 -214.81003775622048 0 -214.81003775622048 -57.282889767830056 0 0 0 0 396.63788610557822 -199.1123664014392 0 -199.1123664014392 -102.26164500229606 0 0 0 0 509.64119477456552 -195.18320852254692 0 -195.18320852254692 -141.19851337132422 0 0 0 0 624.41810547449859 -14.339028183019764 0 -14.339028183019764 -235.7254569038414 0 0 0 0 362.4012225541228 -5.0854567026781297 0 -5.0854567026781297 -163.53527423264859 0 0 0 0 335.58658484039915 -38.012723513984383 0 -38.012723513984383 -52.15244053510105 0 0 0 0 289.003709919416 -170.27521110414682 0 -170.27521110414682 -124.54154746306813 0 0 0 0 365.239115980512 -151.83690065710471 0 -151.83690065710471 -136.24772313727226 0 0 0 0 364.76120209709597 -205.47515705340305 0 -205.47515705340305 -158.422807890689 0 0 0 0 378.78812535302131 -231.08853118673323 0 -231.08853118673323 -143.33899357726114 0 0 0 0 324.46730661051697 -207.76587280586136 0 -207.76587280586136 -197.80667985813488 0 0 0 0 376.72462553481455 -172.04262929437391 0 -172.04262929437391 -196.82610251962251 0 0 0 0 253.86777326535957 -209.39300612174793 0 -209.39300612174793 -161.27198112101905 0 0 0 0 240.98308090693899 -198.09223254694098 0 -198.09223254694098 -125.14995457775876 0 0 0 0 306.72993228383712 -154.83736230551403 0 -154.83736230551403 -176.48785032330488 0 0 0 0 230.22567646858442 -151.59760468049353 0 -151.59760468049353 -194.61687282500861 0 0 0 0 33.047240451647667 -69.172388938868608 0 -69.172388938868608 -192.90215825680013 0 0 0 0 228.15194429841358 -153.91407156035712 0 -153.91407156035712 -231.8255172588797 0 0 0 0 -207.47052625052311 -177.11151045666588 0 -177.11151045666588 -93.047726134391269 0 0 0 0 -223.29709688900402 -351.53075643000545 0 -351.53075643000545 -157.16957291772997 0 0 0 0 71.831714720086893 -200.75840518810219 0 -200.75840518810219 -209.05120212453039 0 0 0 0 64.151237055441015 -109.2350032124906 0 -109.2350032124906 -101.41282749118545 0 0 0 0 74.437680664414074 -93.321385579236448 0 -93.321385579236448 49.736607867655039 0 0 0 0 188.10342580763972 -177.20129752470166 0 -177.20129752470166 -72.150784359968384 0 0 0 0 8.935774130106438 -105.20443779266861 0 -105.20443779266861 -56.734883740424266 0 0 0 0 87.478198178810999 -142.69444891270359 0 -142.69444891270359 -38.976230421736545 0 0 0 0 29.724026114945445 -196.3152781472927 0 -196.3152781472927 -341.87629347391339 0 0 0 0 220.42737005907111 -114.19532429138599 0 -114.19532429138599 -136.50244358652708 0 0 0 0 280.51052671865909 -201.99104451042513 0 -201.99104451042513 -8.2196788980909332 0 0 0 0 240.3449298585474 -177.73978867890946 0 -177.73978867890946 -1.5358320491791346 0 0 0 0 136.78740475766244 -200.70288561211419 0 -200.70288561211419 221.2729895466382 0 0 0 0 109.96965457778424 -137.9659769147047 0 -137.9659769147047 76.92229364992636 0 0 0 0 42.869834784127306 -199.85538892990735 0 -199.85538892990735 275.08558085632285 0 0 0 0 -5.5014365505776368 -62.529439196736348 0 -62.529439196736348 117.8848282689396 0 0 0 0 12.812294775365444 -168.70856809506768 0 -168.70856809506768 107.08546624753944 0 0 0 0 -27.344651547739886 -165.09953155199693 0 -165.09953155199693 325.51273222562668 0 0 0 0 65.469547759348643 -282.2189728115593 0 -282.2189728115593 393.97251161262102 0 0 0 0 81.601516602560878 -309.96272607724222 0 -309.96272607724222 419.38702330940032 0 0 0 0 20.832822397976997 -321.06409498860376 0 -321.06409498860376 473.68192419403022 0 0 0 0 111.95500308852934 -426.48706527712841 0 -426.48706527712841 512.22121590774987 0 0 0 0 97.87888131460204 -348.83535690514157 0 -348.83535690514157 367.09090718899461 0 0 0 0 215.09921681117703 -322.25050026052952 0 -322.25050026052952 305.1674183783125 0 0 0 0 183.32278804641101 -293.51720325817064 0 -293.51720325817064 294.21233867102092 0 0 0 0 146.35901571973227 -240.59046418167509 0 -240.59046418167509 222.65960998619181 0 0 0 0 770.03424704529243 -62.970107485876895 0 -62.970107485876895 325.74255632786117 0 0 0 0 2584.4786178850773 -116.88070107047315 0 -116.88070107047315 223.14632354038713 0 0 0 0 702.36690834308502 -775.75382609130077 0 -775.75382609130077 490.55442700659933 0 0 0 0 82.187626077327877 -379.56990117390615 0 -379.56990117390615 495.34056749655429 0 0 0 0 -10.47758771199733 -470.15380469971387 0 -470.15380469971387 718.28334991563815 0 0 0 0 -225.77148170419241 -618.87547267947207 0 -618.87547267947207 810.1520436567389 0 0 0 0 -32.479302519244811 -293.01565052586022 0 -293.01565052586022 582.97404339168497 0 0 0 0 -88.986153927922715 -53.494905542653214 0 -53.494905542653214 382.69928956150216 0 0 0 0 104.62934788652638 -283.66025825591805 0 -283.66025825591805 344.74085177122106 0 0 0 0 -339.73098360135918 -59.819104129484913 0 -59.819104129484913 274.69362530588114 0 0 0 0 959.1754910776508 -993.08189696270165 0 -993.08189696270165 755.9746177370871 0 0 0 0 -371.89249782986008 -375.88397971465747 0 -375.88397971465747 597.34637268855658 0 0 0 0 15.850509030466611 -12.696370705075566 0 -12.696370705075566 12.28009094749385 0 0 0 0 1035.9669927027717 -893.25469904079955 0 -893.25469904079955 -412.79211446904969 0 0 0 0 26.658759893934359 -2.0986826908522929 0 -2.0986826908522929 -0.84060446972789382 0 0 0 0 1209.6961510071269 2138.1683242706849 0 2138.1683242706849 -855.51221644074985 0 0 0 0 3693.2240102417854 1469.9847605940477 0 1469.9847605940477 -839.93900227323047 0 0 0 0 2268.3943133052671 -1408.1766248162385 0 -1408.1766248162385 2964.6330080354383 0 0 0 0 -121.47538902936503 -445.15882122630046 0 -445.15882122630046 -468.31504517349094 0 0 0 0 -55.922838335798588 -40.429100505341921 0 -40.429100505341921 0.35963681819885096 0 0 0 0 -30.738934516848531 -101.85110850774981 0 -101.85110850774981 -222.69013374690257 0 0 0 0 -80.801649921253556 57.590309018436528 0 57.590309018436528 -488.35568529422017 0 0 0 0 -385.21443358168472 88.59346654105866 0 88.59346654105866 -31.726330275319924 0 0 0 0 35.383842122368236 -31.364298295749705 0 -31.364298295749705 27.229018200348477 0 0 0 0 2243.6481819209293 295.94680469161358 0 295.94680469161358 -364.9883382190028 0 0 0 0 2082.4607309468702 -741.47816636006814 0 -741.47816636006814 -563.48777384803361 0 0 0 0 228.36741548598548 302.29652577302772 0 302.29652577302772 -326.74897758443421 0 0 0 0 1199.4763587607595 -486.80356311572359 0 -486.80356311572359 -362.01637615598065 0 0 0 0 1100.763008532027 -462.62104515059809 0 -462.62104515059809 -365.06448615516729 0 0 0 0 481.40109781830688 -913.87632616814017 0 -913.87632616814017 -181.13609537933871 0 0 0 0 702.30347909603006 -471.92091727781713 0 -471.92091727781713 -18.001490094215114 0 0 0 0 -231.86471486499067 -394.6557549617678 0 -394.6557549617678 9.0865863784801491 0 0 0 0 394.76045701044495 -78.494782457531755 0 -78.494782457531755 -1028.3842837603083 0 0 0 0 47.349027811476105 -7.0998425359295965 0 -7.0998425359295965 -1.0465776353949963 0 0 0 0 478.35692857445247 -55.932322331611886 0 -55.932322331611886 -160.20840774054886 0 0 0 0 -40.982458871358176 172.88463896087774 0 172.88463896087774 -188.50400440061003 0 0 0 0 129.25051418005023 85.982725952757391 0 85.982725952757391 -152.95494014960084 0 0 0 0 824.07057067738788 324.13166000672527 0 324.13166000672527 -161.79737948579259 0 0 0 0 419.88346181733505 518.69139408091746 0 518.69139408091746 -291.32982954112322 0 0 0 0 940.97607874940149 583.38115302321785 0 583.38115302321785 -418.86614000900227 0 0 0 0 1191.1417242021125 826.65415642960124 0 826.65415642960124 -217.43060668445241 0 0 0 0 20.791638958988869 -4.5592288431918959 0 -4.5592288431918959 0.59371742901822966 0 0 0 0 -19.586438828744576 -812.93703591636552 0 -812.93703591636552 904.63413567356019 0 0 0 0 -13.904295035858695 233.14540155976528 0 233.14540155976528 433.70631198153205 0 0 0 0 898.42589243280963 -1051.0273313229964 0 -1051.0273313229964 268.72577200349224 0 0 0 0 705.18670095181733 -232.44197998523464 0 -232.44197998523464 853.97074717015403 0 0 0 0 462.396701334932 -462.31243408347905 0 -462.31243408347905 983.27271877669489 0 0 0 0 274.11832424819295 -165.54491104324487 0 -165.54491104324487 2172.2567974675726 0 0 0 0 1146.6324378630234 -506.1344545550262 0 -506.1344545550262 844.98690592106095 0 0 0 0 1037.9664269065834 1328.4710482695152 0 1328.4710482695152 1365.1819757990997 0 0 0 0 223.10753732804733 686.62928900191332 0 686.62928900191332 859.62261788391856 0 0 0 0 -716.3221779229716 -107.63737769157933 0 -107.63737769157933 1725.1156074421679 0 0 0 0 371.76767808911973 -693.00453354137289 0 -693.00453354137289 -1209.5963360524468 0 0 0 0 383.13410399433633 136.98807155359168 0 136.98807155359168 -217.28803488077665 0 0 0 0 4.3099360491801804 -4.8798335211648691 0 -4.8798335211648691 3.9965287361065407 0 0 0 0 -499.26659225045296 -688.11190028135616 0 -688.11190028135616 107.54247428246254 0 0 0 0 -168.3797383172423 -75.880044819257819 0 -75.880044819257819 -130.78433710709851 0 0 0 0 13.584658147198638 -9.8812757017418562 0 -9.8812757017418562 4.4781161049207885 0 0 0 0 -5.1188216379086953 -30.49619608508101 0 -30.49619608508101 -209.35233558846903 0 0 0 0 -577.81082725884335 -98.740569796957061 0 -98.740569796957061 203.24562810938824 0 0 0 0 -61.421759817167185 90.845562263112697 0 90.845562263112697 -201.5144186245625 0 0 0 0 269.72238685360207 -260.67397631288407 0 -260.67397631288407 1198.7845170215519 0 0 0 0 291.96091335330857 -93.356658261512848 0 -93.356658261512848 -108.05002983503755 0 0 0 0 97.425358710272121 -943.44110697943279 0 -943.44110697943279 -545.91685838103695 0 0 0 0 230.19531587750316 168.29399246821026 0 168.29399246821026 -371.05863230314571 0 0 0 0 679.49894629821938 -107.73805407090231 0 -107.73805407090231 -495.44753827584555 0 0 0 0 1076.0713698817563 -19.348597507937484 0 -19.348597507937484 -664.7789403669999 0 0 0 0 1875.1033898806345 -476.44167627664683 0 -476.44167627664683 -382.02318470331488 0 0 0 0 1219.7778108330203 378.56388866129055 0 378.56388866129055 460.35862886957511 0 0 0 0 1698.0248672514208 -297.73026102431368 0 -297.73026102431368 372.91919542526784 0 0 0 0 968.02580060419859 111.90713612348657 0 111.90713612348657 374.58857065986547 0 0 0 0 798.38503854404553 -146.50929587475736 0 -146.50929587475736 365.40978851399313 0 0 0 0 337.64424499854067 -41.837009813179407 0 -41.837009813179407 352.30041898901243 0 0 0 0 476.65038914534671 258.84450587271635 0 258.84450587271635 533.63075185693151 0 0 0 0 -191.63763145060511 -137.1228469020723 0 -137.1228469020723 614.68655372213709 0 0 0 0 -97.403236093705345 -430.71255486743166 0 -430.71255486743166 412.75102619614245 0 0 0 0 273.5826546048047 21.605213599942147 0 21.605213599942147 366.12776577146968 0 0 0 0 -102.83349930129771 -163.96783836630993 0 -163.96783836630993 349.2498739356439 0 0 0 0 -135.76333955682639 -95.939565300635877 0 -95.939565300635877 226.70271023695074 0 0 0 0 -191.4332937435592 -371.25721410965991 0 -371.25721410965991 316.50935039444857 0 0 0 0 -50.174881583312526 -407.95491806681321 0 -407.95491806681321 197.04834574961558 0 0 0 0 753.65057686301589 -215.90486359187798 0 -215.90486359187798 -178.8520287427873 0 0 0 0 -206.49457937158149 -417.38456503329803 0 -417.38456503329803 154.80616522857872 0 0 0 0 -191.47463572068955 -185.82208954523981 0 -185.82208954523981 105.44059471363289 0 0 0 0 335.72681740940607 207.75073848284774 0 207.75073848284774 229.81910569284605 0 0 0 0 331.86708698689472 -53.567712291517637 0 -53.567712291517637 86.227468803316015 0 0 0 0 380.76015797843866 202.8289948452375 0 202.8289948452375 458.22766800732637 0 0 0 0 517.14553049892129 195.84239860095704 0 195.84239860095704 95.216098130485989 0 0 0 0 899.68469044128142 609.85766217442597 0 609.85766217442597 366.886654979985 0 0 0 0 183.97880591201829 740.92284162771284 0 740.92284162771284 744.26674936529821 0 0 0 0 573.3628867224179 182.20655137868289 0 182.20655137868289 1479.3117320095826 0 0 0 0 700.07153792571626 235.99035708955898 0 235.99035708955898 694.05702307072534 0 0 0 0 578.76914194122219 414.44053375519894 0 414.44053375519894 470.89892519595378 0 0 0 0 705.76745687388029 296.0247807952174 0 296.0247807952174 519.39059431315195 0 0 0 0 652.13450256138458 151.6592641781192 0 151.6592641781192 326.50744357065923 0 0 0 0 645.23848076574359 268.934086311351 0 268.934086311351 816.02212938280172 0 0 0 0 648.38098267528403 300.57111058093369 0 300.57111058093369 536.61623059947851 0 0 0 0 718.33073588551088 460.96662499027639 0 460.96662499027639 690.81775756978459 0 0 0 0 1126.6355645481381 303.44895134087892 0 303.44895134087892 744.12075294620718 0 0 0 0 528.55406464685075 735.97115215966642 0 735.97115215966642 1075.1280798216649 0 0 0 0 -210.99320811251528 -168.03235455393497 0 -168.03235455393497 1265.7392450356731 0 0 0 0 1352.4502720401942 186.31068693830184 0 186.31068693830184 -297.93367894788025 0 0 0 0 128.6394614912424 -131.92114823891006 0 -131.92114823891006 -87.007032742068986 0 0 0 0 177.20687719738635 -227.10758848846581 0 -227.10758848846581 -115.992963384213 0 0 0 0 765.68436793723959 -267.99115213957066 0 -267.99115213957066 -384.51495561706179 0 0 0 0 23.175687944982101 68.679828570049096 0 68.679828570049096 -14.241225331416189 0 0 0 0 733.90156833129004 268.39952458389143 0 268.39952458389143 157.32450796583726 0 0 0 0 327.44525818819238 -66.063502294011414 0 -66.063502294011414 -90.755471911887071 0 0 0 0 586.65048551767541 64.812718706835312 0 64.812718706835312 -116.42937894410625 0 0 0 0 1028.1422283937864 635.73942156982775 0 635.73942156982775 237.04761016263728 0 0 0 0 23.679670923544734 9.1427722781717762 0 9.1427722781717762 2.698659496872903 0 0 0 0 124.83508566132514 -162.6223035465091 0 -162.6223035465091 1407.0585474174086 0 0 0 0 -3293.9090540621091 3185.6802723430606 0 3185.6802723430606 505.00125145091079 0 0 0 0 34.35260228843849 -0.29131063503572818 0 -0.29131063503572818 2.0562137527532656 0 0 0 0 2378.3279494561721 -971.19497416904369 0 -971.19497416904369 611.19224793994726 0 0 0 0 752.14846040285192 1306.3173064071716 0 1306.3173064071716 1018.0575257555975 0 0 0 0 963.13394573322148 854.72474132881143 0 854.72474132881143 -44.871072748228471 0 0 0 0 4170.051136576687 933.45177846270417 0 933.45177846270417 -1186.2007146881351 0 0 0 0 2650.3169254868699 3711.8318328353289 0 3711.8318328353289 -878.03004746798433 0 0 0 0 143.77507158958429 -50.291797598745049 0 -50.291797598745049 12.622957869480217 0 0 0 0 5569.8614859475638 -1014.7728920624213 0 -1014.7728920624213 2888.4151291388553 0 0 0 0 304.03968137112679 -39.206791661592888 0 -39.206791661592888 -109.82825844840954 0 0 0 0 224.33709498122334 15.331103655823881 0 15.331103655823881 -99.282161782772619 0 0 0 0 -2583.0203780789452 1614.1224797808663 0 1614.1224797808663 4138.4724204815229 0 0 0 0 41.719224900649237 1.2746780539663618 0 1.2746780539663618 3.6737206834181935 0 0 0 0 296.90447223361116 -589.12017590806681 0 -589.12017590806681 1697.8277389732098 0 0 0 0 394.20359759073472 71.43351428880851 0 71.43351428880851 83.69277377949129 0 0 0 0 224.79922884431289 -150.70917935988609 0 -150.70917935988609 139.32234563101701 0 0 0 0 318.59965022851247 -724.39261991746662 0 -724.39261991746662 1695.6108037714575 0 0 0 0 7.1161935894839985 -6.1898561860532766 0 -6.1898561860532766 -2.2465304106949979 0 0 0 0 295.40381511441956 -9.0189764674128128 0 -9.0189764674128128 246.3109985369374 0 0 0 0 1443.4517085571133 -1524.7037994287039 0 -1524.7037994287039 1709.468330310583 0 0 0 0 5.2108654821270193 0.17518829166738215 0 0.17518829166738215 -0.25502341106642668 0 0 0 0 1290.1518506190259 -1287.6450851635495 0 -1287.6450851635495 1343.1465692877209 0 0 0 0 -189.05583928172018 554.96929962121089 0 554.96929962121089 567.27669910093528 0 0 0 0 1407.8027469135268 -1640.9043895473558 0 -1640.9043895473558 1828.9646549890645 0 0 0 0 20.040963879771823 5.6400170650340016 0 5.6400170650340016 -0.18006298735515269 0 0 0 0 584.04501641065269 908.70091836304243 0 908.70091836304243 681.00134687416903 0 0 0 0 1960.7695289102412 -1182.3534181275459 0 -1182.3534181275459 1027.2007830529649 0 0 0 0 1335.6289491342177 461.34286851984342 0 461.34286851984342 1385.1924647037818 0 0 0 0 236.36572612596865 -452.55870606907166 0 -452.55870606907166 1267.6789718675495 0 0 0 0 292.68182989305933 142.87776262049556 0 142.87776262049556 1541.4260809217355 0 0 0 0 681.3656704970781 -177.61831234800593 0 -177.61831234800593 889.9035141527329 0 0 0 0 398.62332850196253 116.09552000443261 0 116.09552000443261 923.64440339635348 0 0 0 0 384.56535660725785 156.21973910611359 0 156.21973910611359 824.28028824192825 0 0 0 0 279.95654149673646 349.32310036471608 0 349.32310036471608 832.32357188792321 0 0 0 0 132.63816604854219 92.851483746633221 0 92.851483746633221 938.26751134283404 0 0 0 0 200.19811986986315 256.60012631231893 0 256.60012631231893 688.80403043493516 0 0 0 0 181.21435266459594 216.72789815187957 0 216.72789815187957 742.0320612195801 0 0 0 0 138.49444815609604 -8.6879270793760952 0 -8.6879270793760952 862.62326010584013 0 0 0 0 311.65797556798498 -64.908669104566343 0 -64.908669104566343 311.15257539786035 0 0 0 0 251.98904423078056 -172.10950764360086 0 -172.10950764360086 -95.373492458862529 0 0 0 0 18.213007004960673 -39.343874912083265 0 -39.343874912083265 314.98126374341518 0 0 0 0 79.968649442103924 -125.0740328474767 0 -125.0740328474767 -66.116508938142942 0 0 0 0 24.91048928926466 -11.316319967037998 0 -11.316319967037998 -566.12032066928805 0 0 0 0 -164.73544794792542 83.972960898157908 0 83.972960898157908 -229.37697591011965 0 0 0 0 35.128244241313951 -191.7101303861879 0 -191.7101303861879 -96.127488416115739 0 0 0 0 202.853872627893 128.29640579316037 0 128.29640579316037 -695.57079108660446 0 0 0 0 380.16914693714352 -161.74224323017552 0 -161.74224323017552 -657.21936701739219 0 0 0 0 -9.2180246670613997 -519.06808578249047 0 -519.06808578249047 101.6381313709735 0 0 0 0 65.226070741802687 247.43113686087236 0 247.43113686087236 746.51933080312665 0 0 0 0 135.16264494718052 -59.213020117566884 0 -59.213020117566884 247.21524176571438 0 0 0 0 32.385618122101732 132.93704230585001 0 132.93704230585001 122.22227553062112 0 0 0 0 -9.0124979871179676 -219.2435599202945 0 -219.2435599202945 137.39937525072605 0 0 0 0 -1.1726923207738764 -21.806160064104439 0 -21.806160064104439 3.5148961444833215 0 0 0 0 139.20669749414634 -68.994029274880376 0 -68.994029274880376 14.696939049806186 0 0 0 0 217.89734447851697 17.702674213949763 0 17.702674213949763 85.343136655344097 0 0 0 0 157.84855681714157 -14.339624330687855 0 -14.339624330687855 -8.6286379588506605 0 0 0 0 173.32985982581158 -54.02374728583095 0 -54.02374728583095 93.670111804626231 0 0 0 0 124.92015654752322 60.609195648968125 0 60.609195648968125 -265.65092065844874 0 0 0 0 -243.75614006485557 -447.23094713000319 0 -447.23094713000319 -959.80084990338946 0 0 0 0 27.602730555830419 4.0036288047835882 0 4.0036288047835882 -20.47601855304346 0 0 0 0 -218.39616017462686 -197.29393513486866 0 -197.29393513486866 -552.5857528346969 0 0 0 0 225.77241508517182 -32.712884560959765 0 -32.712884560959765 70.129898675108961 0 0 0 0 147.42650526762009 -41.341185370446055 0 -41.341185370446055 87.529073637155307 0 0 0 0 237.43001942435512 -55.719314596331969 0 -55.719314596331969 -364.5111979372914 0 0 0 0 220.77750611852389 -156.74619057184191 0 -156.74619057184191 -98.470554337028716 0 0 0 0 145.53379250768921 -69.47051189560716 0 -69.47051189560716 -55.677041920615011 0 0 0 0 161.69281022576615 -146.08753538440669 0 -146.08753538440669 139.15764817543641 0 0 0 0 147.27734453426092 -196.21909087907079 0 -196.21909087907079 179.89274238765211 0 0 0 0 1231.7283918618123 -1255.1049255026346 0 -1255.1049255026346 1350.6968185266705 0 0 0 0 35.132604330590596 -0.14289353031952601 0 -0.14289353031952601 -12.599896640618869 0 0 0 0 167.4239500997719 -109.06060480052793 0 -109.06060480052793 -24.388114405490342 0 0 0 0 11.384723288310397 -20.620092909559673 0 -20.620092909559673 11.472695665576726 0 0 0 0 79.460858638529317 -25.776496428522478 0 -25.776496428522478 9.5848971050527325 0 0 0 0 182.82406855847512 -114.82487618968162 0 -114.82487618968162 -49.108533904625801 0 0 0 0 135.82390274716033 -12.499802308703607 0 -12.499802308703607 -9.8946238583616761 0 0 0 0 137.39528916150448 -59.768425216905598 0 -59.768425216905598 33.385012928613151 0 0 0 0 167.58908600828727 -61.120792598879007 0 -61.120792598879007 6.6085149979503512 0 0 0 0 19.60916440190627 -11.854103396922852 0 -11.854103396922852 -11.812897270497396 0 0 0 0 136.14088978604923 -109.26665163936423 0 -109.26665163936423 -29.49145542917131 0 0 0 0 274.7462631323142 -86.61017948576955 0 -86.61017948576955 -79.307836239350991 0 0 0 0 6.5460434721608181 -115.41639035074627 0 -115.41639035074627 -2.3679025697789484 0 0 0 0 147.74271133531147 -77.230565705983281 0 -77.230565705983281 7.8672717389626996 0 0 0 0 146.79414860223187 -36.732857036390442 0 -36.732857036390442 69.499580153673378 0 0 0 0 118.11610061704414 -76.076846573456578 0 -76.076846573456578 36.474045394324662 0 0 0 0 162.00471052710782 -41.177824425023346 0 -41.177824425023346 47.77599108115146 0 0 0 0 168.91383318870794 -57.051478498920915 0 -57.051478498920915 64.257671192547605 0 0 0 0 158.32181366005534 -28.409694265187795 0 -28.409694265187795 74.701109555474432 0 0 0 0 143.43453082692577 -21.153744130312816 0 -21.153744130312816 49.364328400307159 0 0 0 0 191.82322800983093 -31.061224497917465 0 -31.061224497917465 50.172716075443077 0 0 0 0 206.7791368182443 5.226836870363968 0 5.226836870363968 32.250717518297279 0 0 0 0 177.63044791054563 -30.499764946091545 0 -30.499764946091545 61.023705223917659 0 0 0 0 176.14249393439241 -7.0118086611748822 0 -7.0118086611748822 93.276258911135301 0 0 0 0 192.40312372760673 -29.612355550519453 0 -29.612355550519453 17.249580666967177 0 0 0 0 103.53270146946306 -43.208125836350064 0 -43.208125836350064 6.5855794829457466 0 0 0 0 180.43024445039191 -25.213667430164207 0 -25.213667430164207 8.6758903530758289 0 0 0 0 80.861578218838531 -104.63803558399495 0 -104.63803558399495 -125.81472807141336 0 0 0 0 93.22679466874979 -13.297716840370526 0 -13.297716840370526 -75.694164529789759 0 0 0 0 79.432272319798358 -50.657568951710118 0 -50.657568951710118 -55.821199274235099 0 0 0 0 183.41277717868797 -2.6733424334590836 0 -2.6733424334590836 -60.133175794315321 0 0 0 0 275.06681481411215 54.443980985017674 0 54.443980985017674 -118.46889002074749 0 0 0 0 307.05168583561317 -106.93662623718524 0 -106.93662623718524 -52.668692269870689 0 0 0 0 -101.2870137252321 -18.682717660866956 0 -18.682717660866956 -79.178068684821483 0 0 0 0 -317.51483489655948 -406.65832908818584 0 -406.65832908818584 -190.62350034308633 0 0 0 0 2.1865970073807262 -2.2075886294505267 0 -2.2075886294505267 0.69604117474776039 0 0 0 0 677.91869878675789 -205.19134542317101 0 -205.19134542317101 -261.62406011405619 0 0 0 0 164.66556230471178 -190.98148805497476 0 -190.98148805497476 -144.47127507460073 0 0 0 0 373.33874765692963 35.722731567980134 0 35.722731567980134 -187.29329177214913 0 0 0 0 145.54482200264465 15.449483300449742 0 15.449483300449742 -91.321580235576334 0 0 0 0 53.545369735671557 -69.208067127464005 0 -69.208067127464005 -70.146501893685127 0 0 0 0 112.19522873895306 -41.2416102141176 0 -41.2416102141176 6.5147354690622219 0 0 0 0 121.74996792021557 -204.22785903966883 0 -204.22785903966883 -315.4118458541152 0 0 0 0 310.6518425240356 -25.635720191317887 0 -25.635720191317887 -198.5038186771078 0 0 0 0 301.69089469811115 100.00062776025419 0 100.00062776025419 -28.605104866884176 0 0 0 0 273.66299730919127 -47.766102320864093 0 -47.766102320864093 -24.577652192782807 0 0 0 0 301.92312495419174 168.62983810385754 0 168.62983810385754 94.588284754076312 0 0 0 0 408.35999691281177 71.597703926170425 0 71.597703926170425 -60.270333334728775 0 0 0 0 421.60883397857924 -74.604569278925908 0 -74.604569278925908 -96.030386759002795 0 0 0 0 27.057321627131831 68.203908291093427 0 68.203908291093427 -20.869419392793734 0 0 0 0 139.93177066592241 -69.848132595699809 0 -69.848132595699809 8.641732610546093 0 0 0 0 579.87305520550581 46.232425804522791 0 46.232425804522791 -45.322635746100786 0 0 0 0 140.09927965865063 -76.260742639176897 0 -76.260742639176897 25.554015508545945 0 0 0 0 157.23571211588569 -265.78856354755044 0 -265.78856354755044 -81.894052471973822 0 0 0 0 127.71674116520916 -73.199112575738738 0 -73.199112575738738 17.697221082303074 0 0 0 0 198.35322083512438 -40.572024502041813 0 -40.572024502041813 -7.3716144135557897 0 0 0 0 198.60204618802527 -57.81462405980858 0 -57.81462405980858 -71.529222769102489 0 0 0 0 188.11658022468328 -172.6839399483973 0 -172.6839399483973 60.070265177155761 0 0 0 0 162.30039909860352 -72.340774885729445 0 -72.340774885729445 -49.787948633666929 0 0 0 0 22.807704175639891 -16.904376703928733 0 -16.904376703928733 -6.1479088910343362 0 0 0 0 68.716730565056423 -13.743828531069997 0 -13.743828531069997 -13.376674161787605 0 0 0 0 134.02717577989097 -78.557918996651779 0 -78.557918996651779 -24.176947998729247 0 0 0 0 475.72468597989064 330.74299586828022 0 330.74299586828022 18.883483529642888 0 0 0 0 14.436257830661987 3.5747237066864841 0 3.5747237066864841 -1.226935316563849 0 0 0 0 149.81923971924698 -36.913649273461374 0 -36.913649273461374 -19.109605619271505 0 0 0 0 322.58769986200787 120.20821748389369 0 120.20821748389369 12.887722084024062 0 0 0 0 179.54691373527749 238.30059699172301 0 238.30059699172301 120.04540720138516 0 0 0 0 203.09434057804174 272.14430636753701 0 272.14430636753701 142.74898423547114 0 0 0 0 262.99330515952897 250.63477867178653 0 250.63477867178653 -91.228963372151838 0 0 0 0 436.14230863768898 53.371289349676985 0 53.371289349676985 118.89612367430004 0 0 0 0 183.49456540431129 170.94449500392739 0 170.94449500392739 86.800098990257709 0 0 0 0 58.434706773768994 15.321166002156062 0 15.321166002156062 -4.5784181869895519 0 0 0 0 87.900510374514852 -142.50784272325279 0 -142.50784272325279 -175.72911157250257 0 0 0 0 35.83130552129461 -4.2416709482055808 0 -4.2416709482055808 -1.5544914386800444 0 0 0 0 47.278732442762703 86.282184156962558 0 86.282184156962558 -61.500156751917871 0 0 0 0 3.4976092662836891 96.160670410345062 0 96.160670410345062 188.13741763859434 0 0 0 0 138.68578577792505 115.96944089849674 0 115.96944089849674 53.303185605024908 0 0 0 0 55.001780094811693 158.89912894476447 0 158.89912894476447 120.41545891159194 0 0 0 0 95.107586125610396 -32.889337178915099 0 -32.889337178915099 -43.467316035278827 0 0 0 0 52.904599160188809 28.828160505092455 0 28.828160505092455 17.443646289860041 0 0 0 0 65.338838981144363 -7.1469643594132322 0 -7.1469643594132322 -165.17056493056174 0 0 0 0 9.1262793196510756 -163.02072336654055 0 -163.02072336654055 16.852580209860662 0 0 0 0 76.680011651827954 -105.78300674990123 0 -105.78300674990123 -201.00384158491784 0 0 0 0 35.44988343983465 -6.8201761055099439 0 -6.8201761055099439 -3.4662606436135968 0 0 0 0 20.524448774580378 -6.6914292049721666 0 -6.6914292049721666 101.71892675866059 0 0 0 0 -82.843639198152232 -13.565785903057986 0 -13.565785903057986 -32.447083448871126 0 0 0 0 -133.12967341267176 -156.52932037050368 0 -156.52932037050368 -191.58927802914241 0 0 0 0 4.7810167734504461 -0.85479954261580815 0 -0.85479954261580815 -0.34064827419186638 0 0 0 0 2.2591552602825686 -2.1046618799227872 0 -2.1046618799227872 -330.63079004022347 0 0 0 0 -7.6932171408552676 -152.83475910540545 0 -152.83475910540545 -202.58289174706351 0 0 0 0 -20.908269357285462 -26.859147081652054 0 -26.859147081652054 100.3465697294298 0 0 0 0 30.958351817112998 -2.2781860306300246 0 -2.2781860306300246 27.698090737072448 0 0 0 0 1.6939402368395875 -15.803271798261136 0 -15.803271798261136 -7.6995945168827813 0 0 0 0 46.556834481511032 -94.889064939014247 0 -94.889064939014247 139.48765376986375 0 0 0 0 149.95661413198104 1.9572995263720259 0 1.9572995263720259 -126.00485976164862 0 0 0 0 2.3789159987056792 -3.2622032711914244 0 -3.2622032711914244 0.014346605018987102 0 0 0 0 99.466311172785936 27.787873696899055 0 27.787873696899055 -230.09636628061034 0 0 0 0 178.47040196048329 -96.00396476497707 0 -96.00396476497707 -205.97480889834765 0 0 0 0 257.16805909396498 -122.94911034840436 0 -122.94911034840436 -204.86132085008899 0 0 0 0 89.878474710014416 -226.3935640832259 0 -226.3935640832259 -222.55575694669892 0 0 0 0 21.552179112070007 -264.55674212048126 0 -264.55674212048126 0.23119172089825335 0 0 0 0 448.49495492564165 -80.167784639443823 0 -80.167784639443823 -216.26767928146853 0 0 0 0 -19.428198890411295 -123.47923628818008 0 -123.47923628818008 -374.87111929986588 0 0 0 0 -0.95648777805911323 -0.8148998097567457 0 -0.8148998097567457 -0.15815083579026884 0 0 0 0 -91.057980092562502 -156.68173586690335 0 -156.68173586690335 356.70065458099202 0 0 0 0 29.950912222702755 -166.40883514096089 0 -166.40883514096089 -8.7429228833422172 0 0 0 0 -80.170548809634056 -31.881993029117247 0 -31.881993029117247 -0.29164294764989718 0 0 0 0 -39.070687389539671 -93.130318951679243 0 -93.130318951679243 -96.870661664888701 0 0 0 0 -69.731085000094026 -15.144032264893468 0 -15.144032264893468 -106.93556265107398 0 0 0 0 -50.564838390011573 -86.081472805990416 0 -86.081472805990416 196.84616194320938 0 0 0 0 -1.9704413188670742 -1.3916156511627236 0 -1.3916156511627236 -0.38900423907774345 0 0 0 0 -11.201942357089138 -17.601883551095273 0 -17.601883551095273 -240.73857063945457 0 0 0 0 -30.105082295835018 17.377415319876512 0 17.377415319876512 -109.74203482532774 0 0 0 0 -95.689910000335658 -150.22252623767687 0 -150.22252623767687 -162.90549415390515 0 0 0 0 57.757399874768453 -173.37702214930522 0 -173.37702214930522 -122.40090991406532 0 0 0 0 200.40038891040604 -222.48662363092194 0 -222.48662363092194 -161.00672950108208 0 0 0 0 14.9572406033476 -194.00571668313989 0 -194.00571668313989 -144.20503400308007 0 0 0 0 4.7099144505920663 -4.7781550931407537 0 -4.7781550931407537 1.9268815929530048 0 0 0 0 -74.640544320725894 -273.07289685830261 0 -273.07289685830261 -133.94728300332133 0 0 0 0 -181.04585869822768 -315.55959518733687 0 -315.55959518733687 -225.95955212549944 0 0 0 0 -43.918962867639493 -39.407844098471344 0 -39.407844098471344 -107.49726327930694 0 0 0 0 415.89930600716616 -71.318747330977203 0 -71.318747330977203 -244.1186086079822 0 0 0 0 87.675110234296881 -234.78771547186329 0 -234.78771547186329 137.34476548586133 0 0 0 0 132.15499163436471 -77.147828293256055 0 -77.147828293256055 -172.66068501519896 0 0 0 0 226.18468658815254 -79.283511366845687 0 -79.283511366845687 -244.3526556731442 0 0 0 0 103.29457502494915 -236.51530279572933 0 -236.51530279572933 -219.85068887749159 0 0 0 0 4.5109791980730733 -4.2692756639134757 0 -4.2692756639134757 1.4529366222407409 0 0 0 0 -274.13908154876844 -257.67086413605767 0 -257.67086413605767 -73.385905402213496 0 0 0 0 228.59025545855911 -5.4510852828353364 0 -5.4510852828353364 -125.32596994815799 0 0 0 0 467.7015115886752 139.46866203216933 0 139.46866203216933 -116.94612092241262 0 0 0 0 2.3118324406557349 -1.6455140905851806 0 -1.6455140905851806 0.13009292295685349 0 0 0 0 -283.90597547226935 -167.33127633261668 0 -167.33127633261668 -0.16668185173544334 0 0 0 0 -231.92164589445019 -134.88963288462264 0 -134.88963288462264 -79.715155954286985 0 0 0 0 -144.94380107545294 -220.23852781038761 0 -220.23852781038761 -0.024576520083389786 0 0 0 0 -23.487381207116414 -245.6095988962457 0 -245.6095988962457 -64.63318119996552 0 0 0 0 58.396674101008102 -212.68147574010291 0 -212.68147574010291 -101.9292778607647 0 0 0 0 -95.266793407470686 -153.83910047523716 0 -153.83910047523716 -22.653285355720985 0 0 0 0 43.704161524452502 -235.38569125549301 0 -235.38569125549301 -0.0087372549034926694 0 0 0 0 195.75125705501705 -189.21714874341311 0 -189.21714874341311 -57.619957529643614 0 0 0 0 238.0310879688659 -272.71002406951607 0 -272.71002406951607 -0.070658689554272736 0 0 0 0 290.50926953900489 -278.44220202576292 0 -278.44220202576292 -25.020219435439941 0 0 0 0 58.64386797048428 -207.99469823389018 0 -207.99469823389018 -14.257280121421331 0 0 0 0 184.69793568874593 -266.33051374323816 0 -266.33051374323816 -79.544101709643769 0 0 0 0 1094.6903982783697 -13.989000474611828 0 -13.989000474611828 -50.277915808154489 0 0 0 0 489.55939740987378 -154.51361883044331 0 -154.51361883044331 -36.757685864398923 0 0 0 0 559.85094067903992 -293.6784590256346 0 -293.6784590256346 0.30600621479356055 0 0 0 0 484.51368324124996 -173.83166259799282 0 -173.83166259799282 -48.309580594281897 0 0 0 0 690.80029579234542 -72.161427615806815 0 -72.161427615806815 -116.12640469272792 0 0 0 0 286.11983667491586 -211.7008268652346 0 -211.7008268652346 -131.65705975985395 0 0 0 0 506.08212514344632 -204.82120883983569 0 -204.82120883983569 -137.00672761949545 0 0 0 0 468.99810898530268 -195.6406117816644 0 -195.6406117816644 -202.52748962184933 0 0 0 0 364.6005849083449 -167.71928464772236 0 -167.71928464772236 -113.37447507470529 0 0 0 0 476.6324429254455 -183.78110228870378 0 -183.78110228870378 -271.26320276035085 0 0 0 0 184.28906328295125 -243.12830618402063 0 -243.12830618402063 -150.25607498646474 0 0 0 0 188.02632005751366 -265.05825494672195 0 -265.05825494672195 -101.64526635127331 0 0 0 0 244.0106542626454 -205.94243773378417 0 -205.94243773378417 -103.15112958424288 0 0 0 0 301.51620477870165 -235.62550890968186 0 -235.62550890968186 -147.82411613715044 0 0 0 0 151.18969681000453 -244.53718000603476 0 -244.53718000603476 -147.28488529437482 0 0 0 0 169.56946512536524 -263.13495441865791 0 -263.13495441865791 -129.15107382619908 0 0 0 0 -332.52569298485469 -144.87987258546616 0 -144.87987258546616 -151.65759530144487 0 0 0 0 141.7114657581842 -524.86818737634894 0 -524.86818737634894 -256.57997566698532 0 0 0 0 214.32567832863424 66.371195140550299 0 66.371195140550299 -398.44504103135807 0 0 0 0 -80.348242760839639 -301.97793037446445 0 -301.97793037446445 -163.04033120084432 0 0 0 0 178.40667839557864 -257.41415942612889 0 -257.41415942612889 -601.0738024152306 0 0 0 0 199.73704135827575 -169.50681353053358 0 -169.50681353053358 -301.85042308472657 0 0 0 0 170.21726424538065 -264.28516141489035 0 -264.28516141489035 -358.50123966915362 0 0 0 0 439.5154852871492 -139.61512382045839 0 -139.61512382045839 -320.21238755509512 0 0 0 0 244.43626110578771 -109.87436652501265 0 -109.87436652501265 -231.2321090779144 0 0 0 0 452.13582627531287 -108.96774661307074 0 -108.96774661307074 -250.12796237555449 0 0 0 0 606.26593936874997 -177.19328151866011 0 -177.19328151866011 -286.77831196845841 0 0 0 0 503.61584510387911 -398.16305357429263 0 -398.16305357429263 -213.44154608436702 0 0 0 0 647.063026968739 -263.7115141614147 0 -263.7115141614147 -221.48093296317256 0 0 0 0 1711.8050786292006 -648.61768425883611 0 -648.61768425883611 -374.76923323499159 0 0 0 0 712.07592769019539 -197.94985510091374 0 -197.94985510091374 -285.12134000318224 0 0 0 0 808.46174515687744 151.57980756299594 0 151.57980756299594 -818.35600470355439 0 0 0 0 272.93987713905517 -236.51756151246263 0 -236.51756151246263 -260.62327103736402 0 0 0 0 381.49593560781796 -48.516026556084398 0 -48.516026556084398 -248.46549042764036 0 0 0 0 325.857712644618 -208.30916099575461 0 -208.30916099575461 -294.49203594297546 0 0 0 0 279.69261670298874 -116.4418174219627 0 -116.4418174219627 -454.99783065252905 0 0 0 0 153.03057895580423 471.12574006148679 0 471.12574006148679 -794.28218187371192 0 0 0 0 -61.354272035227041 27.841537442052754 0 27.841537442052754 -359.28750774415676 0 0 0 0 33.602976348862285 -95.204371640526915 0 -95.204371640526915 -201.02683416663768 0 0 0 0 1564.9458419658749 -305.93422739095899 0 -305.93422739095899 800.87729829804266 0 0 0 0 2849.5849251383916 -2499.8456817779188 0 -2499.8456817779188 2587.7261877256315 0 0 0 0 12.536731942223014 1.8353819187975091 0 1.8353819187975091 -1.556068695361251 0 0 0 0 1946.4599603176648 -3034.273005231837 0 -3034.273005231837 2662.8262947484745 0 0 0 0 110.74175597424619 -8.3273907920411148 0 -8.3273907920411148 148.88970096439152 0 0 0 0 64.631474971542616 25.850815729404133 0 25.850815729404133 3.4224437559009075 0 0 0 0 1715.6642729713349 -363.99218798197398 0 -363.99218798197398 -359.45146298102918 0 0 0 0 8.0714853840897831 4.9845587395532078 0 4.9845587395532078 1.7554758174594305 0 0 0 0 2896.2876379673835 -1069.2605517705033 0 -1069.2605517705033 -1150.6752426358248 0 0 0 0 91.918828992791532 -74.062186673655219 0 -74.062186673655219 205.16020674932224 0 0 0 0 30.112408812434978 3.0308551392963636 0 3.0308551392963636 -2.9286573035526295 0 0 0 0 2060.5110819238471 -1075.0910330546667 0 -1075.0910330546667 582.58766134140751 0 0 0 0 543.51177723152796 133.37606022309228 0 133.37606022309228 966.47432876130188 0 0 0 0 695.93505061374162 -1931.1111932809013 0 -1931.1111932809013 2061.3424642366554 0 0 0 0 1264.8757858612807 -2779.9666142385249 0 -2779.9666142385249 2765.5034125813145 0 0 0 0 2130.7822082930943 -2718.5404433610638 0 -2718.5404433610638 2008.0791066919701 0 0 0 0 1335.0609874213842 -1935.1156364957542 0 -1935.1156364957542 1427.7323658194127 0 0 0 0 892.64290316907864 -1153.6546802261769 0 -1153.6546802261769 2372.0322402739221 0 0 0 0 1112.4350932005909 -519.30280768418561 0 -519.30280768418561 2315.4240616103962 0 0 0 0 36.678720092517324 3.1515216894977129 0 3.1515216894977129 -191.47400680652208 0 0 0 0 5.2383451584301497 6.515267731439252 0 6.515267731439252 0.69416020081925467 0 0 0 0 44.070401390206825 35.399686240268693 0 35.399686240268693 -51.164093968714951 0 0 0 0 21.723945993056986 -84.679342709874618 0 -84.679342709874618 -108.94104375970255 0 0 0 0 107.44006251712563 -22.967537598753552 0 -22.967537598753552 -0.73446228678631087 0 0 0 0 204.84459374542348 -14.972964029093419 0 -14.972964029093419 -54.037679886401747 0 0 0 0 23.809395963937277 -168.36362206136255 0 -168.36362206136255 -17.587862724494698 0 0 0 0 89.826741478143958 1.7858988162447531 0 1.7858988162447531 -5.1650914797719452 0 0 0 0 -3.4433791306097987 -1.5419359754405946 0 -1.5419359754405946 -5.1902163605815481 0 0 0 0 14.996655825932976 -243.41053164406185 0 -243.41053164406185 -285.79505310069544 0 0 0 0 38.357550854299916 -77.222224410283161 0 -77.222224410283161 -143.44801592950535 0 0 0 0 93.012542546086479 -212.97390130245594 0 -212.97390130245594 -75.589147189684809 0 0 0 0 102.17232509935275 -68.35465339416578 0 -68.35465339416578 -293.27402640464169 0 0 0 0 45.970668464353366 -138.21557780424314 0 -138.21557780424314 157.92514835520115 0 0 0 0 901.16531459915859 -1311.2244432553173 0 -1311.2244432553173 1842.61609463483 0 0 0 0 22.03128677472148 -4.4184258296150727 0 -4.4184258296150727 1.0460795861458834 0 0 0 0 257.79391296829272 -328.38606535095232 0 -328.38606535095232 531.7889543954152 0 0 0 0 59.370266180876229 -9.4116710569208699 0 -9.4116710569208699 0.46994536269132864 0 0 0 0 97.995413485026802 -90.16930016180595 0 -90.16930016180595 361.84550086611716 0 0 0 0 153.55709224781458 -20.532221876456788 0 -20.532221876456788 193.68110927320413 0 0 0 0 87.620739852548752 -7.1330429612423263 0 -7.1330429612423263 -0.91778547847735803 0 0 0 0 183.16799935433664 -78.353918684180826 0 -78.353918684180826 95.328951007094815 0 0 0 0 114.72524341821554 -76.005611047761704 0 -76.005611047761704 -59.933666054548191 0 0 0 0 8.9310471566541878 -9.1212857653576407 0 -9.1212857653576407 3.3092819781866467 0 0 0 0 24.742564205516828 -57.865266097202721 0 -57.865266097202721 41.207334860561787 0 0 0 0 19.902114252035972 -136.2814413496726 0 -136.2814413496726 57.291954701883128 0 0 0 0 -3.0942111254755673 -0.84570755884223558 0 -0.84570755884223558 2.3594863451861769 0 0 0 0 735.65771222523472 -667.83318155989173 0 -667.83318155989173 93.295278630212124 0 0 0 0 931.90538278239546 -1005.2455935019434 0 -1005.2455935019434 671.95447188268145 0 0 0 0 774.60131622551125 -539.9879602209212 0 -539.9879602209212 140.64659192515796 0 0 0 0 961.42211930871417 -363.58811642906744 0 -363.58811642906744 -294.58272963991431 0 0 0 0 454.38093407559791 -302.21148523136401 0 -302.21148523136401 -4.9133546328584998 0 0 0 0 515.3192487310007 -62.20462427894563 0 -62.20462427894563 41.248185630688226 0 0 0 0 128.49465743705514 -105.5352883681071 0 -105.5352883681071 68.554946394283434 0 0 0 0 -12.566425723867724 -93.59620889300686 0 -93.59620889300686 93.149880474523343 0 0 0 0 183.96471071334599 75.377021610983036 0 75.377021610983036 182.69613702430252 0 0 0 0 477.4526644412399 -17.030622898738329 0 -17.030622898738329 64.84845830043605 0 0 0 0 83.762790625078196 133.40633851623613 0 133.40633851623613 -6.5602320547518502 0 0 0 0 25.565592897210081 -154.39643684846129 0 -154.39643684846129 23.095212163139877 0 0 0 0 875.6563126691326 54.894775136393548 0 54.894775136393548 -490.46633497619558 0 0 0 0 7.3742583360486833 -1.9114984188086765 0 -1.9114984188086765 0.054191356271342417 0 0 0 0 1332.7521071949304 -229.19458072014618 0 -229.19458072014618 -227.18887252718855 0 0 0 0 1.6865245997874752 -2.4027645643461142 0 -2.4027645643461142 -0.082117007496803396 0 0 0 0 112.99044694312033 -342.59890260771363 0 -342.59890260771363 -143.5089874938858 0 0 0 0 950.58730070176534 -279.51809570337974 0 -279.51809570337974 -54.740697021037249 0 0 0 0 2.2155910837933419 -3.3686161831262211 0 -3.3686161831262211 0.44311762809886357 0 0 0 0 453.14948130815173 -189.08447290128893 0 -189.08447290128893 264.422454192695 0 0 0 0 772.27071614417946 34.395684546901322 0 34.395684546901322 -19.117848358944855 0 0 0 0 1064.9212705900645 -383.44752709106274 0 -383.44752709106274 -102.15404476081653 0 0 0 0 512.61229279421968 -300.20664189316096 0 -300.20664189316096 -113.71613798035173 0 0 0 0 587.24392337212339 -190.12492346852147 0 -190.12492346852147 -0.36194453036954799 0 0 0 0 1.692334448981768 -1.6081854282242034 0 -1.6081854282242034 0.2851809884116171 0 0 0 0 107.88663411613015 -19.507012258191342 0 -19.507012258191342 33.950577529869349 0 0 0 0 -116.4801192050727 -125.01416653504363 0 -125.01416653504363 49.260005033693346 0 0 0 0 285.91384230958647 -551.57275961972698 0 -551.57275961972698 234.88479372628584 0 0 0 0 380.83945377245254 -260.01722387318159 0 -260.01722387318159 -0.059767960188971625 0 0 0 0 223.3280541223503 -338.96025345425767 0 -338.96025345425767 99.853348754617002 0 0 0 0 293.53452962400479 0.41616613462663565 0 0.41616613462663565 -12.847203574616003 0 0 0 0 71.758968191512395 -191.9551884984877 0 -191.9551884984877 0.32635525749575856 0 0 0 0 -13.54336881339259 -160.80100631325791 0 -160.80100631325791 18.080640575220343 0 0 0 0 520.77907248933479 -199.11633179332557 0 -199.11633179332557 -0.094234951179615389 0 0 0 0 715.89987501248106 -44.889227702970601 0 -44.889227702970601 -109.89974136737646 0 0 0 0 935.84431356604182 -261.33166558031087 0 -261.33166558031087 -0.18731155941340838 0 0 0 0 1188.513978277304 -411.18228623706489 0 -411.18228623706489 -131.5706148799797 0 0 0 0 909.17995503341808 -507.8382689047541 0 -507.8382689047541 511.57438786708394 0 0 0 0 1287.7105296493537 -631.48279818160279 0 -631.48279818160279 425.26008766437997 0 0 0 0 423.8253166245413 -854.49926300990433 0 -854.49926300990433 527.34346655225545 0 0 0 0 7.8607190646150684 -2.4143374243564608 0 -2.4143374243564608 0.45842064673627969 0 0 0 0 212.65156866559118 -81.128136803994266 0 -81.128136803994266 -571.50088208917862 0 0 0 0 -149.62564413592918 -270.02913402492948 0 -270.02913402492948 283.61413223326008 0 0 0 0 15.067834746721246 -4.6683927169513879 0 -4.6683927169513879 0.39901235073489749 0 0 0 0 133.84426783620438 -219.33057830878181 0 -219.33057830878181 -454.97287883561137 0 0 0 0 748.58373355171352 210.92259510139414 0 210.92259510139414 -455.63434401969744 0 0 0 0 622.4248588677292 -17.645767961370439 0 -17.645767961370439 -109.96291883777496 0 0 0 0 728.44165060610976 -137.99507177001144 0 -137.99507177001144 26.614785001335463 0 0 0 0 1.5322285727754661 0.12044396057018503 0 0.12044396057018503 1.4848348525937169 0 0 0 0 674.52856668486493 -187.51162554659044 0 -187.51162554659044 28.664098067431254 0 0 0 0 687.05860369499715 -177.06633889401448 0 -177.06633889401448 0.076703452423294627 0 0 0 0 596.45901664622943 -116.52382635543916 0 -116.52382635543916 182.71803351598533 0 0 0 0 841.80622299831884 -364.80518700663623 0 -364.80518700663623 141.83518701998196 0 0 0 0 682.66203321864577 -276.7125920617342 0 -276.7125920617342 97.166999158642 0 0 0 0 836.7357345399214 -240.95944471332999 0 -240.95944471332999 0.076754249260902782 0 0 0 0 882.15829290062538 -298.91630572136847 0 -298.91630572136847 40.56554671427125 0 0 0 0 873.22036985622253 -314.55375288194028 0 -314.55375288194028 34.658386865059242 0 0 0 0 -75.263372783105297 48.906355227641768 0 48.906355227641768 183.04573260460847 0 0 0 0 -0.65713316717972248 -1.6572571728119101 0 -1.6572571728119101 4.9180714200280997 0 0 0 0 -29.829319472293719 -32.024544723135392 0 -32.024544723135392 322.4292220589449 0 0 0 0 212.14042533695465 -112.23009395606167 0 -112.23009395606167 108.9133922718251 0 0 0 0 399.94564349144639 -313.20020631296779 0 -313.20020631296779 448.54580733119064 0 0 0 0 437.13022810724033 -6.2853926646877554 0 -6.2853926646877554 110.41966410013902 0 0 0 0 440.46217490464915 39.710937837753193 0 39.710937837753193 200.84550750812286 0 0 0 0 248.51652331813239 81.463244712886421 0 81.463244712886421 92.540043470054684 0 0 0 0 250.27544151930488 46.898212845744126 0 46.898212845744126 204.13694332239047 0 0 0 0 416.01645991699479 222.92569056311868 0 222.92569056311868 69.859847196142937 0 0 0 0 919.71552877637441 51.86870246752278 0 51.86870246752278 -456.84914259157347 0 0 0 0 467.27226053293998 -33.99396901884441 0 -33.99396901884441 308.09688740027354 0 0 0 0 0.9013625670876948 0.71133804608462015 0 0.71133804608462015 1.723344901197098 0 0 0 0 543.9747722617758 87.423352949441494 0 87.423352949441494 125.39937079227991 0 0 0 0 533.49994776587118 99.545442541404299 0 99.545442541404299 537.47972849500763 0 0 0 0 733.83584861124837 91.444582031999431 0 91.444582031999431 -11.814972765953144 0 0 0 0 447.01467609607062 113.56487282561213 0 113.56487282561213 177.62307790905459 0 0 0 0 549.92661282350309 110.93217562745022 0 110.93217562745022 80.77408405885285 0 0 0 0 1.2790052386569641 0.78351255541610954 0 0.78351255541610954 3.2587375992224956 0 0 0 0 1.0463262798636066 1.8325299186506641 0 1.8325299186506641 2.9444491759055351 0 0 0 0 790.72015811427264 248.89610452061265 0 248.89610452061265 304.45874648292647 0 0 0 0 663.08797645465529 101.66843363998166 0 101.66843363998166 24.852824439684241 0 0 0 0 549.5058737639265 -92.607405329002844 0 -92.607405329002844 -12.64860265858033 0 0 0 0 638.63897984624055 119.07353522556612 0 119.07353522556612 24.232940477649208 0 0 0 0 991.22460203950686 -97.53030459448334 0 -97.53030459448334 -75.310295617503925 0 0 0 0 925.01975460708491 266.47519333058688 0 266.47519333058688 -274.77611963908021 0 0 0 0 915.16433890249755 70.147632243307299 0 70.147632243307299 27.451869224746588 0 0 0 0 1.0898500496661896 0.84831287033131275 0 0.84831287033131275 1.7908122048570825 0 0 0 0 2.1953199800295238 2.1117966723037966 0 2.1117966723037966 1.4057315912593633 0 0 0 0 -39.42524275535834 252.42430377114721 0 252.42430377114721 67.984213375144776 0 0 0 0 20.785320759681781 -15.665053995897793 0 -15.665053995897793 51.70165670662368 0 0 0 0 33.230292580963578 17.762003267283916 0 17.762003267283916 -54.396624145754316 0 0 0 0 113.05346590955742 -27.121294449135235 0 -27.121294449135235 -65.011434860604666 0 0 0 0 65.711793060496348 -22.448772980070942 0 -22.448772980070942 53.97725314950651 0 0 0 0 68.035484674806867 -43.064706994326642 0 -43.064706994326642 -49.89145199797008 0 0 0 0 5.9242742150381673 -39.142290037529762 0 -39.142290037529762 -1.4279655918611809 0 0 0 0 35.46710761362192 -20.772245341898838 0 -20.772245341898838 9.9382240806247637 0 0 0 0 31.759008364532065 -15.331754083794408 0 -15.331754083794408 8.0697343920630011 0 0 0 0 13.027479015203426 -36.764278032989125 0 -36.764278032989125 -24.296759421815807 0 0 0 0 30.046476065825118 3.4360316918287026 0 3.4360316918287026 -22.23671008499889 0 0 0 0 9.0437539640899445 3.7425401832335297 0 3.7425401832335297 6.7338275266936805 0 0 0 0 36.360222656279802 -3.9585295489682153 0 -3.9585295489682153 4.6780794502067238 0 0 0 0 25.301865590214277 -12.253906636526722 0 -12.253906636526722 4.5344744553362517 0 0 0 0 42.673919626235147 -11.621227644989659 0 -11.621227644989659 -1.1522030605714235 0 0 0 0 146.35508059746644 32.928875178955821 0 32.928875178955821 81.084830572067517 0 0 0 0 3.3859885101013845 4.9699394276798614 0 4.9699394276798614 4.2628091121725831 0 0 0 0 408.86907305161003 57.614037601190944 0 57.614037601190944 -20.529939722411882 0 0 0 0 136.66455675472389 -88.91235370568802 0 -88.91235370568802 3.1895488690684033 0 0 0 0 -2.9061103473650292 53.875650448334909 0 53.875650448334909 61.78231635797556 0 0 0 0 411.67705078711151 92.557002587313605 0 92.557002587313605 -31.85024294765617 0 0 0 0 425.72644132548157 35.572197979736671 0 35.572197979736671 112.6993913542251 0 0 0 0 640.87732670927653 85.095905058399808 0 85.095905058399808 -76.783381297801952 0 0 0 0 0.79987011458877788 1.554246931950729 0 1.554246931950729 1.5810443583663707 0 0 0 0 406.79372664351104 1.6523554307806183 0 1.6523554307806183 44.152431634963477 0 0 0 0 847.79542162745201 -452.5572937968002 0 -452.5572937968002 -49.439354716037087 0 0 0 0 1134.6088795156975 -784.18925001955085 0 -784.18925001955085 48.192887110668153 0 0 0 0 387.86623760777366 -426.4590794173597 0 -426.4590794173597 184.52188728992951 0 0 0 0 689.91677357119625 -598.88170649337781 0 -598.88170649337781 234.18341950195037 0 0 0 0 657.2994352632013 -675.38848224940853 0 -675.38848224940853 114.15908170268722 0 0 0 0 1329.3350548615708 -475.0774908356301 0 -475.0774908356301 106.19708815512513 0 0 0 0 1239.9415039691376 -909.63470028502843 0 -909.63470028502843 126.93670149494369 0 0 0 0 791.48438726860331 -482.61108206155404 0 -482.61108206155404 106.12015598137734 0 0 0 0 674.77316791907651 -573.27507670454088 0 -573.27507670454088 534.69433355118144 0 0 0 0 3.1255483564327875 -4.2426857653437651 0 -4.2426857653437651 11.925812583555034 0 0 0 0 620.80415343996719 -443.44699020530902 0 -443.44699020530902 271.89093619309278 0 0 0 0 1023.9809811685336 -813.1757795014521 0 -813.1757795014521 366.00952696607601 0 0 0 0 801.0801547911542 -502.22854525016464 0 -502.22854525016464 129.01281550267004 0 0 0 0 429.04931053327164 -714.38648084533918 0 -714.38648084533918 374.96444547523788 0 0 0 0 801.16001218289603 -954.47787922275711 0 -954.47787922275711 496.7110064987728 0 0 0 0 700.73051592317643 -439.47635842003069 0 -439.47635842003069 -96.141001342862182 0 0 0 0 3.0316376131277138 2.239992807171916 0 2.239992807171916 3.2218247109473719 0 0 0 0 14.20187600414431 15.00832610979657 0 15.00832610979657 7.2963537284646627 0 0 0 0 -303.67107155735721 -100.9993508816965 0 -100.9993508816965 302.51235464570118 0 0 0 0 63.371840361214709 -16.922720673283266 0 -16.922720673283266 15.977709312852994 0 0 0 0 40.102161423827056 0.24359379092618383 0 0.24359379092618383 22.016415477739997 0 0 0 0 -677.33222546972684 164.90154843173468 0 164.90154843173468 239.88490665079917 0 0 0 0 13.320019933652262 20.604149706886318 0 20.604149706886318 10.695934764601063 0 0 0 0 130.53570636350196 -19.033052847291401 0 -19.033052847291401 -60.206022982146465 0 0 0 0 409.60139101443929 -171.51510344660164 0 -171.51510344660164 619.17673054748593 0 0 0 0 187.16519847353629 -393.37238340057354 0 -393.37238340057354 417.3637132822405 0 0 0 0 79.603792924172012 5.4380822042917316 0 5.4380822042917316 -83.696370827176906 0 0 0 0 43.896997677627951 187.78592126904641 0 187.78592126904641 342.48142430304927 0 0 0 0 1236.240358711686 295.98094949907181 0 295.98094949907181 598.72792270957325 0 0 0 0 511.0994414043962 -482.31210917563487 0 -482.31210917563487 1500.3841063325544 0 0 0 0 824.02616911220139 -1156.0732207837493 0 -1156.0732207837493 1197.75472165666 0 0 0 0 882.91394437781128 304.77537142810888 0 304.77537142810888 -319.41606179553492 0 0 0 0 1904.251993676502 -938.94135226678145 0 -938.94135226678145 123.52121767892686 0 0 0 0 1982.1503952427156 -719.6633935818337 0 -719.6633935818337 127.33049978198778 0 0 0 0 822.51774289016612 -363.19696978696754 0 -363.19696978696754 152.40747611076341 0 0 0 0 -60.349081996711902 203.77775442903294 0 203.77775442903294 215.14365956194706 0 0 0 0 611.80271212829393 -226.28380346208223 0 -226.28380346208223 274.74139443158356 0 0 0 0 826.98103390584583 -436.22583077420501 0 -436.22583077420501 -126.14211383537781 0 0 0 0 1162.3038980396086 -554.91706000036231 0 -554.91706000036231 -7.7020885954341338 0 0 0 0 627.45042090781499 -446.19271755550494 0 -446.19271755550494 203.71775372503953 0 0 0 0 667.3392201786919 -81.735921816821929 0 -81.735921816821929 -126.94185476634497 0 0 0 0 24.990149531344514 14.237739378447685 0 14.237739378447685 4.4988342092628537 0 0 0 0 -156.30020211417286 380.14270602282704 0 380.14270602282704 -235.19085842504501 0 0 0 0 -75.733628427115036 81.737040818773039 0 81.737040818773039 -148.60712129705894 0 0 0 0 -73.67373357082397 149.45185921937559 0 149.45185921937559 146.84045498598061 0 0 0 0 -131.3831798901374 453.62268704838152 0 453.62268704838152 206.81703071392985 0 0 0 0 11.191999362366289 4.9872499181957721 0 4.9872499181957721 0.64824148434511919 0 0 0 0 -229.31162417648738 184.53372443654064 0 184.53372443654064 120.15278799486805 0 0 0 0 281.86716385863838 180.22326966930427 0 180.22326966930427 633.08245448834259 0 0 0 0 217.9650051779754 -26.939096785409674 0 -26.939096785409674 70.587358361406018 0 0 0 0 121.31684581085574 147.3698964791929 0 147.3698964791929 148.0048598513431 0 0 0 0 44.674799119100499 27.862480907353529 0 27.862480907353529 -37.569443815570594 0 0 0 0 -130.91003580280085 136.75854276532911 0 136.75854276532911 -151.35852827476629 0 0 0 0 -13.573255191615317 267.06755850311038 0 267.06755850311038 -13.79735156973635 0 0 0 0 207.26222277936176 269.40711081541599 0 269.40711081541599 101.14322993045135 0 0 0 0 128.63103554312693 111.72530381304898 0 111.72530381304898 -213.0213156879081 0 0 0 0 459.2771571392077 25.859916288023896 0 25.859916288023896 -256.66845550019116 0 0 0 0 -29.476615720486734 168.87782562807729 0 168.87782562807729 -175.78247470736994 0 0 0 0 237.24140176645597 107.34057583513936 0 107.34057583513936 -393.66115383234751 0 0 0 0 213.36774358170078 65.220834880437735 0 65.220834880437735 -353.89730205722208 0 0 0 0 26.770429128218211 19.489432821681135 0 19.489432821681135 7.989918331489875 0 0 0 0 -37.320821720117237 186.55523679336892 0 186.55523679336892 -343.77572965822509 0 0 0 0 27.77966936971643 228.22058040640809 0 228.22058040640809 -319.70410153150556 0 0 0 0 107.15972766326013 457.01698234712831 0 457.01698234712831 -84.495395653283595 0 0 0 0 205.3999222102284 62.018941959450785 0 62.018941959450785 -276.74413135239683 0 0 0 0 -210.39745449606562 -130.03135312935296 0 -130.03135312935296 -27.066563912027959 0 0 0 0 404.09763723434298 290.67734159570955 0 290.67734159570955 -40.753427235136769 0 0 0 0 149.49175032787025 75.28688050339241 0 75.28688050339241 -152.13524867452634 0 0 0 0 -93.44512266194215 189.94973897891416 0 189.94973897891416 -147.63528327268148 0 0 0 0 8.4944723221837819 4.2091214876932099 0 4.2091214876932099 -3.2258488299416834 0 0 0 0 95.258485837024637 186.00980658234459 0 186.00980658234459 -352.29359420525077 0 0 0 0 184.34211252763635 3.2126492844399994 0 3.2126492844399994 -41.14553498449115 0 0 0 0 136.07860726237413 16.335665670302824 0 16.335665670302824 16.004382000678447 0 0 0 0 -6.1415100906789348 0.9475234327700548 0 0.9475234327700548 4.9369421558566469 0 0 0 0 93.046034330720431 31.586772633836873 0 31.586772633836873 -171.25746403358443 0 0 0 0 65.172900761099299 54.3469030997652 0 54.3469030997652 38.940674380480914 0 0 0 0 -54.742859496443998 -134.4588170302809 0 -134.4588170302809 -91.145303197577562 0 0 0 0 178.98761663309415 32.690694379529873 0 32.690694379529873 -291.08070443222459 0 0 0 0 188.16424531419761 -41.81462863478896 0 -41.81462863478896 -476.90361043553048 0 0 0 0 10.627357567688023 -8.4266065916572757 0 -8.4266065916572757 7.9811167301954988 0 0 0 0 41.09813111670519 -66.868114420483309 0 -66.868114420483309 39.569038241049299 0 0 0 0 8.8207083051622703 -2.1205776874949436 0 -2.1205776874949436 -3.196949579103995 0 0 0 0 26.32958995566878 18.588398297498884 0 18.588398297498884 -382.4389974272683 0 0 0 0 277.17103201532154 -277.40667818753354 0 -277.40667818753354 -380.15471203248001 0 0 0 0 254.71836569394145 -435.85029557615314 0 -435.85029557615314 -355.89500403356897 0 0 0 0 29.39644539845176 -216.88659629392441 0 -216.88659629392441 -192.44773874024941 0 0 0 0 268.67060669188504 -50.164592621819338 0 -50.164592621819338 -229.98902731199178 0 0 0 0 244.81093784794211 122.39012433762582 0 122.39012433762582 -294.47877053330512 0 0 0 0 74.905172768943885 89.740666599566111 0 89.740666599566111 -330.75148552090786 0 0 0 0 399.3146155908762 13.751550584507299 0 13.751550584507299 -41.778591533775739 0 0 0 0 695.51517735706875 138.4050508559244 0 138.4050508559244 -63.880124158575427 0 0 0 0 396.28695358848563 38.500085504258365 0 38.500085504258365 275.8777692669637 0 0 0 0 50.5590654873522 85.176967974836657 0 85.176967974836657 132.81753712332397 0 0 0 0 37.158059858367778 -68.890043556638716 0 -68.890043556638716 -5.9411385251648881 0 0 0 0 -104.36926886520814 -466.66952098694264 0 -466.66952098694264 -175.46547143460543 0 0 0 0 487.06307618724531 -315.91981551050731 0 -315.91981551050731 -294.70657646415975 0 0 0 0 2.6233050393429949 -2.9589841358997546 0 -2.9589841358997546 2.9284708833758444 0 0 0 0 -33.343808398130932 -302.17949655393977 0 -302.17949655393977 -1339.5890311024259 0 0 0 0 -402.39026341248245 -250.38865123712435 0 -250.38865123712435 332.97696445603651 0 0 0 0 -184.88827881537145 -892.21627335018638 0 -892.21627335018638 -74.431694532913298 0 0 0 0 -1181.5810565439751 -478.90252420479294 0 -478.90252420479294 202.48017467042337 0 0 0 0 363.13753159786575 -90.013875375961788 0 -90.013875375961788 -305.91226435034241 0 0 0 0 20.470702210368472 170.44695343271928 0 170.44695343271928 253.81061269263773 0 0 0 0 -398.5548112053948 -326.62226478209755 0 -326.62226478209755 -391.84829242414321 0 0 0 0 -579.65086040482856 -13.010500222238079 0 -13.010500222238079 -116.00907576031909 0 0 0 0 669.99551178239926 -50.548262646458852 0 -50.548262646458852 -120.68356408492946 0 0 0 0 -1185.3076462849276 -1050.4418301943379 0 -1050.4418301943379 372.33296911007233 0 0 0 0 -1.3395868363230932 0.79648293244653701 0 0.79648293244653701 -4.8538022301417083 0 0 0 0 290.95944103761576 -90.104375819105371 0 -90.104375819105371 50.939154934333601 0 0 0 0 110.77470009357785 -7.5280437886792697 0 -7.5280437886792697 -33.40319454499695 0 0 0 0 20.546117082587443 50.420491504011807 0 50.420491504011807 15.000984322117802 0 0 0 0 61.812097833331791 -40.590105053542857 0 -40.590105053542857 114.849782956524 0 0 0 0 -117.24471623334102 23.103801240369762 0 23.103801240369762 -285.46551333844627 0 0 0 0 -265.70889201597311 -348.91306955902422 0 -348.91306955902422 -458.0161520434641 0 0 0 0 -296.23582512678695 -466.95788960695302 0 -466.95788960695302 -426.26942759951703 0 0 0 0 5.4287680709899178 1.3957361114221953 0 1.3957361114221953 -20.439925871310589 0 0 0 0 7.8708161163300403 3.6428634833561091 0 3.6428634833561091 -2.6180617247557523 0 0 0 0 -756.36982346273726 -310.92552914212592 0 -310.92552914212592 -43.031385254662666 0 0 0 0 303.8282516287145 -82.506037512823241 0 -82.506037512823241 -89.127729047345383 0 0 0 0 268.23118701812928 -4.0175572008056406 0 -4.0175572008056406 -177.78319058559282 0 0 0 0 374.39774678082904 -261.53909926102915 0 -261.53909926102915 -187.58779698462979 0 0 0 0 304.50680453539826 -222.98149271736384 0 -222.98149271736384 28.774336023303476 0 0 0 0 250.62630510277813 -260.85168646845068 0 -260.85168646845068 16.438945047949346 0 0 0 0 5.6245406516720209 -4.4803530224595391 0 -4.4803530224595391 3.9049983177833401 0 0 0 0 55.956165168463485 -247.11815958818988 0 -247.11815958818988 297.12311570412976 0 0 0 0 435.67530256808095 -415.10211401735069 0 -415.10211401735069 143.81630207235412 0 0 0 0 901.49175620547612 -6.5056031765743683 0 -6.5056031765743683 -95.262030823766509 0 0 0 0 864.82845739907498 51.490407054036041 0 51.490407054036041 -44.3259308922934 0 0 0 0 566.71755471761571 386.81918403217151 0 386.81918403217151 248.7787384396288 0 0 0 0 136.45926663142745 144.44890172477699 0 144.44890172477699 122.74567618918263 0 0 0 0 296.31721411741455 222.49433587508702 0 222.49433587508702 60.335268817075303 0 0 0 0 494.41304307435348 93.564912440639091 0 93.564912440639091 -84.325047551927128 0 0 0 0 416.33376353397034 20.095615491663466 0 20.095615491663466 -40.061985560432731 0 0 0 0 -240.62080671951117 -195.22302368754626 0 -195.22302368754626 -145.10358491577631 0 0 0 0 46.359765465307248 -17.987938988472393 0 -17.987938988472393 -17.588010885216434 0 0 0 0 -159.335650850815 -65.576868686370716 0 -65.576868686370716 -111.95318567415279 0 0 0 0 -422.75292022293434 -299.61726074393619 0 -299.61726074393619 -143.54842562339127 0 0 0 0 -370.38990486132388 -155.05718170261881 0 -155.05718170261881 -81.826742058961145 0 0 0 0 69.760101220512297 10.838979320079716 0 10.838979320079716 -20.691759682559677 0 0 0 0 27.651608403166904 9.6847418800359719 0 9.6847418800359719 -26.649964346564921 0 0 0 0 71.210154780375717 -10.922331981696999 0 -10.922331981696999 -48.799199007716048 0 0 0 0 52.446817184507381 -43.814292447535991 0 -43.814292447535991 -96.233977451522605 0 0 0 0 22.118536653820229 -6.5307088952867929 0 -6.5307088952867929 -4.800938508599633 0 0 0 0 114.41118197736796 50.858678616579709 0 50.858678616579709 -22.302497427626804 0 0 0 0 117.10201954984223 33.342260263376829 0 33.342260263376829 -106.64344393398551 0 0 0 0 101.76044141458988 42.285713662936587 0 42.285713662936587 63.81082158877507 0 0 0 0 248.59735519391688 107.38795857492187 0 107.38795857492187 -24.378764769524423 0 0 0 0 173.01773155335104 89.80855533563772 0 89.80855533563772 -24.897658039664748 0 0 0 0 99.890229053962685 -128.98438771867836 0 -128.98438771867836 -83.201797658324722 0 0 0 0 2224.3926951876492 -1976.3702962260459 0 -1976.3702962260459 348.88284663984723 0 0 0 0 16.940429415456236 2.9113876360318045 0 2.9113876360318045 -12.867708610476299 0 0 0 0 177.01311793136119 20.686938660793203 0 20.686938660793203 -61.973457586894483 0 0 0 0 17.178683101867556 24.185218583009316 0 24.185218583009316 -45.760181701078317 0 0 0 0 33.630832787544932 46.968753023164936 0 46.968753023164936 28.263900993976677 0 0 0 0 133.18130275339354 243.79088876234664 0 243.79088876234664 -300.41510774402559 0 0 0 0 214.30779740444268 69.025295378351984 0 69.025295378351984 -73.734879027271745 0 0 0 0 157.08794225179008 20.365252260432499 0 20.365252260432499 -70.221995064439398 0 0 0 0 215.11281943814538 80.738059733229193 0 80.738059733229193 -68.237226496206858 0 0 0 0 185.75577039729978 69.748380668763275 0 69.748380668763275 -49.30996573025368 0 0 0 0 239.6370035113905 64.795683871241977 0 64.795683871241977 -76.094844117067623 0 0 0 0 234.62486955117492 40.727190058246151 0 40.727190058246151 -41.996546654712802 0 0 0 0 270.23740703071235 -0.79343522342787765 0 -0.79343522342787765 -54.994828650677391 0 0 0 0 3.278593696895399 26.446619052590052 0 26.446619052590052 -50.436584544125793 0 0 0 0 177.76356893041702 105.3246210971966 0 105.3246210971966 2.7234118707947346 0 0 0 0 167.85136215153034 53.998362915391681 0 53.998362915391681 -61.051862124485751 0 0 0 0 393.0801373613358 62.179794449817564 0 62.179794449817564 -109.37961066338175 0 0 0 0 343.4567600688606 -12.032539924056437 0 -12.032539924056437 -87.942273573393322 0 0 0 0 322.71526215877384 82.882715312933215 0 82.882715312933215 -83.786395018503299 0 0 0 0 292.83021568061667 119.21259819411807 0 119.21259819411807 -61.407857580664313 0 0 0 0 312.78464454888308 74.121800232386931 0 74.121800232386931 -85.491893695503677 0 0 0 0 319.25715098973888 57.092328600379915 0 57.092328600379915 -103.7873185324479 0 0 0 0 286.773754208436 83.893372369395365 0 83.893372369395365 -72.728373051429116 0 0 0 0 285.36645713864709 79.238651340078832 0 79.238651340078832 -86.440014402034649 0 0 0 0 286.11506501949043 56.518556260940386 0 56.518556260940386 -75.894198442842026 0 0 0 0 287.1472506634309 43.722388705079538 0 43.722388705079538 -109.2592768242439 0 0 0 0 307.68059940217063 37.646258539978589 0 37.646258539978589 -115.3926498728315 0 0 0 0 324.82368405875604 26.649306263619565 0 26.649306263619565 -122.39952204862129 0 0 0 0 302.33120842330391 -13.943936299063353 0 -13.943936299063353 -130.05817073580329 0 0 0 0 320.39872072686558 11.331412559373348 0 11.331412559373348 -111.61365778516119 0 0 0 0 309.11949906721566 -38.948147115968936 0 -38.948147115968936 -101.75349705263397 0 0 0 0 313.1246973897214 -35.993479653459872 0 -35.993479653459872 -63.069523675436358 0 0 0 0 260.12418526632246 -33.22325439881115 0 -33.22325439881115 -62.516413894604739 0 0 0 0 253.31049326938228 -19.424972799085936 0 -19.424972799085936 -90.204364382216227 0 0 0 0 254.72450225700595 -30.574220401590992 0 -30.574220401590992 -94.30896429501081 0 0 0 0 266.62924223922892 -6.7226060867951674 0 -6.7226060867951674 -126.18256745366671 0 0 0 0 370.84266001865035 44.418187446854972 0 44.418187446854972 -119.98012648688905 0 0 0 0 325.63159829733195 -37.719905154111984 0 -37.719905154111984 -206.40184709907408 0 0 0 0 0.38393068443122047 -0.1194045437233342 0 -0.1194045437233342 -1.077453058861277 0 0 0 0 -270.28116691036848 -441.28369936344825 0 -441.28369936344825 -489.70725618310826 0 0 0 0 306.95610477155424 152.23893788016721 0 152.23893788016721 -44.538975731394572 0 0 0 0 -186.70762735890457 -412.74965162795706 0 -412.74965162795706 -630.70448260364719 0 0 0 0 -266.14163825695869 -448.29252372398059 0 -448.29252372398059 -544.59810696262321 0 0 0 0 -3.8690545112185646 -23.499044846550078 0 -23.499044846550078 -117.50010077085244 0 0 0 0 131.79564524712623 100.95286533456147 0 100.95286533456147 -45.85744088189378 0 0 0 0 258.28323415423802 -15.479923590607541 0 -15.479923590607541 -102.38627950671435 0 0 0 0 224.5364365138812 10.364783610988525 0 10.364783610988525 -105.60419814222541 0 0 0 0 226.68909628863912 12.1481673731505 0 12.1481673731505 -107.75671038009386 0 0 0 0 197.83641967651783 73.420168238034421 0 73.420168238034421 -153.36393315216174 0 0 0 0 190.0691737922898 29.768459670282027 0 29.768459670282027 -49.992867736792505 0 0 0 0 68.142607810139452 70.531230918378753 0 70.531230918378753 82.937654343133545 0 0 0 0 191.37770134187303 29.881624387672673 0 29.881624387672673 -50.861656987949573 0 0 0 0 51.170025097380858 171.75739699377255 0 171.75739699377255 -49.663884521942236 0 0 0 0 206.43525565127493 190.90777074037669 0 190.90777074037669 -144.45867523041306 0 0 0 0 173.12069319951115 124.75857429351254 0 124.75857429351254 -252.64886486357864 0 0 0 0 164.59613787394483 121.03050302786141 0 121.03050302786141 -30.024894479232898 0 0 0 0 140.04662682837807 269.63204441647486 0 269.63204441647486 -183.62479079429659 0 0 0 0 112.41463539562392 277.8893444846301 0 277.8893444846301 127.89311651791286 0 0 0 0 79.457497247873107 73.400290776611655 0 73.400290776611655 71.673133376893475 0 0 0 0 285.26185720901412 -62.833150043826322 0 -62.833150043826322 51.776012088565039 0 0 0 0 62.426678236515727 -34.157718906742048 0 -34.157718906742048 236.00744165479136 0 0 0 0 557.23090802755905 -277.63744252518154 0 -277.63744252518154 212.73022048271105 0 0 0 0 292.694010578507 -37.758920291158461 0 -37.758920291158461 60.417373753010907 0 0 0 0 446.43616843258496 3.8389552943153831 0 3.8389552943153831 -86.107531101311451 0 0 0 0 341.17599593473278 -88.322373999490765 0 -88.322373999490765 9.1149096522240143 0 0 0 0 187.52369463437935 -17.845244352899499 0 -17.845244352899499 32.217255665761513 0 0 0 0 387.71919296149281 224.21165323265768 0 224.21165323265768 -221.32858528503039 0 0 0 0 381.02596364245983 63.235466835951684 0 63.235466835951684 -96.203226502186794 0 0 0 0 5.9601207646192051 133.50422849408778 0 133.50422849408778 -32.312922627594162 0 0 0 0 227.07277803755278 190.43776697976671 0 190.43776697976671 -260.38436006416941 0 0 0 0 208.89223137661611 165.15654926641332 0 165.15654926641332 -29.13098250427538 0 0 0 0 782.39917013965896 55.925160598391358 0 55.925160598391358 -171.42778964534273 0 0 0 0 724.82770588093263 -13.865284030464295 0 -13.865284030464295 -145.82691048426659 0 0 0 0 521.28223999457259 214.15890055363406 0 214.15890055363406 -9.2173982731546857 0 0 0 0 913.77364124474116 126.15493118179825 0 126.15493118179825 -162.53715339105656 0 0 0 0 746.9525128785026 350.75333091223661 0 350.75333091223661 147.22416928297889 0 0 0 0 996.81740891298978 145.47167524168378 0 145.47167524168378 -164.69604480337321 0 0 0 0 566.73726114002056 144.44005938685302 0 144.44005938685302 -4.849478554532503 0 0 0 0 320.7111449206277 314.26726796310567 0 314.26726796310567 282.65308263704378 0 0 0 0 204.97265299450373 243.91071488842715 0 243.91071488842715 3.6505980977794934 0 0 0 0 135.96076457371237 84.979542265465085 0 84.979542265465085 46.524932615418116 0 0 0 0 -37.029233806781122 121.85238101733745 0 121.85238101733745 296.30478512261698 0 0 0 0 -24.350276755285449 118.93569190862922 0 118.93569190862922 33.214827879645782 0 0 0 0 -244.88107420873712 93.54796171570888 0 93.54796171570888 45.873513799138209 0 0 0 0 484.24312302406906 307.83604896491431 0 307.83604896491431 -272.53066963845072 0 0 0 0 -99.890660004244637 662.98714417035103 0 662.98714417035103 -413.73157179917371 0 0 0 0 -5.1970387390754524 -1.4557124862220405 0 -1.4557124862220405 0.11860504661444082 0 0 0 0 -918.05965875958645 745.35331615810878 0 745.35331615810878 -159.18647691714568 0 0 0 0 -313.81281171092996 180.4834174871919 0 180.4834174871919 -514.01773727770342 0 0 0 0 -240.29407842233195 347.47264880354669 0 347.47264880354669 -138.14940026039767 0 0 0 0 12.461282574979123 244.44720277221722 0 244.44720277221722 -291.27554065139066 0 0 0 0 15.887322153965812 -4.5873399262376324 0 -4.5873399262376324 -15.188443739898375 0 0 0 0 -318.30995302219526 553.4482020434175 0 553.4482020434175 -387.26006252043021 0 0 0 0 -342.63491678937498 401.10573296916948 0 401.10573296916948 -219.92930812313716 0 0 0 0 -23.068064731924096 304.42227375996981 0 304.42227375996981 -453.19915009171473 0 0 0 0 99.323879731207853 -32.088249323864602 0 -32.088249323864602 132.86090899729243 0 0 0 0 209.99931796611781 -109.48759777985288 0 -109.48759777985288 -181.0561425141168 0 0 0 0 516.46465742745204 -225.39214548324151 0 -225.39214548324151 -337.53793601330744 0 0 0 0 932.54656332510058 17.987385856225501 0 17.987385856225501 -758.83493047398315 0 0 0 0 122.38997952075891 43.125878612913255 0 43.125878612913255 2.5905496647371873 0 0 0 0 -73.539494201220805 260.09182051915104 0 260.09182051915104 -470.69730471247249 0 0 0 0 -72.402427620138042 377.57938650771848 0 377.57938650771848 -552.92209815583465 0 0 0 0 -2.0839807509420325 21.107148400669558 0 21.107148400669558 4.3356103283029093 0 0 0 0 -103.13232541322941 355.93117045820782 0 355.93117045820782 -364.62109185547433 0 0 0 0 -104.29941318927013 231.91217505122654 0 231.91217505122654 -324.37768611279353 0 0 0 0 158.52218832421931 132.25869948497257 0 132.25869948497257 -179.79769730929002 0 0 0 0 -39.197715451387921 307.79681965629698 0 307.79681965629698 -150.96317202683531 0 0 0 0 311.30134975808323 364.60174307246143 0 364.60174307246143 -318.33445471982986 0 0 0 0 628.34957251243759 377.55388285291656 0 377.55388285291656 -192.75421525884735 0 0 0 0 420.88417865670635 -7.1594743440168713 0 -7.1594743440168713 56.484025470551387 0 0 0 0 708.58269215810287 271.93881678417301 0 271.93881678417301 -395.58473362099812 0 0 0 0 623.83397311592125 394.67757588337645 0 394.67757588337645 -454.83050385525127 0 0 0 0 410.88807240978349 94.59110473921919 0 94.59110473921919 -695.01017965344727 0 0 0 0 354.24188639072236 121.00292332146091 0 121.00292332146091 -432.80629531453087 0 0 0 0 445.46021446512896 -23.41066452015184 0 -23.41066452015184 -687.86439128488337 0 0 0 0 733.26270313985879 -290.6051447868449 0 -290.6051447868449 -599.58193674171343 0 0 0 0 1439.0596869238943 583.25051805287967 0 583.25051805287967 -654.28505410826131 0 0 0 0 -1664.888126269434 -1000.4059165162412 0 -1000.4059165162412 -248.09722985551571 0 0 0 0 33.042117959474879 8.3284645575604088 0 8.3284645575604088 -9.5947192334961215 0 0 0 0 21.098300776118606 -9.3589550224172058 0 -9.3589550224172058 4.7562503354401837 0 0 0 0 1628.4297025584383 -1778.4339821037797 0 -1778.4339821037797 -814.34455570218688 0 0 0 0 -1477.7369620686804 -10.055470700433034 0 -10.055470700433034 270.00295380271655 0 0 0 0 629.39319160172954 320.42100641912793 0 320.42100641912793 542.77670864111224 0 0 0 0 1038.1671241936856 -344.71889577636966 0 -344.71889577636966 194.25693899788007 0 0 0 0 356.48817374033388 -152.3404522245105 0 -152.3404522245105 208.47437627632644 0 0 0 0 163.09911142817509 23.460618916918236 0 23.460618916918236 55.753543483750036 0 0 0 0 426.12172366196683 106.9483927237489 0 106.9483927237489 138.01318560935033 0 0 0 0 951.13265212022816 572.6579886525692 0 572.6579886525692 224.928438926539 0 0 0 0 39.767277740392274 -13.063576251695224 0 -13.063576251695224 9.5694556387399139 0 0 0 0 155.86499635176006 -104.32405484467517 0 -104.32405484467517 -630.76404557183469 0 0 0 0 1027.3049035258882 -120.22818685821949 0 -120.22818685821949 140.26935108194129 0 0 0 0 332.73066488985205 400.43118673316849 0 400.43118673316849 336.51346467955477 0 0 0 0 552.46919261245057 -76.170060710974667 0 -76.170060710974667 -27.355806710118941 0 0 0 0 -171.94021510204766 -322.0374952125494 0 -322.0374952125494 -588.9559766606975 0 0 0 0 760.17168223776389 1689.6214220835932 0 1689.6214220835932 450.18027838906437 0 0 0 0 366.39454486896284 -182.20044887486983 0 -182.20044887486983 560.63944120315773 0 0 0 0 -14.484406419534935 148.39980732749882 0 148.39980732749882 315.17632988541686 0 0 0 0 -439.05123775594984 -1012.1465257818654 0 -1012.1465257818654 -1073.7621213222137 0 0 0 0 1874.8123014173325 -1073.0855685737006 0 -1073.0855685737006 -1225.3862038879688 0 0 0 0 61.384925460060344 -29.863684771061074 0 -29.863684771061074 6.4793305403523274 0 0 0 0 -54.558687532611657 -400.75478875688145 0 -400.75478875688145 -357.32389472029286 0 0 0 0 5.4296719240785478 -5.5194139563284352 0 -5.5194139563284352 3.2521041180573569 0 0 0 0 323.8878288748092 221.07940837021056 0 221.07940837021056 -292.62172022569621 0 0 0 0 -195.26565439826845 -376.41676591448766 0 -376.41676591448766 -169.09711698280739 0 0 0 0 -158.94746982742799 63.796817511027143 0 63.796817511027143 -95.393766219718827 0 0 0 0 401.29215980795198 -80.62594013738962 0 -80.62594013738962 -217.38022229349826 0 0 0 0 374.40759941138094 11.74309311186164 0 11.74309311186164 -162.53745740739578 0 0 0 0 452.41783525850042 -70.158159733324794 0 -70.158159733324794 -121.58792287904305 0 0 0 0 197.28827398487192 -247.34759799138612 0 -247.34759799138612 -146.72886171869385 0 0 0 0 107.32013607368572 -189.50448886222495 0 -189.50448886222495 -158.24087274463912 0 0 0 0 -134.68452549836366 -248.84914085450964 0 -248.84914085450964 -308.76870427604234 0 0 0 0 -30.192348855780438 -350.27808493483519 0 -350.27808493483519 -212.54838110243259 0 0 0 0 -16.410818441770971 -210.38745111275 0 -210.38745111275 -138.40947032764382 0 0 0 0 -163.16981542800204 -415.77368589866694 0 -415.77368589866694 -288.8219241421142 0 0 0 0 1066.8595353161872 30.425586283928169 0 30.425586283928169 -364.386870142931 0 0 0 0 1003.3602490681224 -3.1568146010694136 0 -3.1568146010694136 -291.27055723455595 0 0 0 0 1127.5935175627819 -90.537118059671684 0 -90.537118059671684 -261.63311555880705 0 0 0 0 798.67592993218568 -72.612710446755273 0 -72.612710446755273 -76.121982387659045 0 0 0 0 860.43692322651623 129.93008361321654 0 129.93008361321654 -331.41128676957783 0 0 0 0 1225.2637640399844 -132.54137807058373 0 -132.54137807058373 -300.00749120503997 0 0 0 0 873.00064612925053 93.650011461088297 0 93.650011461088297 -361.21484199195925 0 0 0 0 874.38119853983517 28.285311989848196 0 28.285311989848196 -312.34846577895496 0 0 0 0 1051.0964893054334 29.766212937572277 0 29.766212937572277 -341.59421292270952 0 0 0 0 802.20477966958424 20.204923198508936 0 20.204923198508936 -186.32135831472237 0 0 0 0 413.72679397248248 96.848826953170359 0 96.848826953170359 -241.46670878660052 0 0 0 0 800.3459760947735 31.563773210781619 0 31.563773210781619 -255.71461687096746 0 0 0 0 1068.6387480545964 -15.888631616345265 0 -15.888631616345265 -188.11704752749966 0 0 0 0 1164.1470799288945 49.143647913161772 0 49.143647913161772 -262.00621536266488 0 0 0 0 1044.5014094550424 37.307519195515454 0 37.307519195515454 -252.95002125403516 0 0 0 0 1028.274453130638 189.14004867056425 0 189.14004867056425 -123.0114480737501 0 0 0 0 1506.7460520078312 303.32040156719972 0 303.32040156719972 -101.61989281728302 0 0 0 0 1052.7781885773293 39.074960630551004 0 39.074960630551004 287.520538935378 0 0 0 0 1073.6540457172669 89.972351272611263 0 89.972351272611263 -106.48786463691556 0 0 0 0 1320.5244126328034 -97.919734092854156 0 -97.919734092854156 24.306717485499348 0 0 0 0 755.46897069280385 -45.26960659646096 0 -45.26960659646096 38.042780486109223 0 0 0 0 747.43066872627242 3.6445486821589839 0 3.6445486821589839 -138.76002596167825 0 0 0 0 643.90154845296638 57.342588406060486 0 57.342588406060486 289.75493897432034 0 0 0 0 996.72106119676027 68.820223444403837 0 68.820223444403837 45.308042759763708 0 0 0 0 1094.4815466403088 -25.916183055023112 0 -25.916183055023112 132.68610600991406 0 0 0 0 910.97259208667674 -149.62673536575346 0 -149.62673536575346 442.15542362728593 0 0 0 0 686.91714552062331 351.41032467486889 0 351.41032467486889 781.8828201415505 0 0 0 0 1774.2196958769855 839.45864496953311 0 839.45864496953311 321.52995171548719 0 0 0 0 2016.3143866298778 -458.95691672444627 0 -458.95691672444627 519.83108520085716 0 0 0 0 332.83470065664733 24.558947991987907 0 24.558947991987907 -135.33182715000999 0 0 0 0 31.850185444753151 -202.23285465507519 0 -202.23285465507519 -241.03885681446832 0 0 0 0 32.337189272510159 -153.56439307148497 0 -153.56439307148497 -17.768665172151486 0 0 0 0 175.26037133130012 -265.02687748715221 0 -265.02687748715221 -173.47678215648227 0 0 0 0 312.58387569736806 -68.878543498841964 0 -68.878543498841964 -88.439375147910994 0 0 0 0 385.76784824370407 -163.31606191961947 0 -163.31606191961947 20.252970140474645 0 0 0 0 656.50141535679904 -18.767851139106625 0 -18.767851139106625 -15.474007756022274 0 0 0 0 322.39091592107434 35.333109620184246 0 35.333109620184246 309.60313276201168 0 0 0 0 684.93182929322938 164.72653751386906 0 164.72653751386906 144.31632752816768 0 0 0 0 80.097844271338545 -40.057493346634828 0 -40.057493346634828 120.76526643151101 0 0 0 0 209.25743065899587 250.45735255583713 0 250.45735255583713 181.57083390061808 0 0 0 0 219.40560273150913 117.97755253539458 0 117.97755253539458 -114.57362881329823 0 0 0 0 83.177988481096691 -169.29606449562334 0 -169.29606449562334 -111.21649157179081 0 0 0 0 406.3922963164805 166.58010495302517 0 166.58010495302517 170.28987235314571 0 0 0 0 226.81365356364404 162.27829339998107 0 162.27829339998107 233.0369072631504 0 0 0 0 297.33035499430844 16.891319776063028 0 16.891319776063028 309.0351260631204 0 0 0 0 488.10102218401153 356.91684621117741 0 356.91684621117741 398.94790367088626 0 0 0 0 585.44334010234161 140.030386411785 0 140.030386411785 105.41396962753765 0 0 0 0 583.07389916632383 263.59644285594118 0 263.59644285594118 167.75913922681661 0 0 0 0 292.04029213969261 82.859366481577169 0 82.859366481577169 85.894766812876696 0 0 0 0 0.65165140457285986 0.61430509456221216 0 0.61430509456221216 0.40080304210615836 0 0 0 0 1443.2936456002426 191.41158595789875 0 191.41158595789875 -283.27699634946202 0 0 0 0 578.27919497367111 666.84829822905385 0 666.84829822905385 964.67878127919084 0 0 0 0 1.5270560735439034 1.2930373656038228 0 1.2930373656038228 -0.35022833512638663 0 0 0 0 1364.0162110169331 508.44879274049799 0 508.44879274049799 185.16457986975047 0 0 0 0 1006.2657981185184 182.67708226700984 0 182.67708226700984 83.257153999966022 0 0 0 0 945.0243280112627 -77.79877989333022 0 -77.79877989333022 -217.14532507319527 0 0 0 0 832.40305132645881 4.7753498590100776 0 4.7753498590100776 -98.227796908002802 0 0 0 0 614.44516608180129 -209.3877715438876 0 -209.3877715438876 -167.64736241731555 0 0 0 0 171.95737192523666 138.04134247072727 0 138.04134247072727 -98.873237389044561 0 0 0 0 155.45256812304797 326.69104460287326 0 326.69104460287326 -551.08782388837653 0 0 0 0 -20.903960283991182 -33.312976941356055 0 -33.312976941356055 -104.56702950883579 0 0 0 0 1025.8650075767582 -340.99083341853611 0 -340.99083341853611 -302.7470139401496 0 0 0 0 15.807019268489739 7.5211280943533581 0 7.5211280943533581 3.6359966422741627 0 0 0 0 328.8776586407912 684.33028627198723 0 684.33028627198723 1130.1973353115031 0 0 0 0 -163.0995351436577 -107.46907727555458 0 -107.46907727555458 391.28013572431792 0 0 0 0 -258.88811502923272 114.58194982496073 0 114.58194982496073 720.41651219639607 0 0 0 0 43.286191082810547 124.13095004921625 0 124.13095004921625 285.4122087268579 0 0 0 0 28.625162859108968 173.63630271427203 0 173.63630271427203 359.79804628458851 0 0 0 0 417.91395352446125 513.99188873002072 0 513.99188873002072 644.07541387972378 0 0 0 0 716.72367764238152 314.67506170299976 0 314.67506170299976 149.89370331877495 0 0 0 0 981.29685606939893 580.56456925383236 0 580.56456925383236 254.48511413771212 0 0 0 0 -47.952153161080787 -2.9496005145202844 0 -2.9496005145202844 293.27212354347398 0 0 0 0 -123.57435092762171 -45.248254224897664 0 -45.248254224897664 279.62239293067023 0 0 0 0 -122.38039106482756 -6.4875275111548945 0 -6.4875275111548945 517.14220793024288 0 0 0 0 951.81310965720331 -710.41062971307883 0 -710.41062971307883 654.86093030111988 0 0 0 0 43.517021780825871 14.334095163981743 0 14.334095163981743 3.1333632301017222 0 0 0 0 -1061.0505514453398 429.52094022641495 0 429.52094022641495 1558.0351661411819 0 0 0 0 2126.8166579530734 -28.842862466549263 0 -28.842862466549263 -1594.6149476621204 0 0 0 0 -306.25894842497655 758.04006839617068 0 758.04006839617068 -459.4176243219772 0 0 0 0 41.292628922366021 17.351066601522476 0 17.351066601522476 5.476079282696027 0 0 0 0 -129.52333993816865 210.70809239906146 0 210.70809239906146 -73.823168708141793 0 0 0 0 159.79365162499016 14.279462864576885 0 14.279462864576885 -328.01223283026172 0 0 0 0 -1.5748994728128309 313.37536648949197 0 313.37536648949197 -324.62993344784195 0 0 0 0 -81.926341615850106 272.91257035557879 0 272.91257035557879 136.36146228228949 0 0 0 0 -13.723795972211519 284.69402689841149 0 284.69402689841149 129.29309877444803 0 0 0 0 52.370074102160288 301.62876923241174 0 301.62876923241174 116.25349173657855 0 0 0 0 -15.55966953933239 280.08366995024949 0 280.08366995024949 166.13490874523245 0 0 0 0 98.155603214232542 203.63314746389455 0 203.63314746389455 140.30537423837859 0 0 0 0 641.15004172848421 379.46589527038157 0 379.46589527038157 144.45443754175176 0 0 0 0 44.739252778730588 153.97260176543864 0 153.97260176543864 -64.837215631515903 0 0 0 0 185.51759359084826 289.91091466305647 0 289.91091466305647 66.397452195432834 0 0 0 0 482.25766412063967 -43.425929491129182 0 -43.425929491129182 -32.247762739706161 0 0 0 0 824.4127481005562 -108.50953261877726 0 -108.50953261877726 -126.31320108512705 0 0 0 0 599.97505773715966 49.405790031349511 0 49.405790031349511 31.302559309216576 0 0 0 0 894.22220342390938 -146.24525792511724 0 -146.24525792511724 128.35569066679045 0 0 0 0 663.55971216406033 48.881891078045498 0 48.881891078045498 476.70230774497509 0 0 0 0 929.88152272175648 220.6735243382077 0 220.6735243382077 108.49756105174487 0 0 0 0 816.13320378262142 -215.74258825707795 0 -215.74258825707795 -38.377526791465584 0 0 0 0 380.26736290688859 -297.7887104182912 0 -297.7887104182912 216.0269001359477 0 0 0 0 -36.141556137765292 7.7423092961773818 0 7.7423092961773818 73.082579333987724 0 0 0 0 5.7863645485704183 52.606963684080824 0 52.606963684080824 -22.080525908470463 0 0 0 0 20.281119937830567 3.6955827302765911 0 3.6955827302765911 -0.61584216838058747 0 0 0 0 68.788775626555434 126.22078042128226 0 126.22078042128226 -175.76005898049493 0 0 0 0 -23.351774021291931 32.285416533750947 0 32.285416533750947 33.75265481484621 0 0 0 0 68.82940620102454 287.99134171794276 0 287.99134171794276 415.6077946755122 0 0 0 0 7.646947365881374 1.6482748798220115 0 1.6482748798220115 0.91818667846114344 0 0 0 0 423.3101505558443 103.89502931717971 0 103.89502931717971 2.1429192735927245 0 0 0 0 612.18059704141342 88.825470270306596 0 88.825470270306596 -99.191164940664066 0 0 0 0 573.52136258434621 181.61972231631216 0 181.61972231631216 33.115091636828538 0 0 0 0 529.54052112766658 176.68267383300224 0 176.68267383300224 13.939992702238897 0 0 0 0 601.56597203722777 119.3037137601026 0 119.3037137601026 -2.3186493500247707 0 0 0 0 548.42858394476934 148.38519864237696 0 148.38519864237696 -10.863452309021056 0 0 0 0 1.0814421953057334 0.88604174240487055 0 0.88604174240487055 -0.4362093234897193 0 0 0 0 1.7334210169234936 2.0670997113539897 0 2.0670997113539897 -0.79477926141762723 0 0 0 0 753.35176498521469 166.53898054263368 0 166.53898054263368 -8.7396459702312086 0 0 0 0 1092.1860995972111 17.215498579486585 0 17.215498579486585 -176.99180759625324 0 0 0 0 856.52552030867082 -20.893354167872872 0 -20.893354167872872 60.436865110583994 0 0 0 0 910.46784827497322 27.670172980693565 0 27.670172980693565 98.513472441973306 0 0 0 0 678.49490195610451 107.16521501135068 0 107.16521501135068 93.625759812105116 0 0 0 0 607.03881945983449 180.76732433130292 0 180.76732433130292 174.21755222340425 0 0 0 0 619.02726794924092 176.99416364606773 0 176.99416364606773 49.66288321852835 0 0 0 0 453.16828380495735 166.44213989606254 0 166.44213989606254 55.557275167559965 0 0 0 0 566.76347511037602 179.39913446281565 0 179.39913446281565 47.773483966865228 0 0 0 0 582.63233022083296 120.66783238636157 0 120.66783238636157 96.474334334432569 0 0 0 0 637.28148309685639 158.11721179150243 0 158.11721179150243 49.044056582807116 0 0 0 0 567.14083018688143 60.53331584532345 0 60.53331584532345 78.865912767887266 0 0 0 0 582.13922516733874 102.56202742670996 0 102.56202742670996 49.914372775939569 0 0 0 0 646.59805528406287 102.25940190985494 0 102.25940190985494 49.804309874628949 0 0 0 0 578.48558530292939 92.770991842147282 0 92.770991842147282 153.92700049444079 0 0 0 0 586.03025263629388 193.09273827680227 0 193.09273827680227 206.40880238480224 0 0 0 0 582.23132562087267 160.8657725105395 0 160.8657725105395 29.94482341316052 0 0 0 0 794.53155192192571 253.97904074852036 0 253.97904074852036 -2.1103642417965602 0 0 0 0 692.87970144924475 93.467244629815184 0 93.467244629815184 1.2285219447272766 0 0 0 0 721.49603973492049 100.46131619470896 0 100.46131619470896 -0.85316057226918929 0 0 0 0 714.49590391332458 78.306395930185943 0 78.306395930185943 -7.3626640933556473 0 0 0 0 622.73393115709769 54.644306144677728 0 54.644306144677728 -5.8017381546833349 0 0 0 0 622.86747271775675 134.52683512724099 0 134.52683512724099 12.478950104028627 0 0 0 0 705.66742276906734 144.76344588758664 0 144.76344588758664 13.742057162938409 0 0 0 0 672.86300871381536 178.46799547995553 0 178.46799547995553 -20.332161700147537 0 0 0 0 780.92398946246249 143.73663500124223 0 143.73663500124223 -19.552062352277474 0 0 0 0 694.64576773863519 204.93318889095747 0 204.93318889095747 -27.131112700262751 0 0 0 0 634.77533681807108 256.68476431684519 0 256.68476431684519 -16.180378911328148 0 0 0 0 680.52313951709948 203.26908725665587 0 203.26908725665587 46.051105875177768 0 0 0 0 673.10149711772101 226.27292455024798 0 226.27292455024798 43.281916272058879 0 0 0 0 356.58633048180491 186.00460131564125 0 186.00460131564125 30.00161865439371 0 0 0 0 616.94258424745021 173.67450317530779 0 173.67450317530779 4.6500552521342797 0 0 0 0 183.73365228966577 297.79999152757449 0 297.79999152757449 55.838604148465215 0 0 0 0 648.77760570262035 306.33046099508766 0 306.33046099508766 -13.79694589950708 0 0 0 0 699.87959215092269 433.69028565124921 0 433.69028565124921 58.875024439492108 0 0 0 0 3.0035680151340785 0.058318044000458258 0 0.058318044000458258 -0.062576064164022435 0 0 0 0 13.849226436286699 -6.437296950364531 0 -6.437296950364531 -0.058861886105566051 0 0 0 0 913.98624000872951 148.42698820445543 0 148.42698820445543 -56.843752813920943 0 0 0 0 731.81987093380303 216.22240777323157 0 216.22240777323157 -69.779172727081956 0 0 0 0 754.40009803020803 126.706145759457 0 126.706145759457 -7.0146760610271031 0 0 0 0 813.9793209550844 92.622808870955282 0 92.622808870955282 -0.52117465331403423 0 0 0 0 810.94192139347433 95.28710641167595 0 95.28710641167595 1.0959283284441854 0 0 0 0 856.35889180921731 77.218567313205185 0 77.218567313205185 -15.360063422512155 0 0 0 0 815.15247071231715 93.999980414150968 0 93.999980414150968 -0.31466108555255839 0 0 0 0 776.10846865427447 67.728218120077671 0 67.728218120077671 18.697830458630804 0 0 0 0 530.67845433898037 -78.663902013587958 0 -78.663902013587958 -52.739610377329754 0 0 0 0 342.39102167660167 -87.308360333283119 0 -87.308360333283119 -51.385778673393361 0 0 0 0 198.598953955865 -70.537017308951164 0 -70.537017308951164 30.149012297607769 0 0 0 0 168.60673489167311 13.004425188364031 0 13.004425188364031 13.942126475489715 0 0 0 0 342.3006348713534 -83.333743556219247 0 -83.333743556219247 -9.3193958179424499 0 0 0 0 104.46745032594845 37.979569312738164 0 37.979569312738164 -38.730508640786411 0 0 0 0 53.069983637789846 -85.83215196479523 0 -85.83215196479523 35.005264578490369 0 0 0 0 539.02652567197219 -168.9821848925543 0 -168.9821848925543 -64.159687663551153 0 0 0 0 332.68397961594746 -186.78925406255672 0 -186.78925406255672 -24.053889509189588 0 0 0 0 347.64996831430108 -123.01603563777736 0 -123.01603563777736 6.737889158620419 0 0 0 0 586.13152017415268 9.6894273751337323 0 9.6894273751337323 -6.3632983872821001 0 0 0 0 597.51695149308944 11.870151822187125 0 11.870151822187125 -17.850759120143039 0 0 0 0 463.23673676086764 72.337625088549302 0 72.337625088549302 21.000028023330799 0 0 0 0 361.39238016930176 -79.232094679521609 0 -79.232094679521609 -31.422808356909009 0 0 0 0 519.97248717272305 -108.3004117384429 0 -108.3004117384429 -115.40090172032511 0 0 0 0 2.5879390748311266 -0.46429545783574611 0 -0.46429545783574611 -0.10177522085645506 0 0 0 0 272.18782478393405 -247.43474625415519 0 -247.43474625415519 -181.97790721983407 0 0 0 0 -24.817362565983785 -21.70064563676911 0 -21.70064563676911 46.89071132842119 0 0 0 0 13.653601018500922 -5.9440300069541658 0 -5.9440300069541658 0.1354972561717073 0 0 0 0 504.62084071367281 119.05571321026386 0 119.05571321026386 9.214976144423872 0 0 0 0 573.30999920330942 -57.215377681271974 0 -57.215377681271974 -26.876154695391058 0 0 0 0 411.78488300117897 -10.291000467916108 0 -10.291000467916108 -0.19251662947745701 0 0 0 0 346.82992935478978 -81.959818135693993 0 -81.959818135693993 95.565675915421025 0 0 0 0 366.48420250558411 23.768057691625451 0 23.768057691625451 25.063026378638227 0 0 0 0 269.59873332671123 7.7269061282265028 0 7.7269061282265028 26.697883501691621 0 0 0 0 257.74417793834436 -19.421575988962804 0 -19.421575988962804 9.1307199113439594 0 0 0 0 264.77611910406631 -51.292672404134478 0 -51.292672404134478 -18.798048282922299 0 0 0 0 267.78114894829923 -69.4788549093916 0 -69.4788549093916 73.965201319554737 0 0 0 0 46.594401771668345 11.612771762626604 0 11.612771762626604 0.1485783549497014 0 0 0 0 0.14303617072903307 -0.23267568556457263 0 -0.23267568556457263 -0.094610265056853979 0 0 0 0 0.27126771692724105 -0.11455814253243091 0 -0.11455814253243091 -0.09359095128879083 0 0 0 0 5.0773310535878409 -1.3171613381520046 0 -1.3171613381520046 -27.255474415783475 0 0 0 0 -0.13971039079478942 -0.026407177718300142 0 -0.026407177718300142 -3.040128493518063e-05 0 0 0 0 11.606695854105055 -8.8215982564136759 0 -8.8215982564136759 6.4459431736001056 0 0 0 0 -0.091195582534624009 -0.031766501436067074 0 -0.031766501436067074 -0.043647083985080951 0 0 0 0 -0.58573939851328305 0.31878883651555157 0 0.31878883651555157 -0.11509983420594988 0 0 0 0 -4.7373189579448081 -20.284547437841653 0 -20.284547437841653 7.7121304717715304 0 0 0 0 59.709690109215444 14.607950608211183 0 14.607950608211183 50.304069830726135 0 0 0 0 57.982115931692533 69.247888069227372 0 69.247888069227372 -7.9555155463810365 0 0 0 0 -3.2374669966229703 -20.048535238987569 0 -20.048535238987569 31.356074685074447 0 0 0 0 52.61163888766896 30.109407826055701 0 30.109407826055701 25.725960652201412 0 0 0 0 -3.7750754346052418 11.823559745547101 0 11.823559745547101 8.3509107062457133 0 0 0 0 3.5452790274430299 -1.3984540611199634 0 -1.3984540611199634 31.875909185005241 0 0 0 0 26.168449663382489 33.741475022531802 0 33.741475022531802 6.1275643394846497 0 0 0 0 1.4272634579247097 15.294276277729125 0 15.294276277729125 -5.3157497742608939 0 0 0 0 7.5382962769799633 20.798161988910437 0 20.798161988910437 -11.131823984481798 0 0 0 0 15.969874906120822 37.628575088086222 0 37.628575088086222 -27.184040096024319 0 0 0 0 31.429156845959369 -8.384215864922794 0 -8.384215864922794 27.620675452842363 0 0 0 0 6.9826001271721907 8.287454609564918 0 8.287454609564918 -9.7003299956495539 0 0 0 0 -0.53875579041061883 2.6175050945392115 0 2.6175050945392115 -2.5906232167215402 0 0 0 0 10.088282583805267 -10.532796592637936 0 -10.532796592637936 8.3550451795165586 0 0 0 0 4.6290317123057321 15.388866344654048 0 15.388866344654048 -13.955475489222238 0 0 0 0 -7.6033733417571057 7.3986041225836061 0 7.3986041225836061 7.4405055163758789 0 0 0 0 -3.4959207808715291 -1.7413455802779936 0 -1.7413455802779936 -28.631471777563775 0 0 0 0 -1.4153382891142314 1.1843457059862885 0 1.1843457059862885 -0.93801122497311584 0 0 0 0 -7.6575909826497082 5.801925717896367 0 5.801925717896367 6.8543690036506746 0 0 0 0 63.780956898262957 60.954476743302905 0 60.954476743302905 21.586291007883332 0 0 0 0 12.480357551896304 -2.0941846961136124 0 -2.0941846961136124 0.47817601339805194 0 0 0 0 -0.13919237774098292 -0.026135205579943008 0 -0.026135205579943008 8.515200433347874e-05 0 0 0 0 7.1883171464141924 -2.9778457424233502 0 -2.9778457424233502 1.2152650590452518 0 0 0 0 -0.051707647352827735 -0.0009825085115693355 0 -0.0009825085115693355 0.0072824527902922058 0 0 0 0 31.04137296207773 24.815231032196703 0 24.815231032196703 9.6927888765813162 0 0 0 0 71.857300994495745 -7.637360090320664 0 -7.637360090320664 0.12478258983009279 0 0 0 0 131.73937476090214 12.276392583262943 0 12.276392583262943 -28.348206866955543 0 0 0 0 130.15247202175669 16.287519490341701 0 16.287519490341701 -29.256491800469419 0 0 0 0 171.9474008987454 -29.494773384459862 0 -29.494773384459862 -0.36500617489241116 0 0 0 0 174.37464474144508 -73.618886815075641 0 -73.618886815075641 -83.638346637038921 0 0 0 0 130.12341382780869 -3.6623059490006398 0 -3.6623059490006398 -32.628368908223578 0 0 0 0 257.73792486662205 -107.5181247710432 0 -107.5181247710432 -32.785648201986419 0 0 0 0 0.31934494010801018 -0.11380437674489485 0 -0.11380437674489485 -0.88462765880062455 0 0 0 0 230.18264834026922 -58.60488425102897 0 -58.60488425102897 -5.1987320985008125 0 0 0 0 122.68135255524248 3.0700298310675578 0 3.0700298310675578 79.173078026364678 0 0 0 0 318.127540304391 -22.914679540098071 0 -22.914679540098071 -34.462705477493273 0 0 0 0 0.54826616479167001 0.14051493146268967 0 0.14051493146268967 -2.715300280329652 0 0 0 0 281.81837688859378 67.992803513926276 0 67.992803513926276 -32.463368422607537 0 0 0 0 72.529289683661773 91.594403464176992 0 91.594403464176992 84.969674728640669 0 0 0 0 2.0275315930296074 0.52165258285622684 0 0.52165258285622684 -0.42215856033270793 0 0 0 0 7.9187757894291337 3.4018881670612413 0 3.4018881670612413 7.8874690886527787 0 0 0 0 233.12841734485119 -65.007206223259857 0 -65.007206223259857 18.06546641654851 0 0 0 0 1.042768205268203 0.23272311637467169 0 0.23272311637467169 0.11001623695256407 0 0 0 0 307.00269633726566 46.790903465988208 0 46.790903465988208 -59.995045799117179 0 0 0 0 357.51073496384197 77.883259309190578 0 77.883259309190578 -46.042876965244773 0 0 0 0 102.16777499491582 107.33633535994957 0 107.33633535994957 32.274953851378882 0 0 0 0 13.677216032854801 -3.282048882040641 0 -3.282048882040641 -0.22564323026624988 0 0 0 0 2.084083542402368 -4.0429093502957016 0 -4.0429093502957016 12.645862504246423 0 0 0 0 97.230996870428044 -46.835665043295833 0 -46.835665043295833 -30.059391203982727 0 0 0 0 1.0458702943703031 0.65736140553309497 0 0.65736140553309497 -4.1374295024966914 0 0 0 0 132.09647205640067 142.73404316217091 0 142.73404316217091 -46.202923002884631 0 0 0 0 281.54384338785894 61.586381464368017 0 61.586381464368017 -4.6897643650132608 0 0 0 0 189.16050572886888 5.8060036585434887 0 5.8060036585434887 -38.280624581031077 0 0 0 0 315.76944768866815 -28.255065573853948 0 -28.255065573853948 -175.24626199085185 0 0 0 0 356.71895903559926 -64.881923748300579 0 -64.881923748300579 -120.05731900442629 0 0 0 0 68.204284608887974 -143.45792139843189 0 -143.45792139843189 36.203396785172686 0 0 0 0 5.4490595345381792 6.6587841620770973 0 6.6587841620770973 1.9058798841570732 0 0 0 0 72.627876919963455 136.69364171060982 0 136.69364171060982 -39.039890213496733 0 0 0 0 738.04038338089595 -444.62627195774326 0 -444.62627195774326 82.27375850807357 0 0 0 0 173.16640345314954 -122.25291247180434 0 -122.25291247180434 -14.218891850095929 0 0 0 0 316.72235803096555 27.699160681195735 0 27.699160681195735 668.38592594902002 0 0 0 0 -0.86354203732108203 1.3487878121624703 0 1.3487878121624703 -5.8183551707744865 0 0 0 0 677.48991835795459 190.96548002512122 0 190.96548002512122 -233.04714036501215 0 0 0 0 192.56459748902125 63.768353310930138 0 63.768353310930138 -58.362686354273137 0 0 0 0 514.499346337936 -336.37970015388896 0 -336.37970015388896 -207.06188510562333 0 0 0 0 177.73849894895102 -179.24634720952531 0 -179.24634720952531 -262.21323735595593 0 0 0 0 686.42554546892643 -200.29051329652384 0 -200.29051329652384 -48.528466694740928 0 0 0 0 406.35120941870264 -242.32619186961267 0 -242.32619186961267 -65.44164277461914 0 0 0 0 451.46448195021367 -107.88560233198177 0 -107.88560233198177 280.85807757288285 0 0 0 0 -10.910674401471624 -439.57574750959049 0 -439.57574750959049 -621.8191118156293 0 0 0 0 -103.40645315914298 -81.827184101837702 0 -81.827184101837702 -296.40558590563182 0 0 0 0 35.717065101809567 -388.27294788719928 0 -388.27294788719928 -47.182144743091499 0 0 0 0 -200.83504801809613 -220.2799100317136 0 -220.2799100317136 -4.1717645829398862 0 0 0 0 4.9804434402251445 -2.0102158707496756 0 -2.0102158707496756 0.77323385481304541 0 0 0 0 363.84687729069265 331.90292637368725 0 331.90292637368725 192.59396828047863 0 0 0 0 6.9654976217425428 -252.8716218773526 0 -252.8716218773526 0.23307801670716799 0 0 0 0 119.97725056973286 -158.7074660295184 0 -158.7074660295184 -32.656481056071243 0 0 0 0 -139.29127665492706 -371.54412156154262 0 -371.54412156154262 69.217692166578217 0 0 0 0 -165.72873014381912 -138.21509965434666 0 -138.21509965434666 129.30016871776979 0 0 0 0 -130.56990621122532 -65.760658501488706 0 -65.760658501488706 258.82387594173815 0 0 0 0 97.018855399175663 -95.393326696148847 0 -95.393326696148847 -137.01839664903355 0 0 0 0 -236.24667428308749 -237.09934944564617 0 -237.09934944564617 -158.37009005834227 0 0 0 0 352.76511346582265 12.562726127168844 0 12.562726127168844 -527.18644464724332 0 0 0 0 200.07219288451597 -98.883954195424394 0 -98.883954195424394 -238.53505288112433 0 0 0 0 566.98718433294562 -560.60757808517019 0 -560.60757808517019 314.78236297575245 0 0 0 0 1085.2946422834357 188.1947902378289 0 188.1947902378289 -152.62162638419795 0 0 0 0 155.89227386889979 299.19220549182 0 299.19220549182 49.957801519648001 0 0 0 0 585.2162459591782 625.69406550744452 0 625.69406550744452 286.4444127125837 0 0 0 0 59.51376662182156 429.21090501542562 0 429.21090501542562 173.97422487202078 0 0 0 0 -119.48529386421433 155.40821745874081 0 155.40821745874081 284.46572801330694 0 0 0 0 -50.893341121467529 329.72572864266152 0 329.72572864266152 96.792493927181113 0 0 0 0 -19.814862977800658 261.90281087927087 0 261.90281087927087 89.529754395843412 0 0 0 0 376.72535811648049 390.04381485608621 0 390.04381485608621 -77.362830695218918 0 0 0 0 79.708865737426095 135.56164984809561 0 135.56164984809561 -260.40727595840553 0 0 0 0 166.32479765481548 180.17478242759421 0 180.17478242759421 -330.43357172796414 0 0 0 0 118.37093116489996 -20.764195332121119 0 -20.764195332121119 -517.28749597482488 0 0 0 0 141.90431703955983 273.97858857378139 0 273.97858857378139 -126.00152708696396 0 0 0 0 -6.6194756552577019 52.50499009322175 0 52.50499009322175 -192.05333114294774 0 0 0 0 0.56007163726951603 2.5079417695132236 0 2.5079417695132236 -0.24211721011293741 0 0 0 0 32.595638892438728 -27.720884375893206 0 -27.720884375893206 -85.414363414544709 0 0 0 0 16.472162570083185 2.5029147239832099 0 2.5029147239832099 -2.6881955876357182 0 0 0 0 9.6309495584227989 -1.6883624617830932 0 -1.6883624617830932 -1.8258311140485495 0 0 0 0 22.333345368504524 28.079019596075682 0 28.079019596075682 -52.037629498576962 0 0 0 0 12.260337103129132 -2.0522381901868698 0 -2.0522381901868698 -14.962667528705367 0 0 0 0 11.787847792700632 -1.9736888894709352 0 -1.9736888894709352 -7.3264558006177936 0 0 0 0 8.5766562966329047 -0.54867741005979553 0 -0.54867741005979553 -1.1079563131646324 0 0 0 0 2.1577979496505577 -4.479233833522585 0 -4.479233833522585 -1.3523434338811029 0 0 0 0 7.9283949208099216 -0.26373399859642133 0 -0.26373399859642133 0.90088085310139832 0 0 0 0 3.5100980179122416 -15.072514043708651 0 -15.072514043708651 -15.514749845950632 0 0 0 0 -2.3862907067814376 -10.561044762615211 0 -10.561044762615211 3.5020839291130414 0 0 0 0 16.648748650002119 -2.4090690493243017 0 -2.4090690493243017 -1.4670107692516037 0 0 0 0 38.143781017221045 -326.49372389825658 0 -326.49372389825658 -693.42419126195307 0 0 0 0 5494.0423849543877 1005.2702623492432 0 1005.2702623492432 -101.01579545575244 0 0 0 0 2717.4500941091537 162.89565156510392 0 162.89565156510392 -0.036899653038524938 0 0 0 0 4591.6880680316099 235.37548290112258 0 235.37548290112258 -266.63946362083476 0 0 0 0 5284.7949398271958 801.38751086053753 0 801.38751086053753 165.89007350234183 0 0 0 0 1527.0503507384274 1372.5261535539512 0 1372.5261535539512 777.48237422827867 0 0 0 0 -612.2650384966837 404.80102787162105 0 404.80102787162105 405.57087124315876 0 0 0 0 6367.0708346126194 496.76916175556596 0 496.76916175556596 -262.15916414441904 0 0 0 0 7.9502696752298334 8.5819729051292484 0 8.5819729051292484 8.1105626338284669 0 0 0 0 446.76587811339414 101.18590598903779 0 101.18590598903779 -230.61868591366374 0 0 0 0 365.7041091323772 -155.79687655492648 0 -155.79687655492648 3.3441266595391426 0 0 0 0 -77.949794509546336 -60.554204482848903 0 -60.554204482848903 15.968603184673498 0 0 0 0 0.30326627752585011 -1.0116442195089235 0 -1.0116442195089235 -4.0625099575637122 0 0 0 0 731.0489743809012 52.66079722802705 0 52.66079722802705 -71.385569995424135 0 0 0 0 461.19070901491796 -81.714914854248775 0 -81.714914854248775 59.76673217702438 0 0 0 0 799.29898646843503 714.313608768726 0 714.313608768726 553.91924479373029 0 0 0 0 566.27621725241261 -107.56948589068824 0 -107.56948589068824 -112.22191284731343 0 0 0 0 465.50550763774663 -133.89060473721864 0 -133.89060473721864 -44.805770887215431 0 0 0 0 471.0231450326537 -52.112733665567362 0 -52.112733665567362 -101.17274799141717 0 0 0 0 316.03593967997585 -113.35778771841933 0 -113.35778771841933 0.62687518346060012 0 0 0 0 288.68932742960169 -114.07726939655234 0 -114.07726939655234 -41.996635178383855 0 0 0 0 174.66982177091359 -21.80375728613004 0 -21.80375728613004 -57.680235746047856 0 0 0 0 292.56149250153976 -118.10087297146116 0 -118.10087297146116 -53.300407902055213 0 0 0 0 295.55279802790028 -119.08916669625916 0 -119.08916669625916 -63.402140613715133 0 0 0 0 308.87548216572031 -105.25289081239276 0 -105.25289081239276 -57.034566708055891 0 0 0 0 303.70803316679667 -63.109138470482662 0 -63.109138470482662 7.6625553649325866 0 0 0 0 291.71366216242313 -120.03121949945039 0 -120.03121949945039 -67.767877307521985 0 0 0 0 242.09220007318072 11.477534367494854 0 11.477534367494854 -115.55327198205202 0 0 0 0 400.77380080247531 -65.8607796289985 0 -65.8607796289985 -107.1280335085612 0 0 0 0 360.90751696575899 8.0588854877894391 0 8.0588854877894391 -12.981849394462984 0 0 0 0 182.56364001819748 -65.858616881793466 0 -65.858616881793466 192.48859122472129 0 0 0 0 190.21188995754346 -0.25629881993495474 0 -0.25629881993495474 -73.029153236906012 0 0 0 0 369.14933467812807 90.553171626445177 0 90.553171626445177 -106.09222370779821 0 0 0 0 2.914747517610607 2.0074117399915963 0 2.0074117399915963 0.21067799185286562 0 0 0 0 1013.8093993870425 -260.43310316791872 0 -260.43310316791872 -88.122448069079383 0 0 0 0 -191.5589839941822 136.66910912410731 0 136.66910912410731 55.69264923368263 0 0 0 0 255.60837077710312 -218.75300927047169 0 -218.75300927047169 208.75463425780609 0 0 0 0 462.24256628321018 33.190906356843406 0 33.190906356843406 103.85739946480886 0 0 0 0 731.81639524086495 -136.45522467076842 0 -136.45522467076842 -46.869053186959263 0 0 0 0 129.97681469382951 -76.863111968601629 0 -76.863111968601629 114.76081695855558 0 0 0 0 353.09203591928599 -214.14260741311023 0 -214.14260741311023 169.8910749483548 0 0 0 0 18.386121743242256 -75.564811199045153 0 -75.564811199045153 56.863729701815657 0 0 0 0 383.12191407436694 16.763316616494293 0 16.763316616494293 1.7917345831035618 0 0 0 0 -166.81756163630052 -130.69366595868951 0 -130.69366595868951 3.3436006791307591 0 0 0 0 315.29209579172311 4.7392842473709607 0 4.7392842473709607 13.427177561084818 0 0 0 0 259.96487009408884 -44.054869689264251 0 -44.054869689264251 54.264597396700538 0 0 0 0 80.533588494673211 17.140858101775336 0 17.140858101775336 -39.371026638899508 0 0 0 0 204.50880265492015 -37.391711959736313 0 -37.391711959736313 57.088107923502321 0 0 0 0 121.82931678917885 188.23869372301323 0 188.23869372301323 -147.20730884023192 0 0 0 0 -75.274827645363985 261.04425192017425 0 261.04425192017425 -45.998570189301063 0 0 0 0 189.15063288861711 -13.047129852114267 0 -13.047129852114267 -149.50541066903406 0 0 0 0 261.58755558008852 99.171240152872997 0 99.171240152872997 45.406900683918138 0 0 0 0 -214.37321656530548 24.20633082679484 0 24.20633082679484 77.800981999683188 0 0 0 0 14.119884828245219 -3.9847497484443579 0 -3.9847497484443579 -22.466418731401824 0 0 0 0 494.58235291211167 -122.98502238836681 0 -122.98502238836681 -13.914969968871276 0 0 0 0 13.510899043572635 -4.8509485892190867 0 -4.8509485892190867 -0.19360665540222044 0 0 0 0 9.8587092565929666 -44.529861768765983 0 -44.529861768765983 16.40236486159116 0 0 0 0 166.12124076775217 -11.217029401218952 0 -11.217029401218952 -27.757804713673977 0 0 0 0 184.73094958250294 -23.8490916140031 0 -23.8490916140031 -21.611961351097307 0 0 0 0 146.73483672843577 -104.02666778134244 0 -104.02666778134244 74.117831682808173 0 0 0 0 206.67393647621793 -15.502607098113458 0 -15.502607098113458 -41.927197185578734 0 0 0 0 74.964735296613071 123.07202762787665 0 123.07202762787665 7.678826326475928 0 0 0 0 80.813232532600523 -22.124329896698782 0 -22.124329896698782 -41.04036130109489 0 0 0 0 238.34925391415891 157.40429099728976 0 157.40429099728976 112.12629630547599 0 0 0 0 419.68605337155168 28.570823624947479 0 28.570823624947479 -79.33365270701961 0 0 0 0 240.24003610233194 -88.420137398708448 0 -88.420137398708448 28.470965484002363 0 0 0 0 516.28224708352354 -56.026024781406477 0 -56.026024781406477 -114.08399426513279 0 0 0 0 -0.82120449790789962 0.54166590546520865 0 0.54166590546520865 -12.933325860721951 0 0 0 0 -202.33216205472127 -120.82151738488878 0 -120.82151738488878 117.40313996728094 0 0 0 0 293.89243708721187 89.525914579336359 0 89.525914579336359 -86.264586074240924 0 0 0 0 -221.9763664084021 305.5420283998269 0 305.5420283998269 -123.45372519224122 0 0 0 0 183.10881100382539 -48.549407255128244 0 -48.549407255128244 -78.886823232651295 0 0 0 0 14.130914478019292 23.124010078898465 0 23.124010078898465 19.690337408142355 0 0 0 0 2657.9845181448109 740.10683127589277 0 740.10683127589277 10.227762732275778 0 0 0 0 2626.1606880878971 80.348640046862045 0 80.348640046862045 -294.35768347038754 0 0 0 0 121.5827576330048 115.73572962523724 0 115.73572962523724 -124.801816316648 0 0 0 0 12.136437747145465 26.719799582351953 0 26.719799582351953 22.937174086180761 0 0 0 0 -154.75388662566547 145.23864005633004 0 145.23864005633004 91.300824287248361 0 0 0 0 96.954470760188997 49.38273124017087 0 49.38273124017087 40.599531166159522 0 0 0 0 30.288934336909591 23.96630932887183 0 23.96630932887183 14.024650774629098 0 0 0 0 408.45348668270162 -223.34301865165457 0 -223.34301865165457 261.40761081777219 0 0 0 0 697.47325664203163 775.09459562388918 0 775.09459562388918 434.94322528047013 0 0 0 0 3406.3940772771602 2405.9011191828904 0 2405.9011191828904 305.4163584375774 0 0 0 0 1049.4826556061162 1711.5318077736829 0 1711.5318077736829 1391.7556684195129 0 0 0 0 1666.6191312168885 1563.5688364981877 0 1563.5688364981877 742.25161599775947 0 0 0 0 5496.7441142746684 4716.9234215728166 0 4716.9234215728166 5135.8030395572714 0 0 0 0 5177.2000617659942 3649.9069596890899 0 3649.9069596890899 1980.235965863129 0 0 0 0 5501.2515979843738 1474.7810895739324 0 1474.7810895739324 -758.95888844064336 0 0 0 0 4144.0700872448069 99.644634584149344 0 99.644634584149344 -234.75018757085991 0 0 0 0 4659.3651147258606 1523.6591370712442 0 1523.6591370712442 -417.30975092778544 0 0 0 0 18.489222763388966 0.48024294135486656 0 0.48024294135486656 1.6646319823671658 0 0 0 0 2992.165092283627 -2710.1551295070694 0 -2710.1551295070694 1514.4059140555771 0 0 0 0 34.667668633981634 16.228248340831833 0 16.228248340831833 3.7523830956009454 0 0 0 0 53.754080515616806 31.147022394625651 0 31.147022394625651 7.0051650083846653 0 0 0 0 813.77022437281266 127.03136673647299 0 127.03136673647299 15.559472612890261 0 0 0 0 851.14698279250297 -89.774187117557233 0 -89.774187117557233 -354.21525331825347 0 0 0 0 25.86908400050234 20.043262772781816 0 20.043262772781816 7.5674431238123852 0 0 0 0 476.39305866898212 1175.1778096671314 0 1175.1778096671314 1302.7618881338465 0 0 0 0 18.246579550042696 15.650150495075394 0 15.650150495075394 7.2272085515225069 0 0 0 0 2474.9978594308195 -1668.4393275090483 0 -1668.4393275090483 1166.9294124685146 0 0 0 0 5483.8129093541065 -162.33173817902784 0 -162.33173817902784 -808.03860713993583 0 0 0 0 -1698.5269778962538 92.757870689792981 0 92.757870689792981 4025.3017969632956 0 0 0 0 7492.4926113749971 2888.6614360468852 0 2888.6614360468852 1112.20960841756 0 0 0 0 4.8518086942140997 5.7272740795874313 0 5.7272740795874313 8.5281616501979371 0 0 0 0 6.2653152533014804 7.0191346857124053 0 7.0191346857124053 1.9232944590578285 0 0 0 0 27.425303095913819 11.262322198862879 0 11.262322198862879 2.5539748849851689 0 0 0 0 36.904358428728301 15.238866069294545 0 15.238866069294545 9.1889840401011043 0 0 0 0 1113.4232965460833 663.43622342592857 0 663.43622342592857 148.10848393695323 0 0 0 0 20.378057605485083 18.206684796876459 0 18.206684796876459 19.680157389891065 0 0 0 0 61.08236466938979 36.119393142673061 0 36.119393142673061 26.544842689725897 0 0 0 0 43.723313420894556 18.929386441625411 0 18.929386441625411 9.7159756937496695 0 0 0 0 37.342176632833798 12.041356379411297 0 12.041356379411297 32.531689673285655 0 0 0 0 53.657577066425858 11.477336659452511 0 11.477336659452511 1.1477445230367409 0 0 0 0 69.87503377138637 22.026900896513098 0 22.026900896513098 21.290113497255788 0 0 0 0 85.458504098060075 0.64903018136283208 0 0.64903018136283208 50.542977292452932 0 0 0 0 72.030066200968577 27.6285971443383 0 27.6285971443383 18.697050198677061 0 0 0 0 99.451712910289643 57.784781051276809 0 57.784781051276809 50.949040345576122 0 0 0 0 63.615758351617842 24.94480277419683 0 24.94480277419683 2.873384830546911 0 0 0 0 84.990470077958889 43.307658961475681 0 43.307658961475681 17.844836166683834 0 0 0 0 57.782627836131724 36.980556898844952 0 36.980556898844952 13.432695217669846 0 0 0 0 47.637180456684973 16.64572206412786 0 16.64572206412786 3.6903430431966893 0 0 0 0 60.341224617353873 34.236961823233287 0 34.236961823233287 -2.2659787884690559 0 0 0 0 48.360717489529634 25.933010294980704 0 25.933010294980704 3.342009509149193 0 0 0 0 77.414403317350661 9.7702218249528414 0 9.7702218249528414 -16.001137910615171 0 0 0 0 84.143992592958966 -1.1981589653466926 0 -1.1981589653466926 -11.552692014562808 0 0 0 0 90.533281574462308 14.036139309663213 0 14.036139309663213 -14.660799205613102 0 0 0 0 74.449207405239576 5.181453773685007 0 5.181453773685007 -15.512225386178443 0 0 0 0 73.852089808264282 -11.44770353976287 0 -11.44770353976287 -20.504953189418302 0 0 0 0 97.373556097154506 6.1225906801915926 0 6.1225906801915926 -7.5523051435111483 0 0 0 0 86.287835802082554 -14.986263579977788 0 -14.986263579977788 -1.1875863816139827 0 0 0 0 68.463635797539609 -2.6096542396423956 0 -2.6096542396423956 18.544896971222443 0 0 0 0 97.146376418881118 5.5706492922380448 0 5.5706492922380448 -8.1744819403565998 0 0 0 0 88.441577774327016 7.5162662373709281 0 7.5162662373709281 5.6069205491506295 0 0 0 0 88.69889359291119 -4.6805790835874177 0 -4.6805790835874177 67.182986027060906 0 0 0 0 163.00644623755943 4.9091284919429654 0 4.9091284919429654 5.6697158744034652 0 0 0 0 27.607510322868947 1.2013078623674005 0 1.2013078623674005 -2.4127741378569194 0 0 0 0 167.32215288672887 45.901267060791497 0 45.901267060791497 21.098546036173957 0 0 0 0 110.96841182527947 7.6896029299497677 0 7.6896029299497677 0.122328226491492 0 0 0 0 114.31493211881025 12.411686129615418 0 12.411686129615418 0.22323936837271674 0 0 0 0 63.916438459913479 22.183544805588781 0 22.183544805588781 39.79274296868789 0 0 0 0 193.28583920554956 -10.607394480972744 0 -10.607394480972744 -42.498364044137816 0 0 0 0 88.664523130092221 -3.2168626305437265 0 -3.2168626305437265 9.9352520550451118 0 0 0 0 140.16829952283297 -43.470467154598737 0 -43.470467154598737 18.450653676566901 0 0 0 0 202.13318712753244 -47.732897328538911 0 -47.732897328538911 18.402258604720373 0 0 0 0 19.62243919433439 10.012867165918351 0 10.012867165918351 20.630703644448165 0 0 0 0 185.1755068421553 -32.497043961984673 0 -32.497043961984673 21.031132595588133 0 0 0 0 144.45305843360256 -66.894721041895082 0 -66.894721041895082 38.076929392379498 0 0 0 0 205.39879555492371 -96.273037462195589 0 -96.273037462195589 48.307790569182544 0 0 0 0 314.13433254015399 16.980669483207748 0 16.980669483207748 14.166026856360986 0 0 0 0 -0.83048652465856776 -15.794246722821592 0 -15.794246722821592 7.8912904707149547 0 0 0 0 326.39023986062966 -78.844411633016534 0 -78.844411633016534 -258.08902845153261 0 0 0 0 76.11932602559682 257.13782625878275 0 257.13782625878275 -86.618197105658737 0 0 0 0 80.832929645387139 22.966758512972859 0 22.966758512972859 -36.162200314533642 0 0 0 0 144.12050243919384 -71.620699016327222 0 -71.620699016327222 29.789750576742335 0 0 0 0 118.95259858377904 -83.123530756208083 0 -83.123530756208083 26.034710729381914 0 0 0 0 84.218345929664792 -9.1068817200248304 0 -9.1068817200248304 11.698353240383767 0 0 0 0 0.83376215227886519 8.8629979492200164 0 8.8629979492200164 5.5020780421264064 0 0 0 0 131.29548661648005 -40.623930756087248 0 -40.623930756087248 26.585959391663891 0 0 0 0 18.779824040138536 5.9139343174706767 0 5.9139343174706767 -10.040111361857631 0 0 0 0 81.553108338848688 -17.130228758909993 0 -17.130228758909993 3.0503681164930185 0 0 0 0 73.283390159631381 -4.3529022092218383 0 -4.3529022092218383 -9.5611094662688174 0 0 0 0 41.980426116310696 -8.3247569671534123 0 -8.3247569671534123 1.5628941825031717 0 0 0 0 89.975636511764606 -11.425506623306603 0 -11.425506623306603 -2.2862736997913089 0 0 0 0 89.103586643046583 -18.160010278568507 0 -18.160010278568507 -8.4443383584466574 0 0 0 0 78.358181739633437 4.6714491979171839 0 4.6714491979171839 9.9655865708712099 0 0 0 0 56.43812740570138 20.241404300526824 0 20.241404300526824 36.43491652747889 0 0 0 0 32.346591602312401 -0.74179581948601481 0 -0.74179581948601481 25.138005564262585 0 0 0 0 20.408058317749237 10.689391906303342 0 10.689391906303342 8.8529327303970522 0 0 0 0 -386.99133707745932 137.11061115497017 0 137.11061115497017 620.31190808962799 0 0 0 0 7.4398413090009825 11.401116174882588 0 11.401116174882588 9.4229336603101324 0 0 0 0 42.014414947931073 6.0282489234573404 0 6.0282489234573404 26.649041184945418 0 0 0 0 -113.05579182581278 -61.740247097187421 0 -61.740247097187421 -19.341425993772646 0 0 0 0 -20.058407618402271 -139.07416415509329 0 -139.07416415509329 -130.90660370419164 0 0 0 0 429.87913019067491 2.772725368170768 0 2.772725368170768 -231.42695671389856 0 0 0 0 122.00134451243139 77.578303029076494 0 77.578303029076494 63.907940465199317 0 0 0 0 145.52802102499845 65.234972769318574 0 65.234972769318574 69.169214931175247 0 0 0 0 110.53399263910251 8.9585817157199017 0 8.9585817157199017 -0.60364344716890628 0 0 0 0 166.5687827776128 65.955164841408077 0 65.955164841408077 7.9022727886026587 0 0 0 0 184.12303409130254 72.191100487135373 0 72.191100487135373 1.2942302593492059 0 0 0 0 146.42891893602791 108.23023364285655 0 108.23023364285655 66.407290338926032 0 0 0 0 9.7573918069113006 8.055346164047009 0 8.055346164047009 0.2649328684045944 0 0 0 0 153.17031234013848 77.63859977608422 0 77.63859977608422 -26.53246037448298 0 0 0 0 28.970799296937855 11.813941921329018 0 11.813941921329018 -3.3490648171591886 0 0 0 0 166.09873535634597 51.198402967144659 0 51.198402967144659 4.9136067171348259 0 0 0 0 133.18892293781391 32.281905079884382 0 32.281905079884382 38.220559459915421 0 0 0 0 51.197375075513264 24.359140622492532 0 24.359140622492532 1.4309707787929256 0 0 0 0 66.238234544762236 -6.4194773959715974 0 -6.4194773959715974 77.518678697639189 0 0 0 0 40.963507317908807 28.33010997362635 0 28.33010997362635 11.852443393830981 0 0 0 0 72.272159242709975 14.219824248962567 0 14.219824248962567 -7.4179232331963831 0 0 0 0 75.369830128313765 34.663454679668099 0 34.663454679668099 -0.11878788252862105 0 0 0 0 36.077646831050515 23.25117234085883 0 23.25117234085883 -11.201969926019501 0 0 0 0 121.84494447410381 28.238420050900459 0 28.238420050900459 5.6222585536880789 0 0 0 0 54.669989838110268 18.854642360071423 0 18.854642360071423 5.4618185193191948 0 0 0 0 84.125658063625451 19.482830571705108 0 19.482830571705108 12.452938969792058 0 0 0 0 96.515127773069253 16.597607444240339 0 16.597607444240339 11.393037357993308 0 0 0 0 26.892579051687886 23.914407974438078 0 23.914407974438078 12.213964377850104 0 0 0 0 14.030213437297675 33.732253727600593 0 33.732253727600593 29.14578957264218 0 0 0 0 48.483719635264634 7.5182781192173707 0 7.5182781192173707 -0.67543700360103287 0 0 0 0 45.115079085872878 33.495455628447047 0 33.495455628447047 14.298319835026978 0 0 0 0 50.877379000623478 13.336117828778697 0 13.336117828778697 7.0727922559838134 0 0 0 0 55.307567053841922 14.137670118009055 0 14.137670118009055 7.5903149287785254 0 0 0 0 41.398668579582591 -3.788099312794202 0 -3.788099312794202 2.176803102294798 0 0 0 0 30.640617822670578 13.144328877782357 0 13.144328877782357 6.6564711869623512 0 0 0 0 48.949054565222468 54.471240902759746 0 54.471240902759746 36.814446603319084 0 0 0 0 24.876329171943269 15.111883322431794 0 15.111883322431794 12.185573811300543 0 0 0 0 -5.8122685515554622 19.035795331285044 0 19.035795331285044 -7.6554549436805246 0 0 0 0 36.841498120650783 23.749264911976539 0 23.749264911976539 7.9708141434342243 0 0 0 0 4.4968333784085814 -1.8187199769664346 0 -1.8187199769664346 0.65367967037460772 0 0 0 0 -9.4763201546302298 -26.27282243676791 0 -26.27282243676791 -20.774540305782466 0 0 0 0 94.633342445013113 -10.132809898064806 0 -10.132809898064806 -18.69244994147482 0 0 0 0 124.21835202307557 -59.68713264592725 0 -59.68713264592725 -80.838185481861728 0 0 0 0 48.63939753788901 3.4151910374035168 0 3.4151910374035168 -1.6161559266715777 0 0 0 0 149.10231013968587 19.476058952449876 0 19.476058952449876 -27.594731004730448 0 0 0 0 88.41544973065902 -2.1271874184690205 0 -2.1271874184690205 -28.802284559973145 0 0 0 0 81.01256727985583 16.710065877324297 0 16.710065877324297 9.9842476802614328 0 0 0 0 63.264701200002008 14.898855544868074 0 14.898855544868074 3.1029444323473276 0 0 0 0 42.29161820817626 7.2123727865140523 0 7.2123727865140523 -4.1747280277306018 0 0 0 0 81.361554889299441 19.26891314676368 0 19.26891314676368 -2.2297529565114473 0 0 0 0 57.657101927742872 11.077166063444068 0 11.077166063444068 -1.2485532304866629 0 0 0 0 57.315881856557098 15.02694288054272 0 15.02694288054272 0.88100315847395905 0 0 0 0 84.272361374023603 27.933556067146583 0 27.933556067146583 -10.670846413650224 0 0 0 0 15.826156235720958 3.3822049676441281 0 3.3822049676441281 -0.32864348401149357 0 0 0 0 62.121856471843785 16.422228349428224 0 16.422228349428224 -4.1254139718967053 0 0 0 0 91.895357157936814 31.562798998216493 0 31.562798998216493 -11.584697988185326 0 0 0 0 109.52533524727914 39.293512993810054 0 39.293512993810054 -16.238291347935501 0 0 0 0 77.755277182457576 41.128571494289247 0 41.128571494289247 23.568056357744354 0 0 0 0 60.336640991299646 19.908083853311837 0 19.908083853311837 -4.4025076650978008 0 0 0 0 78.152008979666789 38.078947740852783 0 38.078947740852783 13.928086356600943 0 0 0 0 45.695452539483085 30.07357820291827 0 30.07357820291827 43.088331570516857 0 0 0 0 44.630447370407637 26.256876869128689 0 26.256876869128689 40.779631720268753 0 0 0 0 53.350196767569287 55.268203786017807 0 55.268203786017807 107.46798239483724 0 0 0 0 13.858851892779057 -13.78149785599993 0 -13.78149785599993 71.075166727682245 0 0 0 0 21.436266720076674 9.12015478955351 0 9.12015478955351 113.97241363469675 0 0 0 0 38.560236151621211 50.530003340374606 0 50.530003340374606 166.95548227292193 0 0 0 0 99.977212358993711 58.748135699218437 0 58.748135699218437 33.594332796608796 0 0 0 0 100.67556488100672 61.760088910575178 0 61.760088910575178 37.748343093773656 0 0 0 0 124.65023365919478 61.614401869516314 0 61.614401869516314 16.360339392862443 0 0 0 0 140.25370662044588 27.121470288980959 0 27.121470288980959 -33.962469764807793 0 0 0 0 173.11792255777982 60.909491593020448 0 60.909491593020448 -10.901906231997145 0 0 0 0 242.40222513562185 -18.16844795477823 0 -18.16844795477823 -98.523144758406147 0 0 0 0 294.8779045037445 239.26070582660981 0 239.26070582660981 55.186630566787699 0 0 0 0 160.97003767668502 77.534156140569621 0 77.534156140569621 -22.3884658997938 0 0 0 0 153.8863801715197 131.46085759399693 0 131.46085759399693 109.51353651580075 0 0 0 0 9.9919961893635332 -1.2671465678571927 0 -1.2671465678571927 0.3061956540860824 0 0 0 0 92.662916379398666 169.2199218146975 0 169.2199218146975 223.44518172017752 0 0 0 0 -111.25693722686265 -62.601737105634811 0 -62.601737105634811 85.97982275835966 0 0 0 0 -301.97691425477387 -151.23484605543581 0 -151.23484605543581 85.119982024615993 0 0 0 0 676.88696172417258 -262.45665624080107 0 -262.45665624080107 -574.11464947148147 0 0 0 0 69.442272355483851 -0.47719267448366054 0 -0.47719267448366054 -4.5906318464887192 0 0 0 0 81.891409381307312 3.6865478863908265 0 3.6865478863908265 -23.984621383247031 0 0 0 0 66.099833011783915 0.96794077315029625 0 0.96794077315029625 -0.92223192324528613 0 0 0 0 66.688338465115521 -12.978945062604296 0 -12.978945062604296 -56.431944603335921 0 0 0 0 7.0458951173162063 -10.547468445664009 0 -10.547468445664009 -4.9980735990907936 0 0 0 0 14.932318802544614 -137.04402473147809 0 -137.04402473147809 -182.446015050646 0 0 0 0 -0.32636012724833563 32.512877949810786 0 32.512877949810786 4.1181050350536452 0 0 0 0 122.42416945350124 75.078917611760744 0 75.078917611760744 -34.061931035908572 0 0 0 0 82.755407203963841 11.97334473093747 0 11.97334473093747 -24.311061835404871 0 0 0 0 24.490998079651035 -13.052657070476116 0 -13.052657070476116 9.3131576551779176 0 0 0 0 60.02446282914417 9.1355737467312395 0 9.1355737467312395 0.65065601391874051 0 0 0 0 3.5578110504107485 6.6527634820901369 0 6.6527634820901369 0.99876623595164871 0 0 0 0 22.856914768766728 -2.8066959115652708 0 -2.8066959115652708 -19.760206875996332 0 0 0 0 31.297619353205789 17.618471432001058 0 17.618471432001058 2.7963203925471394 0 0 0 0 122.98082307711593 21.282337840442779 0 21.282337840442779 -43.11061474280487 0 0 0 0 40.766199601435801 -6.7532408471756753 0 -6.7532408471756753 1.095385935156628 0 0 0 0 31.031567909483215 -0.66566651178693448 0 -0.66566651178693448 0.083968512428565067 0 0 0 0 40.200544901628746 15.696475216899671 0 15.696475216899671 11.364934952272051 0 0 0 0 38.385144457541173 13.878163571851928 0 13.878163571851928 17.854097685099987 0 0 0 0 37.213896390312584 16.816798491187456 0 16.816798491187456 14.611621195353564 0 0 0 0 53.095262718445156 26.044869342804304 0 26.044869342804304 21.214540441989584 0 0 0 0 40.584474845694785 11.801059600559256 0 11.801059600559256 6.6054528240092623 0 0 0 0 43.600022640595967 12.492158530306689 0 12.492158530306689 0.33031200951899997 0 0 0 0 58.01524132443592 12.300569631107464 0 12.300569631107464 -1.8683602157575478 0 0 0 0 57.334089264099021 -5.2576512604237564 0 -5.2576512604237564 2.9244798975773847 0 0 0 0 31.966846096763319 8.1795829268869369 0 8.1795829268869369 -1.7670538056981169 0 0 0 0 57.112702350175823 13.691980181327949 0 13.691980181327949 -3.5537472000103207 0 0 0 0 52.1580231920816 -10.464829516804912 0 -10.464829516804912 0.15952551496684464 0 0 0 0 52.005257260985672 21.499984418778695 0 21.499984418778695 6.1769612838434114 0 0 0 0 39.768537247835837 7.4144034321289212 0 7.4144034321289212 -2.8195861699008011 0 0 0 0 66.716021880811311 16.79548541075259 0 16.79548541075259 -2.308056127533642 0 0 0 0 52.242887955770129 -1.5650487368020549 0 -1.5650487368020549 10.22553346497034 0 0 0 0 54.983143465899047 -5.7079628911601503 0 -5.7079628911601503 8.7314882413525723 0 0 0 0 27.845914006029489 -5.3106705690383933 0 -5.3106705690383933 5.3146096691045841 0 0 0 0 32.900727945758661 -1.1673347155841043 0 -1.1673347155841043 0.40798460611072174 0 0 0 0 35.65023443033715 -4.5452186501140659 0 -4.5452186501140659 1.7223006460535544 0 0 0 0 17.151926348078817 3.6447937219951427 0 3.6447937219951427 4.7136503077663097 0 0 0 0 5.0932980684619196 -7.7397258653608674 0 -7.7397258653608674 3.8316666901010485 0 0 0 0 2091.7871556787431 -816.17040011421398 0 -816.17040011421398 4.4404358931793837 0 0 0 0 54.791218678907171 -3.4430361859967884 0 -3.4430361859967884 1.4478390444971154 0 0 0 0 12.677968766934669 -3.1887745054801258 0 -3.1887745054801258 8.7678147992517452 0 0 0 0 42.682354145246791 -6.2082713175522031 0 -6.2082713175522031 8.7468013272051621 0 0 0 0 24.377039637289215 4.2928334526905303 0 4.2928334526905303 1.5581849668612757 0 0 0 0 5494.3848824649831 -2424.7518567307038 0 -2424.7518567307038 224.53593856130996 0 0 0 0 5369.2885567166377 -124.87046416205125 0 -124.87046416205125 21.713552505349433 0 0 0 0 12.936545889639916 0.032654207931372525 0 0.032654207931372525 -0.32972313110918328 0 0 0 0 20.129211025880068 4.1597073553895134 0 4.1597073553895134 22.775299954207387 0 0 0 0 15.382200725693053 4.1025432653162852 0 4.1025432653162852 4.0538484519246554 0 0 0 0 1114.7806651043065 1365.8385110769323 0 1365.8385110769323 1663.0250426357713 0 0 0 0 5491.0070170418212 339.40273405389701 0 339.40273405389701 -1375.631721326713 0 0 0 0 3992.6389975013008 1763.8094392791738 0 1763.8094392791738 -819.54721524252966 0 0 0 0 1674.584047707016 139.75549800199946 0 139.75549800199946 -66.025854963261054 0 0 0 0 202.43235626080423 -98.29976521454762 0 -98.29976521454762 45.891117695467074 0 0 0 0 18.21745042972907 0.17792047652983456 0 0.17792047652983456 6.1181150003899347 0 0 0 0 12.405475513002898 -2.2173039461670854 0 -2.2173039461670854 0.63419743319433663 0 0 0 0 667.15213708925876 -158.23059371585873 0 -158.23059371585873 -199.22061371764818 0 0 0 0 26.423605121177388 -0.058559862335982871 0 -0.058559862335982871 3.1336113284276053 0 0 0 0 -444.86194279897609 1234.2548249194638 0 1234.2548249194638 503.44690458137342 0 0 0 0 -1.570352684151203 -3.4812408155526846 0 -3.4812408155526846 3.062785003557857 0 0 0 0 -111.04101264643396 103.33946799031693 0 103.33946799031693 344.13179389591056 0 0 0 0 819.17966265649375 184.78260073875362 0 184.78260073875362 -42.392478749969314 0 0 0 0 779.18898761598393 43.449717917848602 0 43.449717917848602 -124.53831956687281 0 0 0 0 5494.7016004008474 -1319.7550933173882 0 -1319.7550933173882 -862.5063794660399 0 0 0 0 633.44590613363835 -260.28803746205267 0 -260.28803746205267 442.15124888374163 0 0 0 0 2991.0624544464663 150.90400010346701 0 150.90400010346701 -1251.8550592816227 0 0 0 0 2838.9633010621474 -601.16162710266565 0 -601.16162710266565 -132.23905659580242 0 0 0 0 241.81039584061364 198.80263373228991 0 198.80263373228991 -652.16165625931353 0 0 0 0 23.28579200906097 -38.084314495077706 0 -38.084314495077706 -247.17331672302959 0 0 0 0 341.6911411358742 -114.53106387312664 0 -114.53106387312664 -243.89495377672301 0 0 0 0 185.44167116888275 -141.42172613297907 0 -141.42172613297907 -391.35395788114874 0 0 0 0 196.31994880925049 -287.76808836532689 0 -287.76808836532689 -16.425414291493325 0 0 0 0 162.50989857835521 -210.97627266957295 0 -210.97627266957295 -71.231646936506877 0 0 0 0 237.17190679121995 -394.53371258829634 0 -394.53371258829634 4.1801763328224126 0 0 0 0 333.10710253191064 -280.86439806547116 0 -280.86439806547116 -56.438615195145452 0 0 0 0 594.87522546204855 -46.149313513772881 0 -46.149313513772881 -137.44684688220235 0 0 0 0 453.56523455178103 -365.2587104104386 0 -365.2587104104386 -104.59423119489361 0 0 0 0 787.65823951570201 149.27832241354258 0 149.27832241354258 -212.91698259741349 0 0 0 0 292.19683135423111 -127.94619423696804 0 -127.94619423696804 -159.45509808310885 0 0 0 0 353.69387660838038 219.18934801770578 0 219.18934801770578 -183.1752023780673 0 0 0 0 576.07993210658606 597.63327625479758 0 597.63327625479758 -99.327136812626463 0 0 0 0 381.89504708407912 549.81974316648166 0 549.81974316648166 -83.962836352926843 0 0 0 0 202.66144539980451 474.99551705706085 0 474.99551705706085 -10.863159074409623 0 0 0 0 415.59516104916111 472.00822427514959 0 472.00822427514959 -20.366159811864009 0 0 0 0 315.0124195318931 641.47470495555172 0 641.47470495555172 166.82278742817653 0 0 0 0 958.71374506054417 584.00029181826881 0 584.00029181826881 -88.258158176054167 0 0 0 0 190.62036598798295 8.5397066261652981 0 8.5397066261652981 -364.96768597670371 0 0 0 0 -31.819463533422095 365.97565007498679 0 365.97565007498679 105.75956121616719 0 0 0 0 26.857928538255237 3.2722086268962407 0 3.2722086268962407 1.0023201221045097 0 0 0 0 -150.62004533977597 -620.01018894263552 0 -620.01018894263552 933.9216574111897 0 0 0 0 -47.983930708171101 129.42120780136543 0 129.42120780136543 -137.86732414818641 0 0 0 0 280.63071031476284 -723.99154210791062 0 -723.99154210791062 198.53938190966733 0 0 0 0 18.457870037039072 3.9166302430207338 0 3.9166302430207338 1.0709887846360033 0 0 0 0 37.79729497351218 384.77073575791161 0 384.77073575791161 590.23105582054177 0 0 0 0 76.356131785468108 8.4457097888004995 0 8.4457097888004995 -0.14007851593084242 0 0 0 0 1093.5282110350381 -250.42594333530542 0 -250.42594333530542 -476.54986065478988 0 0 0 0 116.69360880482418 337.30135968000081 0 337.30135968000081 -260.60177638904725 0 0 0 0 110.94317891205355 16.093742963848992 0 16.093742963848992 1.8395997565316007 0 0 0 0 234.44484054803615 44.505758126389082 0 44.505758126389082 -598.39133919507117 0 0 0 0 3.8560715407511452 559.58670798856872 0 559.58670798856872 577.03478024018386 0 0 0 0 -158.10424434277957 -17.667792703631051 0 -17.667792703631051 199.52374671643611 0 0 0 0 -145.42549768550089 -134.42355054448285 0 -134.42355054448285 976.56951311683065 0 0 0 0 -20.578182932687923 -22.56921317489423 0 -22.56921317489423 151.50330107575627 0 0 0 0 -61.174502272086102 52.302871041942353 0 52.302871041942353 249.93676486921277 0 0 0 0 -7.5177856412192341 -23.571581111833439 0 -23.571581111833439 80.235899782770048 0 0 0 0 48.580391955882078 0.082840861862678139 0 0.082840861862678139 84.204541865634837 0 0 0 0 95.475635638693348 -58.465113112276867 0 -58.465113112276867 -20.307922382993297 0 0 0 0 370.18640511432022 -168.35834239502628 0 -168.35834239502628 -162.65487770918435 0 0 0 0 138.60186945884334 10.019929710072006 0 10.019929710072006 -4.1533186709834702 0 0 0 0 288.47638953373826 -137.70617524487943 0 -137.70617524487943 -178.25856049088634 0 0 0 0 74.720003961730981 -112.5601168077892 0 -112.5601168077892 -125.92527920034172 0 0 0 0 52.667554797430057 96.553070325578119 0 96.553070325578119 -211.25371534263832 0 0 0 0 322.99882156745298 17.685559865878986 0 17.685559865878986 22.407111865050865 0 0 0 0 433.17522752267541 -191.37036144233684 0 -191.37036144233684 33.744815008509249 0 0 0 0 462.97577104053926 -178.34872174614657 0 -178.34872174614657 -5.4288153494253493 0 0 0 0 623.86098568153102 -246.6743037183569 0 -246.6743037183569 15.675950395088876 0 0 0 0 398.68966215883847 -255.4798989257888 0 -255.4798989257888 127.29738408251433 0 0 0 0 399.97215140482876 -212.41803450914813 0 -212.41803450914813 117.41884564837301 0 0 0 0 277.14299230708275 -12.37014360397643 0 -12.37014360397643 60.660593404593783 0 0 0 0 448.33398116903845 -163.3600148237274 0 -163.3600148237274 -0.51929402051609941 0 0 0 0 296.70156950945966 -242.0273234439137 0 -242.0273234439137 402.73172049654113 0 0 0 0 224.36195837176638 -149.34075684464551 0 -149.34075684464551 315.50685027205509 0 0 0 0 231.46146450642846 -66.983840375403133 0 -66.983840375403133 -108.23150350597098 0 0 0 0 21.856910991259213 8.0698097441562311 0 8.0698097441562311 5.7778588456599849 0 0 0 0 18.273033976845724 -0.59602988987870731 0 -0.59602988987870731 -8.7211050927651215 0 0 0 0 160.14275351217657 11.078390149908046 0 11.078390149908046 24.817689780826186 0 0 0 0 653.20337800656853 -264.5166641390374 0 -264.5166641390374 21.67044400620216 0 0 0 0 624.09488812573181 -240.16618813369172 0 -240.16618813369172 124.89476596401983 0 0 0 0 910.9881169947912 -156.6756140398993 0 -156.6756140398993 128.13649330764383 0 0 0 0 476.66575908017694 -358.04548442395844 0 -358.04548442395844 319.06591625703368 0 0 0 0 4.4619538320433776 -10.725190706263128 0 -10.725190706263128 1.7631075881175944 0 0 0 0 -37.230976794032131 -51.91915903977133 0 -51.91915903977133 6.0840341700027771 0 0 0 0 288.85733800481103 -228.26070919296558 0 -228.26070919296558 104.05439194944483 0 0 0 0 61.457042626920156 -30.36324757267721 0 -30.36324757267721 158.25648497881775 0 0 0 0 36.736551133554286 -38.296239531771533 0 -38.296239531771533 -19.569812356928971 0 0 0 0 -12.60537301361785 -2.1073106249969271 0 -2.1073106249969271 1.1237710915931487 0 0 0 0 556.55785170898889 -376.80060435552286 0 -376.80060435552286 127.09386808722047 0 0 0 0 365.16550553424167 -116.01528192556543 0 -116.01528192556543 -81.570944215987765 0 0 0 0 421.31527465768158 -165.65895258508817 0 -165.65895258508817 75.131432354653953 0 0 0 0 437.88764718145831 -235.47658591293111 0 -235.47658591293111 113.5648436911124 0 0 0 0 508.04082685778849 -213.67930562446054 0 -213.67930562446054 -4.5938364415633259 0 0 0 0 553.16354736825451 -339.28793613260132 0 -339.28793613260132 163.73534588527218 0 0 0 0 634.90135547355749 -324.51304147331939 0 -324.51304147331939 25.706718116980483 0 0 0 0 489.25160762539599 -479.97189722886651 0 -479.97189722886651 463.91347446096461 0 0 0 0 564.75501243071631 -401.67063306387536 0 -401.67063306387536 174.80032704398764 0 0 0 0 118.16189630104054 -139.97122010135968 0 -139.97122010135968 155.10005181474844 0 0 0 0 743.49125397010357 -416.24526193504357 0 -416.24526193504357 95.835896153046633 0 0 0 0 657.13194510374888 -47.724619941741707 0 -47.724619941741707 160.36045744376315 0 0 0 0 -71.931593437882839 -79.53037088378187 0 -79.53037088378187 265.26562213712896 0 0 0 0 241.60379899697728 -318.37125995222141 0 -318.37125995222141 -3.8939670143963667 0 0 0 0 497.02790019431268 -122.21521979180443 0 -122.21521979180443 -224.85822520397051 0 0 0 0 214.35359973410959 73.877521060092306 0 73.877521060092306 -205.26492688419876 0 0 0 0 151.77088294344139 -112.47148681326371 0 -112.47148681326371 51.715069017960786 0 0 0 0 323.8431530087546 17.10798897236964 0 17.10798897236964 -133.56004345343263 0 0 0 0 323.6589154963367 -220.9459576638983 0 -220.9459576638983 22.795373943619779 0 0 0 0 82.067498380070447 22.515859803891345 0 22.515859803891345 -38.371405581447902 0 0 0 0 176.51499749193317 -104.41267088240602 0 -104.41267088240602 64.512188235185022 0 0 0 0 166.22572588738149 -201.38449849930919 0 -201.38449849930919 152.19879322694032 0 0 0 0 1205.9394511084538 -502.68086432995597 0 -502.68086432995597 -436.07986133010604 0 0 0 0 -720.65069766415399 -390.29496969784441 0 -390.29496969784441 1735.6652460312635 0 0 0 0 640.22779380262364 -749.99562146280914 0 -749.99562146280914 657.64934372457492 0 0 0 0 83.383064842579188 -191.39949351419932 0 -191.39949351419932 146.97118065858194 0 0 0 0 958.41799937384349 -123.32908880349277 0 -123.32908880349277 -23.98456139191785 0 0 0 0 29.314168397955655 -60.330011534867367 0 -60.330011534867367 93.63205603988672 0 0 0 0 13.539286460760877 -4.547896313633693 0 -4.547896313633693 1.759780831172894 0 0 0 0 341.63889210781781 209.48920153608788 0 209.48920153608788 139.48822206387467 0 0 0 0 72.452611374130356 -184.73678608831165 0 -184.73678608831165 352.912783070621 0 0 0 0 93.616572994447779 -134.04931253981431 0 -134.04931253981431 -63.088008831975287 0 0 0 0 204.84425135474885 -253.80909631876011 0 -253.80909631876011 -70.65426573737102 0 0 0 0 193.05770550903981 -327.60406070149475 0 -327.60406070149475 156.35595694702238 0 0 0 0 195.07537487975787 -172.25395996579209 0 -172.25395996579209 26.022628379575508 0 0 0 0 169.60927632340463 -86.315486748005242 0 -86.315486748005242 -225.0790433351649 0 0 0 0 154.74839299750602 -139.58980387683368 0 -139.58980387683368 72.357166908099316 0 0 0 0 346.14122761228646 -41.580338869947809 0 -41.580338869947809 32.087887372591467 0 0 0 0 313.31337931752205 -127.8906857063439 0 -127.8906857063439 -174.28193997980634 0 0 0 0 190.91083879600046 -179.33016954998675 0 -179.33016954998675 293.78099256542191 0 0 0 0 -40.022889908093049 -35.08215994557645 0 -35.08215994557645 43.320509075228067 0 0 0 0 72.020086005877147 10.263920585949194 0 10.263920585949194 -42.356813446410271 0 0 0 0 313.66760767725646 -358.23936486338664 0 -358.23936486338664 84.181749616669549 0 0 0 0 -239.25189311883878 217.4623280512842 0 217.4623280512842 166.58224484924904 0 0 0 0 283.38511030329391 -179.94933073235916 0 -179.94933073235916 104.32857505567426 0 0 0 0 181.06910836038878 -335.28911667340594 0 -335.28911667340594 256.79405770964462 0 0 0 0 77.248232676996849 -188.99846392272866 0 -188.99846392272866 213.39920439066054 0 0 0 0 -584.22916154313134 184.77719190410565 0 184.77719190410565 817.09872577370788 0 0 0 0 345.47739035377163 -223.64647262967208 0 -223.64647262967208 50.597154458967452 0 0 0 0 258.35654264355253 -320.87568612564553 0 -320.87568612564553 77.670719131121587 0 0 0 0 114.59110855404288 -287.78578272304935 0 -287.78578272304935 127.96915209328836 0 0 0 0 176.4963467415655 -315.66415450169325 0 -315.66415450169325 93.945348865725919 0 0 0 0 156.00497591533349 -243.63247524400265 0 -243.63247524400265 29.043130182182722 0 0 0 0 165.4969388183672 -280.01588316206426 0 -280.01588316206426 10.465972148498622 0 0 0 0 175.65033431630582 -358.49560401325357 0 -358.49560401325357 62.537032884183475 0 0 0 0 131.50994706742495 -361.46500067442224 0 -361.46500067442224 102.71783267381738 0 0 0 0 161.48894822580041 -505.32804020291792 0 -505.32804020291792 93.680457481043049 0 0 0 0 -10.85381366556976 -409.60426025421361 0 -409.60426025421361 123.59003367777632 0 0 0 0 41.68675232125679 -308.05990734654819 0 -308.05990734654819 253.91580925074322 0 0 0 0 -124.27546856529079 -590.54327200679427 0 -590.54327200679427 71.426215991435583 0 0 0 0 -84.698090924939606 -497.62024498410847 0 -497.62024498410847 142.40667961778399 0 0 0 0 280.93380025521037 -678.66138876584751 0 -678.66138876584751 -138.86443156022779 0 0 0 0 6.853256076501566 -447.07882579458737 0 -447.07882579458737 52.00961486851611 0 0 0 0 -32.066552635282278 -538.08343120759582 0 -538.08343120759582 -158.48245478161516 0 0 0 0 -133.7608311358199 -275.14785896336343 0 -275.14785896336343 -825.59446395903251 0 0 0 0 134.922230621567 -306.09539652124022 0 -306.09539652124022 -280.46352495368865 0 0 0 0 129.45226063668451 -261.34238671171488 0 -261.34238671171488 -84.666423817868235 0 0 0 0 12.074422206613235 -455.91676332870202 0 -455.91676332870202 -327.91581200934343 0 0 0 0 -238.55151101850788 -484.86197675200219 0 -484.86197675200219 102.96927579615294 0 0 0 0 -348.05151899036719 -673.22599993444783 0 -673.22599993444783 -198.87965217766396 0 0 0 0 -274.90696052485146 -337.40729509735957 0 -337.40729509735957 -40.387009463562208 0 0 0 0 -997.46866027091164 -511.04133609474684 0 -511.04133609474684 -80.537016649098859 0 0 0 0 -100.30968196422327 -568.56925965086884 0 -568.56925965086884 -224.18327265454013 0 0 0 0 -584.12374887894839 -908.94366800735679 0 -908.94366800735679 -144.09044669461082 0 0 0 0 -582.499539167271 -1215.7621524189553 0 -1215.7621524189553 -761.54616006275319 0 0 0 0 10.312376919374572 -10.623023115633913 0 -10.623023115633913 5.3577878511915138 0 0 0 0 146.24771064613014 -265.74500274541606 0 -265.74500274541606 -965.68318486131807 0 0 0 0 4.3768436632817611 -543.42143853469634 0 -543.42143853469634 -486.88857599943367 0 0 0 0 7.720115760615073 -9.8112168539830407 0 -9.8112168539830407 8.2833519556617787 0 0 0 0 240.17739629268181 -199.26244117126589 0 -199.26244117126589 -518.7873716097165 0 0 0 0 -129.17143132165074 25.904515811557303 0 25.904515811557303 441.53714692317817 0 0 0 0 -723.7203918308951 -247.27799630803747 0 -247.27799630803747 489.07147310174423 0 0 0 0 -299.95164939574897 -431.09022761862821 0 -431.09022761862821 227.82753729484421 0 0 0 0 286.56807522110466 -63.690230994708884 0 -63.690230994708884 162.29075964892627 0 0 0 0 72.356264697271399 -286.53673685460717 0 -286.53673685460717 130.37327815698018 0 0 0 0 43.137483771715779 -26.315245804148617 0 -26.315245804148617 -278.3810366717762 0 0 0 0 -12.379417352261953 -1.9175467145062157 0 -1.9175467145062157 -119.12196037413378 0 0 0 0 98.437037690426223 -179.17586976212078 0 -179.17586976212078 -271.95115466969366 0 0 0 0 166.97786725970218 -146.89264859957711 0 -146.89264859957711 -1.8142015198409354 0 0 0 0 -0.68649920675670728 -124.48934254757023 0 -124.48934254757023 179.46452176054436 0 0 0 0 -46.720864556584274 -42.95825135471091 0 -42.95825135471091 49.896337363015846 0 0 0 0 84.39479108620435 -169.52833522644323 0 -169.52833522644323 -126.72106300364794 0 0 0 0 88.765285098867025 -143.61549961537719 0 -143.61549961537719 22.932481530180667 0 0 0 0 106.05825297399133 -220.38249979411717 0 -220.38249979411717 -34.927858868799376 0 0 0 0 84.937757491890807 -194.26391057123647 0 -194.26391057123647 -49.267132739330009 0 0 0 0 40.028297185432166 -197.65595054349023 0 -197.65595054349023 -32.345524048380867 0 0 0 0 46.976662121771369 -198.61142819662018 0 -198.61142819662018 -245.54852328506058 0 0 0 0 47.157649502798449 -209.46657356930746 0 -209.46657356930746 -190.54730694623663 0 0 0 0 4.4066661157994531 -389.67197065131131 0 -389.67197065131131 -100.91501086469862 0 0 0 0 -48.752129976375727 -325.26137238032607 0 -325.26137238032607 28.108568193317296 0 0 0 0 -173.55048898531822 -387.3020942649573 0 -387.3020942649573 335.52599315131192 0 0 0 0 -10.256425409083022 -165.58162411231206 0 -165.58162411231206 224.85414193480665 0 0 0 0 -56.338982412889891 -278.763107352161 0 -278.763107352161 54.558659204025389 0 0 0 0 -198.43974045166397 -68.071506662432967 0 -68.071506662432967 174.63500208603773 0 0 0 0 -186.99487845682597 -133.78986630586314 0 -133.78986630586314 549.93007299071814 0 0 0 0 -203.83600557417958 -245.84416351145319 0 -245.84416351145319 305.29284355255186 0 0 0 0 457.115066816943 -603.66796393189816 0 -603.66796393189816 610.31404132471016 0 0 0 0 -222.01903241541004 -209.24695998466086 0 -209.24695998466086 610.597525046589 0 0 0 0 405.54425429759431 -504.09765699450304 0 -504.09765699450304 80.271963842041259 0 0 0 0 -169.37632775690872 -268.6840859181325 0 -268.6840859181325 303.38110722947749 0 0 0 0 -161.33683418063447 -351.68454904713099 0 -351.68454904713099 512.73319585389436 0 0 0 0 -256.18988771163276 -446.81261888774316 0 -446.81261888774316 263.68934080463259 0 0 0 0 -155.78871552448254 -380.467428505518 0 -380.467428505518 134.70929808110418 0 0 0 0 -212.93925850989035 -474.78784528441759 0 -474.78784528441759 393.68220106366425 0 0 0 0 1.4815076569510097 -0.29195039138392076 0 -0.29195039138392076 -2.2907537183585127 0 0 0 0 130.44034548445779 133.23988596473987 0 133.23988596473987 126.38366802216683 0 0 0 0 232.58577578288532 10.696471120308274 0 10.696471120308274 17.422523902117518 0 0 0 0 188.42513318788406 16.739153807161131 0 16.739153807161131 39.415990854113261 0 0 0 0 239.87914910403197 25.328936312567748 0 25.328936312567748 11.795612258495566 0 0 0 0 386.02671067876508 -84.779638421091931 0 -84.779638421091931 -5.3483939754705716 0 0 0 0 198.04035022790777 -226.70071604834675 0 -226.70071604834675 120.18548856386428 0 0 0 0 143.315613211249 -96.018885983124619 0 -96.018885983124619 -1.5233256282014622 0 0 0 0 154.64014314645465 -122.59060074587683 0 -122.59060074587683 54.206723860193051 0 0 0 0 -30.351060042885365 -107.37340310482341 0 -107.37340310482341 56.246836205576074 0 0 0 0 59.480155770812416 -3.7295136812288092 0 -3.7295136812288092 132.34328334745351 0 0 0 0 -1.8597851383419481 0.33490791600246439 0 0.33490791600246439 -4.1073401179209803 0 0 0 0 98.226943130532163 81.063790321449005 0 81.063790321449005 48.427634525293797 0 0 0 0 48.980202574661234 28.70916342980945 0 28.70916342980945 40.684522716809937 0 0 0 0 49.363670378515963 73.056791393929416 0 73.056791393929416 55.468171985406116 0 0 0 0 -95.960190515645081 78.614097627513729 0 78.614097627513729 94.727890611722614 0 0 0 0 25.012859305090387 111.33202674112681 0 111.33202674112681 8.0741223944405647 0 0 0 0 14.821730006304279 286.49615250354032 0 286.49615250354032 -353.33393785192857 0 0 0 0 60.718959500372875 88.844203543431831 0 88.844203543431831 6.5521020322224217 0 0 0 0 133.01247313912873 26.001847754714053 0 26.001847754714053 4.8146588276985005 0 0 0 0 88.695881249077502 113.05816796025965 0 113.05816796025965 -45.451014440307517 0 0 0 0 -274.5942803634116 -241.27732390667114 0 -241.27732390667114 1433.6190903707929 0 0 0 0 -244.05474705441156 -141.4243598717535 0 -141.4243598717535 506.49014847788385 0 0 0 0 -275.81227650595247 55.264551506032149 0 55.264551506032149 933.5845734165423 0 0 0 0 -162.72168257337762 108.88264764850419 0 108.88264764850419 142.87690807976378 0 0 0 0 -270.10877105122199 81.079447630010691 0 81.079447630010691 326.06078024744329 0 0 0 0 -99.428269440262738 24.068323701874277 0 24.068323701874277 256.49673852093292 0 0 0 0 -135.63047668940271 326.62783934301115 0 326.62783934301115 86.16565433478047 0 0 0 0 -101.53837404141086 195.25295962828022 0 195.25295962828022 -228.28053549312426 0 0 0 0 -64.596987466633436 499.80865628987203 0 499.80865628987203 258.69033874002162 0 0 0 0 -99.835343949718663 96.364513503489889 0 96.364513503489889 321.16449265752181 0 0 0 0 -164.68632063338009 871.21423425373996 0 871.21423425373996 -79.097314796402088 0 0 0 0 -18.217030971529312 -105.60121210330999 0 -105.60121210330999 -367.26015355562504 0 0 0 0 2216.3203794049041 -650.00682741153923 0 -650.00682741153923 -284.54266513881976 0 0 0 0 603.9940668620693 41.04268987548312 0 41.04268987548312 -471.73343384297925 0 0 0 0 1188.7027772476722 847.93321202910465 0 847.93321202910465 377.88937306088428 0 0 0 0 2282.6643445630152 -2414.7627293705268 0 -2414.7627293705268 2270.6094852629194 0 0 0 0 2427.0213707402877 1348.8586903955602 0 1348.8586903955602 1776.0679316260439 0 0 0 0 461.05995253300352 661.83893599559224 0 661.83893599559224 878.6872874203309 0 0 0 0 401.49232923082309 -22.412833980192772 0 -22.412833980192772 913.38090170021974 0 0 0 0 674.47679707236966 -127.2615770592821 0 -127.2615770592821 630.56785336019493 0 0 0 0 773.02133343312016 -276.58139146474878 0 -276.58139146474878 265.01821302353255 0 0 0 0 386.49164033049601 -298.71513893131691 0 -298.71513893131691 384.65676912148683 0 0 0 0 875.86275919309264 714.72771752530821 0 714.72771752530821 97.594892139197327 0 0 0 0 2144.5332114550765 786.53422718873412 0 786.53422718873412 95.003332359994602 0 0 0 0 2569.4100031440612 -1597.918269335843 0 -1597.918269335843 1770.9507131646433 0 0 0 0 550.05183383198164 -14.885933668339931 0 -14.885933668339931 -152.16954079857862 0 0 0 0 1937.9953935166413 -362.08615742716802 0 -362.08615742716802 -41.998692510439014 0 0 0 0 850.48600182763766 18.810181874217506 0 18.810181874217506 -151.17589158669085 0 0 0 0 421.17409948437125 -364.30602507434787 0 -364.30602507434787 -100.60113845656701 0 0 0 0 483.31328088633018 -480.86802006153584 0 -480.86802006153584 -115.47350852755289 0 0 0 0 194.27919187139196 -460.58588372200848 0 -460.58588372200848 -22.042779450763732 0 0 0 0 969.38157024378961 -543.02091385714357 0 -543.02091385714357 -95.99149867064034 0 0 0 0 380.64159211747756 631.68430001689023 0 631.68430001689023 -61.062346660508183 0 0 0 0 760.23472657956881 539.42207783913864 0 539.42207783913864 -96.763505004195167 0 0 0 0 544.84674677599105 352.61588862018061 0 352.61588862018061 334.15035619938953 0 0 0 0 644.66190606406599 -150.21390988054327 0 -150.21390988054327 25.373689732748971 0 0 0 0 367.89802324382617 99.006300300616203 0 99.006300300616203 -465.16256695628181 0 0 0 0 404.01612265578297 913.77184100717022 0 913.77184100717022 693.67665464907441 0 0 0 0 27.765388296362005 5.6914232603623844 0 5.6914232603623844 3.3070627256072598 0 0 0 0 -5.5808992907841457 48.583747043841868 0 48.583747043841868 191.24287434534472 0 0 0 0 888.72045434496613 -1083.1998661720547 0 -1083.1998661720547 263.69708610647649 0 0 0 0 556.94599927331728 -823.91584956067481 0 -823.91584956067481 1572.6092059853972 0 0 0 0 759.1733073953219 -491.44539221670993 0 -491.44539221670993 523.02013805958359 0 0 0 0 83.868947780629924 15.793392110198383 0 15.793392110198383 2.9047555612157385 0 0 0 0 640.26612167918938 -1189.9972871145374 0 -1189.9972871145374 780.81119377365849 0 0 0 0 755.40848515617836 -830.9601089445506 0 -830.9601089445506 315.16616201199054 0 0 0 0 625.66331829223782 -782.38124529777269 0 -782.38124529777269 87.005929246597134 0 0 0 0 802.53690682383603 -1043.3292003742613 0 -1043.3292003742613 -152.45448701131772 0 0 0 0 806.15530887147179 -891.60648776542371 0 -891.60648776542371 -148.07940139737067 0 0 0 0 695.41817262256518 -1061.801713787863 0 -1061.801713787863 -409.13644623293044 0 0 0 0 302.15079038467957 -140.47179426071989 0 -140.47179426071989 -211.3567020653453 0 0 0 0 1292.498994863854 -1212.2713548076063 0 -1212.2713548076063 28.549686227483107 0 0 0 0 -189.56943622167455 59.484186326557392 0 59.484186326557392 -848.24099194629162 0 0 0 0 226.40674510927056 -967.26076352691507 0 -967.26076352691507 239.11590891013248 0 0 0 0 227.14943943399703 -1025.0333519769229 0 -1025.0333519769229 -50.207604303065182 0 0 0 0 345.80815810066997 -503.97973451014161 0 -503.97973451014161 -730.08746197299615 0 0 0 0 -195.85627254197607 -860.52195250731984 0 -860.52195250731984 -1235.6965163213538 0 0 0 0 25.60592166034121 14.266007779272357 0 14.266007779272357 -5.024308543601907 0 0 0 0 83.683209377457388 -939.58815982395527 0 -939.58815982395527 -1231.6716280143039 0 0 0 0 -291.11129049776355 -658.91208394210526 0 -658.91208394210526 -1620.5204500703749 0 0 0 0 -629.1243069767952 -665.55106794571338 0 -665.55106794571338 -1131.8023205175398 0 0 0 0 -629.12430697667878 -665.55106794609253 0 -665.55106794609253 -1131.8023205175214 0 0 0 0 434.7952817051264 -408.40657119744708 0 -408.40657119744708 -1075.4745777486678 0 0 0 0 -629.12430697644595 -665.55106794582025 0 -665.55106794582025 -1131.8023205175323 0 0 0 0 78.164716803651288 9.482427813079493 0 9.482427813079493 -6.9752981019242934 0 0 0 0 250.95090892541339 -63.275466789802067 0 -63.275466789802067 47.534665157865675 0 0 0 0 79.083677025737416 47.350184692383664 0 47.350184692383664 136.34276549304468 0 0 0 0 22.403636832489383 32.866186582532421 0 32.866186582532421 -3.090946175837562 0 0 0 0 34.607784510757313 43.541248753647338 0 43.541248753647338 -9.9596765965556493 0 0 0 0 37.529865133299609 27.058396419231258 0 27.058396419231258 -16.222359365757256 0 0 0 0 -30.711083866219269 39.478074981472844 0 39.478074981472844 -20.811677915202438 0 0 0 0 36.728617468201548 42.562598027385349 0 42.562598027385349 10.297090751574048 0 0 0 0 60.855346579070783 21.956198089345833 0 21.956198089345833 -4.1634685995388514 0 0 0 0 -43.711360780376708 71.947407258602198 0 71.947407258602198 24.441237574055776 0 0 0 0 343.9749400120927 87.889057630210118 0 87.889057630210118 21.070403693801381 0 0 0 0 378.18859496101504 -22.310876792785507 0 -22.310876792785507 -42.905921307657991 0 0 0 0 26.003037480288185 28.46965499718317 0 28.46965499718317 -20.170041595526442 0 0 0 0 39.678763076624875 18.489640181009367 0 18.489640181009367 -11.192951460545263 0 0 0 0 61.802457852171926 -8.2138387891626508 0 -8.2138387891626508 -21.31422689569326 0 0 0 0 25.858679868630134 32.641744393252111 0 32.641744393252111 -15.16497731695199 0 0 0 0 705.94422332529211 235.63021880335828 0 235.63021880335828 67.452441124236429 0 0 0 0 1223.3564925605897 -1482.574813640013 0 -1482.574813640013 1748.3392979861401 0 0 0 0 -104.87843605229864 -115.72303214100975 0 -115.72303214100975 185.17929160419499 0 0 0 0 27.95037863766197 -1.6973586152281648 0 -1.6973586152281648 0.70768320234434823 0 0 0 0 -10.77114725598193 5.4417479773507438 0 5.4417479773507438 0.48481126597508628 0 0 0 0 249.53272324442514 -614.26097084991352 0 -614.26097084991352 975.31853404089588 0 0 0 0 230.36094982747454 -155.33762250606014 0 -155.33762250606014 -42.02431321438408 0 0 0 0 233.99403222225374 -156.14713543301878 0 -156.14713543301878 -51.617411554787395 0 0 0 0 315.22869051221642 335.75338533679269 0 335.75338533679269 190.33332591950466 0 0 0 0 1206.3068707701168 128.34215877128099 0 128.34215877128099 -63.318249645793458 0 0 0 0 61.57210218156979 25.159248498232046 0 25.159248498232046 -28.0077769128211 0 0 0 0 131.49586324223492 293.15607170694545 0 293.15607170694545 258.50237307869384 0 0 0 0 28.250538706881258 27.720112172889543 0 27.720112172889543 -0.97526692776596136 0 0 0 0 53.623228029260645 30.938617539373126 0 30.938617539373126 -16.890940663175883 0 0 0 0 54.037813500253833 46.446295140782695 0 46.446295140782695 -14.758349678468988 0 0 0 0 1153.9305959062331 -99.424067555960733 0 -99.424067555960733 -219.63601484848596 0 0 0 0 473.33549603335268 -102.39234526633959 0 -102.39234526633959 -111.79348886080015 0 0 0 0 70.348539846650965 50.497243281201008 0 50.497243281201008 -43.885389512536108 0 0 0 0 33.900976243225159 -5.5967426694171536 0 -5.5967426694171536 -50.926324974180829 0 0 0 0 61.703425026282275 21.933796424057903 0 21.933796424057903 -62.648020503672342 0 0 0 0 43.607840649274294 28.772980913869105 0 28.772980913869105 7.3591943142578202 0 0 0 0 -6.0315231737840804 -41.003039642930304 0 -41.003039642930304 102.07210000864279 0 0 0 0 3.8645273480162246 2.3767949930647774 0 2.3767949930647774 -0.20611471938856596 0 0 0 0 -20.940485220215123 23.945634496673136 0 23.945634496673136 3.1623502827303582 0 0 0 0 -84.604772698905435 89.852127123212654 0 89.852127123212654 64.751257007810636 0 0 0 0 128.89550713009521 -51.071134435308466 0 -51.071134435308466 -98.084516559508984 0 0 0 0 3.5038855162092091 1.2127627555639418 0 1.2127627555639418 0.46140949593510627 0 0 0 0 -447.94241767701169 -225.85556636708759 0 -225.85556636708759 474.811597417038 0 0 0 0 11.217499755882045 9.7237244275250809 0 9.7237244275250809 0.63699309433583151 0 0 0 0 131.08878144482151 323.46996827492899 0 323.46996827492899 -159.41156503006209 0 0 0 0 9.9940996572875918 2.0197461380444919 0 2.0197461380444919 0.9357004750924236 0 0 0 0 -8.8505081419716589 14.518056116390142 0 14.518056116390142 -22.035903388253942 0 0 0 0 44.554381240421208 10.488304060657129 0 10.488304060657129 -12.749090620622155 0 0 0 0 20.90159167238474 24.402844354437391 0 24.402844354437391 -1.7721103299833922 0 0 0 0 866.94833947716688 498.20333716823893 0 498.20333716823893 -1992.2979350847679 0 0 0 0 1263.4401325825456 -151.98935054019739 0 -151.98935054019739 -1700.6772972620106 0 0 0 0 127.29504478805706 19.861571619363026 0 19.861571619363026 -4.3283313409153354 0 0 0 0 -477.2187460970672 -37.897086393682912 0 -37.897086393682912 -855.43369759892812 0 0 0 0 1000.6325555134972 -335.40023448643137 0 -335.40023448643137 -827.85554046569177 0 0 0 0 215.90751453262055 672.60352072756018 0 672.60352072756018 -1245.7408436819073 0 0 0 0 864.00579619304335 432.0061916359341 0 432.0061916359341 -596.5111156199273 0 0 0 0 147.45028828739612 28.113932611079431 0 28.113932611079431 3.841232633463374 0 0 0 0 -0.35009790604090085 226.98274871602325 0 226.98274871602325 145.64970403811185 0 0 0 0 -40.861097468656226 -250.73765109645899 0 -250.73765109645899 -99.347524587596126 0 0 0 0 -144.10462516550615 -87.036437090092818 0 -87.036437090092818 177.35119984149105 0 0 0 0 98.955659448358347 2.8275122415013811 0 2.8275122415013811 75.862586526101495 0 0 0 0 114.87016723614943 -19.718239806171368 0 -19.718239806171368 105.42504949620661 0 0 0 0 187.42920584107924 126.30173358176432 0 126.30173358176432 411.25247754123507 0 0 0 0 173.89566366295912 185.00378566970176 0 185.00378566970176 225.79318871516767 0 0 0 0 269.00566821460961 -90.931753984459192 0 -90.931753984459192 -42.419830375300116 0 0 0 0 3.4789572924971424 -0.012956570575520021 0 -0.012956570575520021 0.060000637323103088 0 0 0 0 628.28042785465368 375.48760257582285 0 375.48760257582285 179.31573454763466 0 0 0 0 720.27286153103341 213.79724637299819 0 213.79724637299819 122.22136716106979 0 0 0 0 133.31251541343227 -59.506940624506797 0 -59.506940624506797 -60.396779910475971 0 0 0 0 181.59544731426286 -36.332391391192232 0 -36.332391391192232 -89.687363782582111 0 0 0 0 105.04793806238013 25.244232419949185 0 25.244232419949185 -101.87727664155773 0 0 0 0 189.2735818723304 -67.945957400653811 0 -67.945957400653811 -467.36431789969026 0 0 0 0 144.73735535130345 27.729919258780331 0 27.729919258780331 4.2905750578740349 0 0 0 0 44.31026574166026 -47.462307100441421 0 -47.462307100441421 92.279933236412035 0 0 0 0 152.88114043969836 16.329850162288039 0 16.329850162288039 97.246188393266152 0 0 0 0 145.32383737986675 -79.650099087488343 0 -79.650099087488343 38.082414511685272 0 0 0 0 109.32073616711205 -128.13188209937283 0 -128.13188209937283 -72.926166747190109 0 0 0 0 148.12191950084525 -37.827215768304541 0 -37.827215768304541 32.63027651288894 0 0 0 0 165.75447767874721 -99.75445788934104 0 -99.75445788934104 56.940566235123924 0 0 0 0 111.4985632059288 -83.652557313743841 0 -83.652557313743841 61.535195213470843 0 0 0 0 188.08299324894324 -16.276541522834464 0 -16.276541522834464 -26.617028810730744 0 0 0 0 186.14784243022768 -84.915589067642259 0 -84.915589067642259 67.531519678728728 0 0 0 0 -25.803032887226436 132.99031644192905 0 132.99031644192905 23.539217794475007 0 0 0 0 175.90190654659818 -50.143724689499095 0 -50.143724689499095 93.244281917878993 0 0 0 0 2.8167907290131495 7.6159997783560556 0 7.6159997783560556 8.0564962650292404 0 0 0 0 279.84581971901753 62.543152570385217 0 62.543152570385217 68.835599119440758 0 0 0 0 134.87918607528263 -64.172448212430197 0 -64.172448212430197 89.751370252012748 0 0 0 0 249.80065101012588 -49.212256282823034 0 -49.212256282823034 31.647155214686336 0 0 0 0 381.47556122722744 -25.932649065193118 0 -25.932649065193118 34.01519602375879 0 0 0 0 -78.123108371346461 -14.615326163481313 0 -14.615326163481313 60.42131389205224 0 0 0 0 207.65135172489681 99.990169237929194 0 99.990169237929194 21.297340584292101 0 0 0 0 604.32824650506882 49.403475930019482 0 49.403475930019482 -86.317262748965732 0 0 0 0 575.97694079078065 306.73168993503504 0 306.73168993503504 135.84602591597013 0 0 0 0 101.5279675872589 26.258842139130252 0 26.258842139130252 184.7751008358232 0 0 0 0 329.85985278879525 100.2584832139321 0 100.2584832139321 97.184202367379839 0 0 0 0 324.72320763854077 122.07381491523427 0 122.07381491523427 11.532207303109999 0 0 0 0 384.18966682116297 35.739738609011056 0 35.739738609011056 19.021084317482973 0 0 0 0 444.50945736376889 97.146104504344748 0 97.146104504344748 14.286003101541269 0 0 0 0 431.92364287393866 132.12603354592852 0 132.12603354592852 23.623936444587457 0 0 0 0 0.11376703799174948 -0.4537713641485368 0 -0.4537713641485368 -0.14298278010955912 0 0 0 0 6.7044938388207811 -104.69186921853156 0 -104.69186921853156 -85.043560490022855 0 0 0 0 313.76588931612787 -24.56666709848929 0 -24.56666709848929 -70.161231098039025 0 0 0 0 312.49516903704171 -7.2278918747597913 0 -7.2278918747597913 33.108517032606642 0 0 0 0 696.96680095337069 18.798544319114171 0 18.798544319114171 -0.2847294892304717 0 0 0 0 362.24425057978806 11.778950360174804 0 11.778950360174804 1.2971685121145811 0 0 0 0 -140.14009172806982 78.120749870744135 0 78.120749870744135 28.862088263248552 0 0 0 0 4.2228951631678626 5.5661822632313545 0 5.5661822632313545 5.8070247134364568 0 0 0 0 -15.170748308446491 55.959534719260319 0 55.959534719260319 -49.453345964085202 0 0 0 0 -137.04615513953468 66.839315960704994 0 66.839315960704994 90.505665562979175 0 0 0 0 1.4827533132373816 1.8469665547900149 0 1.8469665547900149 2.2905650617205495 0 0 0 0 -2.1643551424713223 -12.337150595695789 0 -12.337150595695789 -31.876481158285969 0 0 0 0 40.219435547014655 30.182988849046097 0 30.182988849046097 20.860838748416882 0 0 0 0 10.040869959429983 143.25587400031117 0 143.25587400031117 126.90124165758789 0 0 0 0 232.49038118522731 184.36255730944197 0 184.36255730944197 36.663017355941975 0 0 0 0 201.42847938295017 35.067855352577453 0 35.067855352577453 156.67482983184163 0 0 0 0 367.39492320847785 42.779581887253357 0 42.779581887253357 -43.975366907308398 0 0 0 0 266.79489432380797 -64.166689969474419 0 -64.166689969474419 56.552246038910994 0 0 0 0 97.876823268612497 13.481056665983488 0 13.481056665983488 54.676651659663094 0 0 0 0 187.60875964878687 -11.969303692575807 0 -11.969303692575807 45.316814091006108 0 0 0 0 96.942489475230104 -3.2299326545175973 0 -3.2299326545175973 101.7321225488156 0 0 0 0 86.330245372111676 40.920635028550578 0 40.920635028550578 24.347272739984817 0 0 0 0 77.437542316496547 -13.122030911464208 0 -13.122030911464208 42.674854547556322 0 0 0 0 -9.1373632085269492 45.94482406460304 0 45.94482406460304 25.778200400145124 0 0 0 0 26.527282313891192 9.9017474871911872 0 9.9017474871911872 3.6809127342753527 0 0 0 0 45.204530908154993 27.965370700289554 0 27.965370700289554 1.6504344305308223 0 0 0 0 39.387466062049498 39.765739653590686 0 39.765739653590686 -6.0477946216740293 0 0 0 0 698.05798479745135 -163.37932681365243 0 -163.37932681365243 -164.49514521619381 0 0 0 0 15.280404578468733 55.815272393410453 0 55.815272393410453 11.836652497385785 0 0 0 0 24.026877127894849 31.658347376605647 0 31.658347376605647 4.5388331603016159 0 0 0 0 94.399187632487155 48.777629945761419 0 48.777629945761419 -10.147416158035242 0 0 0 0 50.636453686689492 43.330443761784124 0 43.330443761784124 -10.824944696405964 0 0 0 0 97.866051468387013 70.925410966548384 0 70.925410966548384 77.594768039417886 0 0 0 0 39.175428962727892 44.578377267822077 0 44.578377267822077 51.300203997426252 0 0 0 0 5490.9476092878249 -2157.457769414857 0 -2157.457769414857 -546.31643306250066 0 0 0 0 1760.5837968045817 -1049.7679210230842 0 -1049.7679210230842 -732.6207694489816 0 0 0 0 1399.4993749695423 -1877.6553866223735 0 -1877.6553866223735 -544.38961048120348 0 0 0 0 4.4319072265285229 -0.8894834592837384 0 -0.8894834592837384 -4.3791767355398585 0 0 0 0 3220.4021495824127 741.97148565037605 0 741.97148565037605 -862.81439483076429 0 0 0 0 872.15362569678109 -426.77996480482216 0 -426.77996480482216 -511.00327816021962 0 0 0 0 1498.0289907814877 -982.37579762927476 0 -982.37579762927476 -17.919254457504621 0 0 0 0 367.3259158803703 -471.72329105166148 0 -471.72329105166148 103.630172340846 0 0 0 0 239.94875554224669 2.5399897222944823 0 2.5399897222944823 -65.02677610574915 0 0 0 0 241.14235471614796 -324.03023861631641 0 -324.03023861631641 1072.6444815215955 0 0 0 0 388.61103722755797 268.9884866636794 0 268.9884866636794 227.56770240898277 0 0 0 0 -61.218037417624146 -859.18195702179673 0 -859.18195702179673 2655.0586605046487 0 0 0 0 1745.6251535141746 -2603.8017134386005 0 -2603.8017134386005 1892.4811848771556 0 0 0 0 5492.6915679113881 2198.2240512059175 0 2198.2240512059175 68.909678968627148 0 0 0 0 19.770020057646292 -9.1688429657981843 0 -9.1688429657981843 9.131087024694148 0 0 0 0 2042.2338240459503 -168.11297129687756 0 -168.11297129687756 -207.52145185219268 0 0 0 0 2414.9662251476111 86.142579612823255 0 86.142579612823255 -178.9211013052828 0 0 0 0 660.85849611669255 67.202029192236665 0 67.202029192236665 216.65165469281033 0 0 0 0 18.750296710798807 -7.3120480179311045 0 -7.3120480179311045 2.4867797293531293 0 0 0 0 1957.1402271962006 362.86124280794286 0 362.86124280794286 -60.548133282919963 0 0 0 0 -3.5156389658368425 89.583424691168034 0 89.583424691168034 207.52426718531865 0 0 0 0 49.59715724775387 -26.105448051813084 0 -26.105448051813084 8.5591021212471965 0 0 0 0 227.53467136942345 -162.10773613050424 0 -162.10773613050424 -308.45134318375221 0 0 0 0 17.647877137969196 8.2382075781559223 0 8.2382075781559223 -17.320705702695228 0 0 0 0 47.243184344437395 -3.781789735386397 0 -3.781789735386397 -11.395658937480675 0 0 0 0 54.281364466849482 1.702989522107984 0 1.702989522107984 -5.3280295129645197 0 0 0 0 46.975169665412977 -5.6336240431617171 0 -5.6336240431617171 -12.542698792743067 0 0 0 0 44.193630606732768 -8.699317439681657 0 -8.699317439681657 -3.4045331357724535 0 0 0 0 32.55568704224163 -4.0444692130666198 0 -4.0444692130666198 -3.2577286653397719 0 0 0 0 33.388586360715408 0.36630842955999299 0 0.36630842955999299 -4.1436376963983044 0 0 0 0 45.345203687509638 -7.1363136581289837 0 -7.1363136581289837 -12.535254373489112 0 0 0 0 43.589565975191363 -4.8293458250504955 0 -4.8293458250504955 -9.0100729023197346 0 0 0 0 107.1502094807729 -78.366343892432155 0 -78.366343892432155 18.203973595911521 0 0 0 0 138.04880838275858 -43.733336717521297 0 -43.733336717521297 -25.186353102603334 0 0 0 0 34.866687873378396 11.737395527919944 0 11.737395527919944 -8.3712652964341032 0 0 0 0 45.121807032771045 6.6926831195641796 0 6.6926831195641796 -1.1002139094525383 0 0 0 0 61.506632473171805 -15.449637912498929 0 -15.449637912498929 -20.192029094129861 0 0 0 0 54.860969197492523 -7.4111612168162857 0 -7.4111612168162857 2.9657768069545227 0 0 0 0 47.14949561252962 -10.492267848564737 0 -10.492267848564737 -5.6649920859310168 0 0 0 0 34.437055659682869 -11.879330225824226 0 -11.879330225824226 -1.9257007070891499 0 0 0 0 34.983775031461846 -7.2675709409199607 0 -7.2675709409199607 -11.908469186731075 0 0 0 0 37.546158163600779 -14.204805856488719 0 -14.204805856488719 -6.8794313374361575 0 0 0 0 11.933772179641778 -5.862753802319439 0 -5.862753802319439 -4.9864372755973463 0 0 0 0 54.592465429959702 9.4767898263353345 0 9.4767898263353345 52.041810289678324 0 0 0 0 268.45318529382348 145.78150250756244 0 145.78150250756244 34.158958337568038 0 0 0 0 71.574132217705483 73.436804252422462 0 73.436804252422462 121.69968776281166 0 0 0 0 18.102983306543948 -12.978395725454035 0 -12.978395725454035 -8.7010541777985875 0 0 0 0 128.69375307237351 43.635624153300796 0 43.635624153300796 -16.954788291417572 0 0 0 0 207.47242693204316 -75.058334001672165 0 -75.058334001672165 -90.695419323314127 0 0 0 0 147.51746890386858 66.339367757811488 0 66.339367757811488 -7.7626626163137189 0 0 0 0 121.37707810120628 18.500949128780576 0 18.500949128780576 -35.249392127997908 0 0 0 0 103.83731952717062 22.269804433997251 0 22.269804433997251 -29.324600113162887 0 0 0 0 58.503306222817628 0.53704456693346714 0 0.53704456693346714 -8.4565589513013464 0 0 0 0 15.979670191520256 -12.781438783117721 0 -12.781438783117721 -10.850175748836362 0 0 0 0 99.575276771152858 18.227447365338207 0 18.227447365338207 -18.758236198489612 0 0 0 0 55.881565326271812 -26.696856574915955 0 -26.696856574915955 46.228174434783 0 0 0 0 8.7259722451548498 18.960538287026523 0 18.960538287026523 -4.5602700629373079 0 0 0 0 7.3104092346343919 -0.82860468048657765 0 -0.82860468048657765 -6.7137297732639345 0 0 0 0 1205.4926526063718 -650.09892211558076 0 -650.09892211558076 326.79136482885724 0 0 0 0 107.42606789499405 -1.8019739343321817 0 -1.8019739343321817 -8.7749349980190345 0 0 0 0 74.107560036383802 -49.770974310373276 0 -49.770974310373276 -59.20619348820901 0 0 0 0 180.47729882060958 -23.639654189563771 0 -23.639654189563771 -194.71325546988101 0 0 0 0 220.3938356879371 37.066634190079867 0 37.066634190079867 -105.2637236503399 0 0 0 0 173.41761049047636 122.23476446656264 0 122.23476446656264 12.886712097710188 0 0 0 0 107.94706552784191 -5.7795549399738775 0 -5.7795549399738775 -63.85954546664243 0 0 0 0 45.877398021468252 38.28247039110056 0 38.28247039110056 -25.208949508425576 0 0 0 0 37.441979203347728 37.199019956980692 0 37.199019956980692 29.393302512220544 0 0 0 0 115.7465799600468 -3.3995171578653753 0 -3.3995171578653753 -4.9774306168369549 0 0 0 0 36.317274209820425 24.044120411893985 0 24.044120411893985 -3.843657133583676 0 0 0 0 27.260331500413656 7.1785637772150324 0 7.1785637772150324 -2.7043977549547211 0 0 0 0 70.264504890263197 12.384756306985764 0 12.384756306985764 14.033730591773292 0 0 0 0 120.8917150825373 15.94181295442192 0 15.94181295442192 -18.762183096803255 0 0 0 0 111.72976340202149 6.3980511238657982 0 6.3980511238657982 -12.648663937630772 0 0 0 0 22.778249734180818 28.143831851753887 0 28.143831851753887 -2.5873867337602334 0 0 0 0 48.123981075958 -7.3513705753491649 0 -7.3513705753491649 -23.713018160886122 0 0 0 0 460.41155039548175 -33.824925275946043 0 -33.824925275946043 -164.1669862696981 0 0 0 0 211.74722071873111 141.25692895819179 0 141.25692895819179 94.77983801497794 0 0 0 0 37.503815704270565 26.839647571497622 0 26.839647571497622 -3.835436112789445 0 0 0 0 72.190572108436754 23.292799648576079 0 23.292799648576079 1.3374798175764226 0 0 0 0 82.842658615481923 27.282042769964391 0 27.282042769964391 -0.37315676411367349 0 0 0 0 91.242769918353588 25.497366222468145 0 25.497366222468145 -2.2593594839427169 0 0 0 0 84.075067147510708 19.031287449365209 0 19.031287449365209 -3.8092066144786259 0 0 0 0 92.270773013529833 6.3179070121100267 0 6.3179070121100267 -4.0496786542412337 0 0 0 0 90.151199013140285 11.34107562926124 0 11.34107562926124 -6.783375945282387 0 0 0 0 71.402728495413612 41.518864512471055 0 41.518864512471055 -44.547151224821391 0 0 0 0 94.253833566603134 2.2761730994770915 0 2.2761730994770915 -29.961563937511869 0 0 0 0 96.883286189622595 8.0991624392268022 0 8.0991624392268022 -143.05739521443138 0 0 0 0 90.085302025239798 35.761998079800378 0 35.761998079800378 -36.942425346412165 0 0 0 0 75.490422504663002 44.939052793225528 0 44.939052793225528 0.22918908554856898 0 0 0 0 51.257007892760157 9.7695967621903037 0 9.7695967621903037 6.5560180816300999 0 0 0 0 83.692069084354443 34.367036473823646 0 34.367036473823646 -0.884093652919546 0 0 0 0 70.904854490465368 35.315648570917574 0 35.315648570917574 12.329894538290318 0 0 0 0 78.994299646998115 22.22865632202263 0 22.22865632202263 28.677520358767651 0 0 0 0 99.401693297171732 4.5748657514604929 0 4.5748657514604929 28.768927775498533 0 0 0 0 90.288337859732565 22.836602559197217 0 22.836602559197217 12.349866618809756 0 0 0 0 135.86544964187487 25.117859503272939 0 25.117859503272939 12.421559007058022 0 0 0 0 8.9308613554878349 1.82109309226405 0 1.82109309226405 -0.30293788321240811 0 0 0 0 85.579455486222287 24.093481363563114 0 24.093481363563114 15.217661312398377 0 0 0 0 82.527436967386166 22.608294641765951 0 22.608294641765951 15.857152069636868 0 0 0 0 21.51094928701049 6.7718953507356758 0 6.7718953507356758 5.9559463245771287 0 0 0 0 196.70311668314389 -56.954035611772611 0 -56.954035611772611 -66.081147925963251 0 0 0 0 99.2996523441725 10.767440635737785 0 10.767440635737785 27.052234056811358 0 0 0 0 53.912268170668739 0.53681920195477062 0 0.53681920195477062 -2.5793983850723681 0 0 0 0 8.1183767551925925 2.0991761473593584 0 2.0991761473593584 1.091776240448489 0 0 0 0 189.32916095480323 29.464512383024157 0 29.464512383024157 -90.795914730162622 0 0 0 0 -30.17195299136074 22.733148616439962 0 22.733148616439962 223.34137098153224 0 0 0 0 25.237227838748368 -96.820701343020119 0 -96.820701343020119 130.05813687192267 0 0 0 0 -0.75773843201181279 0.36955509087090377 0 0.36955509087090377 0.53151002470217179 0 0 0 0 280.97288407549786 6.3080724001081308 0 6.3080724001081308 -89.232674940582001 0 0 0 0 43.977240271895425 -19.89894357455205 0 -19.89894357455205 67.106575100043301 0 0 0 0 56.065933329373365 -142.98473766660948 0 -142.98473766660948 -59.233655599177837 0 0 0 0 43.260136209675693 -12.842607211233826 0 -12.842607211233826 -2.2161829815015608 0 0 0 0 -2.2853612454632071 -0.16237789067798758 0 -0.16237789067798758 3.189633815855732 0 0 0 0 120.6887822325225 41.846791929317078 0 41.846791929317078 -28.127258890853682 0 0 0 0 68.346061262047442 173.87975218843053 0 173.87975218843053 59.658083820120282 0 0 0 0 202.89049074229843 108.17631060648046 0 108.17631060648046 -71.130176104163638 0 0 0 0 81.767275688092923 -23.889442984926063 0 -23.889442984926063 -26.643008114406712 0 0 0 0 102.08895658110123 42.761893178929085 0 42.761893178929085 -13.612607062249481 0 0 0 0 138.82722966658184 76.942476633526098 0 76.942476633526098 -1.7249061139827973 0 0 0 0 95.357524104900222 52.217011898900182 0 52.217011898900182 -9.8463189803715068 0 0 0 0 106.394195589015 37.805325639174953 0 37.805325639174953 -23.371236283184771 0 0 0 0 42.764602404524339 33.985744205132164 0 33.985744205132164 15.706871418184846 0 0 0 0 56.169711949564189 63.841596557734185 0 63.841596557734185 -2.5418533402277212 0 0 0 0 22.60697898028593 86.343520340549276 0 86.343520340549276 39.664105915606171 0 0 0 0 486.67318439318842 -236.56908699380324 0 -236.56908699380324 -248.21240277359038 0 0 0 0 55.653735131452983 62.576341056677926 0 62.576341056677926 -7.7151508552860797 0 0 0 0 56.116614262246003 21.215123507661929 0 21.215123507661929 -5.1627001593139994 0 0 0 0 203.35473514207661 29.974744382449558 0 29.974744382449558 -129.33934514079556 0 0 0 0 188.46148357773018 10.579919947247689 0 10.579919947247689 0.74225822119541363 0 0 0 0 161.94229763164731 -227.50469000573452 0 -227.50469000573452 298.19861201193726 0 0 0 0 65.173334767285269 -49.453016480442784 0 -49.453016480442784 11.353597800723037 0 0 0 0 48.667672403178585 -46.104892105877752 0 -46.104892105877752 53.687771906568742 0 0 0 0 72.871138267424499 -47.08231143457931 0 -47.08231143457931 -7.9623505860542991 0 0 0 0 73.28977008126094 -56.531727200397654 0 -56.531727200397654 13.728112928101744 0 0 0 0 177.4150104472501 -33.458515296446649 0 -33.458515296446649 -9.1475643879098101 0 0 0 0 60.186275132521821 56.893397198484806 0 56.893397198484806 -13.596581172043095 0 0 0 0 62.550399545524108 -27.515263820145535 0 -27.515263820145535 8.1725835427896492 0 0 0 0 -56.71972372387404 84.599314970374365 0 84.599314970374365 79.590654932709185 0 0 0 0 -50.548051278880848 -26.299004321659226 0 -26.299004321659226 3.4197403803677844 0 0 0 0 561.327641435244 155.42550745008339 0 155.42550745008339 -120.87790148094393 0 0 0 0 604.23669030013298 390.14299067190325 0 390.14299067190325 735.93240471009676 0 0 0 0 157.60145101455782 277.70307521896098 0 277.70307521896098 225.65412451976636 0 0 0 0 -244.37553236155509 -257.17464537936871 0 -257.17464537936871 213.1284407934325 0 0 0 0 41.693550791120643 -29.419874831002026 0 -29.419874831002026 6.6580215833858443 0 0 0 0 26.09254826745746 -26.484930005296974 0 -26.484930005296974 -8.415228137790109 0 0 0 0 28.510607880391035 -18.555979047888513 0 -18.555979047888513 16.30390878195044 0 0 0 0 49.583793036835488 -18.127574388679456 0 -18.127574388679456 -5.869236265495271 0 0 0 0 -27.36874984777387 -561.86329207336894 0 -561.86329207336894 -65.051118094490434 0 0 0 0 551.00329068004794 -4.2752795201472509 0 -4.2752795201472509 529.8196992058829 0 0 0 0 402.48252161967321 285.2117495476499 0 285.2117495476499 -31.924961755102231 0 0 0 0 1154.3335272910699 640.53695169412913 0 640.53695169412913 337.28028177393389 0 0 0 0 1162.3660139118365 529.34423339372324 0 529.34423339372324 931.70224690907753 0 0 0 0 2162.7843129636385 330.42225819850933 0 330.42225819850933 247.72178650832302 0 0 0 0 713.02120583123178 -142.22159324813219 0 -142.22159324813219 279.52945817089869 0 0 0 0 202.59349874406325 251.00866926083148 0 251.00866926083148 27.923236504075362 0 0 0 0 618.81648098365622 -129.42624484922692 0 -129.42624484922692 -968.3928601628769 0 0 0 0 1007.1649376283312 948.70855077628596 0 948.70855077628596 583.35277148172554 0 0 0 0 65.376453770659282 65.79946298845357 0 65.79946298845357 314.80767760235835 0 0 0 0 9.2906277970693196 -0.20156985109861125 0 -0.20156985109861125 -7.4878946801226682 0 0 0 0 5493.1133027002179 3025.5118464996776 0 3025.5118464996776 -2.3752814835129712 0 0 0 0 2666.5858210505685 1763.5718618927563 0 1763.5718618927563 130.98594114770549 0 0 0 0 831.75893084493146 1719.2316079794607 0 1719.2316079794607 1402.6923682876568 0 0 0 0 5500.3001095063737 1645.2779753464868 0 1645.2779753464868 90.929340835035248 0 0 0 0 5216.5119320694284 1689.7455350469556 0 1689.7455350469556 89.514386716184632 0 0 0 0 4049.7283982215013 154.26895370402394 0 154.26895370402394 -894.5386703896279 0 0 0 0 10.409501075431841 -1.91117613104349 0 -1.91117613104349 -12.008811490910908 0 0 0 0 1995.2101729553033 909.56366645565504 0 909.56366645565504 320.89294250287435 0 0 0 0 1658.2006568946308 210.25892092993035 0 210.25892092993035 181.83380084581745 0 0 0 0 5498.7317589543236 262.22487102463549 0 262.22487102463549 -1050.932442196201 0 0 0 0 5487.8637031647886 250.08652449028162 0 250.08652449028162 -719.95525712009919 0 0 0 0 550.59145223634368 54.348179885167355 0 54.348179885167355 543.80021875543491 0 0 0 0 2728.9379983421495 -960.76902245303449 0 -960.76902245303449 -311.11674638429059 0 0 0 0 -523.20481472809843 -1195.4276578818792 0 -1195.4276578818792 -328.0016791975948 0 0 0 0 2818.6023051188931 694.56094700332653 0 694.56094700332653 -279.21118522963508 0 0 0 0 14.474017967986008 -6.9154531928185037 0 -6.9154531928185037 0.025684823932087375 0 0 0 0 5492.6223896658057 977.7692774382009 0 977.7692774382009 -268.46380236301496 0 0 0 0 21.53105936282688 4.0675368125202063 0 4.0675368125202063 1.7556275285528185 0 0 0 0 -19.795681255236559 -390.692509444454 0 -390.692509444454 1134.1290277504991 0 0 0 0 2401.581824389883 2706.9386243502895 0 2706.9386243502895 1610.3288541943004 0 0 0 0 5493.4217135552462 -573.852421731856 0 -573.852421731856 -873.34948355489541 0 0 0 0 2655.0237271813239 -1659.1058781793877 0 -1659.1058781793877 539.9907294252647 0 0 0 0 51.053152025044767 -4.9138715310167296 0 -4.9138715310167296 -4.1595248799129738 0 0 0 0 32.349493179508926 -10.305467570158342 0 -10.305467570158342 -3.9343705536054578 0 0 0 0 -19.795681255359693 10.22898895754069 0 10.22898895754069 -16.829061485670707 0 0 0 0 768.5399198445366 99.52309984034116 0 99.52309984034116 -664.40853392424594 0 0 0 0 33.692939955455216 -7.7751058136377527 0 -7.7751058136377527 -2.9876843404554201 0 0 0 0 234.38189391367905 -17.640806439582605 0 -17.640806439582605 -517.50231600396478 0 0 0 0 -24.461768451128592 -390.06101829961364 0 -390.06101829961364 -708.60298731612875 0 0 0 0 28.156804794462005 41.644756291347221 0 41.644756291347221 -275.80104846728318 0 0 0 0 252.79923768913613 255.10283481938927 0 255.10283481938927 -241.89765167841927 0 0 0 0 384.34872263512443 220.30841107155248 0 220.30841107155248 25.597733337266707 0 0 0 0 183.35785829107044 236.79330069034845 0 236.79330069034845 25.141874666386002 0 0 0 0 667.75490564149732 449.12518231645794 0 449.12518231645794 209.68199161148613 0 0 0 0 84.631407763281459 183.55745329504646 0 183.55745329504646 333.1308707928921 0 0 0 0 80.237048299099115 221.37572587531184 0 221.37572587531184 81.570671823327871 0 0 0 0 114.83282270106065 329.07056671700832 0 329.07056671700832 362.88601219011957 0 0 0 0 49.105371877056314 216.69533053193095 0 216.69533053193095 190.04371491659316 0 0 0 0 34.998106954881223 99.441153211429423 0 99.441153211429423 254.984870428379 0 0 0 0 34.900483893339697 118.53986844816103 0 118.53986844816103 167.43757936657198 0 0 0 0 61.949482426607574 103.28982194656123 0 103.28982194656123 98.519124843041538 0 0 0 0 88.640955945462338 161.35835916151876 0 161.35835916151876 86.067156693751244 0 0 0 0 67.645173250170046 212.52938329917606 0 212.52938329917606 81.059409544823779 0 0 0 0 71.57035667026139 259.5963968726852 0 259.5963968726852 -5.4791679695008497 0 0 0 0 85.272245210608162 172.62737511686356 0 172.62737511686356 53.754286276861762 0 0 0 0 6.7815454970132123 132.88707797483642 0 132.88707797483642 -103.25963249914412 0 0 0 0 122.19420369414911 110.19619516055172 0 110.19619516055172 -409.63773574910829 0 0 0 0 22.222758586067556 0.36547505119777535 0 0.36547505119777535 -0.11678341131630643 0 0 0 0 67.979311957526079 274.68369500256961 0 274.68369500256961 4.0396756584570994 0 0 0 0 8.065678483200216 -0.37869100463162297 0 -0.37869100463162297 0.093380191054776296 0 0 0 0 262.74415649361617 342.82375975348918 0 342.82375975348918 -11.472937042457943 0 0 0 0 172.17156496700045 211.29848080325542 0 211.29848080325542 -123.72674633251791 0 0 0 0 329.95578139669669 179.89975162520579 0 179.89975162520579 -158.54944952626579 0 0 0 0 168.96025390422164 186.13317522712833 0 186.13317522712833 -158.2002151568845 0 0 0 0 531.94567240857941 283.5705405599092 0 283.5705405599092 -160.64085439930068 0 0 0 0 -76.903394593033227 482.44613190687738 0 482.44613190687738 610.2014907105704 0 0 0 0 527.22718909172204 -142.10297774296538 0 -142.10297774296538 -223.1571882105959 0 0 0 0 55.741994375571366 62.414174345161484 0 62.414174345161484 -3.6260696585484986 0 0 0 0 -26.003714715585375 -15.466589511279381 0 -15.466589511279381 -70.710661323602721 0 0 0 0 145.46587747209924 57.451393256935148 0 57.451393256935148 -39.754589960605131 0 0 0 0 63.40131385267523 37.666548056534737 0 37.666548056534737 -14.694074666165761 0 0 0 0 23.832495716305857 70.400460881733522 0 70.400460881733522 15.153931234721654 0 0 0 0 165.51376407573116 117.99889007885042 0 117.99889007885042 -42.850840644912864 0 0 0 0 98.733962750351566 145.15350837420027 0 145.15350837420027 -25.21830243082411 0 0 0 0 61.842477154936205 105.67793532515134 0 105.67793532515134 82.941499105720368 0 0 0 0 95.433009930700791 91.297059804382343 0 91.297059804382343 53.4814385435036 0 0 0 0 99.838800435971734 66.953855109207865 0 66.953855109207865 8.3866650325848013 0 0 0 0 69.713456699191738 29.738363819486608 0 29.738363819486608 51.706164301409444 0 0 0 0 68.59104679173106 27.842903514545554 0 27.842903514545554 83.848019162933269 0 0 0 0 64.410961236826552 21.77426360448726 0 21.77426360448726 70.05961035639757 0 0 0 0 91.813701208888233 41.218395412939628 0 41.218395412939628 72.895616678460783 0 0 0 0 34.798433345815283 17.794377463200362 0 17.794377463200362 89.578452097549956 0 0 0 0 51.790341999549128 39.129559475779388 0 39.129559475779388 91.122230062168683 0 0 0 0 35.703106999757438 56.41154726862959 0 56.41154726862959 128.80932188181373 0 0 0 0 18.69180379575846 34.081486038563185 0 34.081486038563185 116.80185277919554 0 0 0 0 30.815110254534375 28.918422888664736 0 28.918422888664736 -26.714327092390107 0 0 0 0 -30.719848494019971 3.5855629403904459 0 3.5855629403904459 31.969600356809678 0 0 0 0 54.968216386201675 4.7212118145897648 0 4.7212118145897648 -3.9523203777825984 0 0 0 0 13.718468618829146 -4.5725355300048527 0 -4.5725355300048527 5.3389140281041705 0 0 0 0 48.687158105695005 -2.7911411430655275 0 -2.7911411430655275 1.0243238192332851 0 0 0 0 37.772353773487225 -206.22186540098613 0 -206.22186540098613 1212.422066678082 0 0 0 0 169.99738079036069 -124.22948499715176 0 -124.22948499715176 -43.161134163343377 0 0 0 0 61.638953552084786 6.6166360673612417 0 6.6166360673612417 17.859389380186258 0 0 0 0 13.646674188044926 65.973287718869869 0 65.973287718869869 -35.251192724437715 0 0 0 0 169.49263400808559 -50.02341477706068 0 -50.02341477706068 -123.24059915166572 0 0 0 0 35.267399413183739 18.145831294832988 0 18.145831294832988 13.269374171078198 0 0 0 0 81.765427596285008 -1.8966949429177475 0 -1.8966949429177475 10.030273737753305 0 0 0 0 41.426997954768431 -2.3643655904309853 0 -2.3643655904309853 7.0203684945624012 0 0 0 0 150.86874781156303 24.734957276123168 0 24.734957276123168 -13.222863775108635 0 0 0 0 -6.6057634406142824 49.310223774349424 0 49.310223774349424 -8.3603354478327674 0 0 0 0 14.290180080243029 -3.6152756351903186 0 -3.6152756351903186 9.2135487439065358 0 0 0 0 41.924842624550365 4.8993829904466111 0 4.8993829904466111 10.999099979720995 0 0 0 0 49.820258346129052 8.4062738239196477 0 8.4062738239196477 25.70704889992161 0 0 0 0 91.880958715579254 -43.897796366527018 0 -43.897796366527018 -23.826327821045197 0 0 0 0 105.54464027893397 1.5384513992230495 0 1.5384513992230495 -0.049606598845912231 0 0 0 0 50.974785442675213 -1.7425525336511729 0 -1.7425525336511729 1.1884842125475825 0 0 0 0 12.618144334223256 -2.4803707326558424 0 -2.4803707326558424 4.4824134435835443 0 0 0 0 51.176822988036292 -12.635470283677932 0 -12.635470283677932 27.915457089813572 0 0 0 0 23.996540627937065 -9.0012568423803714 0 -9.0012568423803714 28.292982136948012 0 0 0 0 22.734508755169372 -8.1009243242647244 0 -8.1009243242647244 27.885398318218904 0 0 0 0 14.469917718619399 -47.380084725978577 0 -47.380084725978577 39.003167245899022 0 0 0 0 -0.34924326465747413 1.3317221481981818 0 1.3317221481981818 1.7578475282430652 0 0 0 0 212.21747642664559 -86.331845121752394 0 -86.331845121752394 36.807815356462001 0 0 0 0 2.8858144400492165 -5.4038879462884779 0 -5.4038879462884779 34.205165904314526 0 0 0 0 42.384535699876793 -2.1469785920158539 0 -2.1469785920158539 -1.7316467978161816 0 0 0 0 31.341155647917958 -13.283798300179797 0 -13.283798300179797 31.769184098773621 0 0 0 0 115.83361465946746 26.719663609341978 0 26.719663609341978 -66.807105028394744 0 0 0 0 9.6564022675465822 3.9300482363189531 0 3.9300482363189531 4.7806678961078433 0 0 0 0 123.62586865124467 86.545828254123535 0 86.545828254123535 42.570560243668297 0 0 0 0 9.2859386840962657 2.5648067517696198 0 2.5648067517696198 -4.0209968856709519 0 0 0 0 -75.644097897142728 32.562144552047954 0 32.562144552047954 130.72456340201279 0 0 0 0 44.56728333285929 -3.6874175651056187 0 -3.6874175651056187 0.15419066422671612 0 0 0 0 -17.182643402426038 -36.265817247768155 0 -36.265817247768155 43.451123324124637 0 0 0 0 79.455169733839284 -49.271460545563741 0 -49.271460545563741 88.399454064455085 0 0 0 0 270.10662249945381 3.7293799876024423 0 3.7293799876024423 -96.531399088944852 0 0 0 0 92.793586852443696 46.055730233838403 0 46.055730233838403 163.3697636632908 0 0 0 0 27.180010444164509 59.134472943057801 0 59.134472943057801 188.28866085942764 0 0 0 0 28.748491441598162 10.405042326226067 0 10.405042326226067 307.26138862597281 0 0 0 0 -68.851536370937538 78.468290839417136 0 78.468290839417136 261.66738361677574 0 0 0 0 2.342096280772239 43.190139491137643 0 43.190139491137643 316.8930179723111 0 0 0 0 -247.085168514408 13.191797235594777 0 13.191797235594777 424.50099587318539 0 0 0 0 -28.757513097407355 187.0848545397298 0 187.0848545397298 445.6634521214728 0 0 0 0 476.4994552034841 127.32469083147558 0 127.32469083147558 499.98237606897499 0 0 0 0 137.15038876293147 340.89550166892457 0 340.89550166892457 702.2152967153454 0 0 0 0 15.363876256618823 107.23433919173249 0 107.23433919173249 669.45800680103525 0 0 0 0 90.342166054022528 4.3515675038527206 0 4.3515675038527206 89.678478286934705 0 0 0 0 342.22104086510808 -154.49514935535512 0 -154.49514935535512 186.80305717940792 0 0 0 0 -202.72993266551566 -196.73803772303518 0 -196.73803772303518 209.09589747030776 0 0 0 0 -62.963092828942649 -69.771938041024185 0 -69.771938041024185 24.020321110019722 0 0 0 0 32.713201454787111 -14.77781233482483 0 -14.77781233482483 1.5601461674259252 0 0 0 0 -222.89039275749747 -127.74570717635925 0 -127.74570717635925 -26.064725188105484 0 0 0 0 48.700206124179203 88.601721971495635 0 88.601721971495635 164.46009435396581 0 0 0 0 -38.905873953495757 -53.617215917382509 0 -53.617215917382509 90.151141840922264 0 0 0 0 -1.382939235893204 -6.3899928069372001 0 -6.3899928069372001 2.3780837619974622 0 0 0 0 17.100846044369064 10.340752667443098 0 10.340752667443098 -7.3201261718486421 0 0 0 0 7.7026992732135113 5.4296722096291887 0 5.4296722096291887 12.71721078202097 0 0 0 0 34.721582527320152 -6.7302070002326673 0 -6.7302070002326673 33.417535724101072 0 0 0 0 33.381888150821112 -5.4801202935471096 0 -5.4801202935471096 1.4419126596714067 0 0 0 0 41.806704047144194 -2.2694723646272905 0 -2.2694723646272905 26.560288762795608 0 0 0 0 38.137673169958916 13.963555477041536 0 13.963555477041536 10.336420227116864 0 0 0 0 33.846611050071196 -5.8291266300226514 0 -5.8291266300226514 -2.2435650144288246 0 0 0 0 7.5079462753419648 -186.07943559261184 0 -186.07943559261184 -179.64698946160388 0 0 0 0 320.61329716182081 -289.33311291576683 0 -289.33311291576683 -149.86207366353528 0 0 0 0 306.35255573047482 259.27544476890034 0 259.27544476890034 -250.86931333182565 0 0 0 0 -37.819022572970425 246.72217499237013 0 246.72217499237013 -242.07810062614317 0 0 0 0 32.816334413226514 14.422904611463506 0 14.422904611463506 13.958270132680241 0 0 0 0 235.82292878095541 63.448812545798773 0 63.448812545798773 -305.55171265892932 0 0 0 0 27.226548145923516 10.364408072102378 0 10.364408072102378 -12.047371476865919 0 0 0 0 876.39877870152225 -1325.2968979227767 0 -1325.2968979227767 1474.7026598403656 0 0 0 0 48.053458262378101 14.838276014508461 0 14.838276014508461 3.1716403002783897 0 0 0 0 34.01233858226442 55.557065754987661 0 55.557065754987661 27.930087844272748 0 0 0 0 43.058847052595212 7.6064805452070701 0 7.6064805452070701 4.2066343585237442 0 0 0 0 5.9925040273769152 7.9704063242460199 0 7.9704063242460199 2.7066617817059666 0 0 0 0 22.564857625927928 1.9963852274263878 0 1.9963852274263878 4.2732469432867655 0 0 0 0 2681.5762211612991 -2029.9895284335223 0 -2029.9895284335223 1726.0075158816055 0 0 0 0 3395.8143739998586 -519.40448167509021 0 -519.40448167509021 -582.993759197739 0 0 0 0 5493.0208628525661 -1636.3033489076684 0 -1636.3033489076684 -48.16513184016533 0 0 0 0 418.3284290563297 538.82185189869574 0 538.82185189869574 723.86972389245864 0 0 0 0 5480.3266969008082 -506.26118650304994 0 -506.26118650304994 -674.22965018194918 0 0 0 0 10.711525245987826 8.1238248420753205 0 8.1238248420753205 9.5840310701262013 0 0 0 0 -255.21500319009465 1108.4099053381669 0 1108.4099053381669 1821.2448909056966 0 0 0 0 727.5439451875427 -219.30268702151326 0 -219.30268702151326 73.128748593254898 0 0 0 0 200.68603780721423 101.72369071686056 0 101.72369071686056 1011.2525889474505 0 0 0 0 2144.8646664919443 252.29962465022038 0 252.29962465022038 237.45276526155988 0 0 0 0 783.56151244139619 740.9868481395963 0 740.9868481395963 912.17207719385749 0 0 0 0 5490.452376418245 2332.2814492666957 0 2332.2814492666957 391.42888020037702 0 0 0 0 2198.0791379358147 445.3070128948662 0 445.3070128948662 -376.36246471887506 0 0 0 0 107.68699297020794 -8.307370276035499 0 -8.307370276035499 -45.361676225815245 0 0 0 0 127.77948360032678 -25.496344366645872 0 -25.496344366645872 -44.938644975715988 0 0 0 0 123.28796075053106 -21.560068565776533 0 -21.560068565776533 -44.135639916619198 0 0 0 0 122.76250296949729 -29.614802529535382 0 -29.614802529535382 -71.038957371185461 0 0 0 0 221.27291743623209 123.64270861833756 0 123.64270861833756 85.296102204823001 0 0 0 0 79.004357601737723 -9.1479729213666161 0 -9.1479729213666161 -40.836517582025238 0 0 0 0 257.69577328710875 150.02358672097944 0 150.02358672097944 93.330055276009716 0 0 0 0 257.68996238490922 149.29990695479393 0 149.29990695479393 49.903739824698278 0 0 0 0 284.26720131288312 134.74585277939423 0 134.74585277939423 57.769495138003549 0 0 0 0 160.07414030883228 292.1684300656525 0 292.1684300656525 119.49795612388971 0 0 0 0 58.135157346066023 6.8585397985142862 0 6.8585397985142862 -54.670086822702729 0 0 0 0 91.780173127925082 -40.80070706916274 0 -40.80070706916274 -79.435506139932158 0 0 0 0 58.772782013729739 -7.4368577184032461 0 -7.4368577184032461 -38.94181948419282 0 0 0 0 34.676691479442525 13.622068530125262 0 13.622068530125262 -48.065640302535485 0 0 0 0 45.454187731995262 -36.220055531956575 0 -36.220055531956575 -74.046017677171676 0 0 0 0 52.082628734071477 -15.55275441276217 0 -15.55275441276217 -0.24660689755000931 0 0 0 0 102.08496331914648 -7.5002974315248139 0 -7.5002974315248139 -46.723647869120668 0 0 0 0 102.97753464079506 -13.693584059754755 0 -13.693584059754755 -3.9800913826284159 0 0 0 0 161.78488111907063 0.066720061078285653 0 0.066720061078285653 -42.96520730193788 0 0 0 0 161.0252900042251 -35.163532878059414 0 -35.163532878059414 0.71481817032258732 0 0 0 0 193.78042562805786 7.4331351762107261 0 7.4331351762107261 -12.768521409922869 0 0 0 0 233.18967522905587 24.579630286952806 0 24.579630286952806 -49.037708784871711 0 0 0 0 172.86793967391714 -16.232470350943004 0 -16.232470350943004 -20.409355405600536 0 0 0 0 89.551432556771033 62.038906889386681 0 62.038906889386681 -2.8077732126262163 0 0 0 0 179.0024819094906 52.024462556746244 0 52.024462556746244 -31.979166854919185 0 0 0 0 187.2620927044627 61.147708426683948 0 61.147708426683948 -43.496425733099841 0 0 0 0 90.13110887586663 103.85132280264452 0 103.85132280264452 -4.8095919120791493 0 0 0 0 160.14825080055743 52.056294986041166 0 52.056294986041166 -31.852494260041141 0 0 0 0 50.81995166505142 60.556977694031112 0 60.556977694031112 -8.3187304376708671 0 0 0 0 171.81058890218992 36.00958703524384 0 36.00958703524384 -9.9064767180893796 0 0 0 0 26.830661355070333 123.2186257699635 0 123.2186257699635 -35.056595634446239 0 0 0 0 122.36386237922125 21.485864099081027 0 21.485864099081027 -39.974643712872648 0 0 0 0 126.79064486103016 66.196617418841697 0 66.196617418841697 -66.97036714826686 0 0 0 0 167.80259362167271 -7.881286455500458 0 -7.881286455500458 -55.290287794949563 0 0 0 0 163.02373618867568 22.314437574626027 0 22.314437574626027 -43.380165289067918 0 0 0 0 169.97313279972877 26.603470981506121 0 26.603470981506121 -40.777417446950949 0 0 0 0 127.18402214824164 -22.142813135147804 0 -22.142813135147804 -48.816419616310213 0 0 0 0 80.848213320130753 -15.037607196014736 0 -15.037607196014736 -5.3361150445938348 0 0 0 0 107.57301670882407 13.208914746607093 0 13.208914746607093 -14.548643063350028 0 0 0 0 112.75789683152996 0.48617368684953455 0 0.48617368684953455 -4.313791472342313 0 0 0 0 168.45955182704347 32.654688168032067 0 32.654688168032067 -23.237247711653254 0 0 0 0 87.531595085565641 -6.0176659824275021 0 -6.0176659824275021 -22.335104394006521 0 0 0 0 100.32396593957674 -5.6581250830805061 0 -5.6581250830805061 -40.723831181744117 0 0 0 0 101.64110950864415 -1.7944523336959719 0 -1.7944523336959719 -29.49906375132332 0 0 0 0 69.355461107434166 -32.101458437389169 0 -32.101458437389169 -46.737196714877427 0 0 0 0 18.139573040673199 -0.62010597422845848 0 -0.62010597422845848 -1.451019266049598 0 0 0 0 57.781742398747156 9.4345281103911702 0 9.4345281103911702 -13.587613465879258 0 0 0 0 -15.14090445216425 36.651251394399651 0 36.651251394399651 81.250559853888035 0 0 0 0 150.25185664146557 40.817780739235786 0 40.817780739235786 36.723013007427653 0 0 0 0 203.50204750684497 11.465997077265911 0 11.465997077265911 -29.403239013380926 0 0 0 0 79.160265361152852 49.146332212521102 0 49.146332212521102 -12.405923191127805 0 0 0 0 115.39875953743831 -44.424332567753936 0 -44.424332567753936 67.948719471594814 0 0 0 0 37.723697926038525 24.826199165970536 0 24.826199165970536 -9.6837826112777083 0 0 0 0 69.986048155173194 5.9754001015589893 0 5.9754001015589893 -12.361445301143249 0 0 0 0 152.49535102059974 76.126956783331138 0 76.126956783331138 -39.478154576403142 0 0 0 0 108.72968190476604 -57.144481824221657 0 -57.144481824221657 120.71918141657079 0 0 0 0 11.692321207751824 15.347855135265016 0 15.347855135265016 -4.3082128406499676 0 0 0 0 88.765382188285002 -84.558985689638575 0 -84.558985689638575 157.33384060115895 0 0 0 0 76.702475968481622 824.01297034257095 0 824.01297034257095 -163.92745103111474 0 0 0 0 51.617185335897929 3.5518537085878013 0 3.5518537085878013 -0.63435727318190982 0 0 0 0 124.15453743593753 -96.262291984099647 0 -96.262291984099647 41.505164664831682 0 0 0 0 125.24161118846678 -104.98481617857033 0 -104.98481617857033 93.766379538668843 0 0 0 0 138.54277912038378 -149.45660646484976 0 -149.45660646484976 90.224634625639737 0 0 0 0 110.3236027094099 -139.00990065023143 0 -139.00990065023143 130.16848529055187 0 0 0 0 144.4471501809021 -133.24740637765899 0 -133.24740637765899 9.349854745734774 0 0 0 0 61.710527892781101 44.899891371145713 0 44.899891371145713 -99.706767917652087 0 0 0 0 121.87118607454249 -52.418696524055122 0 -52.418696524055122 7.544987705146923 0 0 0 0 115.52394425216335 -70.457891743286382 0 -70.457891743286382 -8.2707704903368722 0 0 0 0 138.21608870128148 -105.36075585707385 0 -105.36075585707385 15.60223740305446 0 0 0 0 163.23715783486114 -87.079880915536705 0 -87.079880915536705 27.555083758021283 0 0 0 0 152.19457078371488 -112.11107274097958 0 -112.11107274097958 38.307943092842834 0 0 0 0 126.05421688045681 -57.355951235564135 0 -57.355951235564135 -18.352990160226909 0 0 0 0 102.50207530284047 27.661128265460036 0 27.661128265460036 23.822250331077157 0 0 0 0 255.05072558681786 -74.606995145979454 0 -74.606995145979454 -16.944499363511568 0 0 0 0 156.63860218938498 -66.277544966005735 0 -66.277544966005735 -14.874385644805443 0 0 0 0 382.28209615363266 9.1984286658200745 0 9.1984286658200745 -26.166966626911744 0 0 0 0 207.67372343314855 22.766972292897208 0 22.766972292897208 -26.451396034435675 0 0 0 0 147.919217005463 -206.52599779225966 0 -206.52599779225966 -103.53770632687315 0 0 0 0 15.546641586517566 4.5231621623291662 0 4.5231621623291662 -4.7085637553653683 0 0 0 0 279.87739943091447 293.66158666024671 0 293.66158666024671 -34.44763669630629 0 0 0 0 262.20081505653161 -162.57006385917566 0 -162.57006385917566 60.714265713228087 0 0 0 0 225.45812039000884 114.94276455326599 0 114.94276455326599 -278.06984936224399 0 0 0 0 89.511906952800928 -10.42164422263113 0 -10.42164422263113 -56.562158293680113 0 0 0 0 59.935954351356486 -11.673069564481921 0 -11.673069564481921 228.44455527418722 0 0 0 0 -68.112964704341721 -19.563716367265442 0 -19.563716367265442 -42.289642330937568 0 0 0 0 -164.60343340540567 141.92630884047321 0 141.92630884047321 -66.943809996864729 0 0 0 0 13.58029332262144 -6.0521331996315197 0 -6.0521331996315197 2.3123649372118287 0 0 0 0 -17.925371579378407 18.421985813949505 0 18.421985813949505 23.839385931949437 0 0 0 0 28.349300443689572 51.597921553560809 0 51.597921553560809 -40.674224305057578 0 0 0 0 130.47201444374286 -7.0906158325971376 0 -7.0906158325971376 -7.2688540541598741 0 0 0 0 148.12569593209992 58.612581837135821 0 58.612581837135821 18.29048121193955 0 0 0 0 97.420395430068311 6.5092828534748151 0 6.5092828534748151 -21.585929877277721 0 0 0 0 68.720209097928347 -19.271805532072509 0 -19.271805532072509 -17.079310991343988 0 0 0 0 37.002113671229608 -11.305604090746094 0 -11.305604090746094 4.4141086734884425 0 0 0 0 67.016896808658203 -70.839400677157755 0 -70.839400677157755 103.21516470081951 0 0 0 0 156.43833084452672 18.583326026838222 0 18.583326026838222 8.9160102116384223 0 0 0 0 181.20380081718395 18.885047235187812 0 18.885047235187812 -3.2181495139527669 0 0 0 0 179.23571315995923 32.079018143587859 0 32.079018143587859 -16.731691992385095 0 0 0 0 241.31355722312219 57.385874167605607 0 57.385874167605607 -40.67815052508378 0 0 0 0 268.90774493562185 42.709460709892255 0 42.709460709892255 -42.426479968875356 0 0 0 0 255.63820431840213 9.5344232842599013 0 9.5344232842599013 -11.409007738251603 0 0 0 0 330.24307663992295 -29.823705024672108 0 -29.823705024672108 -171.31613578902216 0 0 0 0 308.00527443526516 136.71328952585736 0 136.71328952585736 -112.5811923715828 0 0 0 0 277.69249980104132 100.50324428002659 0 100.50324428002659 -12.884345696807031 0 0 0 0 278.94764307337414 89.932962720388431 0 89.932962720388431 -16.002921825342582 0 0 0 0 267.96702673183609 114.1541340316694 0 114.1541340316694 4.3175809190265682 0 0 0 0 239.54863881061465 61.031429006137841 0 61.031429006137841 -9.9948171402304524 0 0 0 0 230.43562567820481 66.477812063283636 0 66.477812063283636 -4.0123669160800546 0 0 0 0 193.06105111341458 58.721695036287201 0 58.721695036287201 30.776940846210891 0 0 0 0 206.99098953403154 86.484264442025733 0 86.484264442025733 25.381469188356732 0 0 0 0 68.886146159209673 -9.6891146687991068 0 -9.6891146687991068 -19.182673578935308 0 0 0 0 200.52990177820175 98.405396089306123 0 98.405396089306123 91.200574435064482 0 0 0 0 255.54287546612613 94.469992608776465 0 94.469992608776465 26.624120956289516 0 0 0 0 262.86907396931565 81.189560650288172 0 81.189560650288172 36.777748544673159 0 0 0 0 250.37510758342978 69.724127753862376 0 69.724127753862376 70.419539196371261 0 0 0 0 278.05529733088042 71.284605827826454 0 71.284605827826454 33.425614722816135 0 0 0 0 195.34182723894264 110.21978423325697 0 110.21978423325697 94.024267721844808 0 0 0 0 197.84451219109906 63.550007403869131 0 63.550007403869131 102.238709341289 0 0 0 0 276.48126375887296 47.690721420176033 0 47.690721420176033 84.41714208729536 0 0 0 0 102.68240627530199 -23.827510176286985 0 -23.827510176286985 -28.108457916197771 0 0 0 0 343.01198808915433 174.44769886224276 0 174.44769886224276 128.60540271892387 0 0 0 0 290.47021950347698 40.054703654357581 0 40.054703654357581 14.404396933219687 0 0 0 0 -9.8351216825310672 -30.821875699033381 0 -30.821875699033381 -1.9252539501131531 0 0 0 0 257.28522197610437 120.92647334887488 0 120.92647334887488 53.665888185616495 0 0 0 0 253.04776612020942 123.57809214743793 0 123.57809214743793 75.090897647310157 0 0 0 0 230.77449436744064 97.953356474660723 0 97.953356474660723 79.928953248370817 0 0 0 0 265.13763511905927 92.560882098338737 0 92.560882098338737 49.446313131486505 0 0 0 0 263.29314037786389 94.695280180509826 0 94.695280180509826 52.578166082107373 0 0 0 0 244.23767376852265 81.417318797858115 0 81.417318797858115 69.75039825463864 0 0 0 0 286.04153166119795 115.56277069208095 0 115.56277069208095 54.441398778603286 0 0 0 0 694.85307022388588 310.239326332872 0 310.239326332872 -305.92472117279431 0 0 0 0 5.6614495669867324 -2.3001265066857286 0 -2.3001265066857286 -11.158977742933484 0 0 0 0 308.19700141984504 -42.599490717236385 0 -42.599490717236385 6.9567905476848377 0 0 0 0 249.38220404481399 128.78452396173816 0 128.78452396173816 70.206065518047353 0 0 0 0 268.23894151666173 108.1962852960819 0 108.1962852960819 61.070432799490845 0 0 0 0 5.6834397437945938 -3.7059010894215305 0 -3.7059010894215305 -8.021798060845363 0 0 0 0 308.78784263558919 155.68967754769074 0 155.68967754769074 2.9156909052180708 0 0 0 0 293.21217184027046 -86.87745295526679 0 -86.87745295526679 -118.39715441123917 0 0 0 0 404.43091650884162 10.116392367032859 0 10.116392367032859 -248.59830884600069 0 0 0 0 367.36875363108993 46.014446196769086 0 46.014446196769086 -32.587491367559778 0 0 0 0 -7.2422567452950801 7.8247132402772337 0 7.8247132402772337 -31.67204605377092 0 0 0 0 322.58024908068182 4.8302657697691878 0 4.8302657697691878 -68.454606995027902 0 0 0 0 -219.14028802386747 -155.7567772960856 0 -155.7567772960856 190.36708675408067 0 0 0 0 -63.243707305155112 110.32542889118872 0 110.32542889118872 7.9691997252853071 0 0 0 0 2140.3650079764266 139.97928627486317 0 139.97928627486317 -436.15438756984577 0 0 0 0 622.97645557300712 -900.5143754419978 0 -900.5143754419978 1185.2465346068529 0 0 0 0 625.41651393602933 57.747195878554379 0 57.747195878554379 -213.5200595758788 0 0 0 0 593.24230320699326 405.08230523190855 0 405.08230523190855 -380.75562297128818 0 0 0 0 1133.6751539437537 328.14889621294242 0 328.14889621294242 -496.53699542867889 0 0 0 0 5.7342558840537095 489.34626678494169 0 489.34626678494169 -35.21861457759087 0 0 0 0 331.69576130271889 -298.95420261432241 0 -298.95420261432241 -673.95631666094596 0 0 0 0 1142.9363132044236 759.06298056208288 0 759.06298056208288 -163.07510063790414 0 0 0 0 956.54828125044878 245.1043484915549 0 245.1043484915549 -372.57891519217173 0 0 0 0 1017.7970013349677 382.19050240626632 0 382.19050240626632 -290.22218550653088 0 0 0 0 1071.424294628494 193.49668678377111 0 193.49668678377111 -371.58222214590592 0 0 0 0 509.17704102138669 -178.48771315470708 0 -178.48771315470708 254.58234075753535 0 0 0 0 1075.5002489696271 -550.78685353147739 0 -550.78685353147739 167.64833322297181 0 0 0 0 1065.6034738632152 224.74750947579469 0 224.74750947579469 -449.87776910083448 0 0 0 0 2061.2868427195062 -308.24319854253736 0 -308.24319854253736 -414.29366895386585 0 0 0 0 1356.2661242754984 -967.65097574601168 0 -967.65097574601168 484.84150462827347 0 0 0 0 -602.98234567964391 68.011091257246335 0 68.011091257246335 -124.18605361406117 0 0 0 0 2.0023289020400128 -1.2016584683629077 0 -1.2016584683629077 -12.755271820675214 0 0 0 0 554.4969567025546 11.118168597680778 0 11.118168597680778 -590.91541267253842 0 0 0 0 4.519748181108298 -189.07774229404549 0 -189.07774229404549 -217.61520583533638 0 0 0 0 209.09528707207937 796.39515748108579 0 796.39515748108579 -366.18815692939552 0 0 0 0 -306.49128555703555 415.6427853919098 0 415.6427853919098 760.09060131085607 0 0 0 0 1600.8598783213747 578.56671282826483 0 578.56671282826483 -617.58801153397508 0 0 0 0 -344.40084104115522 601.56749224869964 0 601.56749224869964 200.92408562890705 0 0 0 0 -236.68786525906762 350.77725634008311 0 350.77725634008311 413.32800295235756 0 0 0 0 4.3598193744448537 -2.4068578937902885 0 -2.4068578937902885 -7.5570187214358739 0 0 0 0 -56.245922742855328 -7.9213551024768094 0 -7.9213551024768094 63.665518422687455 0 0 0 0 76.315362985871616 -52.148576060964842 0 -52.148576060964842 72.708016599910479 0 0 0 0 -145.60782993447356 31.279936854715743 0 31.279936854715743 795.32855920929251 0 0 0 0 110.16342377424735 -164.47078151724168 0 -164.47078151724168 435.86485207909027 0 0 0 0 -279.80946145373309 291.43511466201107 0 291.43511466201107 344.17010579758426 0 0 0 0 7.1864619464168982 7.6888469044818208 0 7.6888469044818208 21.101241399646959 0 0 0 0 1984.2595411183866 617.02127016262602 0 617.02127016262602 1407.9231912758569 0 0 0 0 4296.2982886274949 -799.83918058367772 0 -799.83918058367772 -242.23374961634181 0 0 0 0 1182.5678330262745 -535.7706968313596 0 -535.7706968313596 278.58051620495462 0 0 0 0 1176.8711231436318 441.03734665645243 0 441.03734665645243 674.21378959738195 0 0 0 0 311.04959629329096 -266.80969819699021 0 -266.80969819699021 273.83777710495269 0 0 0 0 2490.5241402687534 -63.164505591222223 0 -63.164505591222223 -149.78709753912699 0 0 0 0 1169.4157440063136 -278.62912916844743 0 -278.62912916844743 195.13992598941513 0 0 0 0 912.24804616942492 455.06350596695415 0 455.06350596695415 263.20402774065951 0 0 0 0 267.38759414153174 -59.215042017169253 0 -59.215042017169253 79.805879170125536 0 0 0 0 2223.2325536394783 -841.91193986654071 0 -841.91193986654071 520.59433929966144 0 0 0 0 2459.6023185800295 -502.10359983095714 0 -502.10359983095714 -107.40563347245916 0 0 0 0 1870.2966071896517 -214.46245676360377 0 -214.46245676360377 274.046206292237 0 0 0 0 1915.3356009046183 -131.0205426116695 0 -131.0205426116695 -200.84263810710036 0 0 0 0 -186.47747437462385 298.30659542233661 0 298.30659542233661 207.57275990393282 0 0 0 0 869.10679552447982 -152.21822701247493 0 -152.21822701247493 221.48568991988759 0 0 0 0 950.16335439516479 37.524506925027026 0 37.524506925027026 -394.23686996205652 0 0 0 0 -11.349989628397452 327.93627884796842 0 327.93627884796842 102.0214822026046 0 0 0 0 991.79629019882123 203.75662563159767 0 203.75662563159767 -111.42665685347038 0 0 0 0 684.38653385316138 -132.57929904824118 0 -132.57929904824118 174.98546432552939 0 0 0 0 1502.8857262868478 -445.70492304441791 0 -445.70492304441791 94.466318569080613 0 0 0 0 1734.2341196437628 -104.72682353546543 0 -104.72682353546543 172.25361242212239 0 0 0 0 1906.2441762860981 -8.3797480155799349 0 -8.3797480155799349 194.45545888573997 0 0 0 0 2235.4882417628105 -265.23465884063421 0 -265.23465884063421 -424.51230107433912 0 0 0 0 1432.875463395394 -1451.7894013926466 0 -1451.7894013926466 273.99757673851127 0 0 0 0 2276.8627181971679 -796.79274342553617 0 -796.79274342553617 660.10238150119221 0 0 0 0 3122.4923257443734 -13.281608248262273 0 -13.281608248262273 118.0734625947207 0 0 0 0 19.612608412345338 8.4118787171335612 0 8.4118787171335612 3.0088325423298343 0 0 0 0 5.7772996043859166 33.685222904538705 0 33.685222904538705 -23.523017293262683 0 0 0 0 18.087449681785074 -4.1580703722579528 0 -4.1580703722579528 -47.842234066448214 0 0 0 0 45.429389363464196 30.522889418744612 0 30.522889418744612 -59.095894217946011 0 0 0 0 22.680440153295237 40.689788149486091 0 40.689788149486091 53.895554963220647 0 0 0 0 36.312451101770421 120.09800029396956 0 120.09800029396956 144.58738139379784 0 0 0 0 2440.1950512342228 -371.1568907338492 0 -371.1568907338492 -29.945880743493035 0 0 0 0 47.190704912088165 8.318624360232036 0 8.318624360232036 -0.86593369271615472 0 0 0 0 113.29340411635349 62.712381648916562 0 62.712381648916562 39.845475712911366 0 0 0 0 43.977439655835042 72.429821777304369 0 72.429821777304369 -71.788771656503741 0 0 0 0 207.35843525912787 5.6638398001541645 0 5.6638398001541645 -104.41036332611111 0 0 0 0 155.40671285815188 -99.152707151957657 0 -99.152707151957657 -41.0549433402266 0 0 0 0 25.118281635567769 1.3683916945362444 0 1.3683916945362444 0.44362747500042765 0 0 0 0 -306.20918158770655 46.840970046779148 0 46.840970046779148 461.00565951294993 0 0 0 0 69.98751292808447 90.891118613445542 0 90.891118613445542 -204.94679825779531 0 0 0 0 -444.58334872353589 454.00789040046948 0 454.00789040046948 208.59836183912921 0 0 0 0 130.38427534086804 22.754210662140849 0 22.754210662140849 30.577526172692842 0 0 0 0 32.501054124062648 -13.514060935966427 0 -13.514060935966427 18.520363102179545 0 0 0 0 8.0691090392065234 56.051803491248165 0 56.051803491248165 40.33232073864383 0 0 0 0 30.977898483424269 88.469567502896709 0 88.469567502896709 -16.135731973108705 0 0 0 0 51.282829392257554 25.017099279715012 0 25.017099279715012 4.0930788699442928 0 0 0 0 6.7510743469800687 26.53155293356852 0 26.53155293356852 2.8527277964686562 0 0 0 0 -7.27482498621292 22.747001137823915 0 22.747001137823915 4.5005938291498424 0 0 0 0 21.664474780067394 50.16514393399234 0 50.16514393399234 -8.7841896875784187 0 0 0 0 52.123086636966036 29.007954396666491 0 29.007954396666491 2.9604284828915013 0 0 0 0 -61.386256049576332 83.787350820012762 0 83.787350820012762 164.8462688947584 0 0 0 0 109.98218065292167 131.55198718969609 0 131.55198718969609 115.52137269165087 0 0 0 0 21.002070356116747 147.41646246157529 0 147.41646246157529 213.51458448372659 0 0 0 0 -4.0132816878099788 2.4258844649335876 0 2.4258844649335876 0.85309450344854199 0 0 0 0 55.953009438009758 65.630679315010639 0 65.630679315010639 42.619239237938018 0 0 0 0 -133.39939823735767 232.8803982131717 0 232.8803982131717 -343.2083117267739 0 0 0 0 47.556539058139606 21.072082764815605 0 21.072082764815605 -5.2191083155756814 0 0 0 0 18.142395162677985 21.077315434592371 0 21.077315434592371 1.3139487717215683 0 0 0 0 97.94611701588201 29.688879623363789 0 29.688879623363789 -15.204669440687212 0 0 0 0 8.5095262090117103 53.87962621614173 0 53.87962621614173 19.559303930687747 0 0 0 0 9.1722901074677594 1.6705647327067794 0 1.6705647327067794 -0.12505327120057075 0 0 0 0 -567.54226741912134 174.90719351155531 0 174.90719351155531 125.78447408780994 0 0 0 0 0.75520823173442153 4.1654705713117579 0 4.1654705713117579 1.1016877036417583 0 0 0 0 -239.78901193179627 469.97904312264473 0 469.97904312264473 77.131590774599317 0 0 0 0 265.06249049799226 -93.254487521950068 0 -93.254487521950068 -193.44275618416214 0 0 0 0 96.311574253231811 -16.600403321975591 0 -16.600403321975591 -33.814015343681149 0 0 0 0 447.06162640747061 324.62513070329896 0 324.62513070329896 -36.49562316034644 0 0 0 0 -805.96681071410421 -303.15053945719501 0 -303.15053945719501 560.1462253612508 0 0 0 0 -0.43833488866593484 -1.7247761304630984 0 -1.7247761304630984 7.6604181746361775 0 0 0 0 156.65670284260705 19.804482071046095 0 19.804482071046095 -33.903230622237061 0 0 0 0 -0.84477127707223687 -1.483464153005329 0 -1.483464153005329 -0.11229525933975992 0 0 0 0 -36.406007720324851 41.131557020905348 0 41.131557020905348 59.085747491675647 0 0 0 0 54.821746643676306 -23.382251824198647 0 -23.382251824198647 13.519519391513313 0 0 0 0 -42.394309262963361 -38.828969943221637 0 -38.828969943221637 25.906256151018169 0 0 0 0 59.80065009414102 -41.074356129600346 0 -41.074356129600346 -26.677937734009902 0 0 0 0 74.379891623029835 -7.4008257240802777 0 -7.4008257240802777 -10.703816843973982 0 0 0 0 62.965314888453577 6.4762946715163707 0 6.4762946715163707 24.143396343759832 0 0 0 0 19.197970184060978 -79.158025427890607 0 -79.158025427890607 -71.75073667316974 0 0 0 0 88.760311102407286 -25.647179125115144 0 -25.647179125115144 -48.872367419688089 0 0 0 0 -210.62920400636358 -148.91257709898127 0 -148.91257709898127 -32.309341985877836 0 0 0 0 -121.34169281067443 -237.46087597874975 0 -237.46087597874975 -197.55562918724718 0 0 0 0 63.496817549108528 -83.533998647566477 0 -83.533998647566477 -382.36879015220256 0 0 0 0 39.651552110852208 -29.739827024772694 0 -29.739827024772694 -82.600703610900382 0 0 0 0 34.076498616166646 -145.89532750692888 0 -145.89532750692888 -167.23378235245218 0 0 0 0 -27.334524912235793 -114.99926183832213 0 -114.99926183832213 -71.795762858098897 0 0 0 0 -3.8298901543894317 -67.155703803021424 0 -67.155703803021424 -16.715150317682856 0 0 0 0 -84.616793374938425 -150.01255668950944 0 -150.01255668950944 -74.240709268389992 0 0 0 0 -128.89467991306446 -81.083053207128614 0 -81.083053207128614 11.831889183584281 0 0 0 0 -86.851387567730853 -85.422651134496846 0 -85.422651134496846 11.067416961134086 0 0 0 0 -146.8909957963042 -50.580883456125775 0 -50.580883456125775 27.121427427193339 0 0 0 0 -86.901316118470277 -85.671384768993448 0 -85.671384768993448 12.018153268253627 0 0 0 0 -39.168799851700896 -75.196768471411815 0 -75.196768471411815 7.111596264410764 0 0 0 0 -85.147592953429921 -50.691559527473487 0 -50.691559527473487 26.778938235423993 0 0 0 0 21.169438827116892 -30.536220872088649 0 -30.536220872088649 26.161653901431965 0 0 0 0 -1.0703412784205284 -54.189438453680395 0 -54.189438453680395 19.91610362752607 0 0 0 0 -80.87734944719341 -66.287005353966379 0 -66.287005353966379 10.907441506078612 0 0 0 0 -50.208988597958523 -57.573465294217385 0 -57.573465294217385 -22.106196209133486 0 0 0 0 -53.016368159544072 -67.023689104580626 0 -67.023689104580626 6.2741646529248101 0 0 0 0 -207.29866804368794 -202.95638887961923 0 -202.95638887961923 -25.784773922052409 0 0 0 0 16.135399349794369 -17.099131718254455 0 -17.099131718254455 18.471067849612837 0 0 0 0 -13.175100795429898 -30.906464558920106 0 -30.906464558920106 132.01338243655027 0 0 0 0 -10.39020464116129 -47.931556109518326 0 -47.931556109518326 21.62589957622248 0 0 0 0 -6.5168412790735601 -53.623264876016151 0 -53.623264876016151 29.91551740976729 0 0 0 0 569.36112455790135 -888.2107290526319 0 -888.2107290526319 295.46431837602938 0 0 0 0 1.0153105783983563 -2.8036276080637634 0 -2.8036276080637634 4.075944757243871 0 0 0 0 97.759642723118304 -8.6180138919735327 0 -8.6180138919735327 -10.881150177756354 0 0 0 0 -18.038993471067442 76.657384560867854 0 76.657384560867854 46.925349572309642 0 0 0 0 82.370722138468409 42.270000839614113 0 42.270000839614113 27.151751642579256 0 0 0 0 285.14255722494272 -350.91903347155539 0 -350.91903347155539 -222.24412292358761 0 0 0 0 -237.72636298703128 63.876923790422666 0 63.876923790422666 167.5493475291878 0 0 0 0 133.61730045596778 85.753154714795073 0 85.753154714795073 210.99604604110391 0 0 0 0 374.92500455176923 -670.73119641827088 0 -670.73119641827088 472.45176238834733 0 0 0 0 719.25767181682022 -410.42788633908799 0 -410.42788633908799 367.94682554064184 0 0 0 0 -230.80385345424293 217.21650467862855 0 217.21650467862855 399.24519181526858 0 0 0 0 5.5127350155638055 -6.1267837025953185 0 -6.1267837025953185 6.624354963721462 0 0 0 0 -98.881690098172839 326.91696123496808 0 326.91696123496808 466.7470368554159 0 0 0 0 307.36018257391697 -420.52518122844685 0 -420.52518122844685 -1019.2139680703212 0 0 0 0 227.09623839969572 -1217.0968454030085 0 -1217.0968454030085 779.91186673188031 0 0 0 0 248.93394408550739 -108.77705879583709 0 -108.77705879583709 -273.7663244337532 0 0 0 0 122.63125551702902 -35.195844424618677 0 -35.195844424618677 8.1055880949686028 0 0 0 0 83.72887311399964 -23.883990222849583 0 -23.883990222849583 5.0237093528194006 0 0 0 0 575.05127339641331 120.19097160812362 0 120.19097160812362 -1637.8811482032365 0 0 0 0 72.653046047556927 708.32213796371207 0 708.32213796371207 -391.53245836438327 0 0 0 0 -4.5110259417197085 -230.50285741287053 0 -230.50285741287053 -122.83417200368785 0 0 0 0 54.550177773278847 -120.62911859688188 0 -120.62911859688188 60.134323053858452 0 0 0 0 80.247310544222273 -50.815302663176965 0 -50.815302663176965 112.93047875122102 0 0 0 0 -146.41190681754961 -206.65512151701932 0 -206.65512151701932 329.59881224808669 0 0 0 0 206.73304323414595 14.870864908132717 0 14.870864908132717 -143.63878802483214 0 0 0 0 144.50431967452732 -47.662994122200026 0 -47.662994122200026 10.96340310490954 0 0 0 0 26.946485335218313 4.3736195914154514 0 4.3736195914154514 -4.6913732385376754 0 0 0 0 83.119032944892751 -68.543883381927117 0 -68.543883381927117 -38.581019051136252 0 0 0 0 132.50612003348215 -36.557130319635689 0 -36.557130319635689 -13.932353827315069 0 0 0 0 122.83833077511008 -16.628148079979155 0 -16.628148079979155 11.021017556699917 0 0 0 0 76.410344744916074 -33.397414884993623 0 -33.397414884993623 19.868449562890419 0 0 0 0 88.173124551976798 -26.381375710334851 0 -26.381375710334851 21.452600264909051 0 0 0 0 76.583076615742897 -27.023585202462662 0 -27.023585202462662 11.75174407297737 0 0 0 0 49.575922180698285 -44.579698932802714 0 -44.579698932802714 20.839787843854751 0 0 0 0 23.118305467084557 -4.170863548492207 0 -4.170863548492207 12.77493997943877 0 0 0 0 138.77960827893185 -25.827900137396227 0 -25.827900137396227 18.890209955781529 0 0 0 0 23.421902285602847 16.213872420641536 0 16.213872420641536 20.789708622854761 0 0 0 0 753.77116800795193 1211.4112943280452 0 1211.4112943280452 1913.1724634760394 0 0 0 0 823.72767017513252 -1837.9474441134407 0 -1837.9474441134407 -453.12665929378363 0 0 0 0 96.011345905554066 9.8708670163196555 0 9.8708670163196555 16.645093513815908 0 0 0 0 353.89618774120504 58.571776292746392 0 58.571776292746392 -44.522100417371348 0 0 0 0 112.10860016261631 -17.908442757069224 0 -17.908442757069224 27.264552531934896 0 0 0 0 197.03824214002998 -5.8511352846668387 0 -5.8511352846668387 39.319119721362767 0 0 0 0 24.954817436475484 1.7610314287711333 0 1.7610314287711333 -0.53931460280341526 0 0 0 0 -694.20195044876891 436.82402035085215 0 436.82402035085215 1514.126347801619 0 0 0 0 -961.57448111396661 -1730.9908021421525 0 -1730.9908021421525 5040.9812124043819 0 0 0 0 62.090434432767438 58.280153991524116 0 58.280153991524116 17.152587792072421 0 0 0 0 3696.3773150997731 -856.4628246861721 0 -856.4628246861721 -3255.7351838472823 0 0 0 0 163.61105625781784 -545.76268339388844 0 -545.76268339388844 1795.0887014112923 0 0 0 0 1358.4735586327006 -1701.5060103642909 0 -1701.5060103642909 1046.1374593342298 0 0 0 0 21.224319785423759 -11.285454311957867 0 -11.285454311957867 -7.3582237382241296 0 0 0 0 1997.2888291993524 -30.823160561389358 0 -30.823160561389358 701.37987960621467 0 0 0 0 1998.5872473619977 -614.05084544160468 0 -614.05084544160468 891.81369636305317 0 0 0 0 806.1826857716369 -79.527172784317372 0 -79.527172784317372 663.33291040968834 0 0 0 0 63.802152405107336 -4.4652377773363696 0 -4.4652377773363696 -158.99299268038885 0 0 0 0 63.526609931438244 -26.231258734786735 0 -26.231258734786735 -98.546750341330281 0 0 0 0 141.82393908591621 -196.14116723636471 0 -196.14116723636471 534.97753940841812 0 0 0 0 54.930178902839543 22.424317731427436 0 22.424317731427436 -157.05978229280299 0 0 0 0 45.740659676745764 27.637272460901791 0 27.637272460901791 -73.622273329670435 0 0 0 0 -95.691600745230971 -38.332388109202384 0 -38.332388109202384 -105.12520098126333 0 0 0 0 3.5377280433458509 -203.48380744070892 0 -203.48380744070892 -239.11890763886913 0 0 0 0 207.12619568989612 247.48281993421369 0 247.48281993421369 104.14704139542482 0 0 0 0 181.87298590287537 44.986613389568447 0 44.986613389568447 -216.11228782917328 0 0 0 0 1614.3379058569553 -1184.418114258453 0 -1184.418114258453 -33.288923922256799 0 0 0 0 116.84587036459197 301.85606056009829 0 301.85606056009829 109.15677933399274 0 0 0 0 20.587521481211624 13.668645097771929 0 13.668645097771929 -3.2543427631029331 0 0 0 0 1834.9507435924315 -767.04589687525549 0 -767.04589687525549 -767.06159347943321 0 0 0 0 1629.1785287703387 -276.33236776301055 0 -276.33236776301055 -1805.1850029777215 0 0 0 0 918.69298420564155 317.25976371330034 0 317.25976371330034 -960.27976821889752 0 0 0 0 9.0403548696261566 17.64432709493385 0 17.64432709493385 7.1333528983348931 0 0 0 0 1773.8698351362691 -648.72366177772165 0 -648.72366177772165 653.24128227420692 0 0 0 0 539.4873187713165 568.42345498533359 0 568.42345498533359 219.63658536857474 0 0 0 0 1351.8008524129546 682.70717540576152 0 682.70717540576152 -120.07446724765759 0 0 0 0 188.4758708482259 272.63195423873549 0 272.63195423873549 106.14397460863984 0 0 0 0 557.87421881328919 417.6003844513416 0 417.6003844513416 131.98150631945373 0 0 0 0 354.23562722513452 213.91968296127015 0 213.91968296127015 -44.631547817247338 0 0 0 0 727.44358372754505 273.6054023392162 0 273.6054023392162 -367.82791671860105 0 0 0 0 -26.384643373428844 -169.18921715450597 0 -169.18921715450597 -43.649168044747057 0 0 0 0 101.61213275496993 130.38817827567345 0 130.38817827567345 115.34759626844607 0 0 0 0 387.44597985813743 137.1099495363178 0 137.1099495363178 99.982096485656257 0 0 0 0 423.7758340339642 123.0137052394673 0 123.0137052394673 -7.1099226161386468 0 0 0 0 4.7014635030406993 -1.7474076055733221 0 -1.7474076055733221 -2.9928293432292605 0 0 0 0 408.46751245237647 183.69115989652164 0 183.69115989652164 52.99644712488589 0 0 0 0 428.43082248440987 101.17985549459854 0 101.17985549459854 -59.141289269708068 0 0 0 0 411.54163225684897 121.50307892229284 0 121.50307892229284 1.3856033843876503 0 0 0 0 405.67542000042158 58.334197620493796 0 58.334197620493796 -44.792596450370183 0 0 0 0 425.07124683713482 76.048405582301712 0 76.048405582301712 -52.424217038507777 0 0 0 0 338.12016303855671 47.383346790355176 0 47.383346790355176 -31.572057604709698 0 0 0 0 347.44785247032996 84.047379200341311 0 84.047379200341311 -17.636084927366028 0 0 0 0 601.67483343897766 57.146496243838556 0 57.146496243838556 -311.05759653194036 0 0 0 0 493.78950465937669 154.54190632669088 0 154.54190632669088 -25.02666568720997 0 0 0 0 573.55564862062602 83.586142227086384 0 83.586142227086384 -142.40355768290101 0 0 0 0 463.25318846601294 21.063533723596265 0 21.063533723596265 -128.5702566579846 0 0 0 0 474.98421764622617 45.464114273157975 0 45.464114273157975 -77.817209107139206 0 0 0 0 486.47890525380353 -10.646711741568652 0 -10.646711741568652 -87.387837753934946 0 0 0 0 411.56676949677785 -118.11624747122187 0 -118.11624747122187 -218.8304653610212 0 0 0 0 -118.13008139767771 -290.37235538921777 0 -290.37235538921777 -69.033786086503824 0 0 0 0 328.32884457321779 -97.790679619196453 0 -97.790679619196453 -16.661189387361446 0 0 0 0 314.18945799730136 -90.452481340415034 0 -90.452481340415034 -20.355275238682225 0 0 0 0 317.98116751155067 -132.38254204615691 0 -132.38254204615691 13.83617249900999 0 0 0 0 500.07982664120937 -456.00875435006583 0 -456.00875435006583 -382.9343805258577 0 0 0 0 722.49079031874135 -74.385705236751164 0 -74.385705236751164 -215.05931781937988 0 0 0 0 115.80205119401217 -116.90465892173961 0 -116.90465892173961 38.83776885233965 0 0 0 0 48.907710890460294 -242.18325307593113 0 -242.18325307593113 -5.836983653750309 0 0 0 0 195.35870315384818 -53.169934036638097 0 -53.169934036638097 79.771442385728733 0 0 0 0 157.43192239635391 -195.40495586051838 0 -195.40495586051838 -5.2319269714458301 0 0 0 0 259.5064757138025 -111.58948571192195 0 -111.58948571192195 7.1811114737174648 0 0 0 0 195.15016039775219 -59.65663503704036 0 -59.65663503704036 75.056991688777998 0 0 0 0 29.214986847056863 -64.118874940059015 0 -64.118874940059015 33.712139026506534 0 0 0 0 15.475522000840371 3.4882935738209682 0 3.4882935738209682 11.58376206389201 0 0 0 0 217.27321269630193 -45.635099172247465 0 -45.635099172247465 85.434505990047001 0 0 0 0 224.47249783863663 -43.894987185927675 0 -43.894987185927675 78.689312470502045 0 0 0 0 0.19848209552583285 -57.012194329169688 0 -57.012194329169688 23.364421109652085 0 0 0 0 11.794708835425403 -1.9860437061249172 0 -1.9860437061249172 13.959845842908557 0 0 0 0 -4.884613616290153 -52.229375371888864 0 -52.229375371888864 18.919777258137628 0 0 0 0 7.3243797615640851 -41.359733170512385 0 -41.359733170512385 20.932857702880067 0 0 0 0 92.678501597572904 -23.437505545728527 0 -23.437505545728527 20.048378563402366 0 0 0 0 147.81858341939369 14.291134433932712 0 14.291134433932712 7.0050439784754417 0 0 0 0 227.77434172288486 -121.39539848207733 0 -121.39539848207733 68.790962386141473 0 0 0 0 1747.8506029383861 -460.63818090961468 0 -460.63818090961468 -1137.8183234573698 0 0 0 0 95.560270467074588 -650.67832480273501 0 -650.67832480273501 -472.05798530399989 0 0 0 0 155.49078284937968 -401.15201073034018 0 -401.15201073034018 578.8596308751379 0 0 0 0 56.857695221671293 -107.05768844055956 0 -107.05768844055956 -83.911042861204407 0 0 0 0 107.05328212781629 -60.955810922701524 0 -60.955810922701524 29.201019499003475 0 0 0 0 317.15944079782366 -405.56143361540489 0 -405.56143361540489 -596.52132623186071 0 0 0 0 73.80548984276993 -102.7421069111183 0 -102.7421069111183 -232.73854804819712 0 0 0 0 1480.597435413365 -326.50335700758205 0 -326.50335700758205 -266.34910739665793 0 0 0 0 596.34488184219299 -243.22560435748892 0 -243.22560435748892 -222.14174661255583 0 0 0 0 823.72012304126292 608.71077215582181 0 608.71077215582181 260.84312497639621 0 0 0 0 504.91283395051869 189.45563742806735 0 189.45563742806735 -290.49941541047747 0 0 0 0 -221.64053814730869 666.8855031430021 0 666.8855031430021 -166.96268359179157 0 0 0 0 -1290.6062034719289 267.13451382444282 0 267.13451382444282 24.965791031243043 0 0 0 0 10.843475193933955 252.06786758887415 0 252.06786758887415 -193.85970971501592 0 0 0 0 -10.41784597586593 312.76751699704073 0 312.76751699704073 -148.7201288097931 0 0 0 0 90.975721894101298 468.58666877366522 0 468.58666877366522 -157.44749364393283 0 0 0 0 723.36658547531351 360.19438866907444 0 360.19438866907444 -321.01081943630197 0 0 0 0 145.58374551408997 176.05642884193549 0 176.05642884193549 -336.72634607882355 0 0 0 0 353.2370131100688 132.2114354618443 0 132.2114354618443 -337.76529527565799 0 0 0 0 -180.03554941809489 85.572467140819754 0 85.572467140819754 -113.17198350262515 0 0 0 0 13.570023278138251 64.652582622582486 0 64.652582622582486 -158.64995080303197 0 0 0 0 -11.029834725606634 -36.691575325463873 0 -36.691575325463873 -76.994265794341118 0 0 0 0 67.697133990070142 38.382357272877471 0 38.382357272877471 -63.337243401915998 0 0 0 0 14.153124192687937 13.440654516472421 0 13.440654516472421 0.69109524833914548 0 0 0 0 53.552218693584422 -6.9806533551214223 0 -6.9806533551214223 -54.155468394012779 0 0 0 0 -10.789923850432388 -180.01129440261047 0 -180.01129440261047 -143.82080114443306 0 0 0 0 27.197947228966548 -35.03867885074667 0 -35.03867885074667 -54.515701241594783 0 0 0 0 -53.30565323241899 -36.79433356345271 0 -36.79433356345271 -44.99762698554332 0 0 0 0 -39.12464303120214 -74.578489447016182 0 -74.578489447016182 36.185475667494757 0 0 0 0 -22.544641591943218 -67.317698415559789 0 -67.317698415559789 -137.54124424351255 0 0 0 0 -8.6759928919927916 -4.1605963171423355 0 -4.1605963171423355 -6.5820226099394858 0 0 0 0 -8.8412425767746754 2.3387987467158382 0 2.3387987467158382 -12.592557643927876 0 0 0 0 34.527268268265196 -39.294936591813183 0 -39.294936591813183 -29.399120288822758 0 0 0 0 163.26241953263525 1.0687854077286829 0 1.0687854077286829 7.1536993309800891 0 0 0 0 188.90150903983158 120.64703136512526 0 120.64703136512526 47.232136690358516 0 0 0 0 6.2684242126121745 -1.6980769946500516 0 -1.6980769946500516 0.85433283499617829 0 0 0 0 -20.930942984234207 -57.093235288153437 0 -57.093235288153437 -37.290386874105025 0 0 0 0 -1035.615483233687 -142.0226908767936 0 -142.0226908767936 1977.4381545620572 0 0 0 0 878.58515733572858 251.04855195904815 0 251.04855195904815 -653.26177203508689 0 0 0 0 -250.91130978314322 -635.01209098905656 0 -635.01209098905656 148.48950343724687 0 0 0 0 970.60760553480304 -546.37700935267378 0 -546.37700935267378 -428.07366491721211 0 0 0 0 -36.266181239210709 -716.98726082254143 0 -716.98726082254143 139.39547683877117 0 0 0 0 -462.47057278029024 -541.67589249554942 0 -541.67589249554942 94.744478812164289 0 0 0 0 113.44329071507673 -38.265724165393294 0 -38.265724165393294 -693.77552477411018 0 0 0 0 -221.36429540569361 227.41273737073817 0 227.41273737073817 -614.04430738478095 0 0 0 0 5.7790923100122598 -15.93267210329789 0 -15.93267210329789 1.6017611775901619 0 0 0 0 1901.8193244256327 -1654.6616055988288 0 -1654.6616055988288 618.44255515931491 0 0 0 0 149.03601893092491 -75.459202629350784 0 -75.459202629350784 -709.80535514942221 0 0 0 0 306.51590204019158 63.868054018398652 0 63.868054018398652 -437.02274877169384 0 0 0 0 440.80970080528095 -387.89824400899215 0 -387.89824400899215 883.02540636400227 0 0 0 0 -68.200972392185577 166.48782105426687 0 166.48782105426687 139.28971210958616 0 0 0 0 1428.6744453346164 -889.47710999019023 0 -889.47710999019023 -340.95381106323265 0 0 0 0 -204.86848053736958 1666.1445356546083 0 1666.1445356546083 175.33046626653118 0 0 0 0 3.546217934594516 -3.4571479566279031 0 -3.4571479566279031 4.0835197816656876 0 0 0 0 566.03718979182304 1177.392595224678 0 1177.392595224678 412.72598612840579 0 0 0 0 -318.59622081133602 -732.03215756064139 0 -732.03215756064139 34.426277446313634 0 0 0 0 5.0979053742077625 -4.8872884309740172 0 -4.8872884309740172 6.3260002800518258 0 0 0 0 -134.89358537997032 -645.65346610290362 0 -645.65346610290362 -11.323365162720165 0 0 0 0 8.8645964943391746 -6.2218440610540586 0 -6.2218440610540586 4.5776905065138891 0 0 0 0 896.25385895444197 -810.18992926385135 0 -810.18992926385135 544.51249292241323 0 0 0 0 141.83423505376049 133.148373354368 0 133.148373354368 -123.66418502518559 0 0 0 0 87.603280554718367 118.78606620178448 0 118.78606620178448 -124.51949707069755 0 0 0 0 14.144319499253154 -9.6472817722147184 0 -9.6472817722147184 2.8050715614017299 0 0 0 0 353.45870574800938 222.08323775649819 0 222.08323775649819 120.65242922645953 0 0 0 0 169.85914168979434 -17.939884698196238 0 -17.939884698196238 -405.99596453398226 0 0 0 0 39.498497339709175 -31.450483690063365 0 -31.450483690063365 24.267842520352929 0 0 0 0 201.87760065123439 72.826934728826473 0 72.826934728826473 148.07968519974315 0 0 0 0 138.7299807502186 8.8695153320268219 0 8.8695153320268219 -197.17293461374538 0 0 0 0 -132.47539642473475 93.03396637959122 0 93.03396637959122 -220.19134597034463 0 0 0 0 353.01991015236854 414.12688664867528 0 414.12688664867528 -126.65236056927233 0 0 0 0 34.245564094861038 207.28625867686924 0 207.28625867686924 -212.37625086428852 0 0 0 0 553.16169306948359 78.262181342808617 0 78.262181342808617 -432.59814323050341 0 0 0 0 -121.53482148165494 -640.32516862876082 0 -640.32516862876082 136.2878975049407 0 0 0 0 13.273674719129303 -10.221404469056807 0 -10.221404469056807 8.8826741684774095 0 0 0 0 978.79937322038859 -505.73372629018468 0 -505.73372629018468 -117.24468158536274 0 0 0 0 -411.07206780802517 -40.961395527704553 0 -40.961395527704553 -235.52035365590064 0 0 0 0 -13.187141469912603 256.07594317108988 0 256.07594317108988 562.5797354525796 0 0 0 0 186.42351107391005 -94.793391716505312 0 -94.793391716505312 -13.032563665189855 0 0 0 0 118.51026663494086 -67.898711975080616 0 -67.898711975080616 -27.436613608041775 0 0 0 0 480.21880811013034 7.841779090816928 0 7.841779090816928 -97.945735789731998 0 0 0 0 244.27828392199444 67.818433153027399 0 67.818433153027399 54.105071569188112 0 0 0 0 264.1380604285805 29.03751638128233 0 29.03751638128233 23.416493397114209 0 0 0 0 178.00077542347299 -485.20745715202474 0 -485.20745715202474 -318.65073830865458 0 0 0 0 103.58934133215848 -58.610392681302386 0 -58.610392681302386 -39.100377231422847 0 0 0 0 827.20285304402205 938.53065577984353 0 938.53065577984353 192.16746791242258 0 0 0 0 1506.8174687637147 223.78325799515858 0 223.78325799515858 -988.40984148322559 0 0 0 0 14.571893425824483 30.807233746493509 0 30.807233746493509 31.229700298536937 0 0 0 0 15.764729585970599 -35.938872935275953 0 -35.938872935275953 46.289493918636254 0 0 0 0 213.25186894551734 46.073374808125209 0 46.073374808125209 -19.564840818467474 0 0 0 0 220.82170936423609 9.685628186818974 0 9.685628186818974 -19.947322797344896 0 0 0 0 304.94114313879982 -47.238721267203942 0 -47.238721267203942 -143.30042759013372 0 0 0 0 308.27213740590309 70.145626093435851 0 70.145626093435851 34.236370988772705 0 0 0 0 -225.99845914717298 -70.415728164687266 0 -70.415728164687266 277.57268260774731 0 0 0 0 -1390.2709956100207 -1467.9317237660905 0 -1467.9317237660905 1594.9215886554648 0 0 0 0 1075.0610920863328 178.90148755830273 0 178.90148755830273 -927.27740262053453 0 0 0 0 786.78081045748695 851.2210862548352 0 851.2210862548352 577.90872284392583 0 0 0 0 6.2101648314451783 32.349905067861741 0 32.349905067861741 -4.9634282282596249 0 0 0 0 217.70780557730177 87.174555580300876 0 87.174555580300876 -37.007698960172547 0 0 0 0 252.57787741480206 35.893957598566715 0 35.893957598566715 21.11418134343694 0 0 0 0 266.67522888489475 36.567727967557403 0 36.567727967557403 0.9904383754110313 0 0 0 0 -5.640104957163075 29.656648298170722 0 29.656648298170722 17.044896080678093 0 0 0 0 265.96272273418799 37.876685547523579 0 37.876685547523579 15.977066935922267 0 0 0 0 269.36263793589387 28.782802441657509 0 28.782802441657509 19.349618118255421 0 0 0 0 279.7222975119148 70.795594482701063 0 70.795594482701063 34.674571761987409 0 0 0 0 258.10536837303516 -38.091659806209464 0 -38.091659806209464 -155.37126257136424 0 0 0 0 420.03758466464933 135.17253715431525 0 135.17253715431525 -345.10674125301466 0 0 0 0 289.44890218540968 169.99031091071265 0 169.99031091071265 -70.104300562084973 0 0 0 0 280.95860028738753 -110.48567423377216 0 -110.48567423377216 -18.431580649227726 0 0 0 0 132.73470407155071 -74.829871270172873 0 -74.829871270172873 -16.818217368946026 0 0 0 0 33.589210244794486 -32.061082957637296 0 -32.061082957637296 -14.567779840525514 0 0 0 0 369.41557109885616 530.62297837814003 0 530.62297837814003 -1141.9327957627911 0 0 0 0 110.82704172701219 -0.26434542680383899 0 -0.26434542680383899 -0.14944449465234833 0 0 0 0 218.22426633953 -15.831186058475168 0 -15.831186058475168 17.983787139600508 0 0 0 0 218.43960049311136 -17.472105408862035 0 -17.472105408862035 0.86349614938853847 0 0 0 0 252.50324457994429 11.161916673746191 0 11.161916673746191 -15.648565696407331 0 0 0 0 183.04075494383324 22.108100882478112 0 22.108100882478112 85.612549710979692 0 0 0 0 173.19474669649935 -8.9159467047152248 0 -8.9159467047152248 56.819312311088652 0 0 0 0 154.11192620039219 -220.20614486973864 0 -220.20614486973864 -566.32131725043564 0 0 0 0 246.70058819696715 6.0519863244780936 0 6.0519863244780936 80.619696461029889 0 0 0 0 668.39338070995291 330.12233520938389 0 330.12233520938389 -407.64734508550282 0 0 0 0 581.17296141083352 -49.791559621700799 0 -49.791559621700799 -678.19495978913255 0 0 0 0 217.12253318805597 -8.2770727680508571 0 -8.2770727680508571 -189.03902812141314 0 0 0 0 300.37997430906398 107.39920434292799 0 107.39920434292799 -229.84600253569079 0 0 0 0 12.447582184390143 -9.2182366949586338 0 -9.2182366949586338 2.2056782480768788 0 0 0 0 182.95927483792184 108.39764779147117 0 108.39764779147117 284.65561348085612 0 0 0 0 173.97384738058463 -158.94094120561658 0 -158.94094120561658 -268.2071860169923 0 0 0 0 -115.28832718810008 155.12884832344389 0 155.12884832344389 -325.56800239154472 0 0 0 0 -56.419974319738685 -47.957645290774963 0 -47.957645290774963 -394.13660622920725 0 0 0 0 202.58065153373173 -13.497607527380751 0 -13.497607527380751 -168.22987841002396 0 0 0 0 -188.64019460041891 -77.111935276838267 0 -77.111935276838267 22.319083634080016 0 0 0 0 14.252993696950817 -9.559047894075789 0 -9.559047894075789 -5.2902786945511622 0 0 0 0 152.35008489064057 44.458305934811506 0 44.458305934811506 -67.633523051750672 0 0 0 0 237.68684634831152 109.79203044480892 0 109.79203044480892 -310.6688485079394 0 0 0 0 341.67131809296552 108.78540449166758 0 108.78540449166758 -618.17958988531609 0 0 0 0 231.02288199271425 -17.856940944593589 0 -17.856940944593589 106.11518163649862 0 0 0 0 219.89085024458473 -34.211715192637712 0 -34.211715192637712 100.59120232063651 0 0 0 0 251.01725599063502 -0.886624456968093 0 -0.886624456968093 90.550224582681039 0 0 0 0 71.042641225618496 -65.500744629705082 0 -65.500744629705082 46.404364421325994 0 0 0 0 227.10084201057907 -56.717733726348797 0 -56.717733726348797 65.140660367593227 0 0 0 0 260.88828303621267 -31.447298261464312 0 -31.447298261464312 78.744584779949946 0 0 0 0 260.57696510085952 -33.374331025553147 0 -33.374331025553147 66.940550287225051 0 0 0 0 264.23802106705261 -24.57095847232813 0 -24.57095847232813 64.805518960209156 0 0 0 0 264.02117347117746 -24.885359542082369 0 -24.885359542082369 70.723669162311126 0 0 0 0 274.51351835628157 -16.380077879461169 0 -16.380077879461169 56.688619138706599 0 0 0 0 281.69081303506391 7.2779599279811009 0 7.2779599279811009 64.014921065543604 0 0 0 0 341.50493482476395 -13.118926992565036 0 -13.118926992565036 26.848940565007069 0 0 0 0 301.90174621809274 -47.500133338964588 0 -47.500133338964588 0.84597638392369845 0 0 0 0 406.86041542612656 -12.318420127985519 0 -12.318420127985519 -87.407957092138361 0 0 0 0 342.48812629716303 -2.8497112237552074 0 -2.8497112237552074 -20.212565842477488 0 0 0 0 435.96419858198351 26.752292459111686 0 26.752292459111686 -44.058779022534509 0 0 0 0 431.30325825653563 40.127489565030373 0 40.127489565030373 -77.743123910170226 0 0 0 0 399.51257830522081 32.548321415294595 0 32.548321415294595 -44.958183148768967 0 0 0 0 419.20484454263351 67.511387981819098 0 67.511387981819098 2.1910930412959715 0 0 0 0 397.96775901723595 54.480670894864488 0 54.480670894864488 27.846028138197653 0 0 0 0 294.15462615961587 54.232997630281375 0 54.232997630281375 87.417371111330795 0 0 0 0 364.31846467143623 53.045411624024382 0 53.045411624024382 -36.882008916828454 0 0 0 0 364.72460809916083 53.953365276440309 0 53.953365276440309 -45.208075653217975 0 0 0 0 413.27022571035923 24.842740207479892 0 24.842740207479892 -65.295331683093536 0 0 0 0 431.83449767927232 48.511332086175571 0 48.511332086175571 -72.136415526691508 0 0 0 0 630.32825057210721 238.23910122844313 0 238.23910122844313 24.677507246653718 0 0 0 0 396.83057867099706 10.098428739562678 0 10.098428739562678 -83.004385241519458 0 0 0 0 402.48671344619652 70.596406263481384 0 70.596406263481384 -13.520184983344734 0 0 0 0 432.20109886203136 50.116830176365283 0 50.116830176365283 -2.410378390605274 0 0 0 0 329.3529132935073 141.21738754830437 0 141.21738754830437 216.2116451554748 0 0 0 0 248.3912497468491 37.057818578261248 0 37.057818578261248 83.76965030435349 0 0 0 0 469.49731143339886 99.066722489298627 0 99.066722489298627 -10.630017036245931 0 0 0 0 50.509704440165109 -36.892923250601704 0 -36.892923250601704 27.748321417834987 0 0 0 0 516.61111733700818 359.61112079591726 0 359.61112079591726 223.57928904189362 0 0 0 0 -67.684497458656551 -156.59372709843774 0 -156.59372709843774 -114.59984438243646 0 0 0 0 -388.58250421234698 -688.03086223203172 0 -688.03086223203172 275.51667433604962 0 0 0 0 545.97383208589599 18.008235210409794 0 18.008235210409794 -119.22645109387327 0 0 0 0 14.981970827967558 -11.915888336434392 0 -11.915888336434392 10.646354684995972 0 0 0 0 -302.03487351944932 16.28171830980358 0 16.28171830980358 -202.56506326472163 0 0 0 0 -290.38164476897509 -112.41125317346393 0 -112.41125317346393 -50.093035565443955 0 0 0 0 -213.77652908923483 -170.85335967701286 0 -170.85335967701286 -27.457076037999229 0 0 0 0 -130.69680058804806 -211.27105584344099 0 -211.27105584344099 -117.67346419072055 0 0 0 0 1057.1251776519966 -412.20485708720355 0 -412.20485708720355 -54.448287512179377 0 0 0 0 1.248684599340379 3.5598284563420037 0 3.5598284563420037 0.13486209061159826 0 0 0 0 836.61912064917851 -136.14447158272833 0 -136.14447158272833 -25.725482988229487 0 0 0 0 301.31584353797371 -426.89146931998766 0 -426.89146931998766 -77.040257415130327 0 0 0 0 569.47467247469467 -231.33530961170345 0 -231.33530961170345 -23.379788031481439 0 0 0 0 299.18226069258526 -327.56886399989526 0 -327.56886399989526 96.81469898801879 0 0 0 0 376.52207694630488 378.93218296252053 0 378.93218296252053 320.41514451921466 0 0 0 0 329.64358533872291 -277.34264591787723 0 -277.34264591787723 -21.089709710514398 0 0 0 0 -6.9330909168347716 -4.3787853161029489 0 -4.3787853161029489 696.47471914092966 0 0 0 0 7.4718499208439084 -2.2097979409840978 0 -2.2097979409840978 0.024803725425638135 0 0 0 0 269.93723060388584 -562.32005505580491 0 -562.32005505580491 60.035010588966543 0 0 0 0 -162.87806422353606 597.16207975200268 0 597.16207975200268 -250.0960061702965 0 0 0 0 472.00720758078387 -507.7165857808468 0 -507.7165857808468 -489.40919973360951 0 0 0 0 50.079599040967878 -346.32853792050446 0 -346.32853792050446 445.38339716714472 0 0 0 0 469.50637511539389 -372.49818682653131 0 -372.49818682653131 26.730832652036497 0 0 0 0 248.43714764826291 -109.72809886697814 0 -109.72809886697814 23.555437772578443 0 0 0 0 -68.177705383946886 -228.19155811455494 0 -228.19155811455494 131.61362642679524 0 0 0 0 -113.39085262951266 3.8118215758731822 0 3.8118215758731822 180.76265361472906 0 0 0 0 154.77420142553456 -69.890675025991413 0 -69.890675025991413 99.092371050464408 0 0 0 0 241.67231123245438 -37.304336001154979 0 -37.304336001154979 6.8263777007241515 0 0 0 0 403.0388952314097 -256.49283069378498 0 -256.49283069378498 108.94269145317548 0 0 0 0 459.17961073956394 -99.560288076951565 0 -99.560288076951565 116.17411616506706 0 0 0 0 492.4387458717174 -82.56003015055046 0 -82.56003015055046 -3.4270064748961886 0 0 0 0 205.44369586889661 -309.72848617236383 0 -309.72848617236383 228.95874115651895 0 0 0 0 -112.64012449386064 -107.66464068219955 0 -107.66464068219955 190.90738334296043 0 0 0 0 -5.695091036061072 3.739842859413443 0 3.739842859413443 0.91949423096271143 0 0 0 0 308.24602055555442 121.74121783208466 0 121.74121783208466 -94.721128239164955 0 0 0 0 74.159924497052998 474.80720564001473 0 474.80720564001473 1186.3597119644564 0 0 0 0 11.859906961035165 38.421262856322954 0 38.421262856322954 -21.476470869096747 0 0 0 0 384.79467368870246 49.261782248708414 0 49.261782248708414 -59.414000846565614 0 0 0 0 137.47906864422021 -237.13544944608813 0 -237.13544944608813 18.64292068911891 0 0 0 0 561.94033694107202 190.54453762190934 0 190.54453762190934 49.493759510253312 0 0 0 0 15.86087238683875 1.2672912702122829 0 1.2672912702122829 3.3142631909682674 0 0 0 0 571.40687553987664 -201.86044114059553 0 -201.86044114059553 27.033096823159667 0 0 0 0 594.04839271887613 -253.83287932204991 0 -253.83287932204991 111.78664024666159 0 0 0 0 -0.88644427791166436 10.365617557827454 0 10.365617557827454 0.56922676868799793 0 0 0 0 186.52076472446788 0.80723448345543147 0 0.80723448345543147 -236.29101402287927 0 0 0 0 89.334792515989875 -12.067508346819166 0 -12.067508346819166 -6.240867334456258 0 0 0 0 32.123581960163392 -95.424574420719324 0 -95.424574420719324 -163.22044819432722 0 0 0 0 36.283290124556515 -35.344388027424429 0 -35.344388027424429 -9.1945513287987524 0 0 0 0 23.35173155067605 -31.470646830916394 0 -31.470646830916394 -10.185859672562401 0 0 0 0 121.33186668796407 27.50406337750843 0 27.50406337750843 -40.691795484272234 0 0 0 0 38.108132298526471 -64.801975787724814 0 -64.801975787724814 -15.342737591037803 0 0 0 0 9.8177288727146106 2.7881707647397462 0 2.7881707647397462 -0.20874035884786757 0 0 0 0 147.93967693057493 -198.20380369535724 0 -198.20380369535724 -86.193868391469096 0 0 0 0 48.365676647794317 -150.1899089677795 0 -150.1899089677795 186.1082911048934 0 0 0 0 34.070927685010247 -66.269524838028701 0 -66.269524838028701 0.17534923489574794 0 0 0 0 83.884175435552606 116.50344246460236 0 116.50344246460236 -39.453987473789709 0 0 0 0 7.9222018933381264 -2.6271023565093863 0 -2.6271023565093863 1.0589172720019371 0 0 0 0 73.38966105966756 28.018500093971795 0 28.018500093971795 117.46969149464621 0 0 0 0 86.195700215503166 56.031858789517059 0 56.031858789517059 -130.94457884256371 0 0 0 0 25.562462535090503 -1.1286441762819663 0 -1.1286441762819663 -3.2347772446145555 0 0 0 0 143.53203972054712 7.2438867944891285 0 7.2438867944891285 -23.036632815505804 0 0 0 0 40.95321712171426 -21.426051010674655 0 -21.426051010674655 -14.632921785512735 0 0 0 0 66.252291587385116 -34.361359805630855 0 -34.361359805630855 -90.748863887078187 0 0 0 0 21.299731202044597 -73.403007094713729 0 -73.403007094713729 -1.4990686232929811 0 0 0 0 47.914391604801665 -24.830940534201282 0 -24.830940534201282 -23.907169687065245 0 0 0 0 93.251009048678611 28.30130607054241 0 28.30130607054241 -53.489868262125398 0 0 0 0 184.51884169183904 -41.435376351267223 0 -41.435376351267223 7.3117604720100644 0 0 0 0 176.32271068957925 -22.650288683125837 0 -22.650288683125837 -14.516031585325436 0 0 0 0 362.55066022852407 -39.338276753516993 0 -39.338276753516993 -83.281118652266741 0 0 0 0 199.25483711586276 18.723739337227926 0 18.723739337227926 -40.491937697776848 0 0 0 0 43.040338657554685 31.733143967482334 0 31.733143967482334 -29.166096473524348 0 0 0 0 262.25402683763241 28.973389956443498 0 28.973389956443498 -173.31417897746974 0 0 0 0 132.29124558141922 26.745950705482642 0 26.745950705482642 -26.080807055993272 0 0 0 0 29.376999293850787 1.2274072646550565 0 1.2274072646550565 -3.7607576308147834 0 0 0 0 234.47870981512824 42.937269296568502 0 42.937269296568502 12.62035710161399 0 0 0 0 125.77896359620561 36.167130445795138 0 36.167130445795138 -35.114676908213355 0 0 0 0 256.29607969175413 -4.9618095927027071 0 -4.9618095927027071 -9.5836709635514126 0 0 0 0 177.36586561358854 -56.87227307686544 0 -56.87227307686544 -0.48224852827297582 0 0 0 0 284.70323882607772 -103.66115473760829 0 -103.66115473760829 -84.281525920280728 0 0 0 0 20.162442351384016 -200.55632061895813 0 -200.55632061895813 -251.8009103995887 0 0 0 0 245.10062066779938 636.70578260868342 0 636.70578260868342 736.77744586866356 0 0 0 0 1442.0232636014407 993.68089982307026 0 993.68089982307026 -1073.185418297689 0 0 0 0 1083.7325304494734 72.885148113277864 0 72.885148113277864 -114.45219021023604 0 0 0 0 310.14888126871665 467.2477786549498 0 467.2477786549498 136.47611238138779 0 0 0 0 -64.40123441698961 -642.41678565474467 0 -642.41678565474467 131.13636281853542 0 0 0 0 375.60301021489431 -979.51865162732065 0 -979.51865162732065 367.41513270977885 0 0 0 0 73.878007460756223 -40.140778718405286 0 -40.140778718405286 -2.1752828193565925 0 0 0 0 1371.151645954953 639.90979004847372 0 639.90979004847372 37.346385834720422 0 0 0 0 46.63470494201465 315.06185476761584 0 315.06185476761584 650.22122444406705 0 0 0 0 128.06372081743029 126.16627611427975 0 126.16627611427975 -139.78771031951874 0 0 0 0 411.72091779514449 358.94498649546222 0 358.94498649546222 -211.52283221779362 0 0 0 0 293.96811264651478 373.5773268076191 0 373.5773268076191 191.184982865454 0 0 0 0 -7.3834555823123083 175.14960300264602 0 175.14960300264602 288.22622233688708 0 0 0 0 282.1751471003081 -150.13931768205657 0 -150.13931768205657 -14.372007941683478 0 0 0 0 914.59474196368501 -558.7069826698945 0 -558.7069826698945 218.58028327470129 0 0 0 0 5.7674526316841934 6.4362702232830244 0 6.4362702232830244 5.4848795051718255 0 0 0 0 20.546566109686474 -6.071520885947649 0 -6.071520885947649 -19.527564531636262 0 0 0 0 41.134166709016426 9.0227314630019464 0 9.0227314630019464 -7.7797002792831336 0 0 0 0 22.849509651508072 14.224326238114223 0 14.224326238114223 1.24684205412699 0 0 0 0 359.31142075243406 -6.8006809999187681 0 -6.8006809999187681 -16.701527676450496 0 0 0 0 96.782143782125786 58.324057872179765 0 58.324057872179765 -61.60497635622778 0 0 0 0 116.39474232514476 -42.530919447034194 0 -42.530919447034194 6.2694804648581339 0 0 0 0 175.21568118780851 32.157558864922976 0 32.157558864922976 -56.700650463768397 0 0 0 0 -2.2795802632788877 14.711993823955304 0 14.711993823955304 1.9228622415280361 0 0 0 0 286.73556563467719 171.42854437281062 0 171.42854437281062 65.83094759465348 0 0 0 0 57.811306383344345 -40.581909939310208 0 -40.581909939310208 -60.874296595794362 0 0 0 0 94.288508383059224 -9.5650533210486017 0 -9.5650533210486017 -6.5090173173239885 0 0 0 0 2136.89877256006 -309.79513041164864 0 -309.79513041164864 -923.04154340157311 0 0 0 0 38.06997363033588 -31.890321913524531 0 -31.890321913524531 -19.598898445665782 0 0 0 0 44.250645648775389 -30.877727755555497 0 -30.877727755555497 -19.575372493174456 0 0 0 0 68.867401129266 -20.704527529942936 0 -20.704527529942936 -38.153775253329513 0 0 0 0 24.644823537520182 -15.566545587652598 0 -15.566545587652598 -13.822663812606914 0 0 0 0 -98.197328074820689 -61.655251624789344 0 -61.655251624789344 -11.400646135583884 0 0 0 0 2.5009786504878662 -11.629534019445131 0 -11.629534019445131 -3.6279110828084917 0 0 0 0 15.681149321913836 -13.520107998915591 0 -13.520107998915591 -8.1122327299408425 0 0 0 0 42.811107944813557 -82.209143010426487 0 -82.209143010426487 -152.68766045170923 0 0 0 0 111.04927014388301 -69.395971569428582 0 -69.395971569428582 -2.9430829746176315 0 0 0 0 -208.0783646304335 -187.65699460332144 0 -187.65699460332144 44.444428324437467 0 0 0 0 191.54054743230517 -25.233193496580952 0 -25.233193496580952 -0.52574606618873077 0 0 0 0 -258.56372064253082 -60.054277423389067 0 -60.054277423389067 264.24653829974704 0 0 0 0 387.63559786944825 -207.57537275518916 0 -207.57537275518916 -239.43758034967504 0 0 0 0 208.33629285579082 -126.57739329989454 0 -126.57739329989454 107.04470162968846 0 0 0 0 320.94642182972166 -220.99339336279809 0 -220.99339336279809 135.20067944772745 0 0 0 0 3.2241794391496796 1.0704255731805503 0 1.0704255731805503 -0.6714235654309606 0 0 0 0 234.86628443123482 -282.15567420136995 0 -282.15567420136995 347.00186958213453 0 0 0 0 153.84111782927357 -217.64539365627934 0 -217.64539365627934 302.59596387675447 0 0 0 0 49.730194474890595 40.178218932722302 0 40.178218932722302 58.674272844340521 0 0 0 0 2.6172256904227034 -2.0285381518550594 0 -2.0285381518550594 1.5014694501627872 0 0 0 0 13.493562822440005 -2.1718365336572845 0 -2.1718365336572845 -5.3404639938881004 0 0 0 0 352.05355034458626 94.787889341181653 0 94.787889341181653 4.9140041606224258 0 0 0 0 -49.747922985336118 -9.3884141895492803 0 -9.3884141895492803 38.188286285061622 0 0 0 0 660.15320123289712 -238.30643316701935 0 -238.30643316701935 -22.404055934086614 0 0 0 0 456.92597142717568 -184.38955062191417 0 -184.38955062191417 222.56778720878538 0 0 0 0 414.53321080780006 -15.632245186727232 0 -15.632245186727232 -69.11992137067864 0 0 0 0 413.72618090285687 -320.03734425072071 0 -320.03734425072071 224.95709409322444 0 0 0 0 251.08415298594628 22.469512349694924 0 22.469512349694924 22.991312407380065 0 0 0 0 595.84110162760044 32.380482120755005 0 32.380482120755005 -3.1126439353047317 0 0 0 0 296.04643385195959 40.331220583733739 0 40.331220583733739 -50.574741978436577 0 0 0 0 373.48289863328682 15.552823671635451 0 15.552823671635451 -127.50261838729875 0 0 0 0 124.12205930321943 -70.613156240947319 0 -70.613156240947319 -1.3540501634506654 0 0 0 0 210.24862237650086 2.8705763638536155 0 2.8705763638536155 3.785871406456863 0 0 0 0 230.13679554739792 35.864678927187924 0 35.864678927187924 -48.538462914514639 0 0 0 0 87.076278143373202 -46.21020938806214 0 -46.21020938806214 -62.662379228864665 0 0 0 0 263.42881948588183 15.050019058765429 0 15.050019058765429 -98.294102185363954 0 0 0 0 186.42343851523765 -43.719666606366445 0 -43.719666606366445 -86.505562342452322 0 0 0 0 96.931760570838378 -142.91219367476174 0 -142.91219367476174 -132.33065489723958 0 0 0 0 100.28212130352154 -62.239456205834898 0 -62.239456205834898 -10.754098613991459 0 0 0 0 112.42419221720775 -100.71350449232978 0 -100.71350449232978 -91.536963194752389 0 0 0 0 103.68338607247654 -66.719788856996104 0 -66.719788856996104 -3.689534685197394 0 0 0 0 100.46276822047366 -350.25049398755982 0 -350.25049398755982 -122.11182233964064 0 0 0 0 148.04597234739049 -76.352381375565528 0 -76.352381375565528 -50.276948270884532 0 0 0 0 164.74737791725784 -46.647420294987569 0 -46.647420294987569 -2.1103356001950715 0 0 0 0 183.32107236211959 -66.823778543726348 0 -66.823778543726348 -90.100612677564641 0 0 0 0 180.37105437772698 -52.625946635528635 0 -52.625946635528635 -57.517759903690603 0 0 0 0 228.91918863369938 -53.350675584240435 0 -53.350675584240435 -135.47960904132742 0 0 0 0 225.00208207974356 -48.729097047906635 0 -48.729097047906635 -127.08381786832797 0 0 0 0 274.67132336409486 -3.6693116088609941 0 -3.6693116088609941 -127.23974864158663 0 0 0 0 287.66720923731918 -13.869687142234397 0 -13.869687142234397 -152.11112472366949 0 0 0 0 265.22140647438937 -49.062002189663872 0 -49.062002189663872 -163.96210983443143 0 0 0 0 252.63372067120508 -44.147418422924602 0 -44.147418422924602 -161.72277735879652 0 0 0 0 196.81831642863835 -161.13662423016285 0 -161.13662423016285 -271.96341808839497 0 0 0 0 154.64613378484501 -122.39666869402572 0 -122.39666869402572 -182.1740248917913 0 0 0 0 124.56009486587573 -99.809663091818038 0 -99.809663091818038 -129.67521564365961 0 0 0 0 14.031160956219537 -156.97033932367594 0 -156.97033932367594 -142.61223709730984 0 0 0 0 104.28074928598301 -54.070721038678982 0 -54.070721038678982 -18.335132341116555 0 0 0 0 -311.65447732806206 -610.67853784626641 0 -610.67853784626641 -416.45532319576887 0 0 0 0 -8.4027177264688362 -241.74052456770482 0 -241.74052456770482 -345.31754315809667 0 0 0 0 35.861306710456688 4.3945680127686728 0 4.3945680127686728 -16.419905690884278 0 0 0 0 214.85477507964242 13.828950488973533 0 13.828950488973533 6.7273471442867958 0 0 0 0 224.24892017814273 2.9095645467969007 0 2.9095645467969007 -29.709757471305238 0 0 0 0 274.24660148841213 23.20946910029852 0 23.20946910029852 -56.20307855734427 0 0 0 0 326.74128764262423 32.972177578140872 0 32.972177578140872 -29.930597183157715 0 0 0 0 189.37539511203067 7.0145471330974942 0 7.0145471330974942 -14.764403840907107 0 0 0 0 217.58994473502389 8.8581839120516292 0 8.8581839120516292 -27.404406814706022 0 0 0 0 209.57240643635123 19.512165562098133 0 19.512165562098133 -36.446779288936341 0 0 0 0 234.00835631121299 20.629312786504784 0 20.629312786504784 -32.508080354078629 0 0 0 0 42.733606532702979 -9.6643101643673504 0 -9.6643101643673504 -27.012959747349413 0 0 0 0 40.902663085598356 27.845818263012234 0 27.845818263012234 -39.700194461814263 0 0 0 0 243.11214511985963 0.80951918096218378 0 0.80951918096218378 -42.042954982371157 0 0 0 0 201.10848566680215 -31.957047360971956 0 -31.957047360971956 -31.283153194628539 0 0 0 0 194.39005652425112 -47.042624729341696 0 -47.042624729341696 -51.92227593887219 0 0 0 0 214.45786214852706 -31.446822967831395 0 -31.446822967831395 -49.987114278931699 0 0 0 0 215.24084742898776 -31.680949224572259 0 -31.680949224572259 -69.169704990184982 0 0 0 0 230.99785507201159 -13.180011842252497 0 -13.180011842252497 -47.564504871649206 0 0 0 0 254.84210935785086 4.5851321883583296 0 4.5851321883583296 -75.340494162953291 0 0 0 0 251.24693230864068 10.385489698814581 0 10.385489698814581 -84.57254081539395 0 0 0 0 247.91512364771916 -21.583905615233562 0 -21.583905615233562 -99.723950957333273 0 0 0 0 243.70809174544411 -14.764831624824637 0 -14.764831624824637 -106.24789095435699 0 0 0 0 285.66982509789523 15.505222817129834 0 15.505222817129834 -114.53293760047495 0 0 0 0 274.43228534830996 2.8818926737449146 0 2.8818926737449146 -124.72006092615084 0 0 0 0 275.70935901485063 29.947523941050804 0 29.947523941050804 -98.898614673667907 0 0 0 0 278.01105196733261 37.165035581152551 0 37.165035581152551 -85.556507260302908 0 0 0 0 275.07214508907055 42.064841848658034 0 42.064841848658034 -90.907915677680649 0 0 0 0 265.21789508340589 57.922284405504797 0 57.922284405504797 -49.986944221533122 0 0 0 0 275.71039063492208 28.376300422285567 0 28.376300422285567 -122.04191085927596 0 0 0 0 283.71014277101494 73.437766300652584 0 73.437766300652584 -94.089278097583701 0 0 0 0 23.076179583835909 -9.1378062901288502 0 -9.1378062901288502 -3.8564305151521836 0 0 0 0 272.74483034285367 45.231088430096406 0 45.231088430096406 -92.646055817051092 0 0 0 0 3.7169133210855136 39.012058810693446 0 39.012058810693446 -25.942732511840106 0 0 0 0 267.98070111605921 16.410369464376799 0 16.410369464376799 -44.774432350293864 0 0 0 0 257.79151155042928 26.149713530321151 0 26.149713530321151 -49.404423591462546 0 0 0 0 281.21024727531767 16.98967034317684 0 16.98967034317684 -55.625512140280989 0 0 0 0 214.07861625352234 -4.8440978749140413 0 -4.8440978749140413 -60.712735036067897 0 0 0 0 15.773786397146083 -10.873927855112669 0 -10.873927855112669 -36.090709857059352 0 0 0 0 215.41381402558181 5.4912969140596033 0 5.4912969140596033 -82.824103988457864 0 0 0 0 8.4881529391627879 27.451314742346653 0 27.451314742346653 -54.786972217682603 0 0 0 0 110.49150563555304 -9.0751547512653588 0 -9.0751547512653588 -24.721090719534004 0 0 0 0 292.07200498387101 17.807904953383513 0 17.807904953383513 -131.65751044853823 0 0 0 0 226.72401303978404 -2.2087371516263374 0 -2.2087371516263374 -82.255941622210401 0 0 0 0 184.48303338812548 -43.699441301095248 0 -43.699441301095248 -32.241807224246031 0 0 0 0 376.10856976779178 -65.091230433358305 0 -65.091230433358305 -88.851095906988121 0 0 0 0 187.76031841911026 -80.471496695895894 0 -80.471496695895894 71.951717780809986 0 0 0 0 336.81087302074957 98.437048136500835 0 98.437048136500835 -163.41783009762639 0 0 0 0 227.90819020244817 0.062678474428537356 0 0.062678474428537356 -116.49114000339796 0 0 0 0 149.06467960818554 139.57872643136216 0 139.57872643136216 -118.11572695000314 0 0 0 0 3.2000801118772984 1.5643743325860555 0 1.5643743325860555 -3.1910922731387501 0 0 0 0 587.40998842120462 106.96903729526127 0 106.96903729526127 44.61277891559439 0 0 0 0 63.80754937450547 75.888897548214572 0 75.888897548214572 -32.101815072286627 0 0 0 0 138.50078826995741 30.749525230229665 0 30.749525230229665 -8.5803023893040518 0 0 0 0 224.63637198353535 20.857473357795243 0 20.857473357795243 -93.639589707967389 0 0 0 0 238.76657871705538 47.724139075458652 0 47.724139075458652 -74.030281289082268 0 0 0 0 155.49648737523239 56.906548878251215 0 56.906548878251215 -72.54000312700208 0 0 0 0 214.78101908313693 11.073384935106731 0 11.073384935106731 -83.344573880955068 0 0 0 0 181.46126969103352 16.775368813677233 0 16.775368813677233 -43.749946616231682 0 0 0 0 189.51860512884741 8.6622340084420557 0 8.6622340084420557 -38.329505273216455 0 0 0 0 140.52834739602986 13.656949898707353 0 13.656949898707353 -12.477133148284793 0 0 0 0 135.18615061359014 12.013027713418978 0 12.013027713418978 -21.809890849371641 0 0 0 0 143.96511005351203 27.798879423929975 0 27.798879423929975 -35.870534298537677 0 0 0 0 569.29085195343214 36.394572167738716 0 36.394572167738716 28.605924056824733 0 0 0 0 41.638392011853867 -1.9453745876843698 0 -1.9453745876843698 -11.143770201123123 0 0 0 0 181.42455034606974 -27.64398506552061 0 -27.64398506552061 -9.0260858276719773 0 0 0 0 133.58091306814816 13.969318428360296 0 13.969318428360296 -16.372068195756231 0 0 0 0 177.96350075342707 -11.563079396108833 0 -11.563079396108833 -12.890010192078989 0 0 0 0 27.101739904150321 -65.63729040747117 0 -65.63729040747117 18.066083340375037 0 0 0 0 189.71064327404019 -21.33403664231173 0 -21.33403664231173 -4.3626551951583679 0 0 0 0 147.13688238406064 22.055955588662272 0 22.055955588662272 -16.252128643271394 0 0 0 0 128.14840139848093 16.790383992985426 0 16.790383992985426 -8.7567697136564675 0 0 0 0 175.28477703838143 52.839605880088129 0 52.839605880088129 -36.795755429702695 0 0 0 0 203.27997072528524 -9.02674846897321 0 -9.02674846897321 -17.944466077782636 0 0 0 0 387.76872706219001 73.422252842558009 0 73.422252842558009 -32.340658285844256 0 0 0 0 257.95306152077683 189.90003059295054 0 189.90003059295054 52.876865814965754 0 0 0 0 2.2138006293728107 -2.7133282045432168 0 -2.7133282045432168 -0.54850770012028249 0 0 0 0 401.69013682549121 120.52171615056068 0 120.52171615056068 109.00153264158052 0 0 0 0 495.90200741699664 17.512876779946055 0 17.512876779946055 62.36573589456566 0 0 0 0 567.66100298009405 50.348783463349264 0 50.348783463349264 14.511403191339923 0 0 0 0 556.47705921271699 34.042494704445744 0 34.042494704445744 73.518647713837709 0 0 0 0 627.53299162880285 94.205381660960029 0 94.205381660960029 8.7059629662653606 0 0 0 0 574.36576983291889 135.36032512942256 0 135.36032512942256 11.99624554969796 0 0 0 0 -22.331894546820365 41.06490350808923 0 41.06490350808923 40.882510193335946 0 0 0 0 371.08578559602756 146.11541058235821 0 146.11541058235821 42.446587412234294 0 0 0 0 429.99955314314866 129.94569497576572 0 129.94569497576572 -19.321764693725527 0 0 0 0 302.31818903010571 74.723809416424956 0 74.723809416424956 10.140492471222842 0 0 0 0 197.50114002740156 89.317147996282074 0 89.317147996282074 120.92375760550567 0 0 0 0 604.83504665482906 112.22133805846579 0 112.22133805846579 -6.0189544150580332 0 0 0 0 583.98612059201696 140.74389501402902 0 140.74389501402902 170.9229955308092 0 0 0 0 712.64198576923809 127.86816229078977 0 127.86816229078977 -116.85455048233689 0 0 0 0 747.9536928111047 199.9894359876796 0 199.9894359876796 -34.813970274195526 0 0 0 0 2.8497728180071604 45.305645989976398 0 45.305645989976398 43.846914235093635 0 0 0 0 124.42190610552436 -37.492916031829083 0 -37.492916031829083 -39.255585801088301 0 0 0 0 -48.881348681748932 13.238237891288918 0 13.238237891288918 56.317875725531849 0 0 0 0 89.339870664902264 -540.5598410665043 0 -540.5598410665043 -523.5749954572002 0 0 0 0 360.33260121635976 79.196169545448811 0 79.196169545448811 11.43858394293693 0 0 0 0 3.9189984763015673 1.7607557562748184 0 1.7607557562748184 0.3101597443530455 0 0 0 0 670.82908093216247 47.088891139876978 0 47.088891139876978 -332.0476970867785 0 0 0 0 404.78205982985673 404.09436883273156 0 404.09436883273156 12.537122574196474 0 0 0 0 -69.038328910886776 61.69693388073847 0 61.69693388073847 415.76350686148544 0 0 0 0 -88.175348256627331 145.28344950763312 0 145.28344950763312 51.449248914919281 0 0 0 0 -939.96399853255934 400.74484820410146 0 400.74484820410146 475.76143374525918 0 0 0 0 96.786903089819305 84.13067625652377 0 84.13067625652377 33.594584030563986 0 0 0 0 133.65292537029018 229.36207194590588 0 229.36207194590588 -56.580500778032274 0 0 0 0 232.19377912180425 -38.194560137363396 0 -38.194560137363396 -4.5351829278306468 0 0 0 0 256.16160838294309 -96.2817258396135 0 -96.2817258396135 -272.51725901663076 0 0 0 0 130.52518120443548 -34.381585452743607 0 -34.381585452743607 -39.164437252416029 0 0 0 0 1394.3585006303292 -687.07040515344261 0 -687.07040515344261 156.87175562558832 0 0 0 0 1575.0793701272341 -758.70352087001322 0 -758.70352087001322 -139.30321709843025 0 0 0 0 1251.4764761115002 348.37357093193879 0 348.37357093193879 -183.91596294929673 0 0 0 0 -226.21332360121596 1187.479731005913 0 1187.479731005913 -137.02111772800242 0 0 0 0 98.655744574362757 69.606317367041356 0 69.606317367041356 12.115386809137416 0 0 0 0 -339.5435536842997 737.98577900939949 0 737.98577900939949 243.92331679436745 0 0 0 0 545.64605494643911 -241.66144784189044 0 -241.66144784189044 -405.78787575729513 0 0 0 0 -273.79224913904181 -199.16887962541506 0 -199.16887962541506 -608.88082054474228 0 0 0 0 27.064598321114318 476.22271855009024 0 476.22271855009024 890.94186004584071 0 0 0 0 514.79934245036566 -258.39216241570284 0 -258.39216241570284 368.63556961085987 0 0 0 0 631.68464570766082 7.5026059604147122 0 7.5026059604147122 957.47762029989553 0 0 0 0 1473.9056569974928 -415.86040391335382 0 -415.86040391335382 854.70667260076766 0 0 0 0 720.70774182584137 93.167462593464506 0 93.167462593464506 -107.01415949616239 0 0 0 0 1005.4962690701068 737.35425539783887 0 737.35425539783887 1321.3051872277329 0 0 0 0 1031.3600880003069 657.10405498958426 0 657.10405498958426 454.13161103349285 0 0 0 0 3044.9260182676953 794.58765444138817 0 794.58765444138817 921.44197682816139 0 0 0 0 1911.7643790949951 -229.01642065589931 0 -229.01642065589931 125.69501868005545 0 0 0 0 1494.0338034205124 -178.6277281362818 0 -178.6277281362818 3521.8915108009423 0 0 0 0 4961.423531648994 -1342.4931161280811 0 -1342.4931161280811 392.92088183498981 0 0 0 0 478.65634509042138 304.55434318418611 0 304.55434318418611 435.58924388474315 0 0 0 0 3188.9057130994915 1701.3548819035818 0 1701.3548819035818 -59.085154873009742 0 0 0 0 3210.5668078016897 -1156.4023496118148 0 -1156.4023496118148 272.01042098502217 0 0 0 0 1885.5557130857487 -427.25976932476556 0 -427.25976932476556 -305.29515186102799 0 0 0 0 1242.5724214804359 179.32761191072404 0 179.32761191072404 -6.2884597826061963 0 0 0 0 2450.7360581309185 320.23981612478019 0 320.23981612478019 0.57162848353345908 0 0 0 0 1909.111235996781 -263.37620955717694 0 -263.37620955717694 -176.26324680080734 0 0 0 0 1853.9473675421614 -396.43225180034369 0 -396.43225180034369 236.92303723507928 0 0 0 0 1035.3954027405125 -924.19369234551255 0 -924.19369234551255 714.45960446326626 0 0 0 0 -489.45590564663871 -78.573328255547949 0 -78.573328255547949 628.01849330585173 0 0 0 0 650.22671448225447 -318.44853478643574 0 -318.44853478643574 72.535542418478144 0 0 0 0 -191.76981495926157 -186.1030677124113 0 -186.1030677124113 77.771258391720494 0 0 0 0 1191.7945780472201 -343.36129056026755 0 -343.36129056026755 -367.7460163126616 0 0 0 0 -1.0253412932026151 -0.43481369579318141 0 -0.43481369579318141 0.59715655745146812 0 0 0 0 1204.4218662078456 -284.74554879349239 0 -284.74554879349239 -322.76649335126649 0 0 0 0 1146.9951995339216 -330.24257310267649 0 -330.24257310267649 -358.7950576926844 0 0 0 0 341.00661339289218 39.473661354413252 0 39.473661354413252 -24.931387620500914 0 0 0 0 29.9414250820858 -3.0320508427525112 0 -3.0320508427525112 -8.1837151572658531 0 0 0 0 -337.57447151612723 66.212355996594397 0 66.212355996594397 -131.06329208107627 0 0 0 0 89.68372248133528 39.941812583285355 0 39.941812583285355 -160.55597318410491 0 0 0 0 -206.74598459349363 -372.38821053106403 0 -372.38821053106403 -72.977878942442373 0 0 0 0 23.745526213852543 16.267185265190719 0 16.267185265190719 1.2687876135025462 0 0 0 0 57.751821455218305 -295.64612107873063 0 -295.64612107873063 -220.28447133033706 0 0 0 0 366.69553428393556 192.4697027717516 0 192.4697027717516 -131.5965912062729 0 0 0 0 321.80146769416751 155.87751899550454 0 155.87751899550454 119.00200764133056 0 0 0 0 240.18788730132292 141.04841591479718 0 141.04841591479718 117.11019548810077 0 0 0 0 346.93615058525029 252.83265765779163 0 252.83265765779163 313.9533426517695 0 0 0 0 260.94051338094869 182.39576565317336 0 182.39576565317336 206.75820120116708 0 0 0 0 67.802061338941201 -12.583113498958724 0 -12.583113498958724 10.552514020235176 0 0 0 0 1206.0576946544461 -359.20588799262259 0 -359.20588799262259 -351.89969499445186 0 0 0 0 948.38349924255454 -473.85460292644996 0 -473.85460292644996 -136.51328368655277 0 0 0 0 1091.9037236017248 -325.00649167825895 0 -325.00649167825895 -196.00511551360285 0 0 0 0 1229.0483000962122 44.688150293638444 0 44.688150293638444 -123.34918221497628 0 0 0 0 1802.2704442518698 950.51698236350012 0 950.51698236350012 614.49763509920206 0 0 0 0 2534.0531385159265 -510.58196659219703 0 -510.58196659219703 -171.41488254557771 0 0 0 0 1353.6118389863987 -188.24172970080764 0 -188.24172970080764 -125.42287902418218 0 0 0 0 1312.8636838162784 -593.50895660956837 0 -593.50895660956837 -98.578601506882706 0 0 0 0 22.515101169756733 30.047150159092638 0 30.047150159092638 7.1159465835101345 0 0 0 0 807.83084308326215 -1329.4472943944029 0 -1329.4472943944029 1610.6211141488593 0 0 0 0 204.09568887508067 -129.50423751081564 0 -129.50423751081564 623.72669483030757 0 0 0 0 835.87880850240617 239.98374550598908 0 239.98374550598908 -67.254596288442826 0 0 0 0 2625.3952061508712 -701.89645217934117 0 -701.89645217934117 -608.73626352952033 0 0 0 0 2694.844340875251 462.0790136824765 0 462.0790136824765 -635.95082328942067 0 0 0 0 2002.1863824326574 -535.81781026827002 0 -535.81781026827002 -651.7736050707399 0 0 0 0 28.616802306718142 28.065440020113485 0 28.065440020113485 -13.470121460250892 0 0 0 0 259.86612230876563 343.58026829850064 0 343.58026829850064 -168.66508824579296 0 0 0 0 18.970101531020191 195.27373022557276 0 195.27373022557276 -237.10030762689848 0 0 0 0 22.178728646724267 -9.0970091270651068 0 -9.0970091270651068 3.1551781723934753 0 0 0 0 105.46901735471329 -0.75409828847466542 0 -0.75409828847466542 55.401756049613596 0 0 0 0 1157.4630676752713 -1040.892295271583 0 -1040.892295271583 67.24618127715803 0 0 0 0 1556.8355812568916 -382.46930313254779 0 -382.46930313254779 -171.43355347138913 0 0 0 0 610.60657509295561 -410.82433376685094 0 -410.82433376685094 208.44794707987285 0 0 0 0 1608.6066030630172 -54.336033477401998 0 -54.336033477401998 40.900881730250944 0 0 0 0 506.53508311437326 258.73208828129577 0 258.73208828129577 164.83862329275433 0 0 0 0 98.953765092679532 -110.83999056167227 0 -110.83999056167227 -137.1184447045548 0 0 0 0 -59.548533499000769 336.9336789249175 0 336.9336789249175 96.487518967653159 0 0 0 0 29.693666536329303 9.4154409542988304 0 9.4154409542988304 -2.7057994884641525 0 0 0 0 173.11326722803642 6.5713148490751792 0 6.5713148490751792 19.840851921109561 0 0 0 0 -6.3402056699568625 25.172541778735621 0 25.172541778735621 5.1964407025400892 0 0 0 0 5.743832880030098 23.980411255935664 0 23.980411255935664 4.0878991902712922 0 0 0 0 394.7715671611586 90.59824476834774 0 90.59824476834774 -220.3319156234802 0 0 0 0 -5.6686279776122319 40.398755054907454 0 40.398755054907454 51.34592793790307 0 0 0 0 122.17482357253357 36.920019568916814 0 36.920019568916814 5.6072494194522733 0 0 0 0 79.43438294545922 -46.559238611513592 0 -46.559238611513592 94.691286982543261 0 0 0 0 105.5116263901873 25.39583505878786 0 25.39583505878786 2.545589369708761 0 0 0 0 115.43908738812024 -78.502650562540254 0 -78.502650562540254 161.48803091216521 0 0 0 0 487.78370863532473 -75.130255490070425 0 -75.130255490070425 -11.557612900192964 0 0 0 0 249.70159744884586 17.584382370542244 0 17.584382370542244 23.589372912824274 0 0 0 0 254.75279701944964 -30.022672285266026 0 -30.022672285266026 -32.968316408841019 0 0 0 0 181.38862575031817 -32.334939537495757 0 -32.334939537495757 -27.418600596289707 0 0 0 0 220.33125318912789 -39.098497028502607 0 -39.098497028502607 -9.5097785022844619 0 0 0 0 181.52845039211343 -29.113725799112842 0 -29.113725799112842 9.114204092296859 0 0 0 0 241.65533357511231 42.917798963435189 0 42.917798963435189 -13.454938432572817 0 0 0 0 219.49127885652706 -68.737783764206142 0 -68.737783764206142 32.334570920614169 0 0 0 0 209.85482721617154 -27.492457693379038 0 -27.492457693379038 30.936586780104335 0 0 0 0 213.4079204761656 -25.40874691452791 0 -25.40874691452791 32.119600767277689 0 0 0 0 212.20893733107368 -33.936884369098152 0 -33.936884369098152 24.133133648662806 0 0 0 0 222.58413479943192 -28.863750119907536 0 -28.863750119907536 26.564020318390249 0 0 0 0 199.93120658517 -29.912401799273539 0 -29.912401799273539 24.852651299184799 0 0 0 0 180.41054523817729 -19.256736056076988 0 -19.256736056076988 27.572907899977508 0 0 0 0 215.361483598419 -14.287800169295224 0 -14.287800169295224 -3.5625766385182942 0 0 0 0 187.85764429721166 37.258149125819727 0 37.258149125819727 -33.603986885073709 0 0 0 0 159.92133136385382 -61.642622830833034 0 -61.642622830833034 26.156853089407377 0 0 0 0 245.25518732400815 -101.83480048512911 0 -101.83480048512911 11.739698495443008 0 0 0 0 203.81690922813141 -13.416559646260794 0 -13.416559646260794 33.936185334674519 0 0 0 0 -11.056782185169993 -14.030840537636127 0 -14.030840537636127 9.3802435044642927 0 0 0 0 189.28667026213952 -40.142287789994953 0 -40.142287789994953 66.990525194325528 0 0 0 0 198.56285930408922 -36.644359064673154 0 -36.644359064673154 10.399621623026178 0 0 0 0 298.43360018910607 5.4060191794842467 0 5.4060191794842467 21.398196966712931 0 0 0 0 54.560022211407691 6.1905166233940463 0 6.1905166233940463 -1.1551579553007159 0 0 0 0 38.207891449919622 -55.39999670922478 0 -55.39999670922478 0.011228877237840607 0 0 0 0 499.2232269844535 31.601353273612403 0 31.601353273612403 16.271592100063572 0 0 0 0 501.66124615992885 39.491058929796964 0 39.491058929796964 -11.999504973153307 0 0 0 0 367.60597183384016 60.191439006388464 0 60.191439006388464 3.6504038877938001 0 0 0 0 258.92494555552548 154.28240445139184 0 154.28240445139184 113.13640745495863 0 0 0 0 7.9600123068453215 43.397334324322998 0 43.397334324322998 42.280674231572561 0 0 0 0 77.326467554798 -23.88609755232028 0 -23.88609755232028 24.421386156089284 0 0 0 0 30.458839376181288 5.183374183118616 0 5.183374183118616 5.8960971534998841 0 0 0 0 35.362474437668396 44.310200803399894 0 44.310200803399894 5.5259940556159108 0 0 0 0 185.19998307277274 18.337984821341252 0 18.337984821341252 1.5267501455564343 0 0 0 0 280.89402027479082 1.4623157254457055 0 1.4623157254457055 -15.914800958299111 0 0 0 0 182.26508366396331 -9.6139696231997362 0 -9.6139696231997362 -11.466407017509667 0 0 0 0 100.77135262979857 -23.876333014025271 0 -23.876333014025271 -10.419477633164389 0 0 0 0 
</DataArray>
<DataArray type="Float64" Name="cross_section_updated" format="ascii">
1 1 1 1 1 1 0.012323402728866305 1 1 1 1 1 0.014368371157557742 1 1 0.011244748117725106 1 1 1 0.013289716546416572 1 1 1 1 1 1 1 1 1 1 1 1 1 1 1 1 1 1 1 1 1 1 1 1 1 1 1 1 1 1 0.020726564801027192 1 0.0097178327640067702 1 1 1 0.0070555018544761518 1 1 1 1 1 1 1 0.0086066570127696067 1 1 0.01409841047670881 1 1 1 1 1 1 1 0.012105258199820661 1 1 1 1 0.013986238419783137 1 1 1 1 1 0.011659470380582557 1 1 1 0.011888916504130875 1 1 1 1 1 1 1 1 1 1 1 1 1 1 1 1 1 0.011739376562860816 1 1 1 1 0.01131398793817491 1 1 1 1 1 1 0.013906716455863236 1 1 1 0.0098959624386400196 1 0.0099601175885809939 1 0.01368307332825159 1 1 0.010184682201929241 1 1 1 1 1 1 1 0.012515098296789248 1 1 1 1 1 1 1 1 1 1 1 1 0.010939679574403845 1 1 1 1 1 1 1 0.029346219890368765 1 1 1 1 1 1 1 1 0.011515179091169031 1 1 1 1 1 1 0.010064421522034741 1 1 1 1 1 0.014575070006397094 1 0.028145269101061646 1 1 1 1 1 0.025073239811490927 1 0.01131145255703208 1 0.010242907398095153 0.020798239022319455 1 1 0.017150225414560717 1 1 1 1 1 1 1 1 1 1 1 1 1 1 1 1 1 1 1 1 1 1 1 1 1 1 1 1 1 1 1 1 1 1 1 1 1 0.018934607155449076 1 0.019640131625479437 1 1 1 1 1 1 1 1 1 0.013012274980233648 1 0.015685720065069984 1 1 1 1 1 0.010019296763513723 1 1 1 1 0.016956523544590194 1 1 1 1 1 1 1 1 1 1 1 0.010126658643189859 1 1 0.01019108016522461 1 1 1 1 1 1 1 1 1 1 1 1 1 1 1 1 1 1 1 1 1 1 1 1 1 1 1 1 1 1 1 1 1 1 1 1 1 1 1 1 1 1 0.0063166571235753928 1 1 1 0.0086295357321918304 1 1 1 0.015414846622429975 1 1 1 1 0.013984487883121564 1 1 1 1 0.01994059259938815 1 1 1 1 1 1 1 1 1 1 1 0.020990395307005399 1 1 1 1 1 1 1 1 1 1 1 1 1 1 1 1 1 1 1 1 1 1 1 1 0.011726630623842701 0.018650293147108348 1 1 1 1 1 1 1 1 1 1 0.010512728044831752 1 1 1 1 1 1 1 1 1 1 1 1 1 1 1 1 1 1 1 1 1 1 1 0.01062163386367391 1 1 1 0.01018288872178362 1 1 1 1 1 1 1 0.01218294419627089 1 1 1 1 1 1 1 1 1 0.010438745141890299 1 1 1 0.013963863870876746 1 1 1 1 1 1 1 0.014745462858119535 1 1 1 1 1 1 1 1 1 1 1 1 1 1 1 1 1 1 0.0097066147052632182 1 1 1 1 1 1 1 1 1 1 1 1 1 1 1 1 1 1 1 1 0.0090667380790930788 1 1 1 0.0099602687071735294 1 1 0.0042555113761530462 1 0.013560214458123323 1 1 1 0.0096516207310576793 1 1 1 1 0.011211196649379373 1 1 1 0.014783690485924386 1 1 1 1 1 0.014876509716931038 1 1 1 1 1 1 1 1 0.011416735957049319 1 1 1 1 1 1 1 1 1 1 1 1 1 1 1 1 1 1 1 1 1 1 1 1 0.012092853153855637 1 0.0091667338220503772 1 1 1 1 1 1 1 1 0.0099442421065732735 1 1 1 1 1 0.022261652206917702 1 1 1 1 1 1 0.022975838929903489 1 0.010296801886135984 1 1 1 1 1 1 1 1 1 1 1 1 1 1 1 1 1 1 1 1 1 1 0.010025020670718643 0.013717272090672243 1 1 1 0.028841825795640069 1 1 1 1 0.015920748900507851 1 1 1 1 1 1 1 1 0.014254755626146948 1 1 1 0.013494722360853167 1 1 1 1 1 1 1 1 0.0093952346109918098 0.011437039524715167 1 0.011743470400629541 1 1 0.012722219807382007 1 0.010305817523281285 1 1 1 1 1 1 0.014455999552124281 1 1 1 1 1 0.01195595428154762 1 1 0.019975356946774554 1 1 0.0080053119205078394 1 1 1 0.0099380992000220238 1 1 1 1 1 1 1 1 1 1 1 1 1 1 0.012122848712869274 1 1 1 1 1 0.013674316584515607 1 1 1 0.012204992951905632 1 1 0.010430728148362527 0.011541591285628419 1 1 1 1 1 1 1 0.012074882510891789 1 1 1 1 0.010645753220352633 1 1 1 1 0.011546719301296977 1 1 1 1 1 1 1 1 1 0.015540827586039075 1 1 1 1 1 1 0.011003261162452756 1 1 0.011261628452734328 1 1 1 1 1 0.010497418601505996 1 1 0.010624491615857342 1 1 1 1 1 1 1 1 0.011866952921496546 0.013956674910441665 1 1 1 1 1 1 0.011782656063342552 1 1 1 1 1 1 0.010903225722794233 1 1 1 1 1 1 0.0090940426767647155 1 1 1 1 1 1 1 1 1 1 0.0050742622762476684 1 1 1 1 1 0.010016990295831994 1 1 0.015015068814015705 1 1 1 1 1 1 0.017763441326609404 1 0.0099969623693197448 1 1 1 0.017362395653893446 1 1 0.016200826702655706 1 1 1 1 1 1 1 1 1 1 1 1 1 0.010482396730521287 1 1 1 0.012470785088930304 1 1 1 1 1 1 1 1 1 1 0.011791703150745682 1 1 1 1 1 1 1 1 1 1 1 1 1 1 1 1 1 1 0.010789620703323812 1 1 0.010307223972802522 1 1 1 1 1 1 1 1 1 1 1 1 1 1 1 1 1 0.010034995830442579 1 1 1 1 1 1 1 1 1 1 1 1 1 0.013652133994046215 1 1 1 1 1 1 1 1 1 1 1 1 1 1 1 1 0.011478115146947106 1 1 1 0.0090246304823931103 1 1 1 1 1 1 1 0.018894147141027658 1 1 0.0095259856895481745 1 0.0099990742413828791 1 0.0042272102088069009 1 0.0066951479461195666 1 1 1 1 0.0098491658240839192 1 1 1 1 1 1 0.010137850407396487 1 1 0.009589883520733665 1 1 1 1 1 0.011837437982820638 0.013850636725850282 1 1 1 1 1 1 1 1 1 1 1 1 1 1 1 1 1 1 1 1 1 1 1 1 0.0099732676738563276 1 1 1 1 1 1 1 1 1 1 1 1 1 1 1 1 1 1 1 1 1 1 1 1 1 1 1 1 1 0.0099177707730167194 1 1 1 1 1 1 1 1 1 1 1 0.038111508488818495 1 1 1 1 1 1 0.0426325425868717 1 1 0.0039994356872463848 1 0.0096664267446040248 1 1 1 0.0095105385413735942 1 1 1 0.010331949570814677 1 1 0.014200031049404671 1 0.011377631563689879 1 1 0.013697775214099374 1 1 0.0094462378748741867 1 0.010407975194627137 1 1 1 1 1 0.0099812216160753298 1 0.0098753774432636995 1 1 1 1 0.013133749093773784 0.01298161814592752 1 1 0.010313413223166822 1 1 0.015100247875533476 1 0.012959938240392745 1 1 0.01001841680381373 1 1 1 0.018620289999289101 1 1 0.010229240761639157 0.033262439103162948 1 1 1 0.0070443937529301778 0.019935478428719206 1 1 1 1 1 1 1 1 0.01165597762723802 1 0.010207094549303367 1 0.013219044188413149 1 0.010480071998561276 1 0.011625310611010296 1 0.011764151098685879 1 1 1 0.01603206456577607 1 1 0.01143252822600203 1 1 0.010062543673461346 1 0.010769990799466061 0.01097947758862251 1 0.010995818513102554 0.010003987150977455 1 1 0.011808407376119146 1 0.012668951572403763 1 1 1 1 1 1 1 0.0099142890613986619 1 1 1 1 0.010389578631187528 1 1 1 1 1 1 1 1 1 0.014247438999209504 1 0.01341791052613104 1 1 1 1 1 1 1 1 1 1 1 1 1 0.011593391420430029 1 0.0099877431513704668 1 1 0.012824407031481185 1 1 1 0.01115247310817051 1 1 1 1 1 1 1 0.013364837144630808 1 1 1 1 1 0.013324692791817366 0.011996748762094493 1 1 1 1 1 1 1 0.010977043325080971 1 1 1 0.01203236216912908 1 1 1 1 1 1 1 1 1 0.011251539681659499 1 1 1 1 1 1 1 1 1 1 1 0.012203579324575326 1 1 1 1 1 1 0.012179280507567994 1 1 1 1 0.010366124325575772 1 1 1 1 1 1 1 1 1 1 1 1 1 1 1 1 1 1 1 0.011033856048631083 1 1 1 1 0.011437309139420117 1 1 1 1 1 1 1 1 1 1 1 1 1 1 1 0.0044327438435345801 1 1 0.010514264522330582 1 0.014330297381668543 1 1 1 1 1 1 0.0056477422983640651 1 1 1 1 1 0.010428421790934905 1 1 1 1 1 0.010523093616455686 0.011223347485324052 1 1 1 1 1 1 1 1 1 1 1 1 1 1 1 1 1 1 1 1 1 0.0098599228041390211 1 1 1 1 1 1 1 1 1 1 1 0.020096436673684694 1 0.019013023353664886 1 1 1 1 0.022029660912004173 1 1 0.013461547780800283 1 1 0.012425562573848144 1 1 0.016721672351058307 1 1 1 1 1 1 0.011680532797257104 1 1 1 1 1 1 1 0.0087546333004739074 1 1 0.023454851413685807 1 1 0.0095781986776403844 1 1 1 1 1 0.014948759427874313 1 1 1 1 1 1 1 1 1 1 1 1 0.010275924682175773 1 1 1 1 1 1 1 1 1 1 1 1 1 1 0.01962770293523889 0.015194315687677061 1 1 0.011190844428806789 1 0.022086340988340097 1 0.0078202683052741168 0.016977319355211334 1 1 1 1 0.016376767297046242 0.010021867693534541 0.016664771244397546 1 1 0.01453874358023759 1 1 0.0096434585495127362 1 1 1 1 0.010007121916385885 1 1 1 1 1 1 1 0.0082127995836490351 1 1 0.010018153485067948 0.024636373561741511 1 1 0.014417873313716106 1 0.0066250705922548166 1 1 1 1 1 1 1 1 1 1 1 1 1 1 1 1 1 1 1 1 1 0.031244681920429382 0.0098612085595439179 1 1 1 1 1 1 1 1 1 1 0.042382733143724732 1 1 1 1 0.037184972200101238 1 1 1 1 1 1 0.010775943452573294 1 1 1 0.012457050695688674 1 1 1 1 1 1 0.047408198192161743 1 1 1 1 1 1 0.046394777251969249 1 1 0.013149979337109178 1 1 1 1 1 1 1 1 1 1 1 1 1 1 1 1 1 1 1 1 1 1 1 1 0.011029684224140961 1 1 1 1 1 1 1 1 1 1 1 1 1 0.010542683316199475 1 0.012626674118566968 1 1 1 1 1 1 1 1 1 1 1 1 1 1 1 1 1 0.01059074135437218 1 1 1 0.011710295870773308 1 1 1 0.011328543534756085 1 1 1 1 0.011875607110656298 1 1 1 1 1 1 1 1 1 1 1 1 1 1 1 1 1 1 1 1 1 1 1 1 1 1 1 1 1 1 1 1 1 1 1 1 1 0.010357547614027556 1 1 1 1 1 1 1 0.010022429757852948 1 1 0.01049399535677035 1 0.010734751613852751 1 1 1 1 1 0.010381454533964154 1 1 1 0.010117103848337538 1 1 1 1 1 1 1 1 1 1 1 1 1 1 1 1 1 1 1 1 0.01014718428209351 1 1 1 1 1 1 1 1 1 1 1 1 1 1 1 1 1 1 1 1 1 1 1 1 1 1 1 0.010530477157450526 0.0093236927723522409 1 1 1 1 1 1 0.010115739886596092 1 1 1 1 1 1 1 0.0094507224291255649 0.010218132752602953 1 1 0.0093232830185085141 0.0098984756204108792 1 1 1 1 0.0098588721167965701 0.010359185418244553 1 1 1 1 1 0.013424530870231023 1 1 1 0.011284497267177392 1 1 1 1 1 1 1 1 1 0.0099173498217934898 1 1 1 0.012941290486142641 1 1 0.0086335360309486193 1 0.01143345524040185 1 0.014133720146466956 1 0.0086608928019081908 0.01012903581080196 1 1 0.0092431537601462138 0.0093121290515455722 1 1 1 1 1 1 0.0071150594413021155 1 0.009989699787876203 1 1 1 1 0.0097618275818359638 1 1 1 1 1 1 1 0.0065784439925365033 1 0.010482620648240753 1 1 1 1 1 1 1 1 1 1 1 1 1 0.012621919463013267 1 0.011066023699536746 1 1 1 1 1 1 1 1 1 1 1 1 1 0.014966594312520114 1 1 1 1 1 1 1 1 1 1 0.01478938677549535 1 1 1 1 1 1 1 1 1 1 1 1 1 1 0.0098711866829550264 1 0.010675096356763742 1 1 1 0.012973114595257233 1 1 1 1 1 1 1 1 1 1 1 1 1 1 1 0.010117789529798856 0.010018702876827552 1 1 1 1 1 1 1 1 1 1 1 1 1 1 0.013462998760348219 1 1 1 1 1 0.010042649370516639 1 1 1 1 1 1 0.0098694399539949601 1 1 1 1 1 1 1 1 1 1 1 1 0.012668705350768313 1 1 1 1 1 1 0.0098150294425721572 1 1 1 0.010172021468425276 1 1 1 1 1 0.010259896991842092 1 1 1 0.013095219405217349 1 1 1 1 1 1 1 1 1 0.010260761715184648 1 1 1 1 1 1 1 1 1 1 0.0099509450225571377 1 1 1 0.015478821438220887 1 1 1 1 1 1 1 1 1 1 1 1 1 1 1 1 1 1 1 1 1 1 1 0.010206586195261191 1 1 1 1 1 1 1 1 1 1 1 1 1 1 1 1 1 1 1 1 1 1 1 1 0.010709618483118107 1 1 1 1 1 1 1 0.011181049188392722 1 1 1 0.011780229573594682 1 1 1 1 1 1 1 1 0.012447802179564212 1 0.011032153861662753 1 1 0.010307180913399211 1 0.014042851300132591 1 1 1 1 1 1 0.0086431846206766506 1 1 1 0.011487647797875391 0.010703106026217211 1 0.0088179333535702911 1 1 1 1 1 0.013040839161963542 1 1 1 1 1 1 1 1 1 1 1 1 1 1 1 0.0099977386386096989 1 1 0.013360647601474455 1 1 1 0.0099198861697227317 1 0.011776958676951933 1 0.0086693961940101216 1 0.011569800585561875 1 1 0.0094541874141991257 0.01239251279261655 1 1 1 0.0082303673840279888 1 0.010521650748512808 1 1 1 1 1 1 1 1 1 0.010359026836509079 1 1 1 0.010125959477336724 1 1 1 1 1 1 1 1 1 1 1 0.013279196036301495 1 1 1 0.009675326274074407 1 1 1 1 1 1 1 1 1 0.0095463013798576229 1 1 0.010733345900659748 1 1 1 0.015502154016902274 1 1 0.0099877600458202383 1 1 1 1 1 1 1 1 1 1 1 1 1 1 1 1 1 1 1 1 1 1 0.015487771510831224 1 1 0.015454974946489855 1 1 1 1 1 1 1 0.0090831110181261009 1 1 1 1 1 1 1 1 1 1 1 1 0.0074268244542051789 1 1 1 0.0091810155822151466 1 1 0.010003491923133493 0.012734050334721993 1 0.010028649068356934 1 1 1 1 1 0.0089750965334638843 1 1 1 1 1 0.0085153047328517008 1 1 1 0.0083304630512002625 0.007861243932784652 1 1 1 0.0077805514092240142 1 1 1 0.010179924531796345 1 1 1 0.011423449121183123 0.010805965725807259 1 1 0.010778456412456155 1 1 1 1 1 1 0.010023093738297224 0.011203646687760277 1 1 1 1 1 1 1 1 1 1 1 0.0099935882344623674 1 1 1 1 1 1 1 1 1 1 1 1 1 1 1 1 0.010256496817633956 1 1 1 0.010760138915524705 1 1 1 1 1 1 1 1 1 1 0.0096958779602436956 0.013196394596284947 1 1 1 1 0.015169498127068817 1 1 1 1 1 1 0.0094128873786357668 1 0.009032841506675833 1 1 1 1 1 1 0.020276199300271164 0.0077132874559687507 1 1 1 1 1 1 1 1 0.010070807521850411 0.0088567008118256418 1 1 1 1 1 1 0.012927943523773751 1 1 1 1 0.017886016725048283 1 0.014917749445938266 1 1 1 1 1 0.010031014479989976 1 0.010291384207673341 0.013360146179230883 1 1 0.01030870602932713 0.014587185780075295 1 1 0.0098415744189905147 1 0.014794953489629333 0.01037282854741909 1 1 1 0.01344373330893231 0.012617328412973455 1 1 1 1 1 1 1 1 1 1 0.0099941381427544017 1 1 1 0.010279408434251909 0.011847641250375731 1 0.01140082523443166 0.010200499040458362 1 1 1 1 1 0.010088200520159466 1 0.011332852226703466 1 0.010338234882550717 1 1 1 0.010274423650564624 1 0.011054889108546738 0.011298087065677026 1 1 0.010002718454429438 1 1 0.01088477471943634 1 1 1 1 0.010140919379367556 1 1 1 1 1 1 1 1 1 1 1 1 0.014998896179906901 1 1 1 1 1 0.010438092057660752 1 0.0097632640626458215 1 0.013495820225381989 1 0.016931784206919834 1 0.014943046321819586 1 0.0094004916177676066 1 1 1 1 1 0.015544186317676741 0.016436859516689377 1 0.010647538448804179 0.015462374109440416 0.012144760160084131 1 1 1 1 0.010211354021133198 1 1 1 1 1 0.0097934043765738003 1 1 1 1 1 1 0.0098819005323985219 1 1 1 1 0.0094103413924179861 1 1 0.015924432815040669 1 0.014381148987717175 0.013917044485479126 1 1 1 1 1 1 0.011455222493926089 0.017317453585572046 0.0096516622211042218 0.016611568650841388 1 1 0.019042241398640372 1 0.016631981503117815 1 0.01203944166704473 0.013669344341524919 1 1 1 1 1 1 1 1 1 1 1 1 0.010388664281019401 1 1 0.011004246671346939 1 1 1 1 1 1 1 1 1 1 1 0.0096199769803210419 1 1 1 1 0.015314561172256005 1 1 0.012632855952832776 1 1 1 0.01058130520372765 1 0.018513845858131629 1 1 1 1 1 1 1 1 1 0.013366531611756979 1 1 1 1 1 0.010036495042123736 1 1 1 1 1 1 1 1 1 1 1 1 1 1 1 0.0087549153530249654 1 1 1 1 0.0089734205771478392 1 1 1 1 0.0095879336719868272 1 1 1 1 1 1 1 1 1 1 1 1 1 1 1 1 1 1 0.010037995130248362 1 1 1 1 0.010065934444144185 1 1 1 1 1 1 1 1 1 1 1 0.0021235508438075465 1 1 1 0.0068082156552757844 0.010014257452490481 1 1 1 0.013159132620616111 0.011865389985197348 0.0124604808253699 1 0.0092856368615319013 1 1 0.011780913973824893 1 1 0.012552699075793223 1 1 0.010033357227756895 1 0.010225680650256166 1 1 1 1 1 1 1 1 1 1 1 1 1 1 1 1 1 1 1 1 0.00935716530105077 0.0094969164859639368 1 1 1 0.01220651294180089 1 0.0098497396015379216 1 1 1 1 1 1 1 1 1 1 0.0099820517616050087 1 1 1 1 1 1 1 1 1 0.0099454741172851652 1 1 1 1 1 1 0.010017517493801141 1 1 1 1 1 1 1 1 1 1 1 1 0.010160761953200193 1 0.011076715489328412 1 1 1 1 1 1 1 1 1 1 1 1 1 1 1 1 1 1 0.017896726568112285 1 0.014288989696228861 1 0.017331143596447718 1 1 0.014820428541167947 1 0.013346566095812522 1 1 0.014234649555918105 1 1 0.010642352986871682 1 1 1 1 1 1 0.010065857157835138 1 1 0.021059772173981091 0.015617479225930923 1 1 0.020824936083412418 1 1 0.017117019440225999 1 0.0093880921726780669 0.011087186195327545 1 1 1 1 1 1 0.010020653857256756 1 1 1 1 1 1 1 1 1 1 0.016716529378149901 1 1 0.018929112859558186 1 1 1 0.024986670287318317 1 1 1 1 1 1 1 0.017190691852472878 1 1 1 0.017573371752657559 1 1 0.025512691576047887 1 1 1 1 1 1 1 1 1 1 1 1 1 1 1 1 1 1 1 1 1 1 1 1 1 1 1 1 1 1 1 1 1 1 1 1 1 1 1 1 1 1 1 1 1 1 0.017241181575831953 1 1 1 1 1 1 1 1 1 1 1 1 1 1 1 1 1 1 1 1 0.016422776597405549 1 0.014698081171375645 1 1 1 1 1 1 1 0.013016522551243401 1 1 1 1 1 1 1 0.011595950646647715 1 1 1 1 1 1 0.013927958594164354 1 0.011112493003791406 1 1 1 0.01530424458298936 1 1 1 1 1 1 1 1 1 1 1 1 0.0035512699212505369 1 1 1 1 0.010003101638687721 1 1 1 0.0055781139478891864 0.016683325801168589 1 1 1 0.0095638609996698751 0.010127640567631387 1 1 1 1 1 1 1 1 1 1 1 1 1 1 1 1 1 1 1 1 0.02354021969816452 1 1 1 1 0.023628240811795286 1 1 1 0.023091099864915747 1 1 1 1 1 1 1 1 1 1 0.024258172739796718 0.0058644009799655034 1 1 1 1 0.0088163845859613871 1 1 1 1 1 1 0.019256249169885435 1 1 0.010179201060573177 1 1 0.019368070187280026 1 1 1 1 1 1 1 1 1 1 1 1 1 1 1 1 1 1 1 1 1 1 1 1 1 1 1 1 1 1 1 1 1 1 1 1 1 1 1 1 1 1 1 1 1 1 1 1 0.010323992622219808 1 1 1 1 1 0.011919704191122121 1 1 0.011032146027998721 1 1 0.010468992172584679 1 1 1 1 1 1 1 1 1 1 1 1 1 1 1 1 1 1 1 0.0096816613305444141 1 1 1 1 1 0.0099016296466515035 1 1 1 1 1 1 1 1 1 1 1 1 0.019281875137281482 1 1 1 1 1 0.0096145310549129847 1 1 1 0.0098501894466545593 1 1 1 1 1 1 0.0092286691695197716 1 1 1 1 0.0097519090345472882 1 1 1 1 0.011277591699494098 1 1 1 0.0099880698036889162 1 1 1 0.010155244659409361 1 1 0.011252558360404641 1 1 1 1 1 1 1 1 1 1 1 1 1 1 1 1 1 1 1 1 1 1 1 0.013736207139705428 1 1 1 0.020593504239740427 1 1 1 1 1 1 1 1 1 1 1 1 1 1 1 1 1 0.0099602244188087066 0.013438068121870338 1 1 0.011690683431058134 1 1 0.018187838728321137 1 0.0090714026166505181 1 0.014245112374993499 1 1 1 1 0.01269908743634366 1 1 1 1 0.014260472803733659 1 0.0099149711720408484 1 1 1 1 1 1 1 1 1 1 1 1 1 1 0.013904777176109974 1 1 1 1 1 1 1 1 1 1 0.0098679915010427693 1 1 1 1 1 1 1 1 1 1 0.0092696099525182915 1 1 1 1 1 0.010756553922905497 1 1 1 1 1 0.021104931168277427 1 1 1 1 0.0091765715717849715 1 1 1 1 1 1 1 1 1 1 1 1 0.02476441422682802 1 1 1 1 1 0.012360902058903757 1 1 1 1 1 1 0.014260457347302266 1 1 1 1 1 1 0.01551606639604567 1 1 1 1 1 1 1 1 1 1 1 1 1 1 1 1 1 1 1 1 1 1 1 1 1 0.0094883630427171784 1 1 1 1 1 1 0.011170275746033881 1 1 1 1 0.013366009561049181 1 1 0.011280395151653818 1 1 1 1 1 1 1 1 1 0.012572549440223379 1 1 0.012124627405253441 1 1 1 0.012655235184194485 1 1 1 1 0.01075990404923613 1 1 1 1 1 1 1 1 1 0.010482123398084853 1 1 1 1 1 1 1 1 1 1 1 1 1 1 1 1 1 1 1 1 1 1 1 1 0.01070843702925265 1 1 1 1 1 1 1 1 1 1 0.009666339836909156 1 1 1 1 1 1 1 0.0090136391864330985 1 1 1 1 0.0099216496326478588 1 1 1 1 1 1 1 1 1 1 1 1 1 1 1 1 1 1 1 1 1 1 1 1 1 1 1 1 1 1 1 1 1 1 1 1 1 1 1 1 1 1 1 1 1 1 1 0.016940269092430293 1 1 1 1 1 1 1 1 1 1 1 1 1 1 0.010220334329502227 1 1 1 1 1 1 1 1 0.0098136915683681644 1 1 1 1 0.011711895362116607 0.010362294414310247 1 1 0.0087132588058882188 0.01000326558661524 1 1 1 1 1 1 1 1 1 1 1 1 1 1 1 1 0.010519924996857418 1 1 1 1 1 1 1 1 1 1 1 0.013937877234227451 1 1 1 1 1 1 1 1 1 0.01154584015113593 0.012150478580133975 1 1 0.010040409708960751 1 1 1 1 1 1 0.011387717698044838 1 1 1 1 0.010896420643054974 1 1 1 1 1 1 1 1 1 1 1 1 0.010422393776755037 1 1 1 1 0.010199914834701854 1 1 1 1 1 1 1 1 1 0.011285316088471886 0.011061368433849521 1 1 1 1 0.010314483396823039 1 1 1 1 1 1 0.010529838792227596 1 1 1 1 1 1 1 1 1 1 1 1 1 1 1 0.010144050210887897 1 1 1 1 1 1 1 1 1 1 1 1 1 1 1 1 1 1 1 1 1 1 1 1 1 1 1 0.010760288173179006 1 1 1 0.010318864901725233 1 1 1 1 1 1 1 1 1 0.015010117404691742 1 1 1 1 1 1 1 1 1 0.014936991287490865 1 1 1 1 1 1 1 1 1 1 1 1 1 1 1 0.011087570368205492 1 1 1 1 1 1 1 0.012983381404562282 1 1 1 1 1 1 1 1 1 1 1 1 1 1 1 1 1 1 1 1 1 1 1 1 1 1 1 1 1 1 0.014098833177253134 1 1 1 1 0.010020338844194052 1 1 1 1 1 0.013496536409354366 1 0.0071437773721956463 1 1 1 1 1 1 0.01239159528667505 1 1 1 0.01687620653738247 1 1 1 1 1 1 1 1 1 1 1 1 1 1 1 1 1 1 1 1 1 1 1 1 1 1 1 1 1 0.0098857497630972097 1 1 1 1 1 0.017841930947931885 1 1 1 1 1 1 1 0.018659877136028992 1 1 1 1 1 1 1 0.010020061568463495 1 0.010073816990494255 1 1 1 1 1 0.011838164112676061 0.013065536953937931 1 1 0.012339265522832307 1 1 0.012064272922906849 1 0.01344543491835723 0.012064655658634106 0.0097388346283677346 1 0.014967215910341815 1 0.011846120314811729 0.010112225617035293 0.0098384124876535611 1 1 0.012001420908742108 0.010077771185620102 1 1 0.010083296599932233 1 1 1 1 1 0.015496682975475309 1 1 0.0073150501884704545 1 0.0082597230727688847 1 1 1 1 1 0.013195349929790788 1 1 0.0075202918230547764 1 0.007823889391632621 1 0.010000588307222455 0.012853700454110488 1 1 1 1 1 0.012088020308839473 1 1 0.011847725537535811 1 1 1 1 1 1 0.010104839444259141 1 1 1 1 1 1 1 1 1 1 1 1 1 1 1 0.008356142830790789 1 1 1 1 1 0.010003190941003316 1 0.0096511607427853599 0.010304867035512456 1 1 1 1 1 1 1 1 1 1 1 1 1 1 1 1 1 1 1 1 1 0.010946311147831685 1 1 1 0.0092766154688918197 1 1 0.010346003539789761 1 1 1 1 1 1 1 1 1 1 0.013881244553682802 1 0.009872041774485283 1 1 1 1 1 0.010843144022658003 1 1 1 1 0.010312165500301364 1 1 1 1 1 1 1 1 1 1 1 1 1 1 1 1 1 1 1 1 1 1 1 1 1 1 1 1 1 1 1 1 0.010019044275777336 1 0.010205826651137213 1 0.011783890442791677 1 0.014804864781805489 1 1 1 0.0099830015339390128 0.012420756953150175 1 0.013230591972201437 0.0094805580673667095 1 1 1 0.018001536156918442 1 1 1 1 1 1 1 1 1 1 1 1 1 1 1 1 1 1 1 1 1 1 1 1 1 1 1 1 1 1 1 1 1 1 1 1 1 1 1 1 1 1 1 1 1 1 1 1 1 1 1 1 1 1 1 1 1 1 1 1 1 1 1 0.019986003346983208 1 1 1 1 1 1 0.010012785180800655 0.010237918945196912 1 1 1 1 1 1 0.010630436074094023 1 1 1 1 0.01005012524515167 1 1 1 1 1 0.012879309393328112 1 0.0078919468788594266 1 1 1 1 0.0092537893281180676 1 1 1 1 1 1 1 1 1 1 1 1 1 1 1 1 1 1 1 1 1 1 1 1 1 0.013974373503623683 1 1 1 1 1 1 1 1 1 0.015060349239879575 0.014141465796880928 1 1 1 0.020104544186656831 0.016123378158668697 1 1 1 1 1 0.017472074071056679 1 0.0097487374726746012 1 1 0.0095044440143048151 1 1 1 1 1 1 1 1 1 1 1 1 0.021064459138065053 1 1 1 1 0.008573288034977769 1 1 1 1 1 1 1 0.010831160279783571 1 1 1 1 1 1 1 1 1 1 1 1 1 1 1 1 1 1 0.015271244377392976 1 1 1 0.012352376811336005 1 1 1 1 1 1 1 1 1 1 1 1 1 1 0.014107022503796966 0.019167371743676574 1 1 1 1 1 1 1 1 1 1 1 0.011618582452579872 1 1 1 1 1 1 1 0.010210512924761486 1 1 1 1 1 1 1 1 1 1 1 1 1 1 1 1 1 1 1 0.012907223414807812 0.010812439018394258 1 1 1 1 1 1 0.01102208832994038 1 1 1 1 1 1 1 1 1 1 1 1 1 1 1 1 1 1 1 1 1 1 1 1 1 1 1 1 0.0099320652559097885 0.012997582038941276 1 1 1 1 1 0.010004265398934441 1 1 0.0098210331875437182 1 1 1 1 0.0094952348536793841 1 1 1 0.011109508042378625 0.012170962768139842 1 0.01523442071312245 0.011885553451438277 1 1 1 1 0.0098391135290105264 1 1 1 1 1 1 1 0.01635517326947062 1 0.010360884786810675 1 0.011106375047570855 1 1 0.010000157174557557 0.013175879724508469 1 1 1 0.013784617403289488 1 0.0099883627083970881 1 1 1 1 1 1 1 1 1 0.016078513322776888 1 1 1 1 1 0.0098020530832298586 1 1 1 1 1 1 1 1 1 1 1 1 0.0093887302332544796 1 1 1 1 1 1 1 1 1 0.012068247278284143 1 1 1 1 1 1 1 1 0.0099608847335202391 0.0095634847714102557 0.011940054754690236 1 1 1 0.011458634985409307 1 1 0.025299340269788407 1 1 1 1 1 1 0.015973796026411261 1 1 1 0.018476170649390201 0.016550128564827085 1 0.016471199053466674 1 1 1 1 0.013491238386303882 0.013336898579405761 1 1 0.0097792250237917905 1 1 0.012092902024574557 1 1 1 1 1 1 1 0.0092825471937466909 1 0.012291437450555165 1 0.012100178838183281 0.0097375649871582152 1 1 1 1 1 1 1 1 0.01000678598995397 1 1 1 1 1 0.010003157543871384 1 1 1 1 1 1 1 1 1 1 1 1 1 1 1 1 1 1 1 1 1 1 1 1 1 1 1 1 1 1 1 1 1 1 1 1 1 1 1 1 1 1 1 1 1 1 1 1 1 1 1 1 1 1 1 1 1 1 1 1 1 1 1 1 0.010702742046768011 1 1 1 1 1 1 1 1 1 1 1 1 1 1 1 1 1 1 1 1 1 1 1 1 1 1 1 1 1 1 0.0099798910995967036 1 1 1 0.0099627888724965717 0.0060238875892870275 0.022041963146370021 1 1 1 1 1 1 1 0.0062465185296246423 0.0032825638852524456 1 1 1 0.011047388702091196 1 0.010351388624790736 1 1 1 1 1 1 0.026370470974193011 1 1 0.026212668164769935 1 1 1 1 1 1 1 1 1 1 1 1 0.012418024909412113 1 1 1 1 1 1 1 0.016825889963744463 1 0.013881176214457945 0.0057410437386461975 1 1 1 1 0.015152895290364473 1 0.0075396761502154099 0.010404812555370558 1 1 1 1 0.010259667862016852 1 1 0.013391510706524992 0.010653905619422371 1 1 1 1 0.010515442160105205 1 1 0.0098245992163484286 1 1 1 1 1 1 1 1 1 1 0.010011345551408896 1 0.011243239375813381 1 1 1 1 0.010455835226318252 1 1 1 1 1 0.014980870382616779 1 1 1 1 1 1 1 1 1 1 1 1 1 1 1 0.010097672366612361 1 1 1 0.019493555969915359 0.0099986178891834192 1 1 1 1 1 1 1 1 1 1 1 1 1 0.020860576879065222 1 0.029094878893951664 1 1 1 0.0099570535478646274 1 1 1 0.0088242769392214079 1 1 1 1 0.0090806657465452092 1 1 1 1 1 0.0071399010826309756 1 1 1 1 1 1 0.0020998775362541418 1 1 1 1 1 1 1 1 1 1 0.021863355324047689 0.010002454154029315 1 0.018045551754169241 1 1 1 1 0.010190132850808524 1 1 0.013684482210593396 1 1 0.016999833486775012 1 1 1 0.0081965226772577147 0.0071034503783692334 1 0.013507285946195165 0.010040856435474602 1 1 1 1 1 0.010254731350053744 1 1 0.021968199584080524 1 1 1 0.02154105741697232 1 0.010598291315100889 1 1 1 1 1 1 1 0.0099732432997644786 1 1 1 1 1 1 1 1 1 1 1 1 0.022599889116269759 1 1 1 1 1 0.0099159488031137447 1 1 0.014506221496652035 1 0.010893939751240261 1 1 0.015046338174752075 1 0.010053478533565112 1 1 0.013172529612847662 0.01779704622761474 1 1 1 0.013058811983846546 0.01434047710642597 1 1 0.016798620226516812 1 1 1 1 1 0.0093933665142847955 0.0093253358966050564 0.010023734644412025 0.012070051509320376 0.0085183544366962648 0.0098312810358770885 1 1 1 0.0092789587741252434 1 0.012262932413006876 0.010786254257459257 0.010041761964318267 1 1 1 0.010044851122231612 1 1 0.010027218089835815 1 1 1 0.0098437137045594113 1 1 0.0082478661429474728 1 1 1 1 0.010047220493407252 0.0095534241587012739 1 1 1 1 1 0.0099132020467582443 1 1 1 1 1 1 0.0092518398975745091 0.0099852177620869537 1 1 0.010675157405704353 1 0.0076472932205980029 1 1 1 1 1 1 1 1 1 1 1 1 1 1 1 1 1 1 1 0.021936625433995133 1 1 1 1 0.022346344652995391 1 0.022118653076163498 1 1 1 0.012526340965262046 1 1 1 0.02271310649169031 1 1 1 1 1 1 1 1 1 1 1 1 1 1 0.010767352499527457 0.021835189341089776 1 1 1 1 1 1 1 1 1 1 1 1 1 1 1 0.010461916666433993 1 1 1 1 0.010451846913064274 1 0.018672216547068715 1 1 1 1 1 1 1 1 1 1 1 1 1 1 1 1 1 1 1 1 1 1 1 1 1 1 1 1 1 1 1 1 1 1 0.0099330933709743888 0.013683625276414136 1 1 0.010154953891430753 1 0.013864658363767327 1 0.01654013503840028 0.011359503500783163 1 1 1 1 1 1 0.010244261864358072 0.010157890265742075 1 1 0.01307422998014904 1 1 1 0.01106680296707355 1 1 1 1 1 1 1 0.019805487199545703 1 1 1 1 1 1 0.012212590860102731 1 1 1 1 1 1 1 1 1 1 1 0.012217785931543023 1 1 1 1 1 1 1 1 1 0.0098413127142050263 1 1 1 1 0.01275998911608435 1 1 1 1 1 0.011233980923652982 1 1 1 1 1 1 1 1 1 1 1 1 1 1 1 1 1 1 1 1 1 1 1 1 1 0.010433235502854254 1 1 1 1 1 1 1 1 1 1 1 1 1 1 0.010887680550589897 1 1 1 1 1 1 0.010477005241809964 1 0.014486983786811115 1 1 1 1 0.0096458153012079079 1 0.0099058418690808493 1 1 1 1 1 1 1 0.011653419035099619 1 1 1 1 1 1 1 1 0.010571712262408588 1 1 1 1 1 1 1 0.011736447961466365 1 1 1 1 1 1 1 1 1 1 1 1 1 1 0.010709315870717856 1 1 1 1 0.011772722746869444 0.010182603741930783 1 1 1 1 1 1 1 0.011771072671109439 1 0.011172534108864832 1 0.012628801285125946 1 1 0.011536870798440544 0.011571369713815911 1 0.011790076949240768 1 1 1 1 1 1 1 1 0.010751885712705678 1 0.010988419912382627 1 1 1 1 0.010560983457895492 1 1 0.010139274660393667 1 1 1 1 1 0.010134205531694154 1 1 1 1 1 1 1 1 1 1 1 1 1 0.010029949722088836 1 1 0.0053807888310917467 1 1 1 0.0098093338076859788 1 1 1 1 1 0.015510012021540336 1 1 0.011089899555312786 1 0.016615204779054843 1 1 1 1 1 1 1 0.010380561239446695 1 1 0.010124789488178808 1 1 1 0.010327004797159679 1 1 1 1 1 1 1 1 1 1 0.0097020379760334053 1 1 1 0.0097867694749857424 1 1 1 1 0.012722076936105685 1 1 1 1 1 1 1 1 1 1 1 1 1 1 1 1 1 1 1 1 0.01231821992063916 1 1 1 0.012963575979119547 1 1 1 1 1 1 1 1 1 0.0069808058949334013 1 1 1 1 1 0.0099732336266145933 1 1 1 1 1 1 1 1 1 1 1 1 1 1 1 1 1 1 1 1 1 0.010214802045465619 1 1 1 1 1 0.010893248042580933 0.0046338539865706328 1 1 1 1 0.021037397028610086 1 1 1 1 1 1 1 1 0.019401448413687971 1 1 1 1 1 1 1 0.010376296391856658 0.014271596170119846 1 1 1 1 1 0.012489004917189255 1 1 1 1 1 1 1 1 1 1 0.010694502473117849 1 0.016205640406781394 1 0.013742838046962295 1 0.01374453010504159 1 1 1 1 0.010908977235610476 1 1 1 1 1 1 1 1 1 1 1 1 1 1 1 1 1 1 1 1 0.015215069141845576 1 1 0.016507494017711979 1 1 1 1 1 1 1 1 1 0.013193876095126497 1 1 0.01225149316272601 1 1 1 1 0.0099087680994722205 1 1 1 1 1 1 1 1 1 1 1 1 1 1 1 1 1 1 1 1 1 1 0.010589329298552285 1 1 1 1 1 1 1 1 1 1 1 1 1 1 1 1 1 1 1 1 1 1 1 1 1 0.011140239885590018 1 1 1 1 1 1 1 1 1 1 1 1 1 1 1 0.0098817510630253916 1 1 1 1 1 1 1 1 1 1 1 1 0.012862068697336304 1 1 1 1 0.011478153216825271 0.0092404929793077177 1 1 1 0.01708274193257572 1 0.011117028533780019 1 1 1 0.0095655131017751104 1 1 1 1 0.0083743971483917282 0.028527548804226224 1 1 0.013164143387874494 1 1 1 1 1 1 1 1 0.01004579762497144 1 1 1 1 1 1 1 1 1 1 1 1 1 0.01894609095328929 1 0.0097628519226128571 1 1 1 1 1 1 1 0.011001022624562895 1 1 1 1 1 0.025852888322793751 0.0080239721586052252 1 1 1 1 1 1 1 0.010810004751241369 1 1 1 1 1 0.010869385712136791 1 1 1 1 1 0.01138391548051104 1 1 1 1 1 0.01189717347836337 1 1 1 1 1 1 1 1 1 1 1 1 1 1 1 1 1 1 1 1 1 1 1 1 1 0.0096785976322825359 1 1 1 1 1 1 1 1 1 1 1 1 0.0087981843465823675 1 0.012183359058143382 0.010299368154997192 1 1 1 1 1 0.015881632165302865 1 1 1 1 1 1 0.015496798992398574 1 0.012429908721993161 1 1 1 1 1 1 1 1 1 1 1 1 1 1 1 0.011998359015032833 1 0.012144850620057449 1 1 1 1 1 0.011522254307469951 1 1 1 1 1 1 1 1 1 1 1 1 1 1 1 1 1 1 1 1 1 0.016620604806496114 1 1 1 1 1 1 1 1 1 0.0099800225325672003 1 1 1 1 1 0.01256283364642798 1 1 1 1 0.010180230229044792 1 1 1 1 1 0.011661732305366664 1 1 1 1 1 0.010670559517367253 1 1 1 1 1 1 1 1 1 1 1 0.012134969524935726 1 1 1 0.022069985995813991 1 1 1 1 1 0.018013678929304965 1 1 1 0.0205018475943545 0.018035047597854348 1 1 1 1 1 1 1 0.014946222478600984 1 1 1 1 1 1 1 0.011051299329787304 1 1 1 1 1 0.010420265346868142 1 1 1 1 1 1 1 1 1 1 1 1 1 0.01213769571828158 1 1 1 1 1 1 1 1 1 1 1 0.030313960974251167 1 1 1 1 1 1 1 1 1 1 1 1 1 1 1 1 1 1 1 1 1 1 1 1 0.020808544501286871 1 0.01484037252030691 1 0.010005946288272911 1 1 1 1 0.023636042096737302 1 0.010403154317154722 1 1 0.010033259753075452 1 1 1 1 1 1 1 1 1 1 1 1 1 1 1 1 1 1 0.010399810523328145 1 1 1 1 1 1 1 1 1 1 1 1 1 1 0.012098598669633292 1 1 1 1 1 1 1 0.033968589341498746 0.016785972588293348 1 1 1 1 1 0.010682545257921722 1 1 1 1 1 1 1 1 1 1 1 1 1 1 1 0.012143250571545285 1 1 1 1 1 1 1 1 1 1 0.033853706811283447 1 1 1 1 0.021876701966322208 1 1 1 1 1 1 1 1 1 1 1 1 1 1 1 1 1 1 1 0.010673828671790873 1 1 1 0.016056719375737022 1 1 1 0.014539447723880935 1 1 1 1 1 1 1 1 1 1 1 1 1 1 1 0.020295976361507297 1 1 1 1 1 1 1 0.012693981872394079 1 1 1 1 1 1 1 1 1 1 1 1 1 1 1 1 1 1 1 1 1 1 1 1 1 1 1 1 1 1 0.008861703662568849 1 0.010896150853800479 1 1 1 1 1 1 1 1 0.01199942257063083 1 1 1 1 1 1 1 1 1 1 1 1.7347234759768071e-18 1 1 1 1 1 1 1 0.0060886164284045738 1 1 1 1 1 1 1 0.0095403084965295336 1 1 1 1 1 0.021004990362408955 1 1 1 0.016209867134573758 1 1 1 1 1 1 1 1 1 1 1 1 1 1 1 1 1 0.025280852942118667 1 1 0.012779366040598331 1 1 1 0.010253288122166613 1 1 1 1 1 1 0.035357684595701357 1 1 0.045967174597110902 1 1 1 1 1 1 0.010232810238704277 1 1 1 0.013093337921905281 1 1 1 1 1 1 1 1 1 0.0059519571104563775 1 1 0.008873608202050241 1 1 1 1 1 1 1 1 1 0.02720045149211155 0.010046276946727186 1 1 1 1 1 1 1 0.025179316716764266 0.031966253090938548 1 1 1 1 1 1 1 1 1 1 1 1 1 1 1 1 1 1 0.014474984905815471 1 1 1 1 1 1 1 1 1 1 1 1 1 1 1 1 1 0.054406600189929925 1 1 0.010241503985462421 1 1 1 1 1 1 1 1 1 1 1 1 0.016588998987273156 1 1 1 1 1 0.012334885955405845 1 1 1 1 1 1 1 1 1 1 1 1 1 1 1 1 1 1 1 1 1 1 1 1 1 1 1 0.010100478863362685 1 1 1 1 1 0.010821593060550316 1 1 1 1 1 1 1 1 0.010273548869557888 1 1 1 1 1 1 1 0.0096309464293270596 1 1 1 1 1 1 1 1 1 0.012470541316288912 1 1 1 1 1 1 0.011859360920327175 1 1 1 1 1 1 1 1 1 0.012053351737557623 1 1 1 0.023448833714674915 1 0.020333502351745587 1 1 1 1 1 0.014154845277017457 1 1 0.010519741182104032 1 0.0072450597649368472 1 1 1 1 1 1 0.0045409106351236113 0.013128754564430724 1 1 0.01300344699626683 1 0.017556537036792885 1 1 1 1 1 1 1 1 1 1 1 1 1 0.012991585036644474 1 0.010361191721418715 1 1 1 0.011378737542415555 1 1 1 1 0.007894323724399039 1 1 1 1 1 1 1 1 1 1 1 0.011063561477024524 1 1 1 1 1 1 0.011823198941266752 1 1 1 0.011262407526034869 1 1 0.014927334180381514 1 1 1 1 1 1 1 1 1 1 1 1 1 1 1 1 1 1 1 1 1 1 1 1 1 1 1 0.0088524908849847133 1 1 1 1 1 0.0080665646546928052 1 1 1 1 1 1 1 1 1 1 1 1 1 1 0.011129207149372291 1 1 1 1 1 1 0.01014932592571296 1 1 1 0.0099520573166108021 1 1 1 1 1 1 1 1 1 1 1 1 1 1 1 1 1 1 1 1 1 1 1 1 1 0.010637519886158292 1 1 1 1 1 1 1 1 0.015365799121363179 0.018678102336289235 1 1 1 1 1 1 1 1 1 0.017558341016503658 1 1 0.011112468816811438 1 0.023116180297017279 1 0.009777915133215985 1 1 1 1 1 1 0.010616867528900807 1 1 1 1 0.0098117290814128 1 1 0.01727376454003561 1 1 1 1 1 0.0099838848238995338 1 1 1 1 1 1 1 1 1 1 1 1 1 1 0.0097642295135843618 0.010134856213855056 1 1 1 1 1 1 1 1 1 1 1 1 0.016628682067491338 1 1 0.010011391991420961 1 1 0.0091707760089374379 0.015517584028398122 1 1 1 0.013230069893987083 1 1 1 1 0.016453015220470699 0.016860412923996131 1 1 0.014840051328647472 1 1 1 0.019560562986043879 1 1 1 1 1 1 1 1 0.01758457041902247 1 1 1 1 1 0.010138986400340583 1 1 1 0.0099430839875064361 1 1 1 0.0099739616037841372 1 1 1 1 0.017921091565331036 1 1 0.011022004917705448 0.018140608766312356 1 1 1 1 1 1 0.010469623271980069 1 1 1 1 1 1 1 1 1 1 1 1 1 1 1 1 1 0.009967383953047599 1 1 1 1 1 1 1 0.011062534725215152 1 1 1 0.010297126214920795 1 1 0.012251426485410824 1 1 1 1 1 0.011343622847895576 0.010037165593044932 1 1 1 1 1 0.014101039444077966 1 1 1 1 0.010232078423822556 1 0.010278496083454955 1 1 1 1 1 1 1 0.01075298153454151 1 1 0.0096397727259388867 1 1 1 0.012136704105511804 1 1 0.012504297513526857 0.010745339784005634 1 1 1 1 1 1 1 0.010741059499955819 1 1 0.015615811731594901 1 1 1 0.013116660886384255 1 1 1 1 1 1 1 1 1 1 1 1 1 1 1 1 1 1 1 1 1 1 1 1 1 1 1 1 1 1 1 1 1 1 1 1 1 1 1 1 1 1 1 1 1 1 1 1 1 1 1 1 1 1 1 1 1 1 1 1 1 1 1 1 1 1 1 1 1 1 1 1 1 1 1 1 1 1 1 1 1 1 0.010003881781362026 1 0.0093479194972686148 1 1 1 0.0084421603002697819 1 1 1 1 1 1 1 1 1 1 1 1 1 1 0.01235755572157372 1 1 1 1 1 0.0084011611162596884 0.0094456515973529061 0.012996678135333282 1 1 1 1 1 0.011251763615480291 0.011123640697254284 1 1 1 1 0.0097120368036262301 1 1 1 1 1 1 1 1 0.01042934437519963 1 0.010268966443162381 1 1 1 1 1 1 1 1 1 1 1 1 1 1 1 1 1 1 1 1 1 1 1 1 1 1 1 1 1 1 1 1 1 1 1 1 1 1 0.013467847292673651 1 1 1 1 1 1 1 0.0096291361898765727 1 1 1 1 1 1 1 1 0.019897272056573885 1 1 1 0.010849395163370882 1 1 1 1 1 1 1 1 1 1 1 1 1 1 1 1 1 1 1 1 1 1 1 1 1 0.009928278276983395 1 1 0.010268250842866367 1 1 1 1 1 1 1 1 1 1 1 1 0.0062849305875977667 1 1 1 1 1 0.010259136168361993 1 1 1 1 0.01109956367235251 1 0.015224007154358456 1 1 1 0.01061215475031742 1 1 1 0.012086692627221632 1 0.0096230222296637882 1 1 0.010579069566362913 0.0087393780377951549 0.0088322808728828923 1 1 1 0.011535416831250487 1 1 0.009902603255129214 0.0099932768718591896 1 1 1 1 1 1 1 1 1 1 1 1 1 1 1 1 0.013974884586272694 1 1 0.01265588175358574 1 1 1 1 1 1 1 1 1 0.01270336225761612 1 1 0.013105818730173564 1 1 0.0097855229948780407 1 1 1 1 1 1 1 1 1 1 1 1 1 1 1 0.010095981065052374 1 1 1 0.0074978771012383233 1 1 1 0.007736011298424281 1 0.016234320935896371 1 1 1 1 1 1 1 1 0.012440527033916187 1 1 1 1 1 1 1 1 1 1 1 1 1 0.012323916615749643 1 1 1 1 1 1 1 1 0.00055627617097623802 1 1 1 1 1 0.023905852012400412 1 1 1 1 1 1 1 0.0099360567190260665 1 0.010395586987342375 1 1 1 1 1 1 1 1 1 1 1 1 1 0.010019196387986961 1 1 1 1 1 1 1 0.010673925344916874 1 1 1 1 1 1 1 1 1 1 1 1 1 1 1 1 1 1 1 1 1 1 1 1 1 1 1 1 1 0.012755822350446816 1 1 1 0.0097711512830342476 1 0.011988522762137592 0.010189925465206053 1 1 0.015032767975261539 0.013420015880185335 1 1 1 1 1 0.011488039527057346 1 1 1 1 1 1 1 1 1 1 0.014573774286335392 1 0.016853419893966624 1 1 1 1 0.01338578440668454 1 1 1 1 1 1 1 1 1 1 0.019552486922277339 1 1 1 1 1 1 1 1 1 1 1 1 0.0024739433600790839 1 1 1 1 0.010954023425796398 1 1 1 1 1 1 0.014508192715903945 1 1 1 0.019987972189543235 1 0.003095012919055444 1 1 1 1 0.0091539096824390116 1 1 1 1 1 1 1 1 1 1 1 1 1 1 1 1 1 1 1 1 1 1 1 1 1 1 1 1 1 1 1 1 1 1 1 1 1 1 0.014724869252543009 1 1 1 1 0.019156340281915474 1 1 1 1 1 1 1 1 1 1 0.013748928688436553 1 1 1 1 1 1 1 1 1 1 1 1 0.018971532672310769 1 1 1 0.018913416719132773 1 1 1 1 1 1 1 0.012052711417290956 1 1 1 1 1 0.015173761412831884 1 1 1 1 1 1 1 1 1 1 1 1 1 1 1 1 1 1 1 1 1 1 1 1 1 1 1 1 1 1 1 1 1 1 1 1 1 0.014438586120695164 1 1 1 1 1 1 1 1 1 1 1 1 1 1 1 1 0.022376898060352705 1 1 0.023307651792823021 1 1 1 1 1 1 1 1 1 1 1 1 1 1 1 1 1 1 1 1 1 1 1 1 1 1 1 1 1 1 1 1 1 1 1 1 1 1 1 1 1 1 0.0094234070696695496 1 1 1 0.032720806328118045 1 1 1 1 0.018303941229798143 1 1 1 0.019723958618549153 1 1 1 1 1 1 1 1 1 1 1 1 1 1 0.01572144584802028 1 1 1 1 0.011699688967715866 0.022501114818482167 1 1 1 1 1 1 1 1 1 0.012094529888548259 1 0.012640608793186184 1 1 1 1 1 1 1 1 1 1 1 1 1 1 0.010823814285315305 1 1 1 1 1 1 1 1 1 1 1 1 1 1 0.010961477907779536 1 1 1 1 0.010441744101030008 1 1 1 1 0.0063430427387537579 1 0.0072057146921070958 1 1 1 0.010287507328927798 1 1 0.016611774081411866 1 1 1 1 0.016933232159773645 1 1 1 1 1 0.006485444568401829 1 1 0.0079300254049317429 1 1 1 1 0.0092892656314119398 1 1 1 1 1 1 1 0.0090365991106613613 1 1 1 1 0.0072644217451245273 1 1 0.0061783663603275953 1 1 0.037045481194279299 1 0.010198068464095537 1 1 1 1 0.032534575396795294 1 1 1 0.02324042912394755 1 1 1 1 1 1 1 0.01636346505075182 1 1 1 1 1 1 1 1 1 1 1 1 1 1 1 1 1 0.0089577087204047463 1 1 1 0.011804233973524279 1 1 1 1 1 1 1 1 1 1 1 1 1 1 1 1 1 1 1 1 1 1 1 1 1 1 1 1 1 1 1 1 1 1 1 1 1 0.013024994505019864 1 1 1 0.0098559834854658052 1 1 0.012729542486139299 0.009913635045033925 1 1 1 1 1 1 1 1 1 1 0.011158984922676835 1 1 1 1 1 1 1 1 1 1 1 1 1 1 1 0.010795009982974798 1 1 1 1 1 1 1 1 1 1 1 1 1 0.009911203468968826 1 1 1 1 1 0.0091390650272459208 1 1 1 1 0.0075333334700871911 1 1 1 1 1 0.011593524251602793 1 1 1 1 1 1 1 1 1 1 0.010798514268627981 1 0.010675889950340672 1 1 1 1 0.010224004442651327 1 0.019576322489565194 1 1 1 1 1 1 0.0058181697898425254 0.018352560737412441 1 1 0.019860583243450622 1 1 1 1 1 1 1 1 0.013492488404228606 1 1 1 1 1 1 1 1 1 1 1 1 1 1 1 1 0.014345755935775417 1 0.012059100424789915 1 1 1 1 1 1 1 1 1 1 1 1 1 1 1 1 1 1 1 1 1 0.012286655510985497 1 1 1 1 1 1 1 1 1 1 1 1 1 1 1 1 1 1 1 1 1 1 1 1 1 1 1 1 1 1 1 1 1 1 0.014631697506034096 1 1 1 1 1 1 1 1 1 1 0.016554838397859782 1 1 1 0.015595878113759218 1 0.011662308013557804 1 1 1 1 1 1 1 1 1 1 0.0099928173714873628 1 1 0.010017600771620408 1 1 1 1 1 1 1 1 1 1 1 1 1 1 1 1 1 1 1 1 1 1 1 1 1 1 1 1 1 1 1 1 1 1 1 1 1 1 1 1 1 1 1 1 1 1 1 1 1 1 1 1 1 1 1 1 1 1 1 1 0.010006842361297619 1 1 1 1 1 1 0.0099864802445092243 0.009591555227743867 1 1 1 1 1 1 1 1 1 0.0087297190601440949 1 1 1 1 1 1 1 1 1 1 1 1 1 1 1 1 1 1 1 1 1 1 1 1 1 1 1 1 1 1 1 1 1 1 1 1 1 1 1 1 1 1 1 1 1 1 1 1 1 1 1 1 1 1 1 1 1 1 0.012628751863668197 1 0.012673840360694383 1 1 1 1 1 1 1 1 0.01615547744412775 1 1 1 1 1 1 1 1 1 0.014835998341511662 1 1 1 1 1 1 1 0.012162157980817268 1 1 1 1 1 1 1 1 1 1 1 1 0.010897120592680129 1 1 0.011960682069704647 1 1 1 1 1 1 1 1 1 1 1 1 1 1 1 1 1 1 1 1 1 1 1 1 1 1 1 1 1 1 1 1 1 1 1 1 1 1 1 1 1 1 1 1 1 1 1 0.0094595869856962528 1 1 1 1 0.010897956281471447 1 1 0.01021490580037177 1 1 1 1 1 0.025044318221019601 1 1 1 1 0.014146330726363086 1 1 1 1 0.0097128982740884023 1 1 0.010041065440916225 1 1 1 0.011759179713019333 1 1 1 1 1 1 1 1 1 1 1 1 1 1 1 1 1 1 1 1 1 1 1 1 1 1 1 0.0091114444879565673 0.024614909540976067 1 0.024706129642238929 1 1 1 0.0099638374139694522 1 1 1 1 1 1 1 1 1 0.011517480875375241 1 0.0098963074893131248 1 1 0.022640042917643592 1 1 0.0084217005173494834 1 1 1 1 1 1 1 1 1 1 1 1 1 1 1 1 1 1 1 1 1 1 1 1 1 0.010332036763299308 1 1 1 1 1 0.021822618961934694 1 1 1 1 1 1 1 0.0087949683400688414 0.024434921565116341 1 1 1 0.024608562247535347 1 1 1 1 0.0091830246679549463 1 1 1 0.010305557145607804 1 1 1 1 1 1 1 1 1 0.013430213287578117 1 1 1 1 1 1 1 1 1 0.013537874412441211 1 1 1 0.0099571800643547016 1 1 1 1 0.0090339278354039446 1 1 0.010417528988585729 1 1 1 1 1 1 1 0.0098855213622954935 1 1 1 1 1 1 0.0097711353654175021 1 1 1 1 1 1 0.010745243033985795 1 1 1 1 1 1 1 1 0.01065893513749739 1 1 1 0.010245976726678908 1 1 1 1 1 1 1 1 1 1 1 1 1 1 1 1 1 1 1 1 1 1 1 1 1 1 1 1 1 1 1 1 1 1 1 1 1 1 1 1 1 1 1 1 1 1 1 1 1 1 1 1 1 0.010849463394308902 1 1 0.015465312162674327 1 0.010808749014653847 1 1 0.011938175143743221 1 1 1 1 1 1 1 1 1 0.010743684100722094 1 1 1 1 1 1 0.0094053809733051115 1 1 1 1 1 1 0.012201703113290947 1 0.015933986362207907 1 1 0.018759758457970961 1 1 0.0096666842575423018 1 1 0.0099233700905851999 1 1 1 1 1 1 1 1 1 1 1 1 1 0.010784271470025211 1 0.010072901245353042 1 1 0.010156189759534003 1 1 1 1 1 0.010083388897076289 1 1 1 1 1 1 1 1 1 1 1 1 1 1 1 0.010856472484476992 1 1 0.011640743954502202 1 1 1 1 0.010147199314249629 1 1 1 1 1 1 1 1 1 0.010388004812534928 1 1 1 1 1 1 1 1 1 1 0.010155484811616192 1 1 1 1 1 0.0103168537266608 0.010251312031738997 1 1 1 1 1 1 1 0.010169735219505175 0.010314820162546078 1 1 1 1 1 1 1 1 0.013741641955294578 1 1 0.010998109125282235 1 0.012910189286655029 1 1 0.010788526664092066 1 1 1 1 1 1 0.010122559341997 1 1 1 1 1 1 1 1 1 1 0.010955844347743039 1 1 1 1 1 1 0.010091785011185558 0.01143869459222486 1 1 1 1 0.012006687783438172 1 1 1 1 1 1 1 1 1 1 1 1 1 1 1 1 1 1 0.012941805158478752 1 1 1 1 0.011113387283876966 1 1 1 1 1 1 1 1 1 1 1 1 1 0.013726283858398039 1 1 1 1 1 1 1 1 0.0099281238596322253 1 1 1 0.010010129194796928 1 1 1 1 1 0.011781934361789669 1 0.009729362281239759 1 1 1 1 1 1 1 1 1 1 1 1 1 1 0.01056345432458234 1 1 1 1 1 1 1 1 1 1 0.0095027368029312834 1 1 1 1 1 1 1 0.0081428262509138597 0.009798125594143928 1 1 1 1 1 1 0.010856614182787216 1 1 1 1 1 1 1 1 1 1 0.0100193197112434 1 1 1 1 0.0075089891096955528 0.016100996681112083 1 0.012274463330103236 1 1 1 1 1 1 1 0.0088484878266205536 1 0.0058181576262064756 1 1 1 1 1 1 1 1 1 0.0053789929466834226 1 1 1 1 1 1 1 1 1 1 1 1 1 1 1 1 1 1 1 1 1 1 1 1 0.0099796378832116076 1 1 1 1 1 1 1 1 1 1 1 1 1 1 1 1 1 1 1 1 1 1 1 1 1 1 1 1 1 1 1 1 1 1 1 1 1 1 1 1 1 1 1 1 1 1 1 0.0097358441742889726 1 1 1 1 0.0089254404936010626 1 1 1 1 1 1 1 0.023611939478529499 1 1 0.011215701364170501 1 1 1 1 1 1 1 1 1 1 1 1 1 1 1 0.0088836217641803938 0.012533060137745695 1 1 1 1 1 1 1 1 0.013783480843645564 1 1 1 1 1 1 1 1 1 1 0.017447598197887951 1 0.010986761275843922 1 1 1 1 1 1 1 1 1 1 1 1 1 1 1 1 1 1 1 1 1 1 1 1 1 1 1 1 1 1 1 1 1 1 1 1 1 1 1 1 1 1 1 1 1 1 1 1 1 1 1 1 1 1 1 1 1 1 1 1 1 0.010026732121874155 1 1 0.0099536839460891945 1 1 1 1 1 1 1 1 1 0.01191340215068637 1 1 1 1 1 1 1 1 1 1 1 1 0.01480679590880405 1 1 1 0.014816212821275286 1 1 1 1 1 1 1 1 1 1 1 1 1 1 1 1 1 1 1 1 1 0.012085280980241163 1 1 1 0.010802885409673162 1 1 1 1 1 1 0.0099486877384241511 0.0099023716845133385 1 1 1 1 1 1 1 1 1 1 1 1 1 1 1 1 1 1 1 1 1 1 1 1 1 1 1 1 1 1 1 1 1 1 1 0.010254363048639074 1 1 1 1 1 1 1 1 1 1 1 1 1 1 1 1 1 1 1 1 1 1 1 1 0.010253886458410646 1 1 1 1 1 1 1 1 1 1 1 1 1 0.0099999853736350772 0.010018147693493636 1 1 1 0.0099968976570287763 0.0099393747847048367 1 1 1 1 1 1 1 1 1 1 1 1 1 0.0095651640430771193 1 1 1 1 0.0097726101785192282 1 1 1 1 1 0.009995235809353277 1 1 1 1 1 1 1 1 0.0099108557193632353 1 1 1 0.0097398475806537311 1 1 0.010213271916246817 1 1 0.010024226307729804 1 1 1 0.011419212783620132 1 1 0.0096171160978542787 1 1 1 1 1 1 0.0107852692693165 1 1 1 1 0.0094688821674418257 1 1 1 1 1 1 1 1 1 1 1 0.010577689755282296 1 1 1 1 1 1 1 1 1 1 1 1 1 1 1 1 1 1 1 1 1 1 1 1 0.0098890707414293205 1 0.011275595800505349 0.010834106405383764 1 1 1 0.010786550057589279 1 1 1 1 0.011614331568581021 1 1 1 1 1 1 1 1 0.011271974837547289 1 1 1 0.0095750567794604183 1 1 1 1 1 1 1 1 1 1 1 1 1 1 1 1 1 1 1 1 0.010232002773116042 1 1 1 1 1 1 1 1 1 1 1 1 0.013762969384150683 1 1 1 1 1 1 0.007712445605377833 1 0.0101797139668722 0.010482194310985134 1 1 1 1 1 1 1 1 1 1 0.0087410547127296373 1 1 1 1 0.013170617800057053 1 1 1 0.01364770143111897 1 1 0.012821168916161949 1 1 1 1 1 1 1 1 1 1 0.011735798558805341 1 0.014105560724397524 1 1 1 0.012525405541038863 1 0.012051021476615202 1 1 1 1 0.011214704309257795 0.010587358180991074 0.012665559459012307 1 1 1 1 1 1 0.015284361359756526 1 1 1 1 1 1 1 0.015317401805600449 1 1 1 1 1 1 1 1 1 1 1 1 1 1 0.010059685779737756 1 0.021034073061742382 1 1 1 1 1 1 0.012319281106871412 1 1 1 1 0.010022048500398117 1 1 0.014521191375518515 1 1 1 0.010770625088102627 1 0.0091969439721124729 1 1 0.014356006320327151 1 1 1 1 1 0.01118012637461074 1 0.011232617995896376 1 1 1 1 1 1 1 1 1 1 0.010042914511707524 1 0.0093622372045095818 1 1 1 1 1 0.0114749276552826 0.018557939710158108 1 0.01060656671073682 1 1 1 0.011862149860247631 0.012716543108028205 0.010209051613858539 0.014289399178672857 1 1 1 0.011044684292954682 1 0.012490430774780343 1 0.010911926803756359 0.0099931481478803784 1 1 1 0.013317835892103169 1 1 1 0.016665166076747995 0.012449010450783395 1 0.015966315422376996 1 1 0.0099977111610344803 1 1 1 1 1 1 1 1 1 1 1 1 1 1 1 1 1 1 1 1 1 0.011015029914406324 1 1 1 1 0.016565163226980158 1 0.016203468254026632 1 0.010022716460023909 1 1 1 1 1 0.016013758201895656 0.010040891699490476 1 0.012034343240731544 1 1 0.013053962118406572 1 1 1 1 1 0.014669902833254051 1 1 0.010968279559374898 1 1 1 0.0099139727703218081 0.012116322478554349 1 1 1 0.013129123086887341 1 0.010939779183660354 0.010099111982014759 1 1 0.010771489009962429 1 0.012139649334271729 1 1 0.010893856684250412 1 0.011650405307415374 1 1 1 1 1 1 0.011279762304610388 1 1 1 0.0099559392386693382 1 1 1 1 1 1 1 1 1 1 1 1 1 1 1 1 1 1 1 1 1 1 1 1 1 1 1 1 0.01272332519411918 1 1 1 0.011903985238215141 1 0.017708075835409544 1 1 0.02132407966249221 1 1 1 1 1 1 1 1 1 1 0.023816125507733765 1 1 1 1 1 1 1 1 1 1 1 1 1 1 0.011593770358138411 0.0091702090196944148 1 1 1 1 1 0.010104516346815022 0.0056680211059976018 1 1 0.0070399241796330076 0.010019855553247258 1 1 1 1 1 1 1 1 1 1 1 1 1 1 1 1 1 1 1 0.014427104278754196 1 1 1 1 1 1 1 1 0.011495973475944797 1 1 1 1 1 1 1 1 1 1 1 0.009947360164797095 0.012500738072079451 1 1 1 1 1 1 1 1 1 1 1 1 1 1 1 1 1 1 1 1 1 1 1 1 1 1 1 1 1 1 1 1 1 0.0097208252799243951 1 1 0.010042244526195076 1 1 1 1 1 1 1 1 1 1 1 1 1 1 1 1 1 1 1 1 1 1 1 1 1 1 1 1 1 1 1 1 1 1 1 0.009868520572626438 1 1 1 1 1 1 1 1 1 1 0.0096069262967845813 1 1 1 1 1 1 1 0.023808527707333636 1 1 1 1 1 1 1 1 1 1 1 1 1 1 1 1 1 1 1 1 1 1 1 1 1 1 1 1 1 1 1 1 1 1 1 1 1 1 1 0.012857740388760482 1 1 1 1 0.018460836947832189 1 1 1 1 1 1 1 1 1 1 1 1 1 0.0097409616718818343 1 1 1 1 1 1 0.017916177587837527 1 1 0.012787420862803999 0.0070883923751628355 1 1 0.014281703710912684 0.011948890645011364 1 1 1 1 0.014009006550093461 0.0084216196715168803 1 1 1 1 0.012745442707073618 0.0089353252938257841 1 1 1 1 1 1 1 0.012181178936114185 1 1 1 1 1 1 1 1 1 0.009963826752991985 1 1 1 0.010369004331845762 1 0.011281331100080554 1 0.01100385819553105 1 1 0.0086239356580253366 1 1 0.022995249560526503 1 1 1 1 0.025275459026162687 1 1 1 1 1 1 1 1 0.010347822804407722 1 1 1 1 1 1 0.025001258133081294 1 1 1 1 1 1 1 1 1 1 1 0.011271473023627335 1 1 1 1 1 1 1 1 1 1 1 1 1 1 0.010044860249500416 1 1 1 1 1 1 0.010954953781928432 1 1 0.010348992394032495 1 1 1 1 1 1 1 1 1 1 1 1 1 1 1 1 1 1 0.012870438251824514 1 1 1 1 1 1 1 0.0097345570948718929 1 1 1 1 1 1 1 1 1 1 0.012505076017585144 1 1 1 0.010033850317410975 1 1 0.016195768073531652 1 0.0087043305398800015 1 1 1 1 0.012713968233679429 0.012232963067754767 1 1 1 1 1 0.01020662319177551 0.015453294462053338 1 0.01118814980407005 0.013565939223097442 1 0.011099389184671833 0.010140465612169381 1 1 1 0.010608071027370353 1 1 1 1 1 1 0.010422518622997711 1 1 0.01030329668889467 0.00934870884688461 1 1 1 1 1 1 1 1 1 1 0.012030688720302395 0.010317504006814422 1 1 1 0.012219373917905249 1 1 1 0.012256050663760273 1 1 1 1 1 1 1 1 1 1 1 1 1 1 1 1 1 1 0.01000684057859803 1 1 0.011314102608302293 1 1 0.010813019887237445 0.010175103265071501 1 1 1 0.010060494853514575 1 1 1 1 0.010097628376816853 1 1 1 1 1 1 1 1 1 0.015386061278939702 1 1 0.014850739755888739 1 1 1 1 1 1 1 1 1 0.014012529257390709 0.015902613461966274 1 1 1 1 1 1 0.015101134802153908 1 1 0.013614589804687586 1 1 1 1 1 1 1 1 1 1 1 0.0094798582753992302 1 1 1 1 1 1 0.0092144153702711229 1 1 1 1 1 1 1 1 0.01131456800994645 1 0.012169361562624974 1 1 1 1 0.015082167014348726 0.012201488898982111 1 1 0.013334916162162185 1 1 1 1 1 1 1 1 1 1 1 1 1 1 1 1 1 1 1 1 0.012222823969859308 1 0.010804618959093374 1 1 1 1 1 1 1 0.015183259848307002 1 1 1 1 1 1 1 1 1 1 1 1 1 1 1 1 1 1 1 1 0.010877798505932419 0.014882826793984047 1 1 1 1 1 1 1 0.014028857830880381 1 1 0.011178835088965302 1 0.014674786826969641 1 1 0.015041110421196855 0.010627122914066015 1 1 1 1 0.010198306360734898 1 1 0.014114614335591549 1 1 1 1 0.010058395083299136 1 0.014477907866542284 1 1 1 1 1 1 1 1 1 1 1 1 1 1 1 1 1 0.013306232241952431 1 1 1 0.0099094472751255405 1 1 1 0.013150326109584887 1 0.011137732834739868 0.01229934530652331 1 1 1 1 0.01375702349683129 1 1 1 0.015105183144178694 1 0.013075171568856557 0.0096528144420028814 0.012277348003646779 1 1 1 1 1 0.011825499073329219 1 1 1 1 1 1 1 1 1 1 1 1 0.013803871934540744 1 1 1 1 0.010431912720919876 1 1 1 1 1 1 1 1 1 1 1 1 1 1 1 1 1 0.014573738923028811 1 1 1 1 1 1 1 1 0.018339449178920889 1 0.020951856416157648 1 1 1 1 1 0.010073487565422271 1 1 1 1 0.013848493824977876 1 0.011620943446828891 1 0.022305644471085247 1 0.010635516924221298 1 1 0.015149004612891823 1 1 1 1 1 1 1 1 1 1 1 1 1 1 1 1 1 1 0.010263738130559495 1 1 1 1 1 1 1 0.0099950797188650409 1 1 1 1 1 0.01519373716586528 0.01013519475622322 1 1 1 1 1 1 1 1 1 1 1 1 1 1 1 1 0.014170665880739531 1 1 1 1 1 1 1 1 0.017162582074075314 1 1 0.010024503941103451 1 1 1 1 1 1 1 1 0.0093508451371486657 1 1 1 0.0097169584476756825 1 1 1 1 0.0066057541376320864 1 1 1 1 1 1 1 1 1 1 1 1 1 1 1 1 1 1 1 1 0.0089334246626132218 1 1 1 1 1 1 1 0.0096338866894729869 1 1 1 1 1 0.012447466501905416 1 1 1 1 1 1 1 1 1 1 1 1 1 1 1 1 1 1 1 1 1 1 1 1 1 1 0.010439149245904653 1 1 0.0071730113780948471 0.017742534206299097 1 1 0.014825201650772958 1 1 1 1 0.012517188650171209 1 1 1 1 1 1 1 1 0.010117076771170975 0.009662803736144452 1 1 1 1 1 0.0096432427821432944 1 1 1 0.012158851493711102 1 1 0.0099778188282813249 1 0.0099711207634324561 1 1 1 1 1 0.010800319825763908 1 0.0099981228633276471 1 1 1 1 1 1 1 1 1 1 1 1 1 1 1 1 1 1 1 1 1 1 0.015380853409624206 1 1 1 1 1 0.013420476685610597 1 1 1 1 0.010491872513246583 1 1 1 1 1 1 1 1 1 0.011211102506526811 1 1 1 1 0.023187985198181348 0.018996477687191003 1 1 1 1 1 1 1 0.025790650117031418 0.0095156624390163244 1 1 1 1 1 0.018462483815315948 0.014407290780273842 0.011137504704023655 1 0.013309847132546251 1 1 0.01888782584123903 1 1 1 0.010210706708729719 1 1 0.016707156967042076 1 1 1 0.012119569253974505 1 1 1 1 0.0062992997570107487 1 1 0.0072848338584128036 1 1 1 1 1 1 0.012326684663614642 1 1 1 0.010198854467686268 1 1 1 1 1 1 1 1 1 1 1 0.010148876947372073 1 1 1 1 1 1 1 1 1 1 1 1 1 1 1 1 1 1 1 1 1 1 1 1 1 1 0.0085982107876888831 0.011476391395657631 1 1 1 0.011280523849918029 1 0.013842932701781607 1 1 1 1 1 1 1 0.023711975036522771 1 1 1 1 1 1 1 1 1 1 1 1 1 1 1 1 1 1 0.0099176919514007075 0.011884573125398713 1 0.0049826172494944702 1 1 1 1 1 0.007537656733471087 1 1 0.010445864021714258 1 1 1 1 1 1 1 1 1 0.011967738860909967 1 1 1 1 1 1 1 0.0106991478105978 1 1 0.011032808665767021 1 0.01133018179351696 1 1 1 0.011656493837474764 1 1 0.016417884715903282 1 1 1 1 1 1 1 0.012152565299358768 1 1 1 1 0.019101300865823571 1 1 1 1 0.016922615044315532 1 1 0.012759858021661198 1 1 1 1 1 1 1 1 1 0.0091320447004891482 1 1 1 0.011352693127860644 1 1 1 1 1 1 1 0.020961327663812934 0.0098574052373272235 1 0.018872594371940471 1 1 1 1 1 1 1 1 1 1 1 0.0097085585025364907 1 1 1 1 1 1 0.009170790817887027 1 1 1 1 1 1 0.022511795925768893 1 1 1 1 1 1 1 1 1 1 1 1 1 1 1 1 1 1 1 1 1 1 1 1 1 1 1 1 0.017696194223626359 1 1 1 1 0.012488543116402242 1 1 1 1 1 0.010066983937800728 1 1 1 1 1 1 1 0.010704409753951222 1 1 1 1 1 1 1 1 1 1 1 1 1 1 1 0.009954649969822385 1 1 0.0084415783292642703 1 1 1 0.010357211364087068 1 1 0.010106815227673361 1 0.01862283601997507 1 1 1 1 1 0.010080636257659819 1 1 1 1 0.010848977692598669 1 1 0.012535658597926033 0.021708989600033077 1 1 0.0058951513635808542 0.015315808543733121 0.0073439109817542599 1 1 1 1 0.0075948285955928403 1 0.022282713164254505 0.0096719810445287033 1 0.02232653172341148 1 1 1 1 1 1 1 1 1 1 0.016412809068830071 1 1 1 1 1 1 1 1 0.011079385672022731 0.0081312329853389653 1 0.012990758172216295 1 1 1 1 0.010051350110792105 1 1 0.019160462456380555 1 1 1 1 0.010492897346894445 1 0.010543545062023069 1 1 0.020620064278496164 1 1 1 1 1 1 0.010287648926341104 1 1 1 0.010174062862749401 0.0094975170425995702 1 1 1 1 1 1 1 1 1 1 1 1 1 1 1 1 1 0.019038739099723555 1 0.02004231347029508 1 1 1 1 1 1 1 1 1 1 1 1 1 1 1 0.017920100299065812 1 1 0.0099675755290863297 1 1 1 1 1 1 1 1 0.0077923672878923052 0.0064883318022991186 1 1 1 1 1 1 1 1 1 1 1 1 1 1 1 1 1 1 0.0099782351175990488 1 0.0080016886303099308 1 1 1 1 0.0068761985884502417 1 0.0049641816908494599 1 1 1 1 1 1 1 1 1 0.0096471029040653793 1 1 1 1 1 1 1 1 1 1 1 1 1 0.0090992950207473521 1 0.021673642059565977 1 0.014007761296160848 1 0.023300170007530319 1 1 1 1 1 0.0099626696984628539 1 1 1 1 1 1 0.012368917385548503 1 1 1 1 1 1 1 1 0.012587217165462086 0.018063440292426576 1 1 1 0.010462781313133329 1 1 1 1 1 0.022606796358751041 1 1 1 0.018064089715495828 1 1 1 1 0.019803671721748267 1 1 1 1 1 1 1 1 1 1 1 1 1 1 1 1 1 1 1 1 1 1 1 1 1 1 1 0.010021516793445498 1 1 1 0.0099584556337400654 1 1 1 0.009631714289047898 1 1 1 1 1 1 0.016921792938049313 1 1 1 1 1 1 1 1 0.012963714775598944 1 1 1 1 1 1 0.011127329426618454 1 1 0.01257983846866307 1 1 1 1 1 1 1 1 0.0094973851530571456 1 0.010358524014138615 0.0096186158621646908 1 1 1 1 1 1 1 1 1 1 1 1 1 1 1 1 1 1 1 1 1 1 1 1 1 0.010030403159887041 1 1 1 0.0098507774621480471 0.01194537517807082 1 1 1 1 0.012523422260747579 1 0.010487229082464189 0.010274053150041117 1 1 0.026593665328178102 0.020316075119235246 
</DataArray>
</CellData>
</Piece>
</UnstructuredGrid>
</VTKFile>
